CeO2-you-111-you-Cr                     
   1.00000000000000     
     9.9085620875199947   -5.7207113624688679   -0.0000000012287758
    -0.0356895872398439   11.3796045370747834   -0.0238566722640071
    -0.0247993610709349   -0.0429537462108752   20.4048002315136081
   O    Cr   Ce H
    53     1    26 1
Selective dynamics
Direct
 -0.0003088033855488  0.0003087717616454  0.9888749386931809   T   T   T
  0.1108133925118226  0.2216678955749298  0.1458804773369953   T   T   T
  0.2425195123792139  0.1517060247742336  0.3135082592722138   T   T   T
  0.0608011828474485  0.2004416967141215  0.4021259218637780   T   T   T
  0.0096225411800559  0.0053265860115615  0.2314141962562881   T   T   T
  0.2215718631431826  0.1098107262825987  0.0702003869184159   T   T   T
  0.3339505751489268  0.0003087717620674  0.9888749386933500   T   T   T
  0.4441875030617460  0.2216678955720413  0.1458804773366444   T   T   T
  0.5584530072873967  0.1103120754327500  0.3034650532732549   T   T   T
  0.4729735138777247  0.2004416967243171  0.4021259218694587   T   T   T
  0.3290370448303873  0.0053265860114623  0.2314141962560753   T   T   T
  0.5565491378413641  0.1102725544289731  0.0717153901767358   T   T   T
  0.6660773430908830 -0.0011793138179210  0.9894136821276792   T   T   T
  0.7785237023260047  0.2237134046536079  0.1518981427525078   T   T   T
  0.8851930681534144  0.1103120754329769  0.3034650532724185   T   T   T
  0.7761639357930047  0.2189938715839369  0.3906432251477162   T   T   T
  0.6645520752915651 -0.0042298494200442  0.2296261720063083   T   T   T
  0.8870574165878522  0.1102725544306639  0.0717153901770212   T   T   T
 -0.0008850315863382  0.3316194516244441  0.9890787359622260   T   T   T
  0.1084843522199790  0.5566799129237056  0.1467614120517358   T   T   T
  0.2510985751649090  0.4293231630559736  0.3215419594742287   T   T   T
  0.0991659045608998  0.5491178295810303  0.3883277918508960   T   T   T
  0.0134980633348547  0.3405097190021106  0.2323469298969690   T   T   T
  0.2212808762165338  0.4458712655818448  0.0701083616690541   T   T   T
  0.3335022232405874  0.3336714464797848  0.9897717868076626   T   T   T
  0.4448404482222786  0.5563488964446577  0.1463091228574434   T   T   T
  0.5115585878856485  0.4293231630514549  0.3215419594749258   T   T   T
  0.3351245241897604  0.3369160483826482  0.2240073990366129   T   T   T
  0.5579243893630632  0.4458712655817812  0.0701083616692013   T   T   T
  0.6658384832108806  0.3316194516243835  0.9890787359623013   T   T   T
  0.7815285607041379  0.5566799129226617  0.1467614120517860   T   T   T
  0.8856631298559828  0.4379922597092077  0.3054940537174063   T   T   T
  0.7832849250186704  0.5491178295809998  0.3883277918510749   T   T   T
  0.6603456556686907  0.3405097190005412  0.2323469298966856   T   T   T
  0.8877916035725359  0.4422492071510835  0.0701529017360279   T   T   T
 -0.0004917082455532  0.6656835835098049  0.9888144377277851   T   T   T
  0.1104124594419216  0.8874919188797021  0.1471381804303727   T   T   T
  0.2211811890075943  0.7826548741029651  0.3070338598979989   T   T   T
  0.1167784299434743  0.9002238598879152  0.3881389238234668   T   T   T
 -0.0000986830504453  0.6664696338967409  0.2305004542648171   T   T   T
  0.2225507958229344  0.7788477454057278  0.0705803378143700   T   T   T
  0.3342710347222767  0.6672336960324936  0.9895189454189446   T   T   T
  0.4420188700282824  0.8878209130594084  0.1506819469401013   T   T   T
  0.5526810188197038  0.7720280376459472  0.3096267622124964   T   T   T
  0.4503073811605468  0.8994332236322718  0.3921804210532241   T   T   T
  0.3263381800688217  0.6594090902221779  0.2298240726269654   T   T   T
  0.5563410629970700  0.7793481259919740  0.0724029539120830   T   T   T
  0.6662956613088714  0.6672336960322297  0.9895189454188755   T   T   T
  0.7791350430325635  0.8878209130604129  0.1506819469405859   T   T   T
  0.8948066850987217  0.7826548741079957  0.3070338598985817   T   T   T
  0.7824588424729162  0.8994332236334437  0.3921804210535216   T   T   T
  0.6664039101531092  0.6594090902231109  0.2298240726269696   T   T   T
  0.8896299495855471  0.7788477454060897  0.0705803378146013   T   T   T
  0.3334596387736496  0.3335862775702562  0.3140428275123150   T   T   T
  0.0002384975879296  0.0082713913905639  0.3539540249470042   T   T   T
  0.2209474447326151  0.1085618894644944  0.1862448796660459   T   T   T
  0.1096553110793442  0.2209109108818824  0.0292365536845613   T   T   T
  0.3413658938035298  0.0082713913942266  0.3539540249477641   T   T   T
  0.5543089166886414  0.1112599065291297  0.1906578673165537   T   T   T
  0.4445885998040492  0.2209109108814144  0.0292365536844471   T   T   T
  0.6653471259385572 -0.0026397481207952  0.3488115825584771   T   T   T
  0.8902849898395973  0.1112599065278412  0.1906578673165928   T   T   T
  0.7770646466162160  0.2207952932327773  0.0306719268321420   T   T   T
 -0.0057831264450061  0.3263065365885194  0.3531099156802537   T   T   T
  0.2202083629830791  0.4470581140036884  0.1843967176722126   T   T   T
  0.1095966715464852  0.5553055062442779  0.0296873826426118   T   T   T
  0.5601837510217964  0.4470581140051676  0.1843967176726787   T   T   T
  0.4452165841141325  0.5571011682284452  0.0294452279544073   T   T   T
  0.6654236630377948  0.3263065365887043  0.3531099156814782   T   T   T
  0.8886667091125139  0.4439994182230631  0.1915030036114821   T   T   T
  0.7790418346971060  0.5553055062445427  0.0296873826426881   T   T   T
 -0.0003194752958916  0.6660280494108881  0.3477999148837141   T   T   T
  0.2219736718644851  0.7793847194075928  0.1903684733120904   T   T   T
  0.1108052284852175  0.8882774569686679  0.0294869141156464   T   T   T
  0.3265035044380565  0.6740494256956204  0.3492964933087793   T   T   T
  0.5546982200644268  0.7760624401284046  0.1920675471811126   T   T   T
  0.4445251251278126  0.8883199615303851  0.0313099846407971   T   T   T
  0.6808789212600181  0.6740494256993577  0.3492964933092251   T   T   T
  0.8907440475427529  0.7793847194075422  0.1903684733120689   T   T   T
  0.7771278364032187  0.8883199615306883  0.0313099846409161   T   T   T
0.446598 0.216020 0.433410 T T T 
 
  0.00000000E+00  0.00000000E+00  0.00000000E+00
  0.00000000E+00  0.00000000E+00  0.00000000E+00
  0.00000000E+00  0.00000000E+00  0.00000000E+00
  0.00000000E+00  0.00000000E+00  0.00000000E+00
  0.00000000E+00  0.00000000E+00  0.00000000E+00
  0.00000000E+00  0.00000000E+00  0.00000000E+00
  0.00000000E+00  0.00000000E+00  0.00000000E+00
  0.00000000E+00  0.00000000E+00  0.00000000E+00
  0.00000000E+00  0.00000000E+00  0.00000000E+00
  0.00000000E+00  0.00000000E+00  0.00000000E+00
  0.00000000E+00  0.00000000E+00  0.00000000E+00
  0.00000000E+00  0.00000000E+00  0.00000000E+00
  0.00000000E+00  0.00000000E+00  0.00000000E+00
  0.00000000E+00  0.00000000E+00  0.00000000E+00
  0.00000000E+00  0.00000000E+00  0.00000000E+00
  0.00000000E+00  0.00000000E+00  0.00000000E+00
  0.00000000E+00  0.00000000E+00  0.00000000E+00
  0.00000000E+00  0.00000000E+00  0.00000000E+00
  0.00000000E+00  0.00000000E+00  0.00000000E+00
  0.00000000E+00  0.00000000E+00  0.00000000E+00
  0.00000000E+00  0.00000000E+00  0.00000000E+00
  0.00000000E+00  0.00000000E+00  0.00000000E+00
  0.00000000E+00  0.00000000E+00  0.00000000E+00
  0.00000000E+00  0.00000000E+00  0.00000000E+00
  0.00000000E+00  0.00000000E+00  0.00000000E+00
  0.00000000E+00  0.00000000E+00  0.00000000E+00
  0.00000000E+00  0.00000000E+00  0.00000000E+00
  0.00000000E+00  0.00000000E+00  0.00000000E+00
  0.00000000E+00  0.00000000E+00  0.00000000E+00
  0.00000000E+00  0.00000000E+00  0.00000000E+00
  0.00000000E+00  0.00000000E+00  0.00000000E+00
  0.00000000E+00  0.00000000E+00  0.00000000E+00
  0.00000000E+00  0.00000000E+00  0.00000000E+00
  0.00000000E+00  0.00000000E+00  0.00000000E+00
  0.00000000E+00  0.00000000E+00  0.00000000E+00
  0.00000000E+00  0.00000000E+00  0.00000000E+00
  0.00000000E+00  0.00000000E+00  0.00000000E+00
  0.00000000E+00  0.00000000E+00  0.00000000E+00
  0.00000000E+00  0.00000000E+00  0.00000000E+00
  0.00000000E+00  0.00000000E+00  0.00000000E+00
  0.00000000E+00  0.00000000E+00  0.00000000E+00
  0.00000000E+00  0.00000000E+00  0.00000000E+00
  0.00000000E+00  0.00000000E+00  0.00000000E+00
  0.00000000E+00  0.00000000E+00  0.00000000E+00
  0.00000000E+00  0.00000000E+00  0.00000000E+00
  0.00000000E+00  0.00000000E+00  0.00000000E+00
  0.00000000E+00  0.00000000E+00  0.00000000E+00
  0.00000000E+00  0.00000000E+00  0.00000000E+00
  0.00000000E+00  0.00000000E+00  0.00000000E+00
  0.00000000E+00  0.00000000E+00  0.00000000E+00
  0.00000000E+00  0.00000000E+00  0.00000000E+00
  0.00000000E+00  0.00000000E+00  0.00000000E+00
  0.00000000E+00  0.00000000E+00  0.00000000E+00
  0.00000000E+00  0.00000000E+00  0.00000000E+00
  0.00000000E+00  0.00000000E+00  0.00000000E+00
  0.00000000E+00  0.00000000E+00  0.00000000E+00
  0.00000000E+00  0.00000000E+00  0.00000000E+00
  0.00000000E+00  0.00000000E+00  0.00000000E+00
  0.00000000E+00  0.00000000E+00  0.00000000E+00
  0.00000000E+00  0.00000000E+00  0.00000000E+00
  0.00000000E+00  0.00000000E+00  0.00000000E+00
  0.00000000E+00  0.00000000E+00  0.00000000E+00
  0.00000000E+00  0.00000000E+00  0.00000000E+00
  0.00000000E+00  0.00000000E+00  0.00000000E+00
  0.00000000E+00  0.00000000E+00  0.00000000E+00
  0.00000000E+00  0.00000000E+00  0.00000000E+00
  0.00000000E+00  0.00000000E+00  0.00000000E+00
  0.00000000E+00  0.00000000E+00  0.00000000E+00
  0.00000000E+00  0.00000000E+00  0.00000000E+00
  0.00000000E+00  0.00000000E+00  0.00000000E+00
  0.00000000E+00  0.00000000E+00  0.00000000E+00
  0.00000000E+00  0.00000000E+00  0.00000000E+00
  0.00000000E+00  0.00000000E+00  0.00000000E+00
  0.00000000E+00  0.00000000E+00  0.00000000E+00
  0.00000000E+00  0.00000000E+00  0.00000000E+00
  0.00000000E+00  0.00000000E+00  0.00000000E+00
  0.00000000E+00  0.00000000E+00  0.00000000E+00
  0.00000000E+00  0.00000000E+00  0.00000000E+00
  0.00000000E+00  0.00000000E+00  0.00000000E+00
  0.00000000E+00  0.00000000E+00  0.00000000E+00
