CeO2-you-111-you-Zn                     
   1.00000000000000     
     9.8946253629782284   -5.7126649919462684   -0.0000000014522119
    -0.0440879618334332   11.3489653883517274   -0.0277069836478195
    -0.0299847830364404   -0.0519351588506735   20.9451833422218172
   O    Zn   Ce   H 
    53     1    26     2
Selective dynamics
Direct
  0.0000909162336976 -0.0000482182217606  0.9946433869969179   T   T   T
  0.1071023081875637  0.2208647639684216  0.1482542204203341   F   F   F
  0.2383348425042930  0.1328868431463782  0.3123622463095976   T   T   T
  0.0633708650824646  0.1992984938155331  0.3955505133883850   T   T   T
  0.0074484852948812  0.0031516364216604  0.2304489085062412   T   T   T
  0.2224970049503838  0.1116610099009847  0.0742867277849584   F   F   F
  0.3329653728395304 -0.0002180864449524  0.9944809705401518   T   T   T
  0.4470954557805200  0.2208647639679668  0.1482542204203341   F   F   F
  0.5505311101553926  0.1135644676808743  0.3046019916110137   T   T   T
  0.4733299401876488  0.1970910626091662  0.4096052012584055   T   T   T
  0.3289410968381810  0.0007447687919214  0.2297712638150085   T   T   T
  0.5569902729501948  0.1105482426828317  0.0741088149161513   F   F   F
  0.6662762874140856 -0.0011898781909591  0.9938679778132891   T   T   T
  0.7771768028549673  0.2210196057100120  0.1530018942027382   F   F   F
  0.8848334978206039  0.1079252473205583  0.3013053715479004   T   T   T
  0.7753259138127091  0.2203222591904165  0.3826580222438803   T   T   T
  0.6617797970542478  0.9962202161020267  0.2306038027759141   T   T   T
  0.8868919697320621  0.1105482426822633  0.0741088149159950   F   F   F
  0.9996928713089125  0.3322103887466761  0.9945864453195048   T   T   T
  0.1095421938702685  0.5554656144749970  0.1491899667487004   F   F   F
  0.2360102792781599  0.4397103960651067  0.3117196684782774   T   T   T
  0.1130602121852694  0.5583153665166535  0.3836403050652680   T   T   T
  0.0062623990171783  0.3373082117253602  0.2312999153538954   T   T   T
  0.2223087701733775  0.4450337324720266  0.0746847582616752   F   F   F
  0.3330460133660069  0.3328247252787061  0.9948533825133288   T   T   T
  0.4466702561412816  0.5600085122836020  0.1480069165506421   F   F   F
  0.5390532251405972  0.4361552946450493  0.3135698297324989   T   T   T
  0.3347557909897731  0.3353961043530601  0.2188399440832489   T   T   T
  0.5560589622983585  0.4450337324718987  0.0746847582616681   F   F   F
  0.6660939899651934  0.3323974179404059  0.9944749953039121   T   T   T
  0.7792564206045398  0.5554656144746062  0.1491899667487289   F   F   F
  0.8894675424197119  0.4452106683545724  0.3051737754704311   T   T   T
  0.7796098414440035  0.5565719796897878  0.3843867619097229   T   T   T
  0.6658158492064646  0.3376490491464869  0.2313808720485890   T   T   T
  0.8877367901336655  0.4421395802665771  0.0748409008446345   F   F   F
  0.9988385504468247  0.6649213111550949  0.9944786105932174   T   T   T
  0.1107079713998473  0.8880829427988957  0.1475533474148492   F   F   F
  0.2209723543027640  0.7783814158663613  0.3037154026491763   T   T   T
  0.1146833208300681  0.8914286415444627  0.3844693569584834   T   T   T
  0.0003380228265335  0.6687677452766989  0.2294391236787632   T   T   T
  0.2221531810777577  0.7775600786141013  0.0734787697411505   F   F   F
  0.3336217759843582  0.6658628097757490  0.9943761102114365   T   T   T
  0.4431427056157631  0.8885423829665839  0.1496098372040606   F   F   F
  0.5506412601823200  0.7675197628566465  0.3044620840864964   T   T   T
  0.4428401120215338  0.8863538409090984  0.3817870362228416   T   T   T
  0.3298810718445259  0.6646300540472360  0.2292396594992515   T   T   T
  0.5565695764324516  0.7798051528650731  0.0744999043130861   F   F   F
  0.6658563241113421  0.6660034835090024  0.9947033430373405   T   T   T
  0.7787326773508525  0.8885423829665342  0.1496098372040393   F   F   F
  0.8902621151391346  0.7793941586318369  0.3048166714209428   T   T   T
  0.7742212391404983  0.8876190958113348  0.3832546125980450   T   T   T
  0.6678477999349234  0.6637420631549678  0.2295468505578740   T   T   T
  0.8887398975365670  0.7775600786137957  0.0734787697411008   F   F   F
  0.3354103580518413  0.3373525050861543  0.3182876281249621   T   T   T
  0.0028392828976386  0.0077849631969924  0.3472079588416082   T   T   T
  0.2229261731656820  0.1125193463319789  0.1888967773718022   F   F   F
  0.1103682124029035  0.2214195150995266  0.0344989805464735   F   F   F
  0.3300849460099391 -0.0007102768117423  0.3449812005744046   T   T   T
  0.5544550473287160  0.1104925278046451  0.1904897848950142   F   F   F
  0.4443843026966547  0.2214195150996900  0.0344989805464948   F   F   F
  0.6645642960410570  0.9982490558896735  0.3442490608916987   T   T   T
  0.8893714804750061  0.1104925278037143  0.1904897848950142   F   F   F
  0.7771280376889678  0.2209220753777856  0.0348580655715480   F   F   F
  0.0021282646015480  0.3294348865854966  0.3472424320112680   T   T   T
  0.2218519159385366  0.4448686404085294  0.1880518884017377   F   F   F
  0.1097450967961251  0.5542120859908479  0.0346841624621916   F   F   F
  0.5563507244711232  0.4448686404090409  0.1880518884017590   F   F   F
  0.4445378943813694  0.5557437887625909  0.0339191490966044   F   F   F
  0.6705665553581258  0.3362112695583866  0.3455482593135318   T   T   T
  0.8887907203777203  0.4442474407548431  0.1919998598288615   F   F   F
  0.7777999891949250  0.5542120859908763  0.0346841624621987   F   F   F
  0.0014614417122340  0.6684578207515655  0.3441347470514398   T   T   T
  0.2215445962164750  0.7796439707686176  0.1882631521501494   F   F   F
  0.1108986897510533  0.8884643795021887  0.0336932669391601   F   F   F
  0.3292112572000241  0.6657885488610298  0.3428419767859331   T   T   T
  0.5546491616857168  0.7759643233713405  0.1890558606379003   F   F   F
  0.4445741797304521  0.8885359909069948  0.0342327230043722   F   F   F
  0.6719636542016501  0.6689154090132589  0.3431021600832737   T   T   T
  0.8914323745515418  0.7796439707684399  0.1882631521501352   F   F   F
  0.7772948111761337  0.8885359909064192  0.0342327230042869   F   F   F
  0.4672576782834638  0.5984788956164713  0.3950263911186043   T   T   T
  0.4403221746102328  0.2310756043395009  0.4437748370329736   T   T   T
 
  0.00000000E+00  0.00000000E+00  0.00000000E+00
  0.00000000E+00  0.00000000E+00  0.00000000E+00
  0.00000000E+00  0.00000000E+00  0.00000000E+00
  0.00000000E+00  0.00000000E+00  0.00000000E+00
  0.00000000E+00  0.00000000E+00  0.00000000E+00
  0.00000000E+00  0.00000000E+00  0.00000000E+00
  0.00000000E+00  0.00000000E+00  0.00000000E+00
  0.00000000E+00  0.00000000E+00  0.00000000E+00
  0.00000000E+00  0.00000000E+00  0.00000000E+00
  0.00000000E+00  0.00000000E+00  0.00000000E+00
  0.00000000E+00  0.00000000E+00  0.00000000E+00
  0.00000000E+00  0.00000000E+00  0.00000000E+00
  0.00000000E+00  0.00000000E+00  0.00000000E+00
  0.00000000E+00  0.00000000E+00  0.00000000E+00
  0.00000000E+00  0.00000000E+00  0.00000000E+00
  0.00000000E+00  0.00000000E+00  0.00000000E+00
  0.00000000E+00  0.00000000E+00  0.00000000E+00
  0.00000000E+00  0.00000000E+00  0.00000000E+00
  0.00000000E+00  0.00000000E+00  0.00000000E+00
  0.00000000E+00  0.00000000E+00  0.00000000E+00
  0.00000000E+00  0.00000000E+00  0.00000000E+00
  0.00000000E+00  0.00000000E+00  0.00000000E+00
  0.00000000E+00  0.00000000E+00  0.00000000E+00
  0.00000000E+00  0.00000000E+00  0.00000000E+00
  0.00000000E+00  0.00000000E+00  0.00000000E+00
  0.00000000E+00  0.00000000E+00  0.00000000E+00
  0.00000000E+00  0.00000000E+00  0.00000000E+00
  0.00000000E+00  0.00000000E+00  0.00000000E+00
  0.00000000E+00  0.00000000E+00  0.00000000E+00
  0.00000000E+00  0.00000000E+00  0.00000000E+00
  0.00000000E+00  0.00000000E+00  0.00000000E+00
  0.00000000E+00  0.00000000E+00  0.00000000E+00
  0.00000000E+00  0.00000000E+00  0.00000000E+00
  0.00000000E+00  0.00000000E+00  0.00000000E+00
  0.00000000E+00  0.00000000E+00  0.00000000E+00
  0.00000000E+00  0.00000000E+00  0.00000000E+00
  0.00000000E+00  0.00000000E+00  0.00000000E+00
  0.00000000E+00  0.00000000E+00  0.00000000E+00
  0.00000000E+00  0.00000000E+00  0.00000000E+00
  0.00000000E+00  0.00000000E+00  0.00000000E+00
  0.00000000E+00  0.00000000E+00  0.00000000E+00
  0.00000000E+00  0.00000000E+00  0.00000000E+00
  0.00000000E+00  0.00000000E+00  0.00000000E+00
  0.00000000E+00  0.00000000E+00  0.00000000E+00
  0.00000000E+00  0.00000000E+00  0.00000000E+00
  0.00000000E+00  0.00000000E+00  0.00000000E+00
  0.00000000E+00  0.00000000E+00  0.00000000E+00
  0.00000000E+00  0.00000000E+00  0.00000000E+00
  0.00000000E+00  0.00000000E+00  0.00000000E+00
  0.00000000E+00  0.00000000E+00  0.00000000E+00
  0.00000000E+00  0.00000000E+00  0.00000000E+00
  0.00000000E+00  0.00000000E+00  0.00000000E+00
  0.00000000E+00  0.00000000E+00  0.00000000E+00
  0.00000000E+00  0.00000000E+00  0.00000000E+00
  0.00000000E+00  0.00000000E+00  0.00000000E+00
  0.00000000E+00  0.00000000E+00  0.00000000E+00
  0.00000000E+00  0.00000000E+00  0.00000000E+00
  0.00000000E+00  0.00000000E+00  0.00000000E+00
  0.00000000E+00  0.00000000E+00  0.00000000E+00
  0.00000000E+00  0.00000000E+00  0.00000000E+00
  0.00000000E+00  0.00000000E+00  0.00000000E+00
  0.00000000E+00  0.00000000E+00  0.00000000E+00
  0.00000000E+00  0.00000000E+00  0.00000000E+00
  0.00000000E+00  0.00000000E+00  0.00000000E+00
  0.00000000E+00  0.00000000E+00  0.00000000E+00
  0.00000000E+00  0.00000000E+00  0.00000000E+00
  0.00000000E+00  0.00000000E+00  0.00000000E+00
  0.00000000E+00  0.00000000E+00  0.00000000E+00
  0.00000000E+00  0.00000000E+00  0.00000000E+00
  0.00000000E+00  0.00000000E+00  0.00000000E+00
  0.00000000E+00  0.00000000E+00  0.00000000E+00
  0.00000000E+00  0.00000000E+00  0.00000000E+00
  0.00000000E+00  0.00000000E+00  0.00000000E+00
  0.00000000E+00  0.00000000E+00  0.00000000E+00
  0.00000000E+00  0.00000000E+00  0.00000000E+00
  0.00000000E+00  0.00000000E+00  0.00000000E+00
  0.00000000E+00  0.00000000E+00  0.00000000E+00
  0.00000000E+00  0.00000000E+00  0.00000000E+00
  0.00000000E+00  0.00000000E+00  0.00000000E+00
  0.00000000E+00  0.00000000E+00  0.00000000E+00
  0.00000000E+00  0.00000000E+00  0.00000000E+00
  0.00000000E+00  0.00000000E+00  0.00000000E+00
