CeO2-you-111-you-Ni                     
   1.00000000000000     
     9.8205666401696714   -5.6699071646920896    0.0000000000000000
     0.0000000028007476   11.3398123386687679    0.0000000000000000
     0.0000000000000000    0.0000000000000000   20.8125899465341355
   O    Ni   Ce   H 
    54     1    26     2
Selective dynamics
Direct
  0.0012663267175113  0.0004656684853410  0.9910669758929185   T   T   T
  0.1150414104969979  0.2231357541279837  0.1492899160591938   T   T   T
  0.2172284706941286  0.0971245456309920  0.3086208072234815   T   T   T
  0.0648640189156293  0.1984962027554885  0.4088668829491432   T   T   T
  0.0002187130120165 -0.0004031209063058  0.2293594203402712   T   T   T
  0.2240159482329536  0.1116796710516533  0.0721940012685115   T   T   T
  0.3357259490629399  0.0003658747820123  0.9914288154332274   T   T   T
  0.4448650921949995  0.2233883509950979  0.1493867474394075   T   T   T
  0.5547867161550658  0.1141595322363269  0.3057160219343171   T   T   T
  0.4728889404235559  0.1955593918589933  0.4098987204821408   T   T   T
  0.3364699155220469 -0.0003762203319012  0.2293017702022624   T   T   T
  0.5571667461991475  0.1124890157554880  0.0726703376110188   T   T   T
  0.6681842867379548  0.0013148834646309  0.9911617954197240   T   T   T
  0.7803020753221718  0.2231617426455891  0.1478197352655823   T   T   T
  0.8967510526921764  0.1137803171565477  0.3058076832142423   T   T   T
  0.7811877265099957  0.2249409871895480  0.3839196469689493   T   T   T
  0.6707024003508307  0.0031862800530045  0.2299308240227387   T   T   T
  0.8919076366160534  0.1123113479860189  0.0719665295728088   T   T   T
  0.0020183438977417  0.3343331208412229  0.9911279716921074   T   T   T
  0.1131867254114911  0.5563167735086222  0.1474374619412502   T   T   T
  0.2247699130560891  0.4380359064877867  0.3068078381316973   T   T   T
  0.1121405072775385  0.5535903945288775  0.3858849529602843   T   T   T
  0.0028789332276101  0.3361210536859837  0.2291713769047752   T   T   T
  0.2237093917040298  0.4448153949453379  0.0722482092208035   T   T   T
  0.3353790936945599  0.3345983940536484  0.9913578577340352   T   T   T
  0.4473122334386291  0.5573429213171196  0.1476161314417910   T   T   T
  0.5514341663148643  0.4386981559425740  0.3060901066986561   T   T   T
  0.4461970546871152  0.5540268280209797  0.3797766464493484   T   T   T
  0.3370877447787583  0.3366961492429508  0.2319095565763454   T   T   T
  0.5576865301441432  0.4448070962424920  0.0720779882188706   T   T   T
  0.6682905425532014  0.3336434048575332  0.9910245774098168   T   T   T
  0.7799595462324000  0.5569048942890796  0.1472104550026511   T   T   T
  0.8913002356950109  0.4460265428462092  0.3046744752820277   T   T   T
  0.7779825230437752  0.5532306017514111  0.3858025884402940   T   T   T
  0.6699497473860797  0.3354987591400759  0.2288579464070311   T   T   T
  0.8907587434292320  0.4452222203946647  0.0715847573496590   T   T   T
  0.0021586341951756  0.6673720343434965  0.9911050342930008   T   T   T
  0.1142916009460561  0.8913875814179499  0.1487553154397087   T   T   T
  0.2221926841412684  0.7770128576060175  0.3051613955270170   T   T   T
  0.1103894978781312  0.8820895684890701  0.3898802706428574   T   T   T
  0.0020666319081213  0.6673085906753813  0.2283322526111544   T   T   T
  0.2240878453358978  0.7786383230297722  0.0723230695612910   T   T   T
  0.3352542118711050  0.6673571340783025  0.9910709018502922   T   T   T
  0.4474242891599777  0.8896128817254227  0.1481457812854634   T   T   T
  0.5606454722173089  0.7821505048671520  0.3039895153906447   T   T   T
  0.4461229635271511  0.8864651193270060  0.3849757145349317   T   T   T
  0.3346623142246252  0.6668871062541046  0.2294266704653510   T   T   T
  0.5583211663255492  0.7790356121376998  0.0717112329029761   T   T   T
  0.6680748481932259  0.6667901284538149  0.9908864429647859   T   T   T
  0.7798229658045417  0.8902138040961078  0.1474260927649249   T   T   T
  0.8925993503776485  0.7774529432983384  0.3053185903119340   T   T   T
  0.7787039700802887  0.8875280731819665  0.3856567701074445   T   T   T
  0.6704844807076520  0.6680791143794400  0.2293272084074743   T   T   T
  0.8913847674373248  0.7791506808957417  0.0716856654706624   T   T   T
  0.3855614138346011  0.4331372939575827  0.3100634861719306   T   T   T
  0.0031679989148425 -0.0038424723562981  0.3463622816227627   T   T   T
  0.2244975308097556  0.1119037361734966  0.1934190208576799   T   T   T
  0.1135114310412926  0.2225731914843493  0.0322373185375417   T   T   T
  0.3302489894351010 -0.0044068257562868  0.3462026269320084   T   T   T
  0.5576616109837370  0.1126169094601534  0.1889373788552111   T   T   T
  0.4455375386137256  0.2225316200658190  0.0324022640154573   T   T   T
  0.6697481402305485  0.0016185828518500  0.3450495774631785   T   T   T
  0.8922086383159364  0.1127777147199798  0.1888322821684533   T   T   T
  0.7797167560160388  0.2231183489027194  0.0316592857646198   T   T   T
  0.0016666876235755  0.3351761659469567  0.3452017176839289   T   T   T
  0.2241837407813666  0.4455475307536388  0.1881069913333845   T   T   T
  0.1129269131518948  0.5561027315587144  0.0312792444951118   T   T   T
  0.5586308505574347  0.4457411862929501  0.1879634412715663   T   T   T
  0.4464636682812883  0.5564205216254872  0.0315889571947390   T   T   T
  0.6706165520549329  0.3350478863465282  0.3452540811893172   T   T   T
  0.8913086891773496  0.4458350643452665  0.1878490781552043   T   T   T
  0.7797187142012817  0.5561808239053685  0.0311047697645512   T   T   T
  0.0014147497294027  0.6653850537593656  0.3458461566281322   T   T   T
  0.2241235359111746  0.7786479399174860  0.1881149767286614   T   T   T
  0.1136003024275417  0.8905470587924057  0.0321237240867136   T   T   T
  0.3359588918116297  0.6676791111838052  0.3442192303479856   T   T   T
  0.5583383461247946  0.7788922620426700  0.1886035447073897   T   T   T
  0.4465287549673911  0.8897798794809353  0.0318848793607638   T   T   T
  0.6698888557986298  0.6682118833174480  0.3443136509686892   T   T   T
  0.8919147902580561  0.7791137164849475  0.1879147295043735   T   T   T
  0.7799161519398049  0.8899500153503408  0.0314726972681677   T   T   T
  0.1441488170773836  0.2421349175149949  0.4367770547559024   T   T   T
  0.4424188437699991  0.2317102565874801  0.4444200984734131   T   T   T
 
  0.00000000E+00  0.00000000E+00  0.00000000E+00
  0.00000000E+00  0.00000000E+00  0.00000000E+00
  0.00000000E+00  0.00000000E+00  0.00000000E+00
  0.00000000E+00  0.00000000E+00  0.00000000E+00
  0.00000000E+00  0.00000000E+00  0.00000000E+00
  0.00000000E+00  0.00000000E+00  0.00000000E+00
  0.00000000E+00  0.00000000E+00  0.00000000E+00
  0.00000000E+00  0.00000000E+00  0.00000000E+00
  0.00000000E+00  0.00000000E+00  0.00000000E+00
  0.00000000E+00  0.00000000E+00  0.00000000E+00
  0.00000000E+00  0.00000000E+00  0.00000000E+00
  0.00000000E+00  0.00000000E+00  0.00000000E+00
  0.00000000E+00  0.00000000E+00  0.00000000E+00
  0.00000000E+00  0.00000000E+00  0.00000000E+00
  0.00000000E+00  0.00000000E+00  0.00000000E+00
  0.00000000E+00  0.00000000E+00  0.00000000E+00
  0.00000000E+00  0.00000000E+00  0.00000000E+00
  0.00000000E+00  0.00000000E+00  0.00000000E+00
  0.00000000E+00  0.00000000E+00  0.00000000E+00
  0.00000000E+00  0.00000000E+00  0.00000000E+00
  0.00000000E+00  0.00000000E+00  0.00000000E+00
  0.00000000E+00  0.00000000E+00  0.00000000E+00
  0.00000000E+00  0.00000000E+00  0.00000000E+00
  0.00000000E+00  0.00000000E+00  0.00000000E+00
  0.00000000E+00  0.00000000E+00  0.00000000E+00
  0.00000000E+00  0.00000000E+00  0.00000000E+00
  0.00000000E+00  0.00000000E+00  0.00000000E+00
  0.00000000E+00  0.00000000E+00  0.00000000E+00
  0.00000000E+00  0.00000000E+00  0.00000000E+00
  0.00000000E+00  0.00000000E+00  0.00000000E+00
  0.00000000E+00  0.00000000E+00  0.00000000E+00
  0.00000000E+00  0.00000000E+00  0.00000000E+00
  0.00000000E+00  0.00000000E+00  0.00000000E+00
  0.00000000E+00  0.00000000E+00  0.00000000E+00
  0.00000000E+00  0.00000000E+00  0.00000000E+00
  0.00000000E+00  0.00000000E+00  0.00000000E+00
  0.00000000E+00  0.00000000E+00  0.00000000E+00
  0.00000000E+00  0.00000000E+00  0.00000000E+00
  0.00000000E+00  0.00000000E+00  0.00000000E+00
  0.00000000E+00  0.00000000E+00  0.00000000E+00
  0.00000000E+00  0.00000000E+00  0.00000000E+00
  0.00000000E+00  0.00000000E+00  0.00000000E+00
  0.00000000E+00  0.00000000E+00  0.00000000E+00
  0.00000000E+00  0.00000000E+00  0.00000000E+00
  0.00000000E+00  0.00000000E+00  0.00000000E+00
  0.00000000E+00  0.00000000E+00  0.00000000E+00
  0.00000000E+00  0.00000000E+00  0.00000000E+00
  0.00000000E+00  0.00000000E+00  0.00000000E+00
  0.00000000E+00  0.00000000E+00  0.00000000E+00
  0.00000000E+00  0.00000000E+00  0.00000000E+00
  0.00000000E+00  0.00000000E+00  0.00000000E+00
  0.00000000E+00  0.00000000E+00  0.00000000E+00
  0.00000000E+00  0.00000000E+00  0.00000000E+00
  0.00000000E+00  0.00000000E+00  0.00000000E+00
  0.00000000E+00  0.00000000E+00  0.00000000E+00
  0.00000000E+00  0.00000000E+00  0.00000000E+00
  0.00000000E+00  0.00000000E+00  0.00000000E+00
  0.00000000E+00  0.00000000E+00  0.00000000E+00
  0.00000000E+00  0.00000000E+00  0.00000000E+00
  0.00000000E+00  0.00000000E+00  0.00000000E+00
  0.00000000E+00  0.00000000E+00  0.00000000E+00
  0.00000000E+00  0.00000000E+00  0.00000000E+00
  0.00000000E+00  0.00000000E+00  0.00000000E+00
  0.00000000E+00  0.00000000E+00  0.00000000E+00
  0.00000000E+00  0.00000000E+00  0.00000000E+00
  0.00000000E+00  0.00000000E+00  0.00000000E+00
  0.00000000E+00  0.00000000E+00  0.00000000E+00
  0.00000000E+00  0.00000000E+00  0.00000000E+00
  0.00000000E+00  0.00000000E+00  0.00000000E+00
  0.00000000E+00  0.00000000E+00  0.00000000E+00
  0.00000000E+00  0.00000000E+00  0.00000000E+00
  0.00000000E+00  0.00000000E+00  0.00000000E+00
  0.00000000E+00  0.00000000E+00  0.00000000E+00
  0.00000000E+00  0.00000000E+00  0.00000000E+00
  0.00000000E+00  0.00000000E+00  0.00000000E+00
  0.00000000E+00  0.00000000E+00  0.00000000E+00
  0.00000000E+00  0.00000000E+00  0.00000000E+00
  0.00000000E+00  0.00000000E+00  0.00000000E+00
  0.00000000E+00  0.00000000E+00  0.00000000E+00
  0.00000000E+00  0.00000000E+00  0.00000000E+00
  0.00000000E+00  0.00000000E+00  0.00000000E+00
  0.00000000E+00  0.00000000E+00  0.00000000E+00
  0.00000000E+00  0.00000000E+00  0.00000000E+00
