CeO2-you-111-you-Mo                     
   1.00000000000000     
     9.8576934438011410   -5.6913423301845665    0.0000000007277666
     0.0341483531642275   11.4418293361607475    0.0139620145910378
     0.0149927818224245    0.0259682555406755   20.8085138977089983
   O    Mo   Ce H
    53     1    26 2
Selective dynamics
Direct
 -0.0019582379001806 -0.0003390241051683  0.9944151438326291   T   T   T
  0.1113009673956544  0.2225440243914288  0.1477014604261253   F   F   F
  0.2255064885318013  0.1176799770732289  0.2986513310302371   T   T   T
  0.1652462283957867  0.2445113341516041  0.3836351580676344   T   T   T
 -0.0001913610592284 -0.0009488366026196  0.2275243150267621   T   T   T
  0.2211009798815539  0.1088689597631952  0.0715818156815714   F   F   F
  0.3349522137951646 -0.0003390241051990  0.9944151438325970   T   T   T
  0.4445760569955223  0.2225440243907195  0.1477014604261345   F   F   F
  0.5603480802666838  0.1232114103410981  0.3078930546818253   T   T   T
  0.4125981057582557  0.2445113341608364  0.3836351580681134   T   T   T
  0.3325755244571629 -0.0009488366033649  0.2275243150267742   T   T   T
  0.5579467147587956  0.1119920107175145  0.0751733152033389   F   F   F
  0.6664524742128478 -0.0004290515741881  0.9949961166543673   T   T   T
  0.7801800360049056  0.2270260720096149  0.1533910262081436   F   F   F
  0.8961973300753172  0.1232114103403707  0.3078930546816850   T   T   T
  0.7829235607074371  0.2325131214142145  0.3877282762280929   T   T   T
  0.6683713725176904  0.0034087450349909  0.2312951520490614   T   T   T
  0.8873792959586804  0.1119920107176830  0.0751733152033508   F   F   F
  0.0000915382755676  0.3326096774636533  0.9941593082747645   T   T   T
  0.1095428111280034  0.5537757196093219  0.1480680578918597   F   F   F
  0.2653570897168388  0.4433191245821979  0.3114355159621467   T   T   T
  0.0990818425987995  0.5413449848522174  0.3846521802586139   T   T   T
  0.0138944126614061  0.3417566954532213  0.2329098790382081   T   T   T
  0.2227943853103087  0.4449682058367340  0.0738574331522250   F   F   F
  0.3329600318322095  0.3325870636644315  0.9944062972672293   T   T   T
  0.4431865962890807  0.5530411925792743  0.1499522380166076   F   F   F
  0.5112960348725062  0.4433191245969245  0.3114355159632212   T   T   T
  0.3267289827431028  0.3201249654878831  0.2297168602946560   T   T   T
  0.5555078205262026  0.4449682058366755  0.0738574331522108   F   F   F
  0.6658521391881428  0.3326096774637077  0.9941593082747594   T   T   T
  0.7775659084808323  0.5537757196087996  0.1480680578918518   F   F   F
  0.8864697017392883  0.4396054034780040  0.3023053307910351   T   T   T
  0.7755961422531833  0.5413449848526736  0.3846521802585498   T   T   T
  0.6611962827916527  0.3417566954528186  0.2329098790381541   T   T   T
  0.8885655224560943  0.4437970449119540  0.0729044448215689   F   F   F
  0.0004949220232255  0.6676568440465602  0.9938829020635294   T   T   T
  0.1097522809119854  0.8861715618229883  0.1465729817474328   F   F   F
  0.2182389608536818  0.7748486058547521  0.3039094698961631   T   T   T
  0.1021633903302625  0.8709937806613022  0.3897212648847460   T   T   T
 -0.0005124669742207  0.6656420660514147  0.2280994460436658   T   T   T
  0.2233654125065093  0.7770191485748978  0.0735067739219347   F   F   F
  0.3339965689550269  0.6666191724934631  0.9940454383008280   T   T   T
  0.4470977856006512  0.8907535172623943  0.1504817256510539   F   F   F
  0.5554687400398000  0.7776034800776482  0.3038147085342206   T   T   T
  0.4572266893295291  0.8957816753507601  0.3894577741931177   T   T   T
  0.3288207252532176  0.6627606587096229  0.2271455293211466   T   T   T
  0.5548533818969821  0.7763727637940657  0.0747134969344238   F   F   F
  0.6659556035383335  0.6666191724934643  0.9940454383008024   T   T   T
  0.7769887316621972  0.8907535172629510  0.1504817256510798   F   F   F
  0.8899426450047113  0.7748486058598910  0.3039094698964209   T   T   T
  0.7718879860217589  0.8957816753515139  0.3894577741929661   T   T   T
  0.6672729334558604  0.6627606587103755  0.2271455293211807   T   T   T
  0.8869867360683694  0.7770191485747661  0.0735067739219535   F   F   F
  0.3153489327604165  0.2973648655023277  0.3289669861739679   T   T   T
 -0.0029796318633936 -0.0060331856448264  0.3502126070984708   T   T   T
  0.2187567520104722  0.1041805040234500  0.1837223715312876   F   F   F
  0.1099364635790905  0.2223311904708357  0.0334611186101878   F   F   F
  0.3302794462196131 -0.0060331856412980  0.3502126070983916   T   T   T
  0.5545222765669077  0.1120227887084986  0.1917169514560852   F   F   F
  0.4457277268915149  0.2223311904709244  0.0334611186101895   F   F   F
  0.6667531919162624  0.0001723838354732  0.3477922455706188   T   T   T
  0.8908345121406209  0.1120227887073663  0.1917169514562229   F   F   F
  0.7779298841878419  0.2225257683755397  0.0352908179129771   F   F   F
 -0.0010868685810915  0.3363703325434498  0.3453297929936859   T   T   T
  0.2247594095497507  0.4453068075273277  0.1890043700986233   F   F   F
  0.1119592685067758  0.5557635145217694  0.0339081972613851   F   F   F
  0.5538813979797487  0.4453068075288423  0.1890043700984928   F   F   F
  0.4446057212990748  0.5558794425979489  0.0336488565670225   F   F   F
  0.6707912011225562  0.3363703325424493  0.3453297929937929   T   T   T
  0.8902164107356213  0.4470988214716957  0.1889791294949896   F   F   F
  0.7771372460150434  0.5557635145216619  0.0339081972613873   F   F   F
 -0.0003008251311866  0.6660653497366836  0.3447635273421695   T   T   T
  0.2226423425861339  0.7774363117651640  0.1890653633894068   F   F   F
  0.1102683857011807  0.8872037714022094  0.0323673147233668   F   F   F
  0.3311435327673766  0.6723306201190427  0.3442245245047114   T   T   T
  0.5560009329972675  0.7786678659937691  0.1915038466553246   F   F   F
  0.4456026549567346  0.8892541334278513  0.0350596488758922   F   F   F
  0.6745200873402984  0.6723306200995210  0.3442245245032782   T   T   T
  0.8881269691791573  0.7774363117652768  0.1890653633895086   F   F   F
  0.7769844784712623  0.8892541334277573  0.0350596488758990   F   F   F
0.3653489327604165 0.3973648655023277 0.408967 T T T
0.446598 0.216020 0.433410 T T T 
 
  0.00000000E+00  0.00000000E+00  0.00000000E+00
  0.00000000E+00  0.00000000E+00  0.00000000E+00
  0.00000000E+00  0.00000000E+00  0.00000000E+00
  0.00000000E+00  0.00000000E+00  0.00000000E+00
  0.00000000E+00  0.00000000E+00  0.00000000E+00
  0.00000000E+00  0.00000000E+00  0.00000000E+00
  0.00000000E+00  0.00000000E+00  0.00000000E+00
  0.00000000E+00  0.00000000E+00  0.00000000E+00
  0.00000000E+00  0.00000000E+00  0.00000000E+00
  0.00000000E+00  0.00000000E+00  0.00000000E+00
  0.00000000E+00  0.00000000E+00  0.00000000E+00
  0.00000000E+00  0.00000000E+00  0.00000000E+00
  0.00000000E+00  0.00000000E+00  0.00000000E+00
  0.00000000E+00  0.00000000E+00  0.00000000E+00
  0.00000000E+00  0.00000000E+00  0.00000000E+00
  0.00000000E+00  0.00000000E+00  0.00000000E+00
  0.00000000E+00  0.00000000E+00  0.00000000E+00
  0.00000000E+00  0.00000000E+00  0.00000000E+00
  0.00000000E+00  0.00000000E+00  0.00000000E+00
  0.00000000E+00  0.00000000E+00  0.00000000E+00
  0.00000000E+00  0.00000000E+00  0.00000000E+00
  0.00000000E+00  0.00000000E+00  0.00000000E+00
  0.00000000E+00  0.00000000E+00  0.00000000E+00
  0.00000000E+00  0.00000000E+00  0.00000000E+00
  0.00000000E+00  0.00000000E+00  0.00000000E+00
  0.00000000E+00  0.00000000E+00  0.00000000E+00
  0.00000000E+00  0.00000000E+00  0.00000000E+00
  0.00000000E+00  0.00000000E+00  0.00000000E+00
  0.00000000E+00  0.00000000E+00  0.00000000E+00
  0.00000000E+00  0.00000000E+00  0.00000000E+00
  0.00000000E+00  0.00000000E+00  0.00000000E+00
  0.00000000E+00  0.00000000E+00  0.00000000E+00
  0.00000000E+00  0.00000000E+00  0.00000000E+00
  0.00000000E+00  0.00000000E+00  0.00000000E+00
  0.00000000E+00  0.00000000E+00  0.00000000E+00
  0.00000000E+00  0.00000000E+00  0.00000000E+00
  0.00000000E+00  0.00000000E+00  0.00000000E+00
  0.00000000E+00  0.00000000E+00  0.00000000E+00
  0.00000000E+00  0.00000000E+00  0.00000000E+00
  0.00000000E+00  0.00000000E+00  0.00000000E+00
  0.00000000E+00  0.00000000E+00  0.00000000E+00
  0.00000000E+00  0.00000000E+00  0.00000000E+00
  0.00000000E+00  0.00000000E+00  0.00000000E+00
  0.00000000E+00  0.00000000E+00  0.00000000E+00
  0.00000000E+00  0.00000000E+00  0.00000000E+00
  0.00000000E+00  0.00000000E+00  0.00000000E+00
  0.00000000E+00  0.00000000E+00  0.00000000E+00
  0.00000000E+00  0.00000000E+00  0.00000000E+00
  0.00000000E+00  0.00000000E+00  0.00000000E+00
  0.00000000E+00  0.00000000E+00  0.00000000E+00
  0.00000000E+00  0.00000000E+00  0.00000000E+00
  0.00000000E+00  0.00000000E+00  0.00000000E+00
  0.00000000E+00  0.00000000E+00  0.00000000E+00
  0.00000000E+00  0.00000000E+00  0.00000000E+00
  0.00000000E+00  0.00000000E+00  0.00000000E+00
  0.00000000E+00  0.00000000E+00  0.00000000E+00
  0.00000000E+00  0.00000000E+00  0.00000000E+00
  0.00000000E+00  0.00000000E+00  0.00000000E+00
  0.00000000E+00  0.00000000E+00  0.00000000E+00
  0.00000000E+00  0.00000000E+00  0.00000000E+00
  0.00000000E+00  0.00000000E+00  0.00000000E+00
  0.00000000E+00  0.00000000E+00  0.00000000E+00
  0.00000000E+00  0.00000000E+00  0.00000000E+00
  0.00000000E+00  0.00000000E+00  0.00000000E+00
  0.00000000E+00  0.00000000E+00  0.00000000E+00
  0.00000000E+00  0.00000000E+00  0.00000000E+00
  0.00000000E+00  0.00000000E+00  0.00000000E+00
  0.00000000E+00  0.00000000E+00  0.00000000E+00
  0.00000000E+00  0.00000000E+00  0.00000000E+00
  0.00000000E+00  0.00000000E+00  0.00000000E+00
  0.00000000E+00  0.00000000E+00  0.00000000E+00
  0.00000000E+00  0.00000000E+00  0.00000000E+00
  0.00000000E+00  0.00000000E+00  0.00000000E+00
  0.00000000E+00  0.00000000E+00  0.00000000E+00
  0.00000000E+00  0.00000000E+00  0.00000000E+00
  0.00000000E+00  0.00000000E+00  0.00000000E+00
  0.00000000E+00  0.00000000E+00  0.00000000E+00
  0.00000000E+00  0.00000000E+00  0.00000000E+00
  0.00000000E+00  0.00000000E+00  0.00000000E+00
  0.00000000E+00  0.00000000E+00  0.00000000E+00
