CeO2-you-111-you-Mo                     
   1.00000000000000     
     9.8576934438011410   -5.6913423301845665    0.0000000007277666
     0.0341483531642275   11.4418293361607475    0.0139620145910378
     0.0149927818224245    0.0259682555406755   20.8085138977089983
   O    Mo   Ce   H 
    53     1    26     2
Selective dynamics
Direct
  0.9984647771860556  0.9996552341269814  0.9946671343401121   T   T   T
  0.1113009673956569  0.2225440243914321  0.1477014604261271   F   F   F
  0.2542683567412108  0.1435770913637346  0.3121109197859199   T   T   T
  0.1471569511779869  0.2482604215826023  0.3832001225602018   T   T   T
  0.0080400334724691  0.0023483776840031  0.2292055770875330   T   T   T
  0.2211009798815553  0.1088689597631927  0.0715818156815686   F   F   F
  0.3350022678192796  0.9996747959310666  0.9941101095708845   T   T   T
  0.4445760569955226  0.2225440243907215  0.1477014604261342   F   F   F
  0.5636824363070039  0.1191381936670131  0.3059518679776726   T   T   T
  0.4796244520538129  0.2093732290908988  0.4143657245814223   T   T   T
  0.3293893280126715  0.0006831932243201  0.2280550423646791   T   T   T
  0.5579467147587991  0.1119920107175147  0.0751733152033367   F   F   F
  0.6668274712277653  0.9994925649328229  0.9949609717152352   T   T   T
  0.7801800360049072  0.2270260720096147  0.1533910262081406   F   F   F
  0.8944455119000788  0.1188839217674884  0.3061204690397965   T   T   T
  0.7873939530692884  0.2288654453666878  0.3877949808787000   T   T   T
  0.6684356104593041  0.0004018001087879  0.2304619617206372   T   T   T
  0.8873792959586808  0.1119920107176853  0.0751733152033509   F   F   F
 -0.0000645015930843  0.3321205926240833  0.9941448938353921   T   T   T
  0.1095428111280015  0.5537757196093196  0.1480680578918623   F   F   F
  0.2476290555922032  0.4441177669940038  0.3060498851704311   T   T   T
  0.1001606074642667  0.5427310843961887  0.3851813928901675   T   T   T
  0.0111027240160037  0.3394196051328914  0.2318030740472942   T   T   T
  0.2227943853103085  0.4449682058367372  0.0738574331522273   F   F   F
  0.3331672685164069  0.3326352720798489  0.9943683146291664   T   T   T
  0.4431865962890811  0.5530411925792720  0.1499522380166098   F   F   F
  0.5051200817863051  0.4168020516858250  0.3194568802190038   T   T   T
  0.3273257395849428  0.3281275072452052  0.2286370374574349   T   T   T
  0.5555078205262021  0.4449682058366733  0.0738574331522130   F   F   F
  0.6660896691696292  0.3325340484201783  0.9941114137634165   T   T   T
  0.7775659084808311  0.5537757196088009  0.1480680578918552   F   F   F
  0.8885134376903484  0.4405794036503081  0.3024018949320846   T   T   T
  0.7781751155817588  0.5424296834295709  0.3847948905331806   T   T   T
  0.6612877579828053  0.3415582615753403  0.2323666046966678   T   T   T
  0.8885655224560978  0.4437970449119533  0.0729044448215674   F   F   F
  0.0004433143275418  0.6677430618285221  0.9939428775227679   T   T   T
  0.1097522809119837  0.8861715618229908  0.1465729817474326   F   F   F
  0.2206521917952529  0.7753991489308554  0.3041562484157359   T   T   T
  0.1041153121602025  0.8717484887723872  0.3895440932706723   T   T   T
  0.9995563702657705  0.6670578094075469  0.2279505559049695   T   T   T
  0.2233654125065101  0.7770191485749010  0.0735067739219346   F   F   F
  0.3340592687047640  0.6662231406584126  0.9940279330649817   T   T   T
  0.4470977856006542  0.8907535172623966  0.1504817256510549   F   F   F
  0.5560425607137202  0.7742563378979717  0.3048559856780821   T   T   T
  0.4617246683586319  0.8934668613497740  0.3912471899783075   T   T   T
  0.3304491533488903  0.6632452748477431  0.2277063067693338   T   T   T
  0.5548533818969830  0.7763727637940647  0.0747134969344216   F   F   F
  0.6663190908690146  0.6673047153450121  0.9940894078406791   T   T   T
  0.7769887316622004  0.8907535172629508  0.1504817256510833   F   F   F
  0.8892266002569491  0.7758871695511117  0.3037557149271647   T   T   T
  0.7752468920274050  0.8942933319039892  0.3902934647318437   T   T   T
  0.6640796948837286  0.6575241878643028  0.2292771206829463   T   T   T
  0.8869867360683727  0.7770191485747659  0.0735067739219559   F   F   F
  0.3068979693849658  0.3232180968905098  0.3298603260314718   T   T   T
  0.0009209285681688  0.9959316181590350  0.3506447771903519   T   T   T
  0.2187567520104707  0.1041805040234465  0.1837223715312888   F   F   F
  0.1099364635790891  0.2223311904708325  0.0334611186101910   F   F   F
  0.3375393894429701  0.9953831219444753  0.3544966650945073   T   T   T
  0.5545222765669067  0.1120227887085008  0.1917169514560868   F   F   F
  0.4457277268915121  0.2223311904709249  0.0334611186101910   F   F   F
  0.6699854080870048 -0.0016545541624119  0.3474548766433920   T   T   T
  0.8908345121406214  0.1120227887073639  0.1917169514562218   F   F   F
  0.7779298841878415  0.2225257683755402  0.0352908179129798   F   F   F
  0.9969834457958302  0.3351862404345607  0.3456092472646667   T   T   T
  0.2247594095497476  0.4453068075273308  0.1890043700986226   F   F   F
  0.1119592685067730  0.5557635145217716  0.0339081972613826   F   F   F
  0.5538813979797510  0.4453068075288442  0.1890043700984947   F   F   F
  0.4446057212990766  0.5558794425979485  0.0336488565670194   F   F   F
  0.6726034364291282  0.3315592870916917  0.3479097177161677   T   T   T
  0.8902164107356185  0.4470988214716982  0.1889791294949887   F   F   F
  0.7771372460150445  0.5557635145216651  0.0339081972613897   F   F   F
  0.0008071984522866  0.6662805129283685  0.3447782697947447   T   T   T
  0.2226423425861341  0.7774363117651646  0.1890653633894033   F   F   F
  0.1102683857011826  0.8872037714022127  0.0323673147233663   F   F   F
  0.3326853966899710  0.6770593950387733  0.3466335816277086   T   T   T
  0.5560009329972644  0.7786678659937678  0.1915038466553227   F   F   F
  0.4456026549567369  0.8892541334278548  0.0350596488758939   F   F   F
  0.6764042435034462  0.6710885804837290  0.3468029577461538   T   T   T
  0.8881269691791545  0.7774363117652783  0.1890653633895099   F   F   F
  0.7769844784712632  0.8892541334277553  0.0350596488759010   F   F   F
  0.3706382373691662  0.4108354406484903  0.4018593667367438   T   T   T
  0.4561874084352411  0.2540295223966827  0.4474966953397456   T   T   T
 
  0.00000000E+00  0.00000000E+00  0.00000000E+00
  0.00000000E+00  0.00000000E+00  0.00000000E+00
  0.00000000E+00  0.00000000E+00  0.00000000E+00
  0.00000000E+00  0.00000000E+00  0.00000000E+00
  0.00000000E+00  0.00000000E+00  0.00000000E+00
  0.00000000E+00  0.00000000E+00  0.00000000E+00
  0.00000000E+00  0.00000000E+00  0.00000000E+00
  0.00000000E+00  0.00000000E+00  0.00000000E+00
  0.00000000E+00  0.00000000E+00  0.00000000E+00
  0.00000000E+00  0.00000000E+00  0.00000000E+00
  0.00000000E+00  0.00000000E+00  0.00000000E+00
  0.00000000E+00  0.00000000E+00  0.00000000E+00
  0.00000000E+00  0.00000000E+00  0.00000000E+00
  0.00000000E+00  0.00000000E+00  0.00000000E+00
  0.00000000E+00  0.00000000E+00  0.00000000E+00
  0.00000000E+00  0.00000000E+00  0.00000000E+00
  0.00000000E+00  0.00000000E+00  0.00000000E+00
  0.00000000E+00  0.00000000E+00  0.00000000E+00
  0.00000000E+00  0.00000000E+00  0.00000000E+00
  0.00000000E+00  0.00000000E+00  0.00000000E+00
  0.00000000E+00  0.00000000E+00  0.00000000E+00
  0.00000000E+00  0.00000000E+00  0.00000000E+00
  0.00000000E+00  0.00000000E+00  0.00000000E+00
  0.00000000E+00  0.00000000E+00  0.00000000E+00
  0.00000000E+00  0.00000000E+00  0.00000000E+00
  0.00000000E+00  0.00000000E+00  0.00000000E+00
  0.00000000E+00  0.00000000E+00  0.00000000E+00
  0.00000000E+00  0.00000000E+00  0.00000000E+00
  0.00000000E+00  0.00000000E+00  0.00000000E+00
  0.00000000E+00  0.00000000E+00  0.00000000E+00
  0.00000000E+00  0.00000000E+00  0.00000000E+00
  0.00000000E+00  0.00000000E+00  0.00000000E+00
  0.00000000E+00  0.00000000E+00  0.00000000E+00
  0.00000000E+00  0.00000000E+00  0.00000000E+00
  0.00000000E+00  0.00000000E+00  0.00000000E+00
  0.00000000E+00  0.00000000E+00  0.00000000E+00
  0.00000000E+00  0.00000000E+00  0.00000000E+00
  0.00000000E+00  0.00000000E+00  0.00000000E+00
  0.00000000E+00  0.00000000E+00  0.00000000E+00
  0.00000000E+00  0.00000000E+00  0.00000000E+00
  0.00000000E+00  0.00000000E+00  0.00000000E+00
  0.00000000E+00  0.00000000E+00  0.00000000E+00
  0.00000000E+00  0.00000000E+00  0.00000000E+00
  0.00000000E+00  0.00000000E+00  0.00000000E+00
  0.00000000E+00  0.00000000E+00  0.00000000E+00
  0.00000000E+00  0.00000000E+00  0.00000000E+00
  0.00000000E+00  0.00000000E+00  0.00000000E+00
  0.00000000E+00  0.00000000E+00  0.00000000E+00
  0.00000000E+00  0.00000000E+00  0.00000000E+00
  0.00000000E+00  0.00000000E+00  0.00000000E+00
  0.00000000E+00  0.00000000E+00  0.00000000E+00
  0.00000000E+00  0.00000000E+00  0.00000000E+00
  0.00000000E+00  0.00000000E+00  0.00000000E+00
  0.00000000E+00  0.00000000E+00  0.00000000E+00
  0.00000000E+00  0.00000000E+00  0.00000000E+00
  0.00000000E+00  0.00000000E+00  0.00000000E+00
  0.00000000E+00  0.00000000E+00  0.00000000E+00
  0.00000000E+00  0.00000000E+00  0.00000000E+00
  0.00000000E+00  0.00000000E+00  0.00000000E+00
  0.00000000E+00  0.00000000E+00  0.00000000E+00
  0.00000000E+00  0.00000000E+00  0.00000000E+00
  0.00000000E+00  0.00000000E+00  0.00000000E+00
  0.00000000E+00  0.00000000E+00  0.00000000E+00
  0.00000000E+00  0.00000000E+00  0.00000000E+00
  0.00000000E+00  0.00000000E+00  0.00000000E+00
  0.00000000E+00  0.00000000E+00  0.00000000E+00
  0.00000000E+00  0.00000000E+00  0.00000000E+00
  0.00000000E+00  0.00000000E+00  0.00000000E+00
  0.00000000E+00  0.00000000E+00  0.00000000E+00
  0.00000000E+00  0.00000000E+00  0.00000000E+00
  0.00000000E+00  0.00000000E+00  0.00000000E+00
  0.00000000E+00  0.00000000E+00  0.00000000E+00
  0.00000000E+00  0.00000000E+00  0.00000000E+00
  0.00000000E+00  0.00000000E+00  0.00000000E+00
  0.00000000E+00  0.00000000E+00  0.00000000E+00
  0.00000000E+00  0.00000000E+00  0.00000000E+00
  0.00000000E+00  0.00000000E+00  0.00000000E+00
  0.00000000E+00  0.00000000E+00  0.00000000E+00
  0.00000000E+00  0.00000000E+00  0.00000000E+00
  0.00000000E+00  0.00000000E+00  0.00000000E+00
  0.00000000E+00  0.00000000E+00  0.00000000E+00
  0.00000000E+00  0.00000000E+00  0.00000000E+00
