CeO2-you-111-you-Ag                     
   1.00000000000000     
     9.8522462015026377   -5.6703356668448226   -0.0020373084543065
    -0.0000000008511444   11.3406693364836286    0.0000000002416394
    -0.0047629991041393    0.0000000004984505   21.2041039872240198
   O    Ag   Ce
    53     1    26
Selective dynamics
Direct
 -0.0001953074030261  0.0012199258486055  0.9976249006734408   T   T   T
  0.1101956652098908  0.2217643326046594  0.1505079663290377   T   T   T
  0.2241942531133574  0.1213652817520627  0.3053060065413363   T   T   T
  0.0692200378404733  0.2012765189240567  0.3927604713196170   T   T   T
  0.0020029374282020  0.0011693030907038  0.2292862756767654   T   T   T
  0.2227627723526908  0.1112199623637926  0.0760143943072655   T   T   T
  0.3326751249822013 -0.0002242770641745  0.9960683778505260   T   T   T
  0.4480868714091751  0.2191871752573346  0.1461070975591302   T   T   T
  0.5569971533305852  0.1087826850689825  0.3029482586029908   T   T   T
  0.4588122660183289  0.2377726425296290  0.3758047833526068   T   T   T
  0.3328036528390404  0.0029937723559841  0.2301681465279481   T   T   T
  0.5566624519425846  0.1086577891132692  0.0745377404221945   T   T   T
  0.6694224761551053  0.0013777380776111  0.9955690174819044   T   T   T
  0.7748319663123793  0.2261233909349568  0.1529316823342157   T   T   T
  0.8842234148812961  0.1087782074408874  0.3012350552443868   T   T   T
  0.7751593512918814  0.2189734023786684  0.3848947541589018   T   T   T
  0.6647521615988614 -0.0009574192003878  0.2278035576014432   T   T   T
  0.8856763823873501  0.1095046911936427  0.0782632030225927   T   T   T
 -0.0001953074027619  0.3319177667482315  0.9976249006734226   T   T   T
  0.1102515776169181  0.5564462225370940  0.1510325574813266   T   T   T
  0.2241942531111768  0.4361619713595308  0.3053060065414961   T   T   T
  0.1152707530556662  0.5593515773620925  0.3816338102909125   T   T   T
  0.0020029374291700  0.3341666343368754  0.2292862756768103   T   T   T
  0.2227627723527270  0.4448758099886402  0.0760143943072822   T   T   T
  0.3306665045243598  0.3319997522620723  0.9959282336053851   T   T   T
  0.4480868714076087  0.5622336961527359  0.1461070975589400   T   T   T
  0.4588122660188486  0.5543736234858400  0.3758047833527572   T   T   T
  0.3455763978618192  0.3394546989300059  0.2203809159786416   T   T   T
  0.5553410065061423  0.4443365032536181  0.0719603249270090   T   T   T
  0.6680090001075000  0.3325827234661546  0.9959944841439519   T   T   T
  0.7790617716870082  0.5561978858427663  0.1478647492643178   T   T   T
  0.8909673855344002  0.4423257554021492  0.3042848490662928   T   T   T
  0.7650159376020780  0.5491749688039377  0.3753573304769343   T   T   T
  0.6570762843112741  0.3430672884348128  0.2353387432031442   T   T   T
  0.8893496744666544  0.4441813320689617  0.0758136749233864   T   T   T
  0.0006442590264183  0.6669891295129697  0.9966926093635392   T   T   T
  0.1102515776162113  0.8871393550786431  0.1510325574813238   T   T   T
  0.2224305490611570  0.7778822745302120  0.3018202282891360   T   T   T
  0.1152707530547250  0.8892531756919926  0.3816338102909017   T   T   T
 -0.0021600162228166  0.6655869918880269  0.2302710194491292   T   T   T
  0.2231159193702038  0.7782249596848889  0.0756190670642716   T   T   T
  0.3326751249820550  0.6662334020462395  0.9960683778505055   T   T   T
  0.4425870102968606  0.8879605051484432  0.1511005184930108   T   T   T
  0.5569971533293585  0.7815474682621790  0.3029482586028531   T   T   T
  0.4415250521563159  0.8874295260780647  0.3816026986685310   T   T   T
  0.3328036528391320  0.6631438804828038  0.2301681465278911   T   T   T
  0.5566624519428000  0.7813376628298533  0.0745377404221309   T   T   T
  0.6680090001076502  0.6687592766418504  0.9959944841439171   T   T   T
  0.7748319663112675  0.8820415753772944  0.1529316823343617   T   T   T
  0.8909673855335205  0.7819746301296506  0.3042848490661598   T   T   T
  0.7751593512914611  0.8895189489132309  0.3848947541586403   T   T   T
  0.6570762843128503  0.6473419958809967  0.2353387432032615   T   T   T
  0.8893496744664131  0.7785013423974272  0.0758136749233360   T   T   T
  0.3405169377435596  0.3369249688702858  0.3464013306776761   T   T   T
  0.0037134843606510  0.0078270297035968  0.3453518736052681   T   T   T
  0.2239375128676642  0.1147312069702212  0.1909671220374893   T   T   T
  0.1108895697975072  0.2221112848987505  0.0372799548986962   T   T   T
  0.3329609154533588  0.0041896224306887  0.3419669731784078   T   T   T
  0.5544631403976424  0.1112282127212059  0.1901513799577236   T   T   T
  0.4435307622382806  0.2198992112876844  0.0338936313176630   T   T   T
  0.6648827109264887 -0.0008921445361169  0.3435189907419713   T   T   T
  0.8885389786811373  0.1109359893413618  0.1909571139840709   T   T   T
  0.7777852711510045  0.2219081628340293  0.0364554317540262   T   T   T
  0.0037134843601885  0.3292194546585301  0.3453518736050968   T   T   T
  0.2239375128671590  0.4425393058965107  0.1909671220374394   T   T   T
  0.1107952131846666  0.5549010965760760  0.0374907504830104   T   T   T
  0.5539529180734267  0.4436424590340428  0.1803357774270969   T   T   T
  0.4435307622385050  0.5569655509502677  0.0338936313176351   T   T   T
  0.6721371479035065  0.3270815707824878  0.3455488000422065   T   T   T
  0.8887185958951680  0.4445913141937322  0.1913321197140609   T   T   T
  0.7803385237457373  0.5568362618725626  0.0346265693335225   T   T   T
  0.0030397878707007  0.6681868939379196  0.3416272659922289   T   T   T
  0.2221193756720099  0.7777266878367355  0.1897594050972735   T   T   T
  0.1107952131847635  0.8892281166096843  0.0374907504829962   T   T   T
  0.3329609154533062  0.6621052930217908  0.3419669731782838   T   T   T
  0.5544631404001883  0.7765679276756440  0.1901513799577596   T   T   T
  0.4453502432248539  0.8893421216121966  0.0357833868566248   T   T   T
  0.6721371479022062  0.6783885771156895  0.3455488000425281   T   T   T
  0.8887185958979299  0.7774602817065681  0.1913321197141069   T   T   T
  0.7777852711518359  0.8892101083172876  0.0364554317540327   T   T   T
 
  0.00000000E+00  0.00000000E+00  0.00000000E+00
  0.00000000E+00  0.00000000E+00  0.00000000E+00
  0.00000000E+00  0.00000000E+00  0.00000000E+00
  0.00000000E+00  0.00000000E+00  0.00000000E+00
  0.00000000E+00  0.00000000E+00  0.00000000E+00
  0.00000000E+00  0.00000000E+00  0.00000000E+00
  0.00000000E+00  0.00000000E+00  0.00000000E+00
  0.00000000E+00  0.00000000E+00  0.00000000E+00
  0.00000000E+00  0.00000000E+00  0.00000000E+00
  0.00000000E+00  0.00000000E+00  0.00000000E+00
  0.00000000E+00  0.00000000E+00  0.00000000E+00
  0.00000000E+00  0.00000000E+00  0.00000000E+00
  0.00000000E+00  0.00000000E+00  0.00000000E+00
  0.00000000E+00  0.00000000E+00  0.00000000E+00
  0.00000000E+00  0.00000000E+00  0.00000000E+00
  0.00000000E+00  0.00000000E+00  0.00000000E+00
  0.00000000E+00  0.00000000E+00  0.00000000E+00
  0.00000000E+00  0.00000000E+00  0.00000000E+00
  0.00000000E+00  0.00000000E+00  0.00000000E+00
  0.00000000E+00  0.00000000E+00  0.00000000E+00
  0.00000000E+00  0.00000000E+00  0.00000000E+00
  0.00000000E+00  0.00000000E+00  0.00000000E+00
  0.00000000E+00  0.00000000E+00  0.00000000E+00
  0.00000000E+00  0.00000000E+00  0.00000000E+00
  0.00000000E+00  0.00000000E+00  0.00000000E+00
  0.00000000E+00  0.00000000E+00  0.00000000E+00
  0.00000000E+00  0.00000000E+00  0.00000000E+00
  0.00000000E+00  0.00000000E+00  0.00000000E+00
  0.00000000E+00  0.00000000E+00  0.00000000E+00
  0.00000000E+00  0.00000000E+00  0.00000000E+00
  0.00000000E+00  0.00000000E+00  0.00000000E+00
  0.00000000E+00  0.00000000E+00  0.00000000E+00
  0.00000000E+00  0.00000000E+00  0.00000000E+00
  0.00000000E+00  0.00000000E+00  0.00000000E+00
  0.00000000E+00  0.00000000E+00  0.00000000E+00
  0.00000000E+00  0.00000000E+00  0.00000000E+00
  0.00000000E+00  0.00000000E+00  0.00000000E+00
  0.00000000E+00  0.00000000E+00  0.00000000E+00
  0.00000000E+00  0.00000000E+00  0.00000000E+00
  0.00000000E+00  0.00000000E+00  0.00000000E+00
  0.00000000E+00  0.00000000E+00  0.00000000E+00
  0.00000000E+00  0.00000000E+00  0.00000000E+00
  0.00000000E+00  0.00000000E+00  0.00000000E+00
  0.00000000E+00  0.00000000E+00  0.00000000E+00
  0.00000000E+00  0.00000000E+00  0.00000000E+00
  0.00000000E+00  0.00000000E+00  0.00000000E+00
  0.00000000E+00  0.00000000E+00  0.00000000E+00
  0.00000000E+00  0.00000000E+00  0.00000000E+00
  0.00000000E+00  0.00000000E+00  0.00000000E+00
  0.00000000E+00  0.00000000E+00  0.00000000E+00
  0.00000000E+00  0.00000000E+00  0.00000000E+00
  0.00000000E+00  0.00000000E+00  0.00000000E+00
  0.00000000E+00  0.00000000E+00  0.00000000E+00
  0.00000000E+00  0.00000000E+00  0.00000000E+00
  0.00000000E+00  0.00000000E+00  0.00000000E+00
  0.00000000E+00  0.00000000E+00  0.00000000E+00
  0.00000000E+00  0.00000000E+00  0.00000000E+00
  0.00000000E+00  0.00000000E+00  0.00000000E+00
  0.00000000E+00  0.00000000E+00  0.00000000E+00
  0.00000000E+00  0.00000000E+00  0.00000000E+00
  0.00000000E+00  0.00000000E+00  0.00000000E+00
  0.00000000E+00  0.00000000E+00  0.00000000E+00
  0.00000000E+00  0.00000000E+00  0.00000000E+00
  0.00000000E+00  0.00000000E+00  0.00000000E+00
  0.00000000E+00  0.00000000E+00  0.00000000E+00
  0.00000000E+00  0.00000000E+00  0.00000000E+00
  0.00000000E+00  0.00000000E+00  0.00000000E+00
  0.00000000E+00  0.00000000E+00  0.00000000E+00
  0.00000000E+00  0.00000000E+00  0.00000000E+00
  0.00000000E+00  0.00000000E+00  0.00000000E+00
  0.00000000E+00  0.00000000E+00  0.00000000E+00
  0.00000000E+00  0.00000000E+00  0.00000000E+00
  0.00000000E+00  0.00000000E+00  0.00000000E+00
  0.00000000E+00  0.00000000E+00  0.00000000E+00
  0.00000000E+00  0.00000000E+00  0.00000000E+00
  0.00000000E+00  0.00000000E+00  0.00000000E+00
  0.00000000E+00  0.00000000E+00  0.00000000E+00
  0.00000000E+00  0.00000000E+00  0.00000000E+00
  0.00000000E+00  0.00000000E+00  0.00000000E+00
  0.00000000E+00  0.00000000E+00  0.00000000E+00
