CeO2-you-111-you-Ir                     
   1.00000000000000     
     9.8148351294761014   -5.6665980718593536    0.0000000002169954
     0.0333011290093344   11.3908733929676185    0.0036899152945411
     0.0036678143132971    0.0063528396269678   20.6215315668968913
   O    Ir   Ce H
    53     1    26 2
Selective dynamics
Direct
 -0.0004562521936023  0.0001110022912056  0.9908990834528145   T   T   T
  0.1028011692095171  0.2185525017818034  0.1458298984088125   F   F   F
  0.2304921987250348  0.1276513974477973  0.3059547632926309   T   T   T
  0.1253581955623116  0.2161194787757102  0.3885647768945219   T   T   T
  0.0036196155042415  0.0008047952280250  0.2303474962865932   T   T   T
  0.2220534145411232  0.1107738290823894  0.0710682743239885   F   F   F
  0.3339002544846939  0.0001110022910379  0.9908990834527883   T   T   T
  0.4490843325720665  0.2185525017813385  0.1458298984088063   F   F   F
  0.5562483478746868  0.1165756334248366  0.3072912237885205   T   T   T
  0.4240942832169700  0.2161194787756092  0.3885647768956305   T   T   T
  0.3305181797232123  0.0008047952280143  0.2303474962866256   T   T   T
  0.5585653008860784  0.1095162153887431  0.0723201255912875   F   F   F
  0.6667931582928330  0.0002523165855468  0.9893844240889833   T   T   T
  0.7795614566037564  0.2257889132072599  0.1527939483032655   F   F   F
  0.8936612855507978  0.1165756334257976  0.3072912237886807   T   T   T
  0.7798306272959966  0.2263272545917698  0.3882823972281114   T   T   T
  0.6673876768858273  0.0014413537714710  0.2321508323137397   T   T   T
  0.8842849145026240  0.1095162153888458  0.0723201255913008   F   F   F
  0.0000051750256183  0.3328437287142278  0.9909316160733223   T   T   T
  0.1096148374608918  0.5555343404302131  0.1475023066854086   F   F   F
  0.2605478823472377  0.4353360218062831  0.3222483061827496   T   T   T
  0.0986113067829038  0.5447913592322763  0.3868414280240662   T   T   T
  0.0150832709687951  0.3412401521756631  0.2345233180063585   T   T   T
  0.2223403020702822  0.4438644816488809  0.0719747556079921   F   F   F
  0.3332728316409476  0.3332126632819331  0.9909313819149037   T   T   T
  0.4490973923037052  0.5648627846072214  0.1460199694652694   F   F   F
  0.5081221394549410  0.4353360218068913  0.3222483061841140   T   T   T
  0.3329211025947204  0.3325092051892442  0.2123582801718558   T   T   T
  0.5548581795784245  0.4438644816486574  0.0719747556079493   F   F   F
  0.6661725536885363  0.3328437287141976  0.9909316160733619   T   T   T
  0.7792525029694322  0.5555343404299949  0.1475023066854378   F   F   F
  0.8861398437662537  0.4389456875320675  0.3042899407718231   T   T   T
  0.7795130524494572  0.5447913592332910  0.3868414280238346   T   T   T
  0.6594908812066735  0.3412401521752606  0.2345233180061545   T   T   T
  0.8879461366770351  0.4425582733543466  0.0719626942535901   F   F   F
 -0.0002917840905952  0.6660834318187406  0.9912818751243697   T   T   T
  0.1104887649475553  0.8876445298946891  0.1471011739479990   F   F   F
  0.2190896614123876  0.7790108934662308  0.3055916632841719   T   T   T
  0.1115588167833564  0.8897846335677762  0.3871070914921773   T   T   T
 -0.0006601120130518  0.6653467759731065  0.2294498998459118   T   T   T
  0.2235472132687722  0.7781270123328603  0.0718392220277944   F   F   F
  0.3336406623627460  0.6661045513607219  0.9909553741195180   T   T   T
  0.4451002946556795  0.8896320160877580  0.1508380090782035   F   F   F
  0.5563967352598869  0.7794594705227244  0.3094987736008382   T   T   T
  0.4495114497623751  0.9028082399075145  0.3905154084747736   T   T   T
  0.3285411457654372  0.6604001319225016  0.2299570369802672   T   T   T
  0.5576313934294577  0.7819287868586844  0.0719563973625492   F   F   F
  0.6657968889980581  0.6661045513606546  0.9909553741195228   T   T   T
  0.7778647214322728  0.8896320160880767  0.1508380090782061   F   F   F
  0.8932542320561569  0.7790108934682641  0.3055916632845393   T   T   T
  0.7866297901470680  0.9028082399081575  0.3905154084747807   T   T   T
  0.6651919861567633  0.6604001319230681  0.2299570369802283   T   T   T
  0.8879127990640138  0.7781270123327844  0.0718392220277615   F   F   F
  0.3200743730804815  0.3068157461675552  0.3509672461693113   T   T   T
  0.0013500758627972 -0.0000031924314004  0.3478435512966317   T   T   T
  0.2230600782284763  0.1127871564562752  0.1858190587246791   F   F   F
  0.1097963933046850  0.2215186165153707  0.0307211915643206   F   F   F
  0.3319797317079453 -0.0000031924300720  0.3478435512965534   T   T   T
  0.5548963540437043  0.1117603186547008  0.1909278205516562   F   F   F
  0.4450552232106843  0.2215186165153770  0.0307211915643536   F   F   F
  0.6678682964491304  0.0024025929016949  0.3491020011363719   T   T   T
  0.8901979646105805  0.1117603186543452  0.1909278205517886   F   F   F
  0.7775112726178571  0.2216885452354881  0.0318555285226547   F   F   F
  0.0030579253363037  0.3326179354712611  0.3481991696322711   T   T   T
  0.2257146778081299  0.4446091615712975  0.1859825582494793   F   F   F
  0.1107598539473027  0.5554232340600799  0.0318213860766521   F   F   F
  0.5522284837637247  0.4446091615716276  0.1859825582496810   F   F   F
  0.4452756697059638  0.5572193394117555  0.0306374588435038   F   F   F
  0.6628940101343064  0.3326179354699739  0.3481991696325873   T   T   T
  0.8894040886807987  0.4454741773611623  0.1905391743102556   F   F   F
  0.7779963801129101  0.5554232340602043  0.0318213860766520   F   F   F
 -0.0020325430391213  0.6626019139233622  0.3456179471222462   T   T   T
  0.2221189286162367  0.7775521735803094  0.1889159637881501   F   F   F
  0.1108581300121143  0.8883832600241603  0.0313470263001094   F   F   F
  0.3296955642532814  0.6727138670080717  0.3472851087729981   T   T   T
  0.5557875695128068  0.7782411390258478  0.1921096399617641   F   F   F
  0.4460228979207204  0.8895647406971001  0.0318771018034049   F   F   F
  0.6763513027559792  0.6727138670050600  0.3472851087715458   T   T   T
  0.8887662449634063  0.7775521735801385  0.1889159637882216   F   F   F
  0.7768748427764309  0.8895647406970829  0.0318771018033588   F   F   F
0.3200743730804815 0.3068157461675552 0.450967 T T T
0.446598 0.216020 0.433410 T T T 
 
  0.00000000E+00  0.00000000E+00  0.00000000E+00
  0.00000000E+00  0.00000000E+00  0.00000000E+00
  0.00000000E+00  0.00000000E+00  0.00000000E+00
  0.00000000E+00  0.00000000E+00  0.00000000E+00
  0.00000000E+00  0.00000000E+00  0.00000000E+00
  0.00000000E+00  0.00000000E+00  0.00000000E+00
  0.00000000E+00  0.00000000E+00  0.00000000E+00
  0.00000000E+00  0.00000000E+00  0.00000000E+00
  0.00000000E+00  0.00000000E+00  0.00000000E+00
  0.00000000E+00  0.00000000E+00  0.00000000E+00
  0.00000000E+00  0.00000000E+00  0.00000000E+00
  0.00000000E+00  0.00000000E+00  0.00000000E+00
  0.00000000E+00  0.00000000E+00  0.00000000E+00
  0.00000000E+00  0.00000000E+00  0.00000000E+00
  0.00000000E+00  0.00000000E+00  0.00000000E+00
  0.00000000E+00  0.00000000E+00  0.00000000E+00
  0.00000000E+00  0.00000000E+00  0.00000000E+00
  0.00000000E+00  0.00000000E+00  0.00000000E+00
  0.00000000E+00  0.00000000E+00  0.00000000E+00
  0.00000000E+00  0.00000000E+00  0.00000000E+00
  0.00000000E+00  0.00000000E+00  0.00000000E+00
  0.00000000E+00  0.00000000E+00  0.00000000E+00
  0.00000000E+00  0.00000000E+00  0.00000000E+00
  0.00000000E+00  0.00000000E+00  0.00000000E+00
  0.00000000E+00  0.00000000E+00  0.00000000E+00
  0.00000000E+00  0.00000000E+00  0.00000000E+00
  0.00000000E+00  0.00000000E+00  0.00000000E+00
  0.00000000E+00  0.00000000E+00  0.00000000E+00
  0.00000000E+00  0.00000000E+00  0.00000000E+00
  0.00000000E+00  0.00000000E+00  0.00000000E+00
  0.00000000E+00  0.00000000E+00  0.00000000E+00
  0.00000000E+00  0.00000000E+00  0.00000000E+00
  0.00000000E+00  0.00000000E+00  0.00000000E+00
  0.00000000E+00  0.00000000E+00  0.00000000E+00
  0.00000000E+00  0.00000000E+00  0.00000000E+00
  0.00000000E+00  0.00000000E+00  0.00000000E+00
  0.00000000E+00  0.00000000E+00  0.00000000E+00
  0.00000000E+00  0.00000000E+00  0.00000000E+00
  0.00000000E+00  0.00000000E+00  0.00000000E+00
  0.00000000E+00  0.00000000E+00  0.00000000E+00
  0.00000000E+00  0.00000000E+00  0.00000000E+00
  0.00000000E+00  0.00000000E+00  0.00000000E+00
  0.00000000E+00  0.00000000E+00  0.00000000E+00
  0.00000000E+00  0.00000000E+00  0.00000000E+00
  0.00000000E+00  0.00000000E+00  0.00000000E+00
  0.00000000E+00  0.00000000E+00  0.00000000E+00
  0.00000000E+00  0.00000000E+00  0.00000000E+00
  0.00000000E+00  0.00000000E+00  0.00000000E+00
  0.00000000E+00  0.00000000E+00  0.00000000E+00
  0.00000000E+00  0.00000000E+00  0.00000000E+00
  0.00000000E+00  0.00000000E+00  0.00000000E+00
  0.00000000E+00  0.00000000E+00  0.00000000E+00
  0.00000000E+00  0.00000000E+00  0.00000000E+00
  0.00000000E+00  0.00000000E+00  0.00000000E+00
  0.00000000E+00  0.00000000E+00  0.00000000E+00
  0.00000000E+00  0.00000000E+00  0.00000000E+00
  0.00000000E+00  0.00000000E+00  0.00000000E+00
  0.00000000E+00  0.00000000E+00  0.00000000E+00
  0.00000000E+00  0.00000000E+00  0.00000000E+00
  0.00000000E+00  0.00000000E+00  0.00000000E+00
  0.00000000E+00  0.00000000E+00  0.00000000E+00
  0.00000000E+00  0.00000000E+00  0.00000000E+00
  0.00000000E+00  0.00000000E+00  0.00000000E+00
  0.00000000E+00  0.00000000E+00  0.00000000E+00
  0.00000000E+00  0.00000000E+00  0.00000000E+00
  0.00000000E+00  0.00000000E+00  0.00000000E+00
  0.00000000E+00  0.00000000E+00  0.00000000E+00
  0.00000000E+00  0.00000000E+00  0.00000000E+00
  0.00000000E+00  0.00000000E+00  0.00000000E+00
  0.00000000E+00  0.00000000E+00  0.00000000E+00
  0.00000000E+00  0.00000000E+00  0.00000000E+00
  0.00000000E+00  0.00000000E+00  0.00000000E+00
  0.00000000E+00  0.00000000E+00  0.00000000E+00
  0.00000000E+00  0.00000000E+00  0.00000000E+00
  0.00000000E+00  0.00000000E+00  0.00000000E+00
  0.00000000E+00  0.00000000E+00  0.00000000E+00
  0.00000000E+00  0.00000000E+00  0.00000000E+00
  0.00000000E+00  0.00000000E+00  0.00000000E+00
  0.00000000E+00  0.00000000E+00  0.00000000E+00
  0.00000000E+00  0.00000000E+00  0.00000000E+00
