CeO2-you-111-you-Ni                     
   1.00000000000000     
     9.8537059773642302   -5.6491484633217830   -0.0176746173259791
     0.0345472222366279   11.3581324787239115    0.0176746143438959
    -0.0191320432436546    0.0331376692421987   20.4496032211845140
   O    Ni   Ce   H 
    53     1    26     1
Selective dynamics
Direct
  0.0002052037724388 -0.0003679299241665  0.9893221703047145   T   T   T
  0.1119779397918657  0.2211653558416101  0.1461801397442194   T   T   T
  0.2212947001481651  0.1225465949029707  0.3086230209151302   T   T   T
  0.0654525395193647  0.2001240092737215  0.3984673350137255   T   T   T
  0.0001697431847064 -0.0002186983799940  0.2305857645611917   T   T   T
  0.2220572076122636  0.1092269624019600  0.0714848643993700   T   T   T
  0.3354930778692612  0.0004242617375214  0.9908446874753323   T   T   T
  0.4426403174957996  0.2244457621413156  0.1498152932428041   T   T   T
  0.5590796150022245  0.1191704045249531  0.3097187452718703   T   T   T
  0.4367118276722001  0.2401478099720331  0.3929315612722812   T   T   T
  0.3319710911444385  0.9978033196664362  0.2300741836694791   T   T   T
  0.5568009461126775  0.1104770701723532  0.0747967942182358   T   T   T
  0.6666277680401513  0.0007322622675214  0.9907326539048383   T   T   T
  0.7855107301013009  0.2270289560119105  0.1509086800632628   T   T   T
  0.8796752261761432  0.1071919408483232  0.3046061723108489   T   T   T
  0.7756544408509629  0.2235474728094056  0.3929210987313196   T   T   T
  0.6639716622807712  0.0019164368187139  0.2284312210676785   T   T   T
  0.8894025874891636  0.1099697167153270  0.0714165708354789   T   T   T
  0.9986108520540417  0.3316713531541549  0.9890616343274574   T   T   T
  0.1122125964578712  0.5549416087094190  0.1466748427002708   T   T   T
  0.1243201238437793  0.5411690221764549  0.3836238179147096   T   T   T
  0.0218757439343494  0.3408784404186691  0.2367506138478643   T   T   T
  0.2224838622272623  0.4434993172702411  0.0685917066379737   T   T   T
  0.3344555939844678  0.3316433103998466  0.9891709476541521   T   T   T
  0.4453164774379698  0.5549648825985086  0.1453550188907879   T   T   T
  0.5497562791724645  0.4415362429393818  0.3075046233806895   T   T   T
  0.4641280802561916  0.5936545650085969  0.3955186425249159   T   T   T
  0.3310768560770085  0.3390207681591301  0.2355866464072775   T   T   T
  0.5573511040069890  0.4445050615924662  0.0706937976382620   T   T   T
  0.6672082378156391  0.3316453598297695  0.9904687475599705   T   T   T
  0.7798962994242556  0.5551462816094845  0.1486626588999934   T   T   T
  0.8898423485599105  0.4424952488155905  0.3075953610186865   T   T   T
  0.7785621604406870  0.5520455780305236  0.3886650989165973   T   T   T
  0.6705772833849177  0.3359869037400897  0.2299152478727371   T   T   T
  0.8903517292180725  0.4449434072929128  0.0712394368906448   T   T   T
  0.9998569175818438  0.6670401457152186  0.9891243975965568   T   T   T
  0.1106627690839902  0.8866759688675778  0.1495976558309918   T   T   T
  0.2215618866047210  0.7726438501596987  0.3085187573440601   T   T   T
  0.0952918711163035  0.8764804848004691  0.3912666562156408   T   T   T
  0.0010225863268612  0.6645486144452361  0.2310041737671311   T   T   T
  0.2219005609814069  0.7768581738278004  0.0713948572433221   T   T   T
  0.3338530638051723  0.6674423155108807  0.9889357247097993   T   T   T
  0.4399008350944539  0.8816087168929889  0.1508335747387345   T   T   T
  0.5599624869934834  0.7850162951724193  0.3035459484294283   T   T   T
  0.4531260390315519  0.8875434489072429  0.3938710768512382   T   T   T
  0.3257828033540018  0.6452224444265037  0.2363750651508181   T   T   T
  0.5562083030839091  0.7777793583921357  0.0709329949196912   T   T   T
  0.6672940942433557  0.6670256468851317  0.9889283806938951   T   T   T
  0.7770388374585924  0.8888749096119856  0.1494989289717477   T   T   T
  0.8866205213700155  0.7748505074455997  0.3063107765980400   T   T   T
  0.7755074321462795  0.8883718291180855  0.3894587139603114   T   T   T
  0.6650018975243215  0.6636486423191742  0.2299681715720696   T   T   T
  0.8888128528724730  0.7779286601724844  0.0716336689947926   T   T   T
  0.3792638552096320  0.2894016436980771  0.3132218591381971   T   T   T
  0.9968275832044120  0.0012447358663894  0.3508726417429714   T   T   T
  0.2208564181987343  0.1089117279339044  0.1912383419816011   T   T   T
  0.1105231694870312  0.2198109311859248  0.0289861428304497   T   T   T
  0.3266384988487308 -0.0056028973317094  0.3520004718581118   T   T   T
  0.5544069004160347  0.1111956050192607  0.1917494902898275   T   T   T
  0.4447112161191884  0.2216035727949262  0.0316380373326206   T   T   T
  0.6651678642132636 -0.0000293793619508  0.3490121052748009   T   T   T
  0.8902139307511177  0.1111131316742785  0.1905063339736769   T   T   T
  0.7785586120196553  0.2222441779801941  0.0315920426282398   T   T   T
  0.9898687629613113  0.3201728212270878  0.3553048723804717   T   T   T
  0.2239261979692137  0.4428766060912480  0.1823199035001752   T   T   T
  0.1108030130312032  0.5562444645112246  0.0288172154914437   T   T   T
  0.5576600625570989  0.4456552624159598  0.1891134727500171   T   T   T
  0.4463255610257776  0.5561109863522719  0.0284705341107070   T   T   T
  0.6746828537400955  0.3390267519222095  0.3461092154749270   T   T   T
  0.8932543052240589  0.4449732794629150  0.1902367893212872   T   T   T
  0.7785053130578264  0.5554599792026459  0.0308597801469157   T   T   T
  0.0003953918501425  0.6665648984689162  0.3475743369155794   T   T   T
  0.2223298046687482  0.7751067524266860  0.1919322923355953   T   T   T
  0.1113893019097209  0.8885693987271034  0.0317220955240006   T   T   T
  0.3467042580301317  0.6767003672835186  0.3544683260015050   T   T   T
  0.5552854366421820  0.7762476410679949  0.1899023724778388   T   T   T
  0.4441714234322296  0.8884592891019384  0.0317868072266826   T   T   T
  0.6633671840368415  0.6674723787363143  0.3497411831352722   T   T   T
  0.8885272224401782  0.7773128251691012  0.1903236093120629   T   T   T
  0.7776764423556918  0.8890787613984894  0.0310270181522992   T   T   T
  0.4102074053672415  0.2810112147572803  0.4276673850197898   T   T   T
 
  0.00000000E+00  0.00000000E+00  0.00000000E+00
  0.00000000E+00  0.00000000E+00  0.00000000E+00
  0.00000000E+00  0.00000000E+00  0.00000000E+00
  0.00000000E+00  0.00000000E+00  0.00000000E+00
  0.00000000E+00  0.00000000E+00  0.00000000E+00
  0.00000000E+00  0.00000000E+00  0.00000000E+00
  0.00000000E+00  0.00000000E+00  0.00000000E+00
  0.00000000E+00  0.00000000E+00  0.00000000E+00
  0.00000000E+00  0.00000000E+00  0.00000000E+00
  0.00000000E+00  0.00000000E+00  0.00000000E+00
  0.00000000E+00  0.00000000E+00  0.00000000E+00
  0.00000000E+00  0.00000000E+00  0.00000000E+00
  0.00000000E+00  0.00000000E+00  0.00000000E+00
  0.00000000E+00  0.00000000E+00  0.00000000E+00
  0.00000000E+00  0.00000000E+00  0.00000000E+00
  0.00000000E+00  0.00000000E+00  0.00000000E+00
  0.00000000E+00  0.00000000E+00  0.00000000E+00
  0.00000000E+00  0.00000000E+00  0.00000000E+00
  0.00000000E+00  0.00000000E+00  0.00000000E+00
  0.00000000E+00  0.00000000E+00  0.00000000E+00
  0.00000000E+00  0.00000000E+00  0.00000000E+00
  0.00000000E+00  0.00000000E+00  0.00000000E+00
  0.00000000E+00  0.00000000E+00  0.00000000E+00
  0.00000000E+00  0.00000000E+00  0.00000000E+00
  0.00000000E+00  0.00000000E+00  0.00000000E+00
  0.00000000E+00  0.00000000E+00  0.00000000E+00
  0.00000000E+00  0.00000000E+00  0.00000000E+00
  0.00000000E+00  0.00000000E+00  0.00000000E+00
  0.00000000E+00  0.00000000E+00  0.00000000E+00
  0.00000000E+00  0.00000000E+00  0.00000000E+00
  0.00000000E+00  0.00000000E+00  0.00000000E+00
  0.00000000E+00  0.00000000E+00  0.00000000E+00
  0.00000000E+00  0.00000000E+00  0.00000000E+00
  0.00000000E+00  0.00000000E+00  0.00000000E+00
  0.00000000E+00  0.00000000E+00  0.00000000E+00
  0.00000000E+00  0.00000000E+00  0.00000000E+00
  0.00000000E+00  0.00000000E+00  0.00000000E+00
  0.00000000E+00  0.00000000E+00  0.00000000E+00
  0.00000000E+00  0.00000000E+00  0.00000000E+00
  0.00000000E+00  0.00000000E+00  0.00000000E+00
  0.00000000E+00  0.00000000E+00  0.00000000E+00
  0.00000000E+00  0.00000000E+00  0.00000000E+00
  0.00000000E+00  0.00000000E+00  0.00000000E+00
  0.00000000E+00  0.00000000E+00  0.00000000E+00
  0.00000000E+00  0.00000000E+00  0.00000000E+00
  0.00000000E+00  0.00000000E+00  0.00000000E+00
  0.00000000E+00  0.00000000E+00  0.00000000E+00
  0.00000000E+00  0.00000000E+00  0.00000000E+00
  0.00000000E+00  0.00000000E+00  0.00000000E+00
  0.00000000E+00  0.00000000E+00  0.00000000E+00
  0.00000000E+00  0.00000000E+00  0.00000000E+00
  0.00000000E+00  0.00000000E+00  0.00000000E+00
  0.00000000E+00  0.00000000E+00  0.00000000E+00
  0.00000000E+00  0.00000000E+00  0.00000000E+00
  0.00000000E+00  0.00000000E+00  0.00000000E+00
  0.00000000E+00  0.00000000E+00  0.00000000E+00
  0.00000000E+00  0.00000000E+00  0.00000000E+00
  0.00000000E+00  0.00000000E+00  0.00000000E+00
  0.00000000E+00  0.00000000E+00  0.00000000E+00
  0.00000000E+00  0.00000000E+00  0.00000000E+00
  0.00000000E+00  0.00000000E+00  0.00000000E+00
  0.00000000E+00  0.00000000E+00  0.00000000E+00
  0.00000000E+00  0.00000000E+00  0.00000000E+00
  0.00000000E+00  0.00000000E+00  0.00000000E+00
  0.00000000E+00  0.00000000E+00  0.00000000E+00
  0.00000000E+00  0.00000000E+00  0.00000000E+00
  0.00000000E+00  0.00000000E+00  0.00000000E+00
  0.00000000E+00  0.00000000E+00  0.00000000E+00
  0.00000000E+00  0.00000000E+00  0.00000000E+00
  0.00000000E+00  0.00000000E+00  0.00000000E+00
  0.00000000E+00  0.00000000E+00  0.00000000E+00
  0.00000000E+00  0.00000000E+00  0.00000000E+00
  0.00000000E+00  0.00000000E+00  0.00000000E+00
  0.00000000E+00  0.00000000E+00  0.00000000E+00
  0.00000000E+00  0.00000000E+00  0.00000000E+00
  0.00000000E+00  0.00000000E+00  0.00000000E+00
  0.00000000E+00  0.00000000E+00  0.00000000E+00
  0.00000000E+00  0.00000000E+00  0.00000000E+00
  0.00000000E+00  0.00000000E+00  0.00000000E+00
  0.00000000E+00  0.00000000E+00  0.00000000E+00
  0.00000000E+00  0.00000000E+00  0.00000000E+00
