CeO2-you-111-you-Co                     
   1.00000000000000     
     9.8234144585059742   -5.6767251101851688    0.0019900796449745
     0.0000000024361074   11.3534482266153223   -0.0000000002341074
     0.0040211228739020   -0.0000000004045325   20.9778910589558656
   O    Co   Ce   H 
    53     1    26     1
Selective dynamics
Direct
 -0.0006166892204428  0.0010708618730401  0.9947848903356898   T   T   T
  0.1169959562967242  0.2257074307189380  0.1496397479030769   T   T   T
  0.2316457475183863  0.1200851686910863  0.3050719000505717   T   T   T
  0.1160495490965300  0.2225921112038007  0.3798082234136237   T   T   T
  0.0031881771872824  0.0012347546448301  0.2289502525896677   T   T   T
  0.2223099055151573  0.1103837749327073  0.0729075861101161   T   T   T
  0.3342053622884795 -0.0000740142404866  0.9930838930251982   T   T   T
  0.4435890205988258  0.2207050448639612  0.1467831671150194   T   T   T
  0.5513065911892442  0.1058331601643174  0.3052493649563291   T   T   T
  0.4511774136084546  0.1903671665287152  0.4073250852384701   T   T   T
  0.3310030504946879 -0.0016520211735991  0.2293531591368869   T   T   T
  0.5560563450790280  0.1111616794353885  0.0741161053772028   T   T   T
  0.6695064963967531  0.0018218696224452  0.9947651145028081   T   T   T
  0.7761633570336007  0.2269456435882999  0.1518353929232519   T   T   T
  0.8884072518048981  0.1096833476394982  0.3035455314976161   T   T   T
  0.7852005802768256  0.2170447903082940  0.3882844734033248   T   T   T
  0.6687831188125547  0.0041877903588436  0.2279638006885221   T   T   T
  0.8887786596958557  0.1113881412988525  0.0771910914806506   T   T   T
 -0.0005776332058328  0.3317377740071575  0.9947702332686846   T   T   T
  0.1099881850194182  0.5552503366401901  0.1499418388040658   T   T   T
  0.2286324415767030  0.4389015523417200  0.3042894641093977   T   T   T
  0.1142326857014148  0.5548939890879417  0.3849152966413890   T   T   T
  0.0023101773394449  0.3348445142168471  0.2293614904211860   T   T   T
  0.2228568643409199  0.4461978004764620  0.0732813479164589   T   T   T
  0.3327085779839238  0.3335544348231811  0.9931194367973368   T   T   T
  0.4455433838957951  0.5573579704369287  0.1466141159475949   T   T   T
  0.4729906495905620  0.5960948374497824  0.3903977841581119   T   T   T
  0.3488178674534042  0.3398194351705855  0.2347498785527171   T   T   T
  0.5561947397893443  0.4441089167809799  0.0712427741357740   T   T   T
  0.6678737372778967  0.3328880852869382  0.9931573820666593   T   T   T
  0.7792475499422672  0.5570882753930022  0.1470697109518005   T   T   T
  0.8945152312989061  0.4452247011066283  0.3053191128047376   T   T   T
  0.7720994704077691  0.5614161296938240  0.3815821352545928   T   T   T
  0.6577864985573921  0.3420545069232444  0.2343713725944311   T   T   T
  0.8893887594629124  0.4452685961310066  0.0738069085049820   T   T   T
  0.0012335513319533  0.6674108715850240  0.9931798287515442   T   T   T
  0.1105088191660223  0.8873730140933677  0.1491816582990278   T   T   T
  0.2224936910896316  0.7737150089553093  0.3040097291856967   T   T   T
  0.1142458434633823  0.8870047414376782  0.3841371091819569   T   T   T
  0.9981634376355772  0.6666612209551541  0.2301415301903708   T   T   T
  0.2233735512590332  0.7777662473383218  0.0738285973647502   T   T   T
  0.3343436129530586  0.6675872203360571  0.9932642253022187   T   T   T
  0.4451968937222437  0.8893683295323374  0.1503135722253031   T   T   T
  0.5633209851406016  0.7879386784363653  0.3017755574376105   T   T   T
  0.4434581139501328  0.8849310836660041  0.3854284765733660   T   T   T
  0.3348882586578512  0.6649059971968447  0.2298165931372637   T   T   T
  0.5567156790946122  0.7796155423000989  0.0737511439463677   T   T   T
  0.6680814534984088  0.6688422689220608  0.9935421642520716   T   T   T
  0.7760156080683491  0.8832160875600156  0.1521280063800728   T   T   T
  0.8925902289180391  0.7841012701789023  0.3047080999377702   T   T   T
  0.7840196230332774  0.8972962663715112  0.3881456995562573   T   T   T
  0.6579415930615640  0.6467068547901788  0.2362379299862580   T   T   T
  0.8900066863455753  0.7786892873002882  0.0735853365747585   T   T   T
  0.2410875041551152  0.2851804462091916  0.3107939177970537   T   T   T
  0.0037727022201315  0.0029098242364891  0.3442794370330522   T   T   T
  0.2239569647762550  0.1111367360982784  0.1888669423251000   T   T   T
  0.1117556812556778  0.2229088543969557  0.0344451914544109   T   T   T
  0.3315368650069500 -0.0091632982348471  0.3449469189813152   T   T   T
  0.5550146462286070  0.1126302156813123  0.1913012458629133   T   T   T
  0.4445751668015941  0.2209626582283100  0.0319740737023077   T   T   T
  0.6685153985324181  0.0027156052192478  0.3451188623511485   T   T   T
  0.8907790654690582  0.1128812788972786  0.1907746252168876   T   T   T
  0.7781818017373267  0.2230812352725672  0.0352303155411653   T   T   T
  0.0031911379231466  0.3340258193032730  0.3450553338304617   T   T   T
  0.2245552289387086  0.4458377116758240  0.1891566745282248   T   T   T
  0.1112984793903036  0.5557442076710483  0.0343588224977528   T   T   T
  0.5553687595231275  0.4440046542087229  0.1825709738237614   T   T   T
  0.4447091942472750  0.5573135689477406  0.0321328605387692   T   T   T
  0.6713168217312346  0.3278160477166972  0.3537173091818077   T   T   T
  0.8874189200192888  0.4449782121351196  0.1915318667964103   T   T   T
  0.7800788516240419  0.5568966404688496  0.0325535690679796   T   T   T
  0.0003919967238282  0.6649948159456704  0.3442384541480736   T   T   T
  0.2228237805075716  0.7768718749618820  0.1894695787966999   T   T   T
  0.1114038751914235  0.8890847994825106  0.0342397844539946   T   T   T
  0.3405112067976979  0.6644455737452027  0.3471118372949092   T   T   T
  0.5557052290523689  0.7775845623822945  0.1904248657553301   T   T   T
  0.4460050009194412  0.8899308958076896  0.0344972029177523   T   T   T
  0.6736583302593537  0.6837361430150354  0.3506824491576208   T   T   T
  0.8883813919942150  0.7765005010848433  0.1908072530103557   T   T   T
  0.7786525281316246  0.8895847356295680  0.0349670163988276   T   T   T
  0.4014387603477926  0.2186631324323673  0.4352622965754024   T   T   T
 
  0.00000000E+00  0.00000000E+00  0.00000000E+00
  0.00000000E+00  0.00000000E+00  0.00000000E+00
  0.00000000E+00  0.00000000E+00  0.00000000E+00
  0.00000000E+00  0.00000000E+00  0.00000000E+00
  0.00000000E+00  0.00000000E+00  0.00000000E+00
  0.00000000E+00  0.00000000E+00  0.00000000E+00
  0.00000000E+00  0.00000000E+00  0.00000000E+00
  0.00000000E+00  0.00000000E+00  0.00000000E+00
  0.00000000E+00  0.00000000E+00  0.00000000E+00
  0.00000000E+00  0.00000000E+00  0.00000000E+00
  0.00000000E+00  0.00000000E+00  0.00000000E+00
  0.00000000E+00  0.00000000E+00  0.00000000E+00
  0.00000000E+00  0.00000000E+00  0.00000000E+00
  0.00000000E+00  0.00000000E+00  0.00000000E+00
  0.00000000E+00  0.00000000E+00  0.00000000E+00
  0.00000000E+00  0.00000000E+00  0.00000000E+00
  0.00000000E+00  0.00000000E+00  0.00000000E+00
  0.00000000E+00  0.00000000E+00  0.00000000E+00
  0.00000000E+00  0.00000000E+00  0.00000000E+00
  0.00000000E+00  0.00000000E+00  0.00000000E+00
  0.00000000E+00  0.00000000E+00  0.00000000E+00
  0.00000000E+00  0.00000000E+00  0.00000000E+00
  0.00000000E+00  0.00000000E+00  0.00000000E+00
  0.00000000E+00  0.00000000E+00  0.00000000E+00
  0.00000000E+00  0.00000000E+00  0.00000000E+00
  0.00000000E+00  0.00000000E+00  0.00000000E+00
  0.00000000E+00  0.00000000E+00  0.00000000E+00
  0.00000000E+00  0.00000000E+00  0.00000000E+00
  0.00000000E+00  0.00000000E+00  0.00000000E+00
  0.00000000E+00  0.00000000E+00  0.00000000E+00
  0.00000000E+00  0.00000000E+00  0.00000000E+00
  0.00000000E+00  0.00000000E+00  0.00000000E+00
  0.00000000E+00  0.00000000E+00  0.00000000E+00
  0.00000000E+00  0.00000000E+00  0.00000000E+00
  0.00000000E+00  0.00000000E+00  0.00000000E+00
  0.00000000E+00  0.00000000E+00  0.00000000E+00
  0.00000000E+00  0.00000000E+00  0.00000000E+00
  0.00000000E+00  0.00000000E+00  0.00000000E+00
  0.00000000E+00  0.00000000E+00  0.00000000E+00
  0.00000000E+00  0.00000000E+00  0.00000000E+00
  0.00000000E+00  0.00000000E+00  0.00000000E+00
  0.00000000E+00  0.00000000E+00  0.00000000E+00
  0.00000000E+00  0.00000000E+00  0.00000000E+00
  0.00000000E+00  0.00000000E+00  0.00000000E+00
  0.00000000E+00  0.00000000E+00  0.00000000E+00
  0.00000000E+00  0.00000000E+00  0.00000000E+00
  0.00000000E+00  0.00000000E+00  0.00000000E+00
  0.00000000E+00  0.00000000E+00  0.00000000E+00
  0.00000000E+00  0.00000000E+00  0.00000000E+00
  0.00000000E+00  0.00000000E+00  0.00000000E+00
  0.00000000E+00  0.00000000E+00  0.00000000E+00
  0.00000000E+00  0.00000000E+00  0.00000000E+00
  0.00000000E+00  0.00000000E+00  0.00000000E+00
  0.00000000E+00  0.00000000E+00  0.00000000E+00
  0.00000000E+00  0.00000000E+00  0.00000000E+00
  0.00000000E+00  0.00000000E+00  0.00000000E+00
  0.00000000E+00  0.00000000E+00  0.00000000E+00
  0.00000000E+00  0.00000000E+00  0.00000000E+00
  0.00000000E+00  0.00000000E+00  0.00000000E+00
  0.00000000E+00  0.00000000E+00  0.00000000E+00
  0.00000000E+00  0.00000000E+00  0.00000000E+00
  0.00000000E+00  0.00000000E+00  0.00000000E+00
  0.00000000E+00  0.00000000E+00  0.00000000E+00
  0.00000000E+00  0.00000000E+00  0.00000000E+00
  0.00000000E+00  0.00000000E+00  0.00000000E+00
  0.00000000E+00  0.00000000E+00  0.00000000E+00
  0.00000000E+00  0.00000000E+00  0.00000000E+00
  0.00000000E+00  0.00000000E+00  0.00000000E+00
  0.00000000E+00  0.00000000E+00  0.00000000E+00
  0.00000000E+00  0.00000000E+00  0.00000000E+00
  0.00000000E+00  0.00000000E+00  0.00000000E+00
  0.00000000E+00  0.00000000E+00  0.00000000E+00
  0.00000000E+00  0.00000000E+00  0.00000000E+00
  0.00000000E+00  0.00000000E+00  0.00000000E+00
  0.00000000E+00  0.00000000E+00  0.00000000E+00
  0.00000000E+00  0.00000000E+00  0.00000000E+00
  0.00000000E+00  0.00000000E+00  0.00000000E+00
  0.00000000E+00  0.00000000E+00  0.00000000E+00
  0.00000000E+00  0.00000000E+00  0.00000000E+00
  0.00000000E+00  0.00000000E+00  0.00000000E+00
  0.00000000E+00  0.00000000E+00  0.00000000E+00
