CeO2-you-111-you-Y                      
   1.00000000000000     
     9.8423285068543471   -5.6824713837050949    0.0000000000000000
     0.0000000000781951   11.3649407675571066   -0.0000000000000000
     0.0000000000000000    0.0000000000000000   21.2959993005800960
   O    Y    Ce
    54     1    26
Selective dynamics
Direct
 -0.0000420865636089 -0.0000148964112535  0.9978359545353970   T   T   T
  0.1109851103620177  0.2221590551810342  0.1501324082139301   T   T   T
  0.2216944571217398  0.1100559142435794  0.3027634269871455   T   T   T
  0.1090170596683081  0.2211750298343423  0.3809776808898139   T   T   T
 -0.0002008109344813  0.0000860405290224  0.2290096243143023   T   T   T
  0.2222397391459590  0.1111464782919154  0.0762748438666904   T   T   T
  0.3333601901523628 -0.0000148964112470  0.9978359545353970   T   T   T
  0.4445069448190125  0.2221590551810552  0.1501324082139301   T   T   T
  0.5555998411943779  0.1110671588056223  0.3027234262534334   T   T   T
  0.4454909701660303  0.2211750298345081  0.3809776808898139   T   T   T
  0.3336198514635282  0.0000860405290449  0.2290096243143023   T   T   T
  0.5555589703483748  0.1111080296516280  0.0762528560833595   T   T   T
  0.6666669999999968 -0.0000000000000000  0.9979243938171976   T   T   T
  0.7777266908726307  0.2221193817452794  0.1500891702794754   T   T   T
  0.8888013176112465  0.1110671588056235  0.3027234262534334   T   T   T
  0.7776455087835161  0.2219570175670550  0.3812067398414449   T   T   T
  0.6666669999999968 -0.0000000000000000  0.2291747402645307   T   T   T
  0.8888830593032540  0.1111080296516283  0.0762528560833595   T   T   T
 -0.0000420865635994  0.3333058098476623  0.9978359545353970   T   T   T
  0.1111497194577770  0.5555172805422549  0.1502155288710038   T   T   T
  0.2216944571215076  0.4449715428781565  0.3027634269871455   T   T   T
  0.1111133098977034  0.5555536901022746  0.3813649215121789   T   T   T
 -0.0002008109344330  0.3330461485365502  0.2290096243143023   T   T   T
  0.2222397391459577  0.4444262608540398  0.0762748438666904   T   T   T
  0.3333330000000032  0.3333330000000032  0.9978952587268145   T   T   T
  0.4445069448189651  0.5556818896379176  0.1501324082139301   T   T   T
  0.5566110857567595  0.4449715428782595  0.3027634269871455   T   T   T
  0.4454909701656570  0.5576499403311567  0.3809776808898139   T   T   T
  0.3333330000000032  0.3333330000000032  0.2290881030405153   T   T   T
  0.5555205217080906  0.4444262608540404  0.0762748438666904   T   T   T
  0.6666818964112512  0.3333058098476646  0.9978359545353970   T   T   T
  0.7777005610844653  0.5555172805422463  0.1502155288710038   T   T   T
  0.8889436175812454  0.4445532351624816  0.3029322205712679   T   T   T
  0.7777733802045753  0.5555536901022828  0.3813649215121789   T   T   T
  0.6665809594709554  0.3330461485365513  0.2290096243143023   T   T   T
  0.8888368622959174  0.4443397245918455  0.0763137742584705   T   T   T
 -0.0000000000000000  0.6666669999999968  0.9979915316600463   T   T   T
  0.1111497194577576  0.8889664389155033  0.1502155288710038   T   T   T
  0.2221127648374904  0.7777233824187514  0.3029322205712679   T   T   T
  0.1111133098977213  0.8888936197954475  0.3813649215121789   T   T   T
 -0.0000000000000000  0.6666669999999968  0.2289695671233077   T   T   T
  0.2223262754081910  0.7778301377040794  0.0763137742584705   T   T   T
  0.3333601901523578  0.6667090865635890  0.9978359545353970   T   T   T
  0.4445466182547578  0.8889403091273661  0.1500891702794754   T   T   T
  0.5555998411943803  0.7778656823887540  0.3027234262534334   T   T   T
  0.4447089824329982  0.8890214912164807  0.3812067398414449   T   T   T
  0.3336198514635259  0.6668678109344263  0.2290096243143023   T   T   T
  0.5555589703483754  0.7777839406967437  0.0762528560833595   T   T   T
  0.6666818964112368  0.6667090865635846  0.9978359545353970   T   T   T
  0.7777266908726045  0.8889403091273546  0.1500891702794754   T   T   T
  0.8889436175812643  0.7777233824187598  0.3029322205712679   T   T   T
  0.7776455087834787  0.8890214912164643  0.3812067398414449   T   T   T
  0.6665809594709047  0.6668678109344048  0.2290096243143023   T   T   T
  0.8888368622958916  0.7778301377040682  0.0763137742584705   T   T   T
  0.3333330000000032  0.3333330000000032  0.3402588872002652   T   T   T
  0.0013877800521259  0.0013394122339775  0.3421544707113475   T   T   T
  0.2225212385921431  0.1117094771842281  0.1901431340306665   T   T   T
  0.1112088474369924  0.2222709237184888  0.0371649709478789   T   T   T
  0.3332846321819309  0.0013394122338843  0.3421544707113475   T   T   T
  0.5555055827462129  0.1111614172537967  0.1894735596066007   T   T   T
  0.4443950762814926  0.2222709237184809  0.0371649709478789   T   T   T
  0.6666669999999968 -0.0000000000000000  0.3420132661486734   T   T   T
  0.8889898345075830  0.1111614172537949  0.1894735596066007   T   T   T
  0.7777819559864685  0.2222299119729392  0.0370636564175945   T   T   T
  0.0013877800522974  0.3333813678179417  0.3421544707113475   T   T   T
  0.2225212385922671  0.4441447614079111  0.1901431340306665   T   T   T
  0.1111877101097311  0.5554792898902970  0.0371828301767955   T   T   T
  0.5549575228155970  0.4441447614078562  0.1901431340306665   T   T   T
  0.4443950762815105  0.5554581525630373  0.0371649709478789   T   T   T
  0.6653275877655619  0.3333813678177724  0.3421544707113475   T   T   T
  0.8888620839222034  0.4443901678443908  0.1897434022671808   T   T   T
  0.7776245797805545  0.5554792898902896  0.0371828301767955   T   T   T
 -0.0000000000000000  0.6666669999999968  0.3420143014276842   T   T   T
  0.2222758321555581  0.7778049160777933  0.1897434022671808   T   T   T
  0.1111877101097143  0.8890424202194179  0.0371828301767955   T   T   T
  0.3332846321823122  0.6652792199482501  0.3421544707113475   T   T   T
  0.5555055827462090  0.7776771654924083  0.1894735596066007   T   T   T
  0.4444360880270466  0.8888850440135283  0.0370636564175945   T   T   T
  0.6653275877657719  0.6652792199481737  0.3421544707113475   T   T   T
  0.8888620839222384  0.7778049160778088  0.1897434022671808   T   T   T
  0.7777819559864779  0.8888850440135324  0.0370636564175945   T   T   T
 
  0.00000000E+00  0.00000000E+00  0.00000000E+00
  0.00000000E+00  0.00000000E+00  0.00000000E+00
  0.00000000E+00  0.00000000E+00  0.00000000E+00
  0.00000000E+00  0.00000000E+00  0.00000000E+00
  0.00000000E+00  0.00000000E+00  0.00000000E+00
  0.00000000E+00  0.00000000E+00  0.00000000E+00
  0.00000000E+00  0.00000000E+00  0.00000000E+00
  0.00000000E+00  0.00000000E+00  0.00000000E+00
  0.00000000E+00  0.00000000E+00  0.00000000E+00
  0.00000000E+00  0.00000000E+00  0.00000000E+00
  0.00000000E+00  0.00000000E+00  0.00000000E+00
  0.00000000E+00  0.00000000E+00  0.00000000E+00
  0.00000000E+00  0.00000000E+00  0.00000000E+00
  0.00000000E+00  0.00000000E+00  0.00000000E+00
  0.00000000E+00  0.00000000E+00  0.00000000E+00
  0.00000000E+00  0.00000000E+00  0.00000000E+00
  0.00000000E+00  0.00000000E+00  0.00000000E+00
  0.00000000E+00  0.00000000E+00  0.00000000E+00
  0.00000000E+00  0.00000000E+00  0.00000000E+00
  0.00000000E+00  0.00000000E+00  0.00000000E+00
  0.00000000E+00  0.00000000E+00  0.00000000E+00
  0.00000000E+00  0.00000000E+00  0.00000000E+00
  0.00000000E+00  0.00000000E+00  0.00000000E+00
  0.00000000E+00  0.00000000E+00  0.00000000E+00
  0.00000000E+00  0.00000000E+00  0.00000000E+00
  0.00000000E+00  0.00000000E+00  0.00000000E+00
  0.00000000E+00  0.00000000E+00  0.00000000E+00
  0.00000000E+00  0.00000000E+00  0.00000000E+00
  0.00000000E+00  0.00000000E+00  0.00000000E+00
  0.00000000E+00  0.00000000E+00  0.00000000E+00
  0.00000000E+00  0.00000000E+00  0.00000000E+00
  0.00000000E+00  0.00000000E+00  0.00000000E+00
  0.00000000E+00  0.00000000E+00  0.00000000E+00
  0.00000000E+00  0.00000000E+00  0.00000000E+00
  0.00000000E+00  0.00000000E+00  0.00000000E+00
  0.00000000E+00  0.00000000E+00  0.00000000E+00
  0.00000000E+00  0.00000000E+00  0.00000000E+00
  0.00000000E+00  0.00000000E+00  0.00000000E+00
  0.00000000E+00  0.00000000E+00  0.00000000E+00
  0.00000000E+00  0.00000000E+00  0.00000000E+00
  0.00000000E+00  0.00000000E+00  0.00000000E+00
  0.00000000E+00  0.00000000E+00  0.00000000E+00
  0.00000000E+00  0.00000000E+00  0.00000000E+00
  0.00000000E+00  0.00000000E+00  0.00000000E+00
  0.00000000E+00  0.00000000E+00  0.00000000E+00
  0.00000000E+00  0.00000000E+00  0.00000000E+00
  0.00000000E+00  0.00000000E+00  0.00000000E+00
  0.00000000E+00  0.00000000E+00  0.00000000E+00
  0.00000000E+00  0.00000000E+00  0.00000000E+00
  0.00000000E+00  0.00000000E+00  0.00000000E+00
  0.00000000E+00  0.00000000E+00  0.00000000E+00
  0.00000000E+00  0.00000000E+00  0.00000000E+00
  0.00000000E+00  0.00000000E+00  0.00000000E+00
  0.00000000E+00  0.00000000E+00  0.00000000E+00
  0.00000000E+00  0.00000000E+00  0.00000000E+00
  0.00000000E+00  0.00000000E+00  0.00000000E+00
  0.00000000E+00  0.00000000E+00  0.00000000E+00
  0.00000000E+00  0.00000000E+00  0.00000000E+00
  0.00000000E+00  0.00000000E+00  0.00000000E+00
  0.00000000E+00  0.00000000E+00  0.00000000E+00
  0.00000000E+00  0.00000000E+00  0.00000000E+00
  0.00000000E+00  0.00000000E+00  0.00000000E+00
  0.00000000E+00  0.00000000E+00  0.00000000E+00
  0.00000000E+00  0.00000000E+00  0.00000000E+00
  0.00000000E+00  0.00000000E+00  0.00000000E+00
  0.00000000E+00  0.00000000E+00  0.00000000E+00
  0.00000000E+00  0.00000000E+00  0.00000000E+00
  0.00000000E+00  0.00000000E+00  0.00000000E+00
  0.00000000E+00  0.00000000E+00  0.00000000E+00
  0.00000000E+00  0.00000000E+00  0.00000000E+00
  0.00000000E+00  0.00000000E+00  0.00000000E+00
  0.00000000E+00  0.00000000E+00  0.00000000E+00
  0.00000000E+00  0.00000000E+00  0.00000000E+00
  0.00000000E+00  0.00000000E+00  0.00000000E+00
  0.00000000E+00  0.00000000E+00  0.00000000E+00
  0.00000000E+00  0.00000000E+00  0.00000000E+00
  0.00000000E+00  0.00000000E+00  0.00000000E+00
  0.00000000E+00  0.00000000E+00  0.00000000E+00
  0.00000000E+00  0.00000000E+00  0.00000000E+00
  0.00000000E+00  0.00000000E+00  0.00000000E+00
  0.00000000E+00  0.00000000E+00  0.00000000E+00
