CeO2-you-111-you-Ru                     
   1.00000000000000     
     9.8077497205313904   -5.6625073079619348    0.0000000009139535
     0.0432451271018966   11.3999153754152047    0.0171910279970044
     0.0183156279305837    0.0317235927439419   21.1593050469403288
   O    Ru   Ce   H 
    53     1    26     2
Selective dynamics
Direct
  0.9995299348317132  0.0000154816809074  0.9962729450958577   T   T   T
  0.1063334338598736  0.2199982525670379  0.1480185010621398   F   F   F
  0.2471642293546795  0.1243570099672996  0.3055944539954473   T   T   T
  0.1313191354252423  0.2201756211948185  0.3803921170203676   T   T   T
  0.0066556247226389  0.0011577263738349  0.2296971739272604   T   T   T
  0.2218079577858632  0.1102829155716876  0.0741602806129009   F   F   F
  0.3343852958034884  0.0001040855629215  0.9963633910136420   T   T   T
  0.4469978187068691  0.2199982525665405  0.1480185010621184   F   F   F
  0.5529082602347624  0.1149406718713499  0.3036051217038122   T   T   T
  0.4683949981259280  0.1909525209113644  0.4101153417634766   T   T   T
  0.3312252638987673  0.9987783240273753  0.2273365196807441   T   T   T
  0.5586326360564584  0.1107070377438149  0.0758288773185782   F   F   F
  0.6670083913606554 -0.0000498823574354  0.9953858794242677   T   T   T
  0.7797609670355499  0.2261879340711772  0.1532260946763415   F   F   F
  0.8905797520823143  0.1080603420034840  0.3033000248333508   T   T   T
  0.7707553760980188  0.2186511957754107  0.3844523802283285   T   T   T
  0.6667489673547915  0.0014257659218856  0.2302693063884279   T   T   T
  0.8854084016873855  0.1107070377439996  0.0758288773185782   F   F   F
  0.0008085659342832  0.3330543599589849  0.9961883306018439   T   T   T
  0.1098675363888617  0.5545274003237921  0.1488950568267882   F   F   F
  0.2594601012562824  0.4523625690332440  0.3154853117881872   T   T   T
  0.1023991769978559  0.5636369922502260  0.3865419291066187   T   T   T
  0.0129801161979338  0.3393528753202703  0.2305948988798016   T   T   T
  0.2234463225398287  0.4441323801457102  0.0757923766914104   F   F   F
  0.3327769989285788  0.3329898272333714  0.9960546794640218   T   T   T
  0.4471291977466265  0.5609263954935457  0.1494174721209092   F   F   F
  0.5006349384387943  0.4182112457498061  0.3255541640348215   T   T   T
  0.3296592679710784  0.3293670135199886  0.2230775265717737   T   T   T
  0.5540200576056407  0.4441323801455468  0.0757923766914104   F   F   F
  0.6653664337666988  0.3331901101290707  0.9962772902527773   T   T   T
  0.7779928639349407  0.5545274003235505  0.1488950568267953   F   F   F
  0.8848019915200975  0.4428779122516666  0.3014772905200668   T   T   T
  0.7768367908608790  0.5439396432397384  0.3840968385692975   T   T   T
  0.6584317013802138  0.3405792144791805  0.2327023090725221   T   T   T
  0.8880869398930358  0.4428398797861277  0.0749285107346651   F   F   F
  0.0000063433158975  0.6672851839206803  0.9965191220380377   T   T   T
  0.1100390357807655  0.8867450715611085  0.1485846067017675   F   F   F
  0.2203613204018944  0.7826174818162902  0.3029274713744048   T   T   T
  0.1106652884038313  0.8919681300074848  0.3833387408931667   T   T   T
  0.9991830893131355  0.6668151250220421  0.2280976966240533   T   T   T
  0.2237265560469694  0.7777741506421236  0.0754023206094558   F   F   F
  0.3335911579355536  0.6659288155641504  0.9963914281935471   T   T   T
  0.4472348025247328  0.8896436560684506  0.1509442592685559   F   F   F
  0.5577044427831728  0.7795378148791066  0.3062848266515988   T   T   T
  0.4507511525377630  0.9016151479734398  0.3867398838185088   T   T   T
  0.3294743314935761  0.6627586373347990  0.2286901836039049   T   T   T
  0.5558897848746227  0.7784455697492803  0.0751902680829559   F   F   F
  0.6666738440944180  0.6664311692605699  0.9960978042783842   T   T   T
  0.7757418535440976  0.8896436560688343  0.1509442592685346   F   F   F
  0.8904933278921349  0.7792474780924342  0.3030857834446923   T   T   T
  0.7877948177462590  0.9001740352372360  0.3870861974675264   T   T   T
  0.6632245046145175  0.6565683552903228  0.2301902423567800   T   T   T
  0.8873805945952142  0.7777741506421236  0.0754023206094629   F   F   F
  0.2971761297479975  0.3093047357361502  0.3296097876885684   T   T   T
 -0.0014300080066170 -0.0037463802780545  0.3435842402967864   T   T   T
  0.2212381670816441  0.1091433341631785  0.1868169297127835   F   F   F
  0.1105029779045239  0.2221412492055492  0.0355178919942105   F   F   F
  0.3346646773870433  0.9958222003316917  0.3455874690433809   T   T   T
  0.5552922101058044  0.1119004659075529  0.1904770864482117   F   F   F
  0.4449712713010285  0.2221412492056842  0.0355178919942389   F   F   F
  0.6700709650714695  0.0025458216700787  0.3445960864014778   T   T   T
  0.8899422558009391  0.1119004659063592  0.1904770864483041   F   F   F
  0.7778744301428731  0.2224148602855394  0.0360615271461171   F   F   F
  0.0022831965043180  0.3361904603986831  0.3469846693747584   T   T   T
  0.2258727485298735  0.4438845701057588  0.1884157956005055   F   F   F
  0.1115596888828492  0.5555940668454724  0.0362472087648840   F   F   F
  0.5513458215769873  0.4438845701067677  0.1884157956007115   F   F   F
  0.4449399860442753  0.5565479720884525  0.0353976464489278   F   F   F
  0.6686897993555426  0.3314885481629167  0.3463297472625622   T   T   T
  0.8896483379302325  0.4459626758604855  0.1901636051199844   F   F   F
  0.7773673779628609  0.5555940668457424  0.0362472087648769   F   F   F
  0.9976206514290132  0.6631802745782083  0.3433663641955542   T   T   T
  0.2224614947867778  0.7767716768300232  0.1886109444766717   F   F   F
  0.1109704073818207  0.8886078147636383  0.0354680179958322   F   F   F
  0.3293709420693436  0.6784397086920464  0.3452427722448249   T   T   T
  0.5559033613473474  0.7784727226946870  0.1922276195629706   F   F   F
  0.4460808045092151  0.8894536972505449  0.0362564014884441   F   F   F
  0.6737466456599224  0.6696434860559035  0.3448932544757322   T   T   T
  0.8876431820424671  0.7767716768294477  0.1886109444767001   F   F   F
  0.7767058927415107  0.8894536972507012  0.0362564014884086   F   F   F
  0.4360668639954280  0.5270201564890409  0.4350597857520339   T   T   T
  0.4357026715253849  0.2220722167623877  0.4451205996051814   T   T   T
 
  0.00000000E+00  0.00000000E+00  0.00000000E+00
  0.00000000E+00  0.00000000E+00  0.00000000E+00
  0.00000000E+00  0.00000000E+00  0.00000000E+00
  0.00000000E+00  0.00000000E+00  0.00000000E+00
  0.00000000E+00  0.00000000E+00  0.00000000E+00
  0.00000000E+00  0.00000000E+00  0.00000000E+00
  0.00000000E+00  0.00000000E+00  0.00000000E+00
  0.00000000E+00  0.00000000E+00  0.00000000E+00
  0.00000000E+00  0.00000000E+00  0.00000000E+00
  0.00000000E+00  0.00000000E+00  0.00000000E+00
  0.00000000E+00  0.00000000E+00  0.00000000E+00
  0.00000000E+00  0.00000000E+00  0.00000000E+00
  0.00000000E+00  0.00000000E+00  0.00000000E+00
  0.00000000E+00  0.00000000E+00  0.00000000E+00
  0.00000000E+00  0.00000000E+00  0.00000000E+00
  0.00000000E+00  0.00000000E+00  0.00000000E+00
  0.00000000E+00  0.00000000E+00  0.00000000E+00
  0.00000000E+00  0.00000000E+00  0.00000000E+00
  0.00000000E+00  0.00000000E+00  0.00000000E+00
  0.00000000E+00  0.00000000E+00  0.00000000E+00
  0.00000000E+00  0.00000000E+00  0.00000000E+00
  0.00000000E+00  0.00000000E+00  0.00000000E+00
  0.00000000E+00  0.00000000E+00  0.00000000E+00
  0.00000000E+00  0.00000000E+00  0.00000000E+00
  0.00000000E+00  0.00000000E+00  0.00000000E+00
  0.00000000E+00  0.00000000E+00  0.00000000E+00
  0.00000000E+00  0.00000000E+00  0.00000000E+00
  0.00000000E+00  0.00000000E+00  0.00000000E+00
  0.00000000E+00  0.00000000E+00  0.00000000E+00
  0.00000000E+00  0.00000000E+00  0.00000000E+00
  0.00000000E+00  0.00000000E+00  0.00000000E+00
  0.00000000E+00  0.00000000E+00  0.00000000E+00
  0.00000000E+00  0.00000000E+00  0.00000000E+00
  0.00000000E+00  0.00000000E+00  0.00000000E+00
  0.00000000E+00  0.00000000E+00  0.00000000E+00
  0.00000000E+00  0.00000000E+00  0.00000000E+00
  0.00000000E+00  0.00000000E+00  0.00000000E+00
  0.00000000E+00  0.00000000E+00  0.00000000E+00
  0.00000000E+00  0.00000000E+00  0.00000000E+00
  0.00000000E+00  0.00000000E+00  0.00000000E+00
  0.00000000E+00  0.00000000E+00  0.00000000E+00
  0.00000000E+00  0.00000000E+00  0.00000000E+00
  0.00000000E+00  0.00000000E+00  0.00000000E+00
  0.00000000E+00  0.00000000E+00  0.00000000E+00
  0.00000000E+00  0.00000000E+00  0.00000000E+00
  0.00000000E+00  0.00000000E+00  0.00000000E+00
  0.00000000E+00  0.00000000E+00  0.00000000E+00
  0.00000000E+00  0.00000000E+00  0.00000000E+00
  0.00000000E+00  0.00000000E+00  0.00000000E+00
  0.00000000E+00  0.00000000E+00  0.00000000E+00
  0.00000000E+00  0.00000000E+00  0.00000000E+00
  0.00000000E+00  0.00000000E+00  0.00000000E+00
  0.00000000E+00  0.00000000E+00  0.00000000E+00
  0.00000000E+00  0.00000000E+00  0.00000000E+00
  0.00000000E+00  0.00000000E+00  0.00000000E+00
  0.00000000E+00  0.00000000E+00  0.00000000E+00
  0.00000000E+00  0.00000000E+00  0.00000000E+00
  0.00000000E+00  0.00000000E+00  0.00000000E+00
  0.00000000E+00  0.00000000E+00  0.00000000E+00
  0.00000000E+00  0.00000000E+00  0.00000000E+00
  0.00000000E+00  0.00000000E+00  0.00000000E+00
  0.00000000E+00  0.00000000E+00  0.00000000E+00
  0.00000000E+00  0.00000000E+00  0.00000000E+00
  0.00000000E+00  0.00000000E+00  0.00000000E+00
  0.00000000E+00  0.00000000E+00  0.00000000E+00
  0.00000000E+00  0.00000000E+00  0.00000000E+00
  0.00000000E+00  0.00000000E+00  0.00000000E+00
  0.00000000E+00  0.00000000E+00  0.00000000E+00
  0.00000000E+00  0.00000000E+00  0.00000000E+00
  0.00000000E+00  0.00000000E+00  0.00000000E+00
  0.00000000E+00  0.00000000E+00  0.00000000E+00
  0.00000000E+00  0.00000000E+00  0.00000000E+00
  0.00000000E+00  0.00000000E+00  0.00000000E+00
  0.00000000E+00  0.00000000E+00  0.00000000E+00
  0.00000000E+00  0.00000000E+00  0.00000000E+00
  0.00000000E+00  0.00000000E+00  0.00000000E+00
  0.00000000E+00  0.00000000E+00  0.00000000E+00
  0.00000000E+00  0.00000000E+00  0.00000000E+00
  0.00000000E+00  0.00000000E+00  0.00000000E+00
  0.00000000E+00  0.00000000E+00  0.00000000E+00
  0.00000000E+00  0.00000000E+00  0.00000000E+00
  0.00000000E+00  0.00000000E+00  0.00000000E+00
