CeO2-you-111-you-Mn                     
   1.00000000000000     
     9.8256311561024159   -5.6778512385821314   -0.0050415227148453
    -0.0043475087942311   11.3481703732133994    0.0050415218632384
    -0.0052628182939600    0.0091154682380279   21.0551596522680882
   O    Mn   Ce   H 
    53     1    26     1
Selective dynamics
Direct
  0.0003453538038471  0.0006668546044056  0.9943719170101066   T   T   T
  0.1070892382455112  0.2196997768340345  0.1491503093047400   T   T   T
  0.2456341810395714  0.1409906509754441  0.3115428524503352   T   T   T
  0.1511326300143574  0.2793639036613973  0.3635247194996417   T   T   T
  0.0071035706981123  0.0030981342686991  0.2333296710702609   T   T   T
  0.2204817161050773  0.1112437440506897  0.0776619929600496   T   T   T
  0.3263298288014616  0.0088430196709432  0.9929865245709885   T   T   T
  0.4428706406428495  0.2236913977545815  0.1517558532042138   T   T   T
  0.5604515125405660  0.1143308804916907  0.3062365779265262   T   T   T
  0.4807971945362261  0.2097898459556036  0.4147259756163308   T   T   T
  0.3318962385214101  0.0013035509881203  0.2291966313131032   T   T   T
  0.5589087823400214  0.1160850511220275  0.0775910016116917   T   T   T
  0.6821255546605109  0.0088621171549493  0.9918572948608529   T   T   T
  0.7837767740201828  0.2241418964209108  0.1535907611629767   T   T   T
  0.8898876698563579  0.1089575164550219  0.3079045140503651   T   T   T
  0.7806857986316157  0.2209044154106005  0.3869308020168554   T   T   T
  0.6685846033673766 -0.0002933468872011  0.2306259619039088   T   T   T
  0.8884375613185540  0.1088044252847934  0.0773925420875823   T   T   T
  0.9981592932612197  0.3307356381996253  0.9946622658843562   T   T   T
  0.1093869673324057  0.5558576257699506  0.1472536905747401   T   T   T
  0.1145207115566922  0.5507408269621383  0.3790294588117245   T   T   T
  0.0161725385251354  0.3433444699945645  0.2358745236438929   T   T   T
  0.2209774775931115  0.4422541547339774  0.0725140481194123   T   T   T
  0.3315398440626913  0.3307025893533779  0.9944146584325781   T   T   T
  0.4464870036273370  0.5590706733199987  0.1466360772530885   T   T   T
  0.5284242344755480  0.4123412971736015  0.3100419702691128   T   T   T
  0.4041549165630091  0.5229178065472690  0.3622234322255130   T   T   T
  0.3263045991821833  0.3445971886399268  0.2283991282006598   T   T   T
  0.5552108667322806  0.4444759561115586  0.0745808485822106   T   T   T
  0.6658504863067686  0.3329708192814632  0.9936896313985110   T   T   T
  0.7776038623524489  0.5553784019676961  0.1499777505156576   T   T   T
  0.8857245667205582  0.4442095454341118  0.3050050930814384   T   T   T
  0.7709299147896860  0.5552149133199363  0.3812368798773610   T   T   T
  0.6666907865608379  0.3351069815881558  0.2293236038478479   T   T   T
  0.8869381834004811  0.4432361714986588  0.0747351984493242   T   T   T
  0.9973362253704623  0.6647862787665189  0.9931964698568047   T   T   T
  0.1093012776914084  0.8891459467114446  0.1518211198162554   T   T   T
  0.2194460674701609  0.7769423885057907  0.3053234573324253   T   T   T
  0.0947108487153664  0.8854517776056118  0.3846199457898723   T   T   T
 -0.0003151833281061  0.6653571720450423  0.2297727690410150   T   T   T
  0.2164710140433904  0.7765669563397252  0.0746673264717741   T   T   T
  0.3274169163818801  0.6550924283713673  0.9918044880587615   T   T   T
  0.4425536060494778  0.8832859279723493  0.1539988455012682   T   T   T
  0.5572135800283659  0.7766217480663059  0.3039119896047157   T   T   T
  0.4522329509448673  0.8786674366824881  0.3880648359736900   T   T   T
  0.3231293424900142  0.6497878668094480  0.2344374548437554   T   T   T
  0.5617442099774413  0.7779803986346273  0.0742263457933053   T   T   T
  0.6669323485720136  0.6653535445264226  0.9921959151046564   T   T   T
  0.7795757795858046  0.8878442142882238  0.1536849107649526   T   T   T
  0.8849572594746657  0.7762440847347032  0.3022441242776130   T   T   T
  0.7767225306105561  0.8820877911695726  0.3831937812366394   T   T   T
  0.6604687076486022  0.6555910660651837  0.2320233200756349   T   T   T
  0.8878860638278520  0.7770660334652130  0.0747647533618202   T   T   T
  0.3289220670881918  0.3367514141585051  0.3313789594695612   T   T   T
  0.0013539401369488 -0.0013005340911045  0.3420492762109620   T   T   T
  0.2251558661173748  0.1149653492096094  0.1917797753433510   T   T   T
  0.1094989375160963  0.2193420373193644  0.0337261770919436   T   T   T
  0.3344404398621878  0.0026804810874707  0.3505800889657641   T   T   T
  0.5550043267975814  0.1100079847975567  0.1906506856391716   T   T   T
  0.4430253808142588  0.2215469907149414  0.0345521737201364   T   T   T
  0.6669232803317884  0.9965451021520192  0.3457051899531474   T   T   T
  0.8905389834689736  0.1113919476636684  0.1908483158413209   T   T   T
  0.7778040737800826  0.2210955469398123  0.0347241163363773   T   T   T
  0.9913695234909098  0.3313546520538060  0.3456364680046552   T   T   T
  0.2218786197095564  0.4448051059634213  0.1802797958572276   T   T   T
  0.1099232907163343  0.5564151882630913  0.0320770112660665   T   T   T
  0.5514512706205430  0.4410314324924346  0.1889254986802092   T   T   T
  0.4458117414764911  0.5566844737718637  0.0315936118759171   T   T   T
  0.6663728289032724  0.3309882119874799  0.3446342946496534   T   T   T
  0.8888291190980259  0.4447134323926898  0.1888408394151092   T   T   T
  0.7766499389288761  0.5541744142825636  0.0333405177584861   T   T   T
 -0.0019067205758805  0.6680021301070906  0.3415670976081442   T   T   T
  0.2220861291979970  0.7790508912555483  0.1891820397588346   T   T   T
  0.1118518505281469  0.8901423245470472  0.0350678899542185   T   T   T
  0.3353915828998085  0.6745861858870664  0.3441429458032010   T   T   T
  0.5549177348254289  0.7762222310439912  0.1885396044001283   T   T   T
  0.4449420139461254  0.8898841265016745  0.0300689150328771   T   T   T
  0.6584399669983768  0.6573710466995367  0.3407225177097347   T   T   T
  0.8889229790960184  0.7760634855106452  0.1882275102201351   T   T   T
  0.7779620723362587  0.8898054226720142  0.0337622970839935   T   T   T
  0.4574161141500081  0.2497429697434444  0.4498043716568472   T   T   T
 
  0.00000000E+00  0.00000000E+00  0.00000000E+00
  0.00000000E+00  0.00000000E+00  0.00000000E+00
  0.00000000E+00  0.00000000E+00  0.00000000E+00
  0.00000000E+00  0.00000000E+00  0.00000000E+00
  0.00000000E+00  0.00000000E+00  0.00000000E+00
  0.00000000E+00  0.00000000E+00  0.00000000E+00
  0.00000000E+00  0.00000000E+00  0.00000000E+00
  0.00000000E+00  0.00000000E+00  0.00000000E+00
  0.00000000E+00  0.00000000E+00  0.00000000E+00
  0.00000000E+00  0.00000000E+00  0.00000000E+00
  0.00000000E+00  0.00000000E+00  0.00000000E+00
  0.00000000E+00  0.00000000E+00  0.00000000E+00
  0.00000000E+00  0.00000000E+00  0.00000000E+00
  0.00000000E+00  0.00000000E+00  0.00000000E+00
  0.00000000E+00  0.00000000E+00  0.00000000E+00
  0.00000000E+00  0.00000000E+00  0.00000000E+00
  0.00000000E+00  0.00000000E+00  0.00000000E+00
  0.00000000E+00  0.00000000E+00  0.00000000E+00
  0.00000000E+00  0.00000000E+00  0.00000000E+00
  0.00000000E+00  0.00000000E+00  0.00000000E+00
  0.00000000E+00  0.00000000E+00  0.00000000E+00
  0.00000000E+00  0.00000000E+00  0.00000000E+00
  0.00000000E+00  0.00000000E+00  0.00000000E+00
  0.00000000E+00  0.00000000E+00  0.00000000E+00
  0.00000000E+00  0.00000000E+00  0.00000000E+00
  0.00000000E+00  0.00000000E+00  0.00000000E+00
  0.00000000E+00  0.00000000E+00  0.00000000E+00
  0.00000000E+00  0.00000000E+00  0.00000000E+00
  0.00000000E+00  0.00000000E+00  0.00000000E+00
  0.00000000E+00  0.00000000E+00  0.00000000E+00
  0.00000000E+00  0.00000000E+00  0.00000000E+00
  0.00000000E+00  0.00000000E+00  0.00000000E+00
  0.00000000E+00  0.00000000E+00  0.00000000E+00
  0.00000000E+00  0.00000000E+00  0.00000000E+00
  0.00000000E+00  0.00000000E+00  0.00000000E+00
  0.00000000E+00  0.00000000E+00  0.00000000E+00
  0.00000000E+00  0.00000000E+00  0.00000000E+00
  0.00000000E+00  0.00000000E+00  0.00000000E+00
  0.00000000E+00  0.00000000E+00  0.00000000E+00
  0.00000000E+00  0.00000000E+00  0.00000000E+00
  0.00000000E+00  0.00000000E+00  0.00000000E+00
  0.00000000E+00  0.00000000E+00  0.00000000E+00
  0.00000000E+00  0.00000000E+00  0.00000000E+00
  0.00000000E+00  0.00000000E+00  0.00000000E+00
  0.00000000E+00  0.00000000E+00  0.00000000E+00
  0.00000000E+00  0.00000000E+00  0.00000000E+00
  0.00000000E+00  0.00000000E+00  0.00000000E+00
  0.00000000E+00  0.00000000E+00  0.00000000E+00
  0.00000000E+00  0.00000000E+00  0.00000000E+00
  0.00000000E+00  0.00000000E+00  0.00000000E+00
  0.00000000E+00  0.00000000E+00  0.00000000E+00
  0.00000000E+00  0.00000000E+00  0.00000000E+00
  0.00000000E+00  0.00000000E+00  0.00000000E+00
  0.00000000E+00  0.00000000E+00  0.00000000E+00
  0.00000000E+00  0.00000000E+00  0.00000000E+00
  0.00000000E+00  0.00000000E+00  0.00000000E+00
  0.00000000E+00  0.00000000E+00  0.00000000E+00
  0.00000000E+00  0.00000000E+00  0.00000000E+00
  0.00000000E+00  0.00000000E+00  0.00000000E+00
  0.00000000E+00  0.00000000E+00  0.00000000E+00
  0.00000000E+00  0.00000000E+00  0.00000000E+00
  0.00000000E+00  0.00000000E+00  0.00000000E+00
  0.00000000E+00  0.00000000E+00  0.00000000E+00
  0.00000000E+00  0.00000000E+00  0.00000000E+00
  0.00000000E+00  0.00000000E+00  0.00000000E+00
  0.00000000E+00  0.00000000E+00  0.00000000E+00
  0.00000000E+00  0.00000000E+00  0.00000000E+00
  0.00000000E+00  0.00000000E+00  0.00000000E+00
  0.00000000E+00  0.00000000E+00  0.00000000E+00
  0.00000000E+00  0.00000000E+00  0.00000000E+00
  0.00000000E+00  0.00000000E+00  0.00000000E+00
  0.00000000E+00  0.00000000E+00  0.00000000E+00
  0.00000000E+00  0.00000000E+00  0.00000000E+00
  0.00000000E+00  0.00000000E+00  0.00000000E+00
  0.00000000E+00  0.00000000E+00  0.00000000E+00
  0.00000000E+00  0.00000000E+00  0.00000000E+00
  0.00000000E+00  0.00000000E+00  0.00000000E+00
  0.00000000E+00  0.00000000E+00  0.00000000E+00
  0.00000000E+00  0.00000000E+00  0.00000000E+00
  0.00000000E+00  0.00000000E+00  0.00000000E+00
  0.00000000E+00  0.00000000E+00  0.00000000E+00
