CeO2-you-111-you-Tc                     
   1.00000000000000     
     9.7921491718874432   -5.6535003323472051    0.0000000000000000
     0.0000000060946662   11.3069986854587405    0.0000000000000000
     0.0000000000000000    0.0000000000000000   21.3331055837868071
   O    Tc   Ce   H 
    54     1    26     2
Selective dynamics
Direct
  0.0005957806080652  0.0004957297648280  0.9958811051710920   T   T   T
  0.1025488007620524  0.2165268175313436  0.1477953934627934   T   T   T
  0.2454017551470963  0.1524016367922626  0.3090254985735685   T   T   T
  0.1144760011770942  0.2260452415513918  0.3838025661221502   T   T   T
  0.0080447678655297  0.0019644729216708  0.2324382066023906   T   T   T
  0.2231926655309345  0.1113265981051348  0.0760251367183391   T   T   T
  0.3333681132530854  0.0002050608296664  0.9959660209214209   T   T   T
  0.4496567727854038  0.2183182254357760  0.1480565629291611   T   T   T
  0.5600408687061387  0.1189880994178110  0.3052643188507907   T   T   T
  0.4445977351386725  0.2355772246448500  0.3995175421991990   T   T   T
  0.3302353233166185  0.0005118335349561  0.2301766672245832   T   T   T
  0.5569823092764625  0.1083897347118161  0.0756025621545633   T   T   T
  0.6669866844820386  0.0000840035194511  0.9946019019005077   T   T   T
  0.7786852980595514  0.2228427611322887  0.1520900356773494   T   T   T
  0.8902455672862301  0.1111063785122542  0.3041062581725504   T   T   T
  0.7805726382297686  0.2246951376944447  0.3836272498784145   T   T   T
  0.6662087716431113 -0.0001393817910013  0.2307888392117408   T   T   T
  0.8845870946218685  0.1085608047358879  0.0755309770128149   T   T   T
 -0.0000377269962312  0.3321746013361732  0.9959584713436188   T   T   T
  0.1109544037772411  0.5562983340471250  0.1489665017352161   T   T   T
  0.2400019114743786  0.4260321418441974  0.3049094271201050   T   T   T
  0.1146997293041958  0.5495762407034359  0.3807789053466626   T   T   T
  0.0065726323403471  0.3372464962950456  0.2310899081933084   T   T   T
  0.2222237757140886  0.4435668797462562  0.0750129585626142   T   T   T
  0.3331255474576184  0.3323172802606911  0.9959555068334363   T   T   T
  0.4488562824089034  0.5633808561711002  0.1467171125841223   T   T   T
  0.5170546365133598  0.4176849560898249  0.3075871025417973   T   T   T
  0.4426874824570953  0.5514546313599810  0.3825625215521349   T   T   T
  0.3332937331750322  0.3332911019857258  0.2122755491536637   T   T   T
  0.5550803161977534  0.4438720649385522  0.0750991235840407   T   T   T
  0.6664850068971833  0.3325293627742160  0.9963671400567342   T   T   T
  0.7800760739548045  0.5567864548274809  0.1487975810717974   T   T   T
  0.8907256879002065  0.4442146717433976  0.3035135869599898   T   T   T
  0.7709758444389603  0.5497334114525523  0.3795433915170796   T   T   T
  0.6680868860846877  0.3398729138729413  0.2305770296860879   T   T   T
  0.8889139430108279  0.4432453151831478  0.0754012913818918   T   T   T
  0.0002212683712421  0.6668569617607051  0.9962935284546975   T   T   T
  0.1103941346886871  0.8865804239635673  0.1496875218340185   T   T   T
  0.2193709154699204  0.7709970606637291  0.3040334529982848   T   T   T
  0.0988282559050873  0.8854455687925645  0.3824271236734085   T   T   T
 -0.0001347389607025  0.6659950523149832  0.2295371675987076   T   T   T
  0.2240561684026841  0.7783555609976704  0.0753022401423484   T   T   T
  0.3332842976235189  0.6652127964432775  0.9957159901818230   T   T   T
  0.4439880371308185  0.8875928657538800  0.1519383877723228   T   T   T
  0.5565616370756431  0.7749411131538773  0.3023357493046351   T   T   T
  0.4521072764147850  0.8817228266228846  0.3836562016200566   T   T   T
  0.3298711348955022  0.6593445232626464  0.2306221680170520   T   T   T
  0.5580020982420664  0.7819491971919446  0.0748642940748544   T   T   T
  0.6672883361004214  0.6665664206615814  0.9959474718966518   T   T   T
  0.7792024865638879  0.8886199219571345  0.1526478351009247   T   T   T
  0.8857797731790847  0.7746221020364289  0.3026180683853444   T   T   T
  0.7772939149404449  0.8868723697134347  0.3819956585957331   T   T   T
  0.6631158466198266  0.6577256580277007  0.2309154064214024   T   T   T
  0.8891105621266567  0.7794127206989623  0.0755985485683314   T   T   T
  0.3281765422392742  0.3374600315262046  0.3481370182128847   T   T   T
  0.0016832171029622  0.0023197370708841  0.3437433590257092   T   T   T
  0.2246551068503668  0.1130442828200517  0.1884888345901508   T   T   T
  0.1100909610139047  0.2209153416608678  0.0354370823461314   T   T   T
  0.3311349695446195 -0.0021083441931166  0.3459092787249226   T   T   T
  0.5554896747502044  0.1108710500561032  0.1911325883320836   T   T   T
  0.4449786008585631  0.2212845226556998  0.0355229000486329   T   T   T
  0.6669000716579372 -0.0015047481637556  0.3442241462324936   T   T   T
  0.8896615845932647  0.1111741582139189  0.1908163372848866   T   T   T
  0.7772765380252872  0.2209578264367903  0.0359045462613463   T   T   T
  0.0037875067763244  0.3314009116244619  0.3437765178074253   T   T   T
  0.2234800768479117  0.4425736225406698  0.1864174078326812   T   T   T
  0.1111514968177466  0.5555080971314130  0.0358234530116730   T   T   T
  0.5528900273273855  0.4422629409805914  0.1872629782611870   T   T   T
  0.4451211339638810  0.5561077592565362  0.0349427678782865   T   T   T
  0.6710766386502692  0.3344687085531186  0.3414013418821876   T   T   T
  0.8902423260641095  0.4448570482605107  0.1894565631727831   T   T   T
  0.7784905125608463  0.5559258048570599  0.0362748844047778   T   T   T
  0.0002754499893391  0.6666455256142036  0.3413582558115376   T   T   T
  0.2227657647555135  0.7774549127604623  0.1906161967747258   T   T   T
  0.1114952606937488  0.8886740894311674  0.0365981846021053   T   T   T
  0.3360450159675833  0.6635025205884045  0.3430948314456668   T   T   T
  0.5553687170969488  0.7768063323740148  0.1900275968898300   T   T   T
  0.4452703687267604  0.8891181293554338  0.0357990136832457   T   T   T
  0.6608742738237067  0.6612588415926567  0.3420895472405134   T   T   T
  0.8893789083026111  0.7771740108391350  0.1904317925533226   T   T   T
  0.7778432793453024  0.8893462098833465  0.0357188811755249   T   T   T
  0.3206599820626579  0.3442971085133604  0.4227668745151449   T   T   T
  0.4391224748012608  0.2475653300661241  0.4443590533499313   T   T   T
 
  0.00000000E+00  0.00000000E+00  0.00000000E+00
  0.00000000E+00  0.00000000E+00  0.00000000E+00
  0.00000000E+00  0.00000000E+00  0.00000000E+00
  0.00000000E+00  0.00000000E+00  0.00000000E+00
  0.00000000E+00  0.00000000E+00  0.00000000E+00
  0.00000000E+00  0.00000000E+00  0.00000000E+00
  0.00000000E+00  0.00000000E+00  0.00000000E+00
  0.00000000E+00  0.00000000E+00  0.00000000E+00
  0.00000000E+00  0.00000000E+00  0.00000000E+00
  0.00000000E+00  0.00000000E+00  0.00000000E+00
  0.00000000E+00  0.00000000E+00  0.00000000E+00
  0.00000000E+00  0.00000000E+00  0.00000000E+00
  0.00000000E+00  0.00000000E+00  0.00000000E+00
  0.00000000E+00  0.00000000E+00  0.00000000E+00
  0.00000000E+00  0.00000000E+00  0.00000000E+00
  0.00000000E+00  0.00000000E+00  0.00000000E+00
  0.00000000E+00  0.00000000E+00  0.00000000E+00
  0.00000000E+00  0.00000000E+00  0.00000000E+00
  0.00000000E+00  0.00000000E+00  0.00000000E+00
  0.00000000E+00  0.00000000E+00  0.00000000E+00
  0.00000000E+00  0.00000000E+00  0.00000000E+00
  0.00000000E+00  0.00000000E+00  0.00000000E+00
  0.00000000E+00  0.00000000E+00  0.00000000E+00
  0.00000000E+00  0.00000000E+00  0.00000000E+00
  0.00000000E+00  0.00000000E+00  0.00000000E+00
  0.00000000E+00  0.00000000E+00  0.00000000E+00
  0.00000000E+00  0.00000000E+00  0.00000000E+00
  0.00000000E+00  0.00000000E+00  0.00000000E+00
  0.00000000E+00  0.00000000E+00  0.00000000E+00
  0.00000000E+00  0.00000000E+00  0.00000000E+00
  0.00000000E+00  0.00000000E+00  0.00000000E+00
  0.00000000E+00  0.00000000E+00  0.00000000E+00
  0.00000000E+00  0.00000000E+00  0.00000000E+00
  0.00000000E+00  0.00000000E+00  0.00000000E+00
  0.00000000E+00  0.00000000E+00  0.00000000E+00
  0.00000000E+00  0.00000000E+00  0.00000000E+00
  0.00000000E+00  0.00000000E+00  0.00000000E+00
  0.00000000E+00  0.00000000E+00  0.00000000E+00
  0.00000000E+00  0.00000000E+00  0.00000000E+00
  0.00000000E+00  0.00000000E+00  0.00000000E+00
  0.00000000E+00  0.00000000E+00  0.00000000E+00
  0.00000000E+00  0.00000000E+00  0.00000000E+00
  0.00000000E+00  0.00000000E+00  0.00000000E+00
  0.00000000E+00  0.00000000E+00  0.00000000E+00
  0.00000000E+00  0.00000000E+00  0.00000000E+00
  0.00000000E+00  0.00000000E+00  0.00000000E+00
  0.00000000E+00  0.00000000E+00  0.00000000E+00
  0.00000000E+00  0.00000000E+00  0.00000000E+00
  0.00000000E+00  0.00000000E+00  0.00000000E+00
  0.00000000E+00  0.00000000E+00  0.00000000E+00
  0.00000000E+00  0.00000000E+00  0.00000000E+00
  0.00000000E+00  0.00000000E+00  0.00000000E+00
  0.00000000E+00  0.00000000E+00  0.00000000E+00
  0.00000000E+00  0.00000000E+00  0.00000000E+00
  0.00000000E+00  0.00000000E+00  0.00000000E+00
  0.00000000E+00  0.00000000E+00  0.00000000E+00
  0.00000000E+00  0.00000000E+00  0.00000000E+00
  0.00000000E+00  0.00000000E+00  0.00000000E+00
  0.00000000E+00  0.00000000E+00  0.00000000E+00
  0.00000000E+00  0.00000000E+00  0.00000000E+00
  0.00000000E+00  0.00000000E+00  0.00000000E+00
  0.00000000E+00  0.00000000E+00  0.00000000E+00
  0.00000000E+00  0.00000000E+00  0.00000000E+00
  0.00000000E+00  0.00000000E+00  0.00000000E+00
  0.00000000E+00  0.00000000E+00  0.00000000E+00
  0.00000000E+00  0.00000000E+00  0.00000000E+00
  0.00000000E+00  0.00000000E+00  0.00000000E+00
  0.00000000E+00  0.00000000E+00  0.00000000E+00
  0.00000000E+00  0.00000000E+00  0.00000000E+00
  0.00000000E+00  0.00000000E+00  0.00000000E+00
  0.00000000E+00  0.00000000E+00  0.00000000E+00
  0.00000000E+00  0.00000000E+00  0.00000000E+00
  0.00000000E+00  0.00000000E+00  0.00000000E+00
  0.00000000E+00  0.00000000E+00  0.00000000E+00
  0.00000000E+00  0.00000000E+00  0.00000000E+00
  0.00000000E+00  0.00000000E+00  0.00000000E+00
  0.00000000E+00  0.00000000E+00  0.00000000E+00
  0.00000000E+00  0.00000000E+00  0.00000000E+00
  0.00000000E+00  0.00000000E+00  0.00000000E+00
  0.00000000E+00  0.00000000E+00  0.00000000E+00
  0.00000000E+00  0.00000000E+00  0.00000000E+00
  0.00000000E+00  0.00000000E+00  0.00000000E+00
  0.00000000E+00  0.00000000E+00  0.00000000E+00
