CeO2-you-111-you-Hf                     
   1.00000000000000     
     9.8275325578233925   -5.6739289345181376    0.0000000009305697
     0.0379791903897464   11.4136377551919406    0.0177497162897079
     0.0193671628769887    0.0335449044223166   20.6701582249474498
   O    Hf   Ce   H 
    53     1    26     1
Selective dynamics
Direct
  0.9997947209293550  0.0003509621289327  0.9909061867206008   T   T   T
  0.1126167354632186  0.2227015580745655  0.1468390229071979   T   T   T
  0.2306877587134137  0.1131668604301834  0.3012899551002213   T   T   T
  0.1260203649004596  0.2204042335466045  0.3834160160019121   T   T   T
  0.0029149020619254  0.0012935676234980  0.2284222867752908   T   T   T
  0.2219451115003645  0.1102056125250985  0.0704163108790351   T   T   T
  0.3355652545815898  0.0001069672052646  0.9914990158951532   T   T   T
  0.4446137413572387  0.2219917170323573  0.1470347080464194   T   T   T
  0.5490504281137208  0.1119871042832798  0.3073317943508893   T   T   T
  0.4067339964582130  0.2132321896098952  0.4013036283639950   T   T   T
  0.3323691921581814  0.9964525509959532  0.2271752986981376   T   T   T
  0.5580065347869558  0.1119217210718902  0.0728875835064104   T   T   T
  0.6669516010938733  0.9998200308636722  0.9916229446726249   T   T   T
  0.7792091759657860  0.2251229891683107  0.1514782055806136   T   T   T
  0.8936389954691871  0.1137777248437454  0.3044238116340408   T   T   T
  0.7862905171616792  0.2172068677570058  0.3894037897605250   T   T   T
  0.6672433250344114  0.0015811764726424  0.2310759426292488   T   T   T
  0.8882183177672155  0.1113164876092757  0.0725916830616325   T   T   T
  0.0007971697542486  0.3334317324751864  0.9911200068978240   T   T   T
  0.1108303454312789  0.5543158758014356  0.1473880468857642   T   T   T
  0.2437806369760009  0.4416319521595968  0.3128222995726203   T   T   T
  0.1006673159208869  0.5446822297149959  0.3884149112492776   T   T   T
  0.0106080457341149  0.3374188863851637  0.2310898730999395   T   T   T
  0.2229760921380071  0.4442925708799195  0.0719876464354039   T   T   T
  0.3349329938108264  0.3340889118582546  0.9912650925408760   T   T   T
  0.4449101038515804  0.5556103223429557  0.1485907341695361   T   T   T
  0.5166959120886067  0.4409120707932905  0.3292972795838202   T   T   T
  0.3319378089585577  0.3280510891597228  0.2294232898476815   T   T   T
  0.5564946264740023  0.4445507459132672  0.0723577546532518   T   T   T
  0.6667690090288855  0.3330197107579629  0.9909688332126407   T   T   T
  0.7792073184483628  0.5562858632711966  0.1469800463600466   T   T   T
  0.8918212192202668  0.4413383662469243  0.3039084872996342   T   T   T
  0.7973875150182405  0.5642057902035243  0.3912353606153847   T   T   T
  0.6610845261834708  0.3408360567840423  0.2316449722416482   T   T   T
  0.8884330765484560  0.4432551664268352  0.0717475808435598   T   T   T
  0.0006394591217034  0.6664726942578802  0.9908746862030485   T   T   T
  0.1107393910682915  0.8882003529184314  0.1460820756366404   T   T   T
  0.2206061151051617  0.7782494391893524  0.3046384222056369   T   T   T
  0.1157380328673890  0.8919052302524018  0.3874492267605320   T   T   T
  0.0004574210981233  0.6658561896760271  0.2279144527160302   T   T   T
  0.2231461807976876  0.7776592803939031  0.0716618126052093   T   T   T
  0.3345950361224193  0.6669524609231011  0.9914570222446427   T   T   T
  0.4474090117579144  0.8897285585455382  0.1490483349482117   T   T   T
  0.5578022239537813  0.7796026090952278  0.3090477580946792   T   T   T
  0.4472737166978680  0.9006726513977883  0.3909039843936498   T   T   T
  0.3313002877691366  0.6640606961567967  0.2279407320856323   T   T   T
  0.5567298663891533  0.7773047633491760  0.0728818908601790   T   T   T
  0.6665377829649385  0.6663885185172028  0.9910957382723738   T   T   T
  0.7775313237033777  0.8887648285812693  0.1500452940369416   T   T   T
  0.8978511030462729  0.7829957037912263  0.3039911162071250   T   T   T
  0.7914735429282308  0.9057500200308849  0.3898122494047780   T   T   T
  0.6666723705037267  0.6600231137577998  0.2295041798594282   T   T   T
  0.8891048428332571  0.7784649446271620  0.0711066318834773   T   T   T
  0.3133851909115468  0.3094579228407593  0.3304177098541210   T   T   T
  0.0032983461981440  0.0011227371524325  0.3465319547654712   T   T   T
  0.2214781258672717  0.1072044076964539  0.1853412775321346   T   T   T
  0.1114671902627644  0.2227030293334678  0.0312097107608694   T   T   T
  0.3305816926523059 -0.0086520995109915  0.3455473531970091   T   T   T
  0.5557222773550790  0.1123649789549438  0.1912396699703239   T   T   T
  0.4459580884650715  0.2221652715473254  0.0311404082591394   T   T   T
  0.6701345751246680  0.0034363834400001  0.3481537607519952   T   T   T
  0.8910304064455939  0.1120843711552728  0.1899796920860363   T   T   T
  0.7783809458977385  0.2228277842310120  0.0326753940283786   T   T   T
  0.0031015233702195  0.3324087395976952  0.3474088726408592   T   T   T
  0.2240300020970581  0.4453493596635159  0.1882097736226034   T   T   T
  0.1116315341378950  0.5552676025789778  0.0316964380605051   T   T   T
  0.5563798741313327  0.4453458342286723  0.1866071451273119   T   T   T
  0.4455143300067301  0.5566700315715595  0.0314397646617009   T   T   T
  0.6705432643053618  0.3383747415755730  0.3520507759495862   T   T   T
  0.8893686330369807  0.4453238237482339  0.1905773983502865   T   T   T
  0.7789090651094365  0.5559966719919728  0.0314801822826096   T   T   T
  0.9998005164244902  0.6627553333066111  0.3468726694195129   T   T   T
  0.2226506274163247  0.7765932364603719  0.1871513024174457   T   T   T
  0.1114400310497572  0.8887251136032265  0.0304049540393025   T   T   T
  0.3294941311466537  0.6719740157206072  0.3462212467324862   T   T   T
  0.5567380995123725  0.7781327145384964  0.1920426645682713   T   T   T
  0.4466796811043033  0.8895157278840811  0.0327922699877639   T   T   T
  0.6828154905879376  0.6758339710757919  0.3477972038544014   T   T   T
  0.8897267402703339  0.7774331414332809  0.1886455720134735   T   T   T
  0.7778654314192478  0.8892111727737355  0.0324260589241566   T   T   T
  0.3872160878623476  0.2112182635293019  0.4472097676312571   T   T   T
 
  0.00000000E+00  0.00000000E+00  0.00000000E+00
  0.00000000E+00  0.00000000E+00  0.00000000E+00
  0.00000000E+00  0.00000000E+00  0.00000000E+00
  0.00000000E+00  0.00000000E+00  0.00000000E+00
  0.00000000E+00  0.00000000E+00  0.00000000E+00
  0.00000000E+00  0.00000000E+00  0.00000000E+00
  0.00000000E+00  0.00000000E+00  0.00000000E+00
  0.00000000E+00  0.00000000E+00  0.00000000E+00
  0.00000000E+00  0.00000000E+00  0.00000000E+00
  0.00000000E+00  0.00000000E+00  0.00000000E+00
  0.00000000E+00  0.00000000E+00  0.00000000E+00
  0.00000000E+00  0.00000000E+00  0.00000000E+00
  0.00000000E+00  0.00000000E+00  0.00000000E+00
  0.00000000E+00  0.00000000E+00  0.00000000E+00
  0.00000000E+00  0.00000000E+00  0.00000000E+00
  0.00000000E+00  0.00000000E+00  0.00000000E+00
  0.00000000E+00  0.00000000E+00  0.00000000E+00
  0.00000000E+00  0.00000000E+00  0.00000000E+00
  0.00000000E+00  0.00000000E+00  0.00000000E+00
  0.00000000E+00  0.00000000E+00  0.00000000E+00
  0.00000000E+00  0.00000000E+00  0.00000000E+00
  0.00000000E+00  0.00000000E+00  0.00000000E+00
  0.00000000E+00  0.00000000E+00  0.00000000E+00
  0.00000000E+00  0.00000000E+00  0.00000000E+00
  0.00000000E+00  0.00000000E+00  0.00000000E+00
  0.00000000E+00  0.00000000E+00  0.00000000E+00
  0.00000000E+00  0.00000000E+00  0.00000000E+00
  0.00000000E+00  0.00000000E+00  0.00000000E+00
  0.00000000E+00  0.00000000E+00  0.00000000E+00
  0.00000000E+00  0.00000000E+00  0.00000000E+00
  0.00000000E+00  0.00000000E+00  0.00000000E+00
  0.00000000E+00  0.00000000E+00  0.00000000E+00
  0.00000000E+00  0.00000000E+00  0.00000000E+00
  0.00000000E+00  0.00000000E+00  0.00000000E+00
  0.00000000E+00  0.00000000E+00  0.00000000E+00
  0.00000000E+00  0.00000000E+00  0.00000000E+00
  0.00000000E+00  0.00000000E+00  0.00000000E+00
  0.00000000E+00  0.00000000E+00  0.00000000E+00
  0.00000000E+00  0.00000000E+00  0.00000000E+00
  0.00000000E+00  0.00000000E+00  0.00000000E+00
  0.00000000E+00  0.00000000E+00  0.00000000E+00
  0.00000000E+00  0.00000000E+00  0.00000000E+00
  0.00000000E+00  0.00000000E+00  0.00000000E+00
  0.00000000E+00  0.00000000E+00  0.00000000E+00
  0.00000000E+00  0.00000000E+00  0.00000000E+00
  0.00000000E+00  0.00000000E+00  0.00000000E+00
  0.00000000E+00  0.00000000E+00  0.00000000E+00
  0.00000000E+00  0.00000000E+00  0.00000000E+00
  0.00000000E+00  0.00000000E+00  0.00000000E+00
  0.00000000E+00  0.00000000E+00  0.00000000E+00
  0.00000000E+00  0.00000000E+00  0.00000000E+00
  0.00000000E+00  0.00000000E+00  0.00000000E+00
  0.00000000E+00  0.00000000E+00  0.00000000E+00
  0.00000000E+00  0.00000000E+00  0.00000000E+00
  0.00000000E+00  0.00000000E+00  0.00000000E+00
  0.00000000E+00  0.00000000E+00  0.00000000E+00
  0.00000000E+00  0.00000000E+00  0.00000000E+00
  0.00000000E+00  0.00000000E+00  0.00000000E+00
  0.00000000E+00  0.00000000E+00  0.00000000E+00
  0.00000000E+00  0.00000000E+00  0.00000000E+00
  0.00000000E+00  0.00000000E+00  0.00000000E+00
  0.00000000E+00  0.00000000E+00  0.00000000E+00
  0.00000000E+00  0.00000000E+00  0.00000000E+00
  0.00000000E+00  0.00000000E+00  0.00000000E+00
  0.00000000E+00  0.00000000E+00  0.00000000E+00
  0.00000000E+00  0.00000000E+00  0.00000000E+00
  0.00000000E+00  0.00000000E+00  0.00000000E+00
  0.00000000E+00  0.00000000E+00  0.00000000E+00
  0.00000000E+00  0.00000000E+00  0.00000000E+00
  0.00000000E+00  0.00000000E+00  0.00000000E+00
  0.00000000E+00  0.00000000E+00  0.00000000E+00
  0.00000000E+00  0.00000000E+00  0.00000000E+00
  0.00000000E+00  0.00000000E+00  0.00000000E+00
  0.00000000E+00  0.00000000E+00  0.00000000E+00
  0.00000000E+00  0.00000000E+00  0.00000000E+00
  0.00000000E+00  0.00000000E+00  0.00000000E+00
  0.00000000E+00  0.00000000E+00  0.00000000E+00
  0.00000000E+00  0.00000000E+00  0.00000000E+00
  0.00000000E+00  0.00000000E+00  0.00000000E+00
  0.00000000E+00  0.00000000E+00  0.00000000E+00
  0.00000000E+00  0.00000000E+00  0.00000000E+00
