CeO2-you-111-you-Mn                     
   1.00000000000000     
     9.8938887960590822   -5.7122397346258298   -0.0000000012153931
    -0.0421129110995097   11.3515357618549722   -0.0232072284552211
    -0.0253516421245079   -0.0439103247587224   20.5703023012140704
   O    Mn   Ce
    53     1    26
Selective dynamics
Direct
 -0.0005679757517256  0.0000623733241084  0.9907734080585553   T   T   T
  0.1081089042789912  0.2212869095299877  0.1477923507663228   T   T   T
  0.2314357768214007  0.1295385536455367  0.3107775387482072   T   T   T
  0.0690032323497917  0.2047889731799850  0.3971304044504932   T   T   T
  0.0051568572753354  0.0023913494555244  0.2299562466002755   T   T   T
  0.2224411900744540  0.1115493801488011  0.0714518757333843   T   T   T
  0.3339633490758647  0.0000623733241245  0.9907734080586188   T   T   T
  0.4465110052505320  0.2212869095291439  0.1477923507662862   T   T   T
  0.5575390034188799  0.1087507584074799  0.3033635824655038   T   T   T
  0.4691187408333080  0.2047889731834822  0.3971304044516638   T   T   T
  0.3305674921799795  0.0023913494540307  0.2299562466001009   T   T   T
  0.5573200772827964  0.1110649620597686  0.0723447781463901   T   T   T
  0.6661804153063288 -0.0009731693873102  0.9907555334020770   T   T   T
  0.7773259658131656  0.2213179316263951  0.1526619200202559   T   T   T
  0.8845457549894628  0.1087507584081518  0.3033635824654387   T   T   T
  0.7754263335246078  0.2175186670486176  0.3878326733225682   T   T   T
  0.6613865473646492 -0.0105609052715429  0.2318707726226806   T   T   T
  0.8870788847768540  0.1110649620594706  0.0723447781463164   T   T   T
  0.0001645234380888  0.3331483833490942  0.9912522044937172   T   T   T
  0.1095610914561793  0.5557656269349341  0.1482531948753778   T   T   T
  0.2433788890934831  0.4474972738822690  0.3175538739880168   T   T   T
  0.1116259425490494  0.5609356160715661  0.3880429751442441   T   T   T
  0.0087273924262106  0.3385541585610841  0.2327256669064114   T   T   T
  0.2223816007650653  0.4448963892357297  0.0729329173810621   T   T   T
  0.3337699367644942  0.3342068735291853  0.9913436178225778   T   T   T
  0.4460302140027292  0.5587284280065642  0.1481882224511024   T   T   T
  0.5374523847880626  0.4474972738803966  0.3175538739879314   T   T   T
  0.3347926213936843  0.3362522427886526  0.2230568068920775   T   T   T
  0.5558487884706764  0.4448963892359517  0.0729329173811008   T   T   T
  0.6663178599107132  0.3331483833486902  0.9912522044937806   T   T   T
  0.7795375354783510  0.5557656269346366  0.1482531948754317   T   T   T
  0.8889691469149854  0.4446042938297418  0.3074792011666342   T   T   T
  0.7826426735221232  0.5609356160718818  0.3880429751442573   T   T   T
  0.6631607661346072  0.3385541585609546  0.2327256669064877   T   T   T
  0.8875793953465694  0.4418247906929241  0.0728762790873601   T   T   T
 -0.0010504880651025  0.6645660238692307  0.9910657709540897   T   T   T
  0.1112733860971123  0.8892137721935482  0.1465024865394070   T   T   T
  0.2209196145501880  0.7804034261529327  0.3048528730810440   T   T   T
  0.1127561375342298  0.8921792750684652  0.3876987766149224   T   T   T
  0.0009020074492852  0.6684710148985747  0.2294799992652817   T   T   T
  0.2222615597485242  0.7783390319251332  0.0713081260625542   T   T   T
  0.3331972696782004  0.6657860935389170  0.9911188589918523   T   T   T
  0.4435389082710973  0.8883485481492689  0.1488626640463372   T   T   T
  0.5440597666792699  0.7547855333592919  0.3140222310375904   T   T   T
  0.4433538623376972  0.8876621854896233  0.3868552930119510   T   T   T
  0.3301483697935798  0.6665672048932504  0.2300190369936715   T   T   T
  0.5561212472910274  0.7789084945822231  0.0725235927161762   T   T   T
  0.6659218238609550  0.6657860935389368  0.9911188589918463   T   T   T
  0.7781426398785327  0.8883485481493048  0.1488626640464550   T   T   T
  0.8928168116044409  0.7804034261542144  0.3048528730810494   T   T   T
  0.7776413231529115  0.8876621854901162  0.3868552930118673   T   T   T
  0.6697518350998041  0.6665672048931819  0.2300190369934995   T   T   T
  0.8894104721768047  0.7783390319249811  0.0713081260625372   T   T   T
  0.3336062117691533  0.3338794235430316  0.3229615344066777   T   T   T
  0.0057921205520117  0.0095202929654856  0.3495099354362259   T   T   T
  0.2227268706964452  0.1121207413938447  0.1888944626107660   T   T   T
  0.1104316010117276  0.2217739513188057  0.0317179258223187   T   T   T
  0.3370611724126821  0.0095202929669613  0.3495099354362382   T   T   T
  0.5544140025741682  0.1104740793597532  0.1906078932254908   T   T   T
  0.4446753503072345  0.2217739513189281  0.0317179258223143   T   T   T
  0.6654818804004567 -0.0023702391972508  0.3478503403427499   T   T   T
  0.8893940767846037  0.1104740793587481  0.1906078932254750   T   T   T
  0.7773685762823412  0.2214031525647040  0.0324905144086207   T   T   T
 -0.0006686322134017  0.3293087899152837  0.3504062281771689   T   T   T
  0.2219439543740277  0.4449193156964630  0.1884568051155765   T   T   T
  0.1099727214162707  0.5543930425587630  0.0318752748994590   T   T   T
  0.5563093613235990  0.4449193156968651  0.1884568051156292   T   T   T
  0.4444558179513968  0.5555796359025602  0.0312991322366737   T   T   T
  0.6633114221294635  0.3293087899149706  0.3504062281772948   T   T   T
  0.8891155230712269  0.4448970461417824  0.1919366629973651   T   T   T
  0.7777533211425527  0.5543930425588194  0.0318752748994899   T   T   T
  0.0014705405670824  0.6696080811343033  0.3474982813485908   T   T   T
  0.2214286561924767  0.7797663841429043  0.1880331067348014   T   T   T
  0.1110458772269192  0.8887587544540242  0.0304363892571234   T   T   T
  0.3221260353412520  0.6714861685095334  0.3437268767290318   T   T   T
  0.5545453294373632  0.7757566588744714  0.1896317572464228   T   T   T
  0.4446191992883244  0.8884484836712597  0.0315728117698410   T   T   T
  0.6826931331698732  0.6714861685104010  0.3437268767293631   T   T   T
  0.8916707279498530  0.7797663841425362  0.1880331067347560   T   T   T
  0.7771622843825953  0.8884484836708348  0.0315728117697991   T   T   T
 
  0.00000000E+00  0.00000000E+00  0.00000000E+00
  0.00000000E+00  0.00000000E+00  0.00000000E+00
  0.00000000E+00  0.00000000E+00  0.00000000E+00
  0.00000000E+00  0.00000000E+00  0.00000000E+00
  0.00000000E+00  0.00000000E+00  0.00000000E+00
  0.00000000E+00  0.00000000E+00  0.00000000E+00
  0.00000000E+00  0.00000000E+00  0.00000000E+00
  0.00000000E+00  0.00000000E+00  0.00000000E+00
  0.00000000E+00  0.00000000E+00  0.00000000E+00
  0.00000000E+00  0.00000000E+00  0.00000000E+00
  0.00000000E+00  0.00000000E+00  0.00000000E+00
  0.00000000E+00  0.00000000E+00  0.00000000E+00
  0.00000000E+00  0.00000000E+00  0.00000000E+00
  0.00000000E+00  0.00000000E+00  0.00000000E+00
  0.00000000E+00  0.00000000E+00  0.00000000E+00
  0.00000000E+00  0.00000000E+00  0.00000000E+00
  0.00000000E+00  0.00000000E+00  0.00000000E+00
  0.00000000E+00  0.00000000E+00  0.00000000E+00
  0.00000000E+00  0.00000000E+00  0.00000000E+00
  0.00000000E+00  0.00000000E+00  0.00000000E+00
  0.00000000E+00  0.00000000E+00  0.00000000E+00
  0.00000000E+00  0.00000000E+00  0.00000000E+00
  0.00000000E+00  0.00000000E+00  0.00000000E+00
  0.00000000E+00  0.00000000E+00  0.00000000E+00
  0.00000000E+00  0.00000000E+00  0.00000000E+00
  0.00000000E+00  0.00000000E+00  0.00000000E+00
  0.00000000E+00  0.00000000E+00  0.00000000E+00
  0.00000000E+00  0.00000000E+00  0.00000000E+00
  0.00000000E+00  0.00000000E+00  0.00000000E+00
  0.00000000E+00  0.00000000E+00  0.00000000E+00
  0.00000000E+00  0.00000000E+00  0.00000000E+00
  0.00000000E+00  0.00000000E+00  0.00000000E+00
  0.00000000E+00  0.00000000E+00  0.00000000E+00
  0.00000000E+00  0.00000000E+00  0.00000000E+00
  0.00000000E+00  0.00000000E+00  0.00000000E+00
  0.00000000E+00  0.00000000E+00  0.00000000E+00
  0.00000000E+00  0.00000000E+00  0.00000000E+00
  0.00000000E+00  0.00000000E+00  0.00000000E+00
  0.00000000E+00  0.00000000E+00  0.00000000E+00
  0.00000000E+00  0.00000000E+00  0.00000000E+00
  0.00000000E+00  0.00000000E+00  0.00000000E+00
  0.00000000E+00  0.00000000E+00  0.00000000E+00
  0.00000000E+00  0.00000000E+00  0.00000000E+00
  0.00000000E+00  0.00000000E+00  0.00000000E+00
  0.00000000E+00  0.00000000E+00  0.00000000E+00
  0.00000000E+00  0.00000000E+00  0.00000000E+00
  0.00000000E+00  0.00000000E+00  0.00000000E+00
  0.00000000E+00  0.00000000E+00  0.00000000E+00
  0.00000000E+00  0.00000000E+00  0.00000000E+00
  0.00000000E+00  0.00000000E+00  0.00000000E+00
  0.00000000E+00  0.00000000E+00  0.00000000E+00
  0.00000000E+00  0.00000000E+00  0.00000000E+00
  0.00000000E+00  0.00000000E+00  0.00000000E+00
  0.00000000E+00  0.00000000E+00  0.00000000E+00
  0.00000000E+00  0.00000000E+00  0.00000000E+00
  0.00000000E+00  0.00000000E+00  0.00000000E+00
  0.00000000E+00  0.00000000E+00  0.00000000E+00
  0.00000000E+00  0.00000000E+00  0.00000000E+00
  0.00000000E+00  0.00000000E+00  0.00000000E+00
  0.00000000E+00  0.00000000E+00  0.00000000E+00
  0.00000000E+00  0.00000000E+00  0.00000000E+00
  0.00000000E+00  0.00000000E+00  0.00000000E+00
  0.00000000E+00  0.00000000E+00  0.00000000E+00
  0.00000000E+00  0.00000000E+00  0.00000000E+00
  0.00000000E+00  0.00000000E+00  0.00000000E+00
  0.00000000E+00  0.00000000E+00  0.00000000E+00
  0.00000000E+00  0.00000000E+00  0.00000000E+00
  0.00000000E+00  0.00000000E+00  0.00000000E+00
  0.00000000E+00  0.00000000E+00  0.00000000E+00
  0.00000000E+00  0.00000000E+00  0.00000000E+00
  0.00000000E+00  0.00000000E+00  0.00000000E+00
  0.00000000E+00  0.00000000E+00  0.00000000E+00
  0.00000000E+00  0.00000000E+00  0.00000000E+00
  0.00000000E+00  0.00000000E+00  0.00000000E+00
  0.00000000E+00  0.00000000E+00  0.00000000E+00
  0.00000000E+00  0.00000000E+00  0.00000000E+00
  0.00000000E+00  0.00000000E+00  0.00000000E+00
  0.00000000E+00  0.00000000E+00  0.00000000E+00
  0.00000000E+00  0.00000000E+00  0.00000000E+00
  0.00000000E+00  0.00000000E+00  0.00000000E+00
