CeO2-you-111-you-Os                     
   1.00000000000000     
     9.8402736906427624   -5.6812850295671273    0.0000000005243610
     0.0492327294573756   11.4478416428374423    0.0088661076860054
     0.0089796619856284    0.0155532279995833   21.1807470509145581
   O    Os   Ce   H 
    53     1    26     2
Selective dynamics
Direct
  0.9979497324925303  0.9991049092448503  0.9963322916917621   T   T   T
  0.1096089549209438  0.2160127061706447  0.1484363455237627   F   F   F
  0.2553641434764933  0.1362908237592486  0.3190901234300185   T   T   T
  0.1178484514215619  0.2268782948065622  0.3700586026220999   T   T   T
  0.0083063826861461  0.0010578514153350  0.2328586359594882   T   T   T
  0.2203482280120781  0.1073634560240677  0.0727793576569624   F   F   F
  0.3343642858584599  0.9987643228832535  0.9962666365323362   T   T   T
  0.4397367512500310  0.2160127061704742  0.1484363455238267   F   F   F
  0.5542899516356764  0.1109937466746934  0.3050187276980474   T   T   T
  0.4787755192930294  0.1947951378534535  0.4093996143638383   T   T   T
  0.3284393454417327  0.9987966046268917  0.2310070318097584   T   T   T
  0.5578659526975827  0.1118078840079306  0.0767108194753661   F   F   F
  0.6672941937271942  0.0006274860890534  0.9963273829372556   T   T   T
  0.7790224236311118  0.2247108472623651  0.1530523803163817   F   F   F
  0.8874285344365304  0.1088060880958059  0.3039859868020159   T   T   T
  0.7825630070484586  0.2247563885174344  0.3823848688665104   T   T   T
  0.6664841915703459 -0.0003509159880294  0.2308520838434145   T   T   T
  0.8872759313104197  0.1118078840082148  0.0767108194753803   F   F   F
  0.9985441911951409  0.3316077904111263  0.9960224831512658   T   T   T
  0.1071229535535636  0.5580950089479373  0.1486403121955036   F   F   F
  0.2610440838630951  0.4526230048184677  0.3173241105497898   T   T   T
  0.0976555794613324  0.5459629800395158  0.3817678603293956   T   T   T
  0.0045678361740904  0.3347226767697213  0.2338523368413790   T   T   T
  0.2204549920726677  0.4431060352075917  0.0732763224422186   F   F   F
  0.3324768200181317  0.3314734002141291  0.9968304168545649   T   T   T
  0.4488685115033064  0.5644050230075450  0.1475366397121931   F   F   F
  0.5009181550770720  0.4226531847331944  0.3222137953254594   T   T   T
  0.3171525646251087  0.3159556615583148  0.2310930687708156   T   T   T
  0.5559850431348465  0.4431060352075207  0.0732763224422186   F   F   F
  0.6668117912963865  0.3312869535677630  0.9960431073603064   T   T   T
  0.7843050553939648  0.5580950089474470  0.1486403121956030   F   F   F
  0.8886347655720097  0.4429533511552419  0.3021864281170910   T   T   T
  0.7775883853757845  0.5428285254349728  0.3809848146082179   T   T   T
  0.6645033860436342  0.3342752578316283  0.2347758142581182   T   T   T
  0.8875724373681919  0.4418108747363618  0.0747476628952626   F   F   F
  0.9997238981914307  0.6662283936734604  0.9963302537434036   T   T   T
  0.1096771309082882  0.8860212618162606  0.1481982354675964   F   F   F
  0.2192187719462299  0.7813660835147309  0.3057678491672209   T   T   T
  0.1121789322044354  0.8925015287563939  0.3830025680333796   T   T   T
 -0.0000029636788524  0.6670094905464119  0.2297480098419750   T   T   T
  0.2232879720813656  0.7786020759440078  0.0751335911300473   F   F   F
  0.3339197602543770  0.6672689717156333  0.9973519697993861   T   T   T
  0.4469860970545767  0.8914564772018707  0.1510119183105374   F   F   F
  0.5577369570465381  0.7798370351938212  0.3098288098760305   T   T   T
  0.4503185085848535  0.9001138902691564  0.3877848409542176   T   T   T
  0.3329354831960389  0.6715821520515620  0.2306018063715815   T   T   T
  0.5576029116862600  0.7818718233725050  0.0757181005138534   F   F   F
  0.6670580398477628  0.6680398165009980  0.9972591062694520   T   T   T
  0.7778033801475459  0.8914564772021265  0.1510119183104806   F   F   F
  0.8943443295369069  0.7798669694351287  0.3047462650440231   T   T   T
  0.7912790438201572  0.9013164613158987  0.3868953174134522   T   T   T
  0.6708151635858163  0.6695858029643500  0.2316447352874798   T   T   T
  0.8886471038627093  0.7786020759441143  0.0751335911300757   F   F   F
  0.3078525816110120  0.3187987262487069  0.3310189586046983   T   T   T
  0.9989077572581407  0.9964166870519899  0.3436932189275992   T   T   T
  0.2180133428289039  0.1026936856565328  0.1831045682095152   F   F   F
  0.1102031998654525  0.2222489933789547  0.0352444902843487   F   F   F
  0.3371615890684564  0.9945298006719637  0.3469152367831204   T   T   T
  0.5545550528517964  0.1120914683832481  0.1901135011282591   F   F   F
  0.4453787935133136  0.2222489933791110  0.0352444902844056   F   F   F
  0.6691100385890300 -0.0005309314443389  0.3435600825455136   T   T   T
  0.8908704155307134  0.1120914683826086  0.1901135011284012   F   F   F
  0.7778428452980037  0.2223516905959784  0.0361492543700734   F   F   F
 -0.0040978171262176  0.3335596299116229  0.3417936834357991   T   T   T
  0.2246768452257371  0.4469427306171454  0.1879841111945382   F   F   F
  0.1112414289522832  0.5551466027564587  0.0361854794821923   F   F   F
  0.5555998853921409  0.4469427306178133  0.1879841111948295   F   F   F
  0.4451508023361654  0.5569696046720836  0.0365961211191106   F   F   F
  0.6718961418615684  0.3301460378965688  0.3444591028860679   T   T   T
  0.8894485781719936  0.4455631563439582  0.1891488419697325   F   F   F
  0.7772381738044487  0.5551466027565723  0.0361854794821568   F   F   F
  0.9983972472094396  0.6635146296811245  0.3420569183964614   T   T   T
  0.2224852581478984  0.7764516642292918  0.1882800329663326   F   F   F
  0.1101731223902433  0.8870132447804551  0.0342367419895808   F   F   F
  0.3307783768953804  0.6794569128546947  0.3451082814322926   T   T   T
  0.5558633400855086  0.7783926801711232  0.1910276393179515   F   F   F
  0.4459395208739778  0.8900329084883083  0.0366135143910853   F   F   F
  0.6785947116133537  0.6741023806210592  0.3443004196417514   T   T   T
  0.8872994060807997  0.7764516642291355  0.1882800329664960   F   F   F
  0.7774263876142129  0.8900329084881946  0.0366135143910213   F   F   F
  0.3390628809836262  0.3432867258410429  0.4075626458445664   T   T   T
  0.4353143998887355  0.2368584792070410  0.4325124335803707   T   T   T
 
  0.00000000E+00  0.00000000E+00  0.00000000E+00
  0.00000000E+00  0.00000000E+00  0.00000000E+00
  0.00000000E+00  0.00000000E+00  0.00000000E+00
  0.00000000E+00  0.00000000E+00  0.00000000E+00
  0.00000000E+00  0.00000000E+00  0.00000000E+00
  0.00000000E+00  0.00000000E+00  0.00000000E+00
  0.00000000E+00  0.00000000E+00  0.00000000E+00
  0.00000000E+00  0.00000000E+00  0.00000000E+00
  0.00000000E+00  0.00000000E+00  0.00000000E+00
  0.00000000E+00  0.00000000E+00  0.00000000E+00
  0.00000000E+00  0.00000000E+00  0.00000000E+00
  0.00000000E+00  0.00000000E+00  0.00000000E+00
  0.00000000E+00  0.00000000E+00  0.00000000E+00
  0.00000000E+00  0.00000000E+00  0.00000000E+00
  0.00000000E+00  0.00000000E+00  0.00000000E+00
  0.00000000E+00  0.00000000E+00  0.00000000E+00
  0.00000000E+00  0.00000000E+00  0.00000000E+00
  0.00000000E+00  0.00000000E+00  0.00000000E+00
  0.00000000E+00  0.00000000E+00  0.00000000E+00
  0.00000000E+00  0.00000000E+00  0.00000000E+00
  0.00000000E+00  0.00000000E+00  0.00000000E+00
  0.00000000E+00  0.00000000E+00  0.00000000E+00
  0.00000000E+00  0.00000000E+00  0.00000000E+00
  0.00000000E+00  0.00000000E+00  0.00000000E+00
  0.00000000E+00  0.00000000E+00  0.00000000E+00
  0.00000000E+00  0.00000000E+00  0.00000000E+00
  0.00000000E+00  0.00000000E+00  0.00000000E+00
  0.00000000E+00  0.00000000E+00  0.00000000E+00
  0.00000000E+00  0.00000000E+00  0.00000000E+00
  0.00000000E+00  0.00000000E+00  0.00000000E+00
  0.00000000E+00  0.00000000E+00  0.00000000E+00
  0.00000000E+00  0.00000000E+00  0.00000000E+00
  0.00000000E+00  0.00000000E+00  0.00000000E+00
  0.00000000E+00  0.00000000E+00  0.00000000E+00
  0.00000000E+00  0.00000000E+00  0.00000000E+00
  0.00000000E+00  0.00000000E+00  0.00000000E+00
  0.00000000E+00  0.00000000E+00  0.00000000E+00
  0.00000000E+00  0.00000000E+00  0.00000000E+00
  0.00000000E+00  0.00000000E+00  0.00000000E+00
  0.00000000E+00  0.00000000E+00  0.00000000E+00
  0.00000000E+00  0.00000000E+00  0.00000000E+00
  0.00000000E+00  0.00000000E+00  0.00000000E+00
  0.00000000E+00  0.00000000E+00  0.00000000E+00
  0.00000000E+00  0.00000000E+00  0.00000000E+00
  0.00000000E+00  0.00000000E+00  0.00000000E+00
  0.00000000E+00  0.00000000E+00  0.00000000E+00
  0.00000000E+00  0.00000000E+00  0.00000000E+00
  0.00000000E+00  0.00000000E+00  0.00000000E+00
  0.00000000E+00  0.00000000E+00  0.00000000E+00
  0.00000000E+00  0.00000000E+00  0.00000000E+00
  0.00000000E+00  0.00000000E+00  0.00000000E+00
  0.00000000E+00  0.00000000E+00  0.00000000E+00
  0.00000000E+00  0.00000000E+00  0.00000000E+00
  0.00000000E+00  0.00000000E+00  0.00000000E+00
  0.00000000E+00  0.00000000E+00  0.00000000E+00
  0.00000000E+00  0.00000000E+00  0.00000000E+00
  0.00000000E+00  0.00000000E+00  0.00000000E+00
  0.00000000E+00  0.00000000E+00  0.00000000E+00
  0.00000000E+00  0.00000000E+00  0.00000000E+00
  0.00000000E+00  0.00000000E+00  0.00000000E+00
  0.00000000E+00  0.00000000E+00  0.00000000E+00
  0.00000000E+00  0.00000000E+00  0.00000000E+00
  0.00000000E+00  0.00000000E+00  0.00000000E+00
  0.00000000E+00  0.00000000E+00  0.00000000E+00
  0.00000000E+00  0.00000000E+00  0.00000000E+00
  0.00000000E+00  0.00000000E+00  0.00000000E+00
  0.00000000E+00  0.00000000E+00  0.00000000E+00
  0.00000000E+00  0.00000000E+00  0.00000000E+00
  0.00000000E+00  0.00000000E+00  0.00000000E+00
  0.00000000E+00  0.00000000E+00  0.00000000E+00
  0.00000000E+00  0.00000000E+00  0.00000000E+00
  0.00000000E+00  0.00000000E+00  0.00000000E+00
  0.00000000E+00  0.00000000E+00  0.00000000E+00
  0.00000000E+00  0.00000000E+00  0.00000000E+00
  0.00000000E+00  0.00000000E+00  0.00000000E+00
  0.00000000E+00  0.00000000E+00  0.00000000E+00
  0.00000000E+00  0.00000000E+00  0.00000000E+00
  0.00000000E+00  0.00000000E+00  0.00000000E+00
  0.00000000E+00  0.00000000E+00  0.00000000E+00
  0.00000000E+00  0.00000000E+00  0.00000000E+00
  0.00000000E+00  0.00000000E+00  0.00000000E+00
  0.00000000E+00  0.00000000E+00  0.00000000E+00
