CeO2-you-111-you-Ce                     
   1.00000000000000     
     9.8853507421611191   -5.6921985076704393    0.0078244422093997
    -0.0000000045765240   11.3843950040423110   -0.0000000009230409
     0.0172572080434381   -0.0000000017720765   20.8681875916679935
   O    Ce   Ce   H 
    53     1    26     1
Selective dynamics
Direct
 -0.0000150030257500  0.0016202593324990  0.9942236449191717   T   T   T
  0.1198324904283667  0.2259940982939053  0.1506355478704469   T   T   T
  0.2212140028949693  0.1175158748355358  0.3063247407181643   T   T   T
  0.1092782038284211  0.2239351350263324  0.3878807431729555   T   T   T
  0.0017749175675837  0.0014302865698173  0.2281271727766838   T   T   T
  0.2223870742232927  0.1107574834249820  0.0724535086074533   T   T   T
  0.3346965176042667  0.0005810399472523  0.9928496435078958   T   T   T
  0.4426132997385884  0.2209819377944192  0.1464523254308290   T   T   T
  0.5563275426830395  0.1068928869796234  0.3052819894935062   T   T   T
  0.4439529368466411  0.2355083660154862  0.4006014275779090   T   T   T
  0.3306693303505088  0.0001011266761135  0.2284421154841219   T   T   T
  0.5552972412595176  0.1106282304800842  0.0737645005290099   T   T   T
  0.6696222133197878  0.0016903861072292  0.9947956777267943   T   T   T
  0.7737111004273858  0.2251954248916264  0.1512121939787181   T   T   T
  0.8908784759603233  0.1117323451545854  0.3034555836841046   T   T   T
  0.7846427631181333  0.2171724173833453  0.3886342462676699   T   T   T
  0.6689258363081038  0.0001449055902871  0.2283061454851582   T   T   T
  0.8899981084602971  0.1117806057906130  0.0767365723647104   T   T   T
 -0.0002906728757763  0.3315897502353800  0.9940850996431170   T   T   T
  0.1115258167798558  0.5558546444494646  0.1485987010915642   T   T   T
  0.2148078827796286  0.4393061311567091  0.3030411249194498   T   T   T
  0.1121037273692814  0.5531579306324838  0.3861139422292289   T   T   T
  0.9998558244302005  0.3325808071010448  0.2264119627003651   T   T   T
  0.2218206597605176  0.4446130051480177  0.0722802547680898   T   T   T
  0.3327187707814495  0.3331655083685920  0.9926074320884315   T   T   T
  0.4431729028844337  0.5556104739757266  0.1452845729534488   T   T   T
  0.4361158753966156  0.5334685928990629  0.3791945759231591   T   T   T
  0.3544221238560292  0.3454928787541140  0.2355995850620248   T   T   T
  0.5568812955999329  0.4449858508045453  0.0693330320793734   T   T   T
  0.6683369851623435  0.3323608019946325  0.9928567314464121   T   T   T
  0.7800010275550165  0.5571217744682189  0.1451011331883698   T   T   T
  0.8953274050635218  0.4437608020315091  0.3028151621198952   T   T   T
  0.7846739179170945  0.5576369573897022  0.3848079727008723   T   T   T
  0.6569341964685511  0.3435495060965549  0.2334154111961546   T   T   T
  0.8902179674211553  0.4446616938698829  0.0726797563700707   T   T   T
  0.0015134489656050  0.6670971526512065  0.9923700662599065   T   T   T
  0.1105637416455474  0.8894651626474239  0.1489049001517616   T   T   T
  0.2190303075769419  0.7698582213353207  0.3035796361835373   T   T   T
  0.0967983981006274  0.8806505356218928  0.3872046546088733   T   T   T
  0.9978174769921281  0.6658513706176437  0.2280396179861676   T   T   T
  0.2229794289444166  0.7785290099573933  0.0732673634056644   T   T   T
  0.3342733449392337  0.6677116490698723  0.9928175459153975   T   T   T
  0.4447504994841018  0.8889333482517576  0.1506172485088420   T   T   T
  0.5530401462086179  0.7794833227118626  0.3035816901975194   T   T   T
  0.4456193839993078  0.8752004770009607  0.3884726697989094   T   T   T
  0.3325579051843208  0.6630923506875334  0.2285472902918740   T   T   T
  0.5558730822332398  0.7786487608024575  0.0731001710493405   T   T   T
  0.6682810036565291  0.6692910643078198  0.9923520785419908   T   T   T
  0.7748372120019698  0.8823257316483539  0.1508214289515681   T   T   T
  0.8929197861439421  0.7830480638054574  0.3023990429861190   T   T   T
  0.7836515177191539  0.9002417607187150  0.3879734730002576   T   T   T
  0.6569908302086895  0.6474884054818572  0.2327597513556253   T   T   T
  0.8902058579081625  0.7788413093939888  0.0719403341615331   T   T   T
  0.3102882548457340  0.3276855438171532  0.3455125992201410   T   T   T
  0.9978620861078858  0.9970184588433862  0.3447297310068649   T   T   T
  0.2240784475603869  0.1113511023696205  0.1900460153395269   T   T   T
  0.1120988839110078  0.2225200466000581  0.0337758362661124   T   T   T
  0.3284989154765364  0.9899509919438018  0.3481900745586740   T   T   T
  0.5541034315282004  0.1115167369696870  0.1919612608563822   T   T   T
  0.4440905219459866  0.2201847708084504  0.0316058001597846   T   T   T
  0.6652899715745337  0.9974591783737264  0.3448305843373835   T   T   T
  0.8894332200077828  0.1113000509175145  0.1900745845496068   T   T   T
  0.7778779888475913  0.2224475732181586  0.0347493923931553   T   T   T
  0.9974236545168392  0.3328149350102277  0.3448463873459500   T   T   T
  0.2231283431076925  0.4454394544165125  0.1881158236339725   T   T   T
  0.1114152997397713  0.5554395425674750  0.0332857576792333   T   T   T
  0.5569334933904452  0.4456829777836244  0.1798059139013369   T   T   T
  0.4443522851339670  0.5573260223030546  0.0309546433750254   T   T   T
  0.6793530346094105  0.3300660221886232  0.3502656622764556   T   T   T
  0.8881877104761479  0.4451833059353231  0.1892963308494641   T   T   T
  0.7808162893809694  0.5571501315578548  0.0308893453171478   T   T   T
 -0.0019860633426581  0.6658253224183075  0.3450200200243857   T   T   T
  0.2216740546532672  0.7777379555263634  0.1889512066446435   T   T   T
  0.1116378342423753  0.8898114859130118  0.0337563925331220   T   T   T
  0.3318355455873883  0.6654225418302427  0.3441593387030891   T   T   T
  0.5550457336708858  0.7756803331713492  0.1906842031843661   T   T   T
  0.4458536225158352  0.8899435565154449  0.0347064619594885   T   T   T
  0.6743500843511859  0.6776785208243092  0.3516468555996750   T   T   T
  0.8880908707200840  0.7764608590478838  0.1899205857566612   T   T   T
  0.7782205855311803  0.8889661674238021  0.0344013048949998   T   T   T
  0.4449517696537252  0.2451747953241582  0.4469986942032475   T   T   T
 
  0.00000000E+00  0.00000000E+00  0.00000000E+00
  0.00000000E+00  0.00000000E+00  0.00000000E+00
  0.00000000E+00  0.00000000E+00  0.00000000E+00
  0.00000000E+00  0.00000000E+00  0.00000000E+00
  0.00000000E+00  0.00000000E+00  0.00000000E+00
  0.00000000E+00  0.00000000E+00  0.00000000E+00
  0.00000000E+00  0.00000000E+00  0.00000000E+00
  0.00000000E+00  0.00000000E+00  0.00000000E+00
  0.00000000E+00  0.00000000E+00  0.00000000E+00
  0.00000000E+00  0.00000000E+00  0.00000000E+00
  0.00000000E+00  0.00000000E+00  0.00000000E+00
  0.00000000E+00  0.00000000E+00  0.00000000E+00
  0.00000000E+00  0.00000000E+00  0.00000000E+00
  0.00000000E+00  0.00000000E+00  0.00000000E+00
  0.00000000E+00  0.00000000E+00  0.00000000E+00
  0.00000000E+00  0.00000000E+00  0.00000000E+00
  0.00000000E+00  0.00000000E+00  0.00000000E+00
  0.00000000E+00  0.00000000E+00  0.00000000E+00
  0.00000000E+00  0.00000000E+00  0.00000000E+00
  0.00000000E+00  0.00000000E+00  0.00000000E+00
  0.00000000E+00  0.00000000E+00  0.00000000E+00
  0.00000000E+00  0.00000000E+00  0.00000000E+00
  0.00000000E+00  0.00000000E+00  0.00000000E+00
  0.00000000E+00  0.00000000E+00  0.00000000E+00
  0.00000000E+00  0.00000000E+00  0.00000000E+00
  0.00000000E+00  0.00000000E+00  0.00000000E+00
  0.00000000E+00  0.00000000E+00  0.00000000E+00
  0.00000000E+00  0.00000000E+00  0.00000000E+00
  0.00000000E+00  0.00000000E+00  0.00000000E+00
  0.00000000E+00  0.00000000E+00  0.00000000E+00
  0.00000000E+00  0.00000000E+00  0.00000000E+00
  0.00000000E+00  0.00000000E+00  0.00000000E+00
  0.00000000E+00  0.00000000E+00  0.00000000E+00
  0.00000000E+00  0.00000000E+00  0.00000000E+00
  0.00000000E+00  0.00000000E+00  0.00000000E+00
  0.00000000E+00  0.00000000E+00  0.00000000E+00
  0.00000000E+00  0.00000000E+00  0.00000000E+00
  0.00000000E+00  0.00000000E+00  0.00000000E+00
  0.00000000E+00  0.00000000E+00  0.00000000E+00
  0.00000000E+00  0.00000000E+00  0.00000000E+00
  0.00000000E+00  0.00000000E+00  0.00000000E+00
  0.00000000E+00  0.00000000E+00  0.00000000E+00
  0.00000000E+00  0.00000000E+00  0.00000000E+00
  0.00000000E+00  0.00000000E+00  0.00000000E+00
  0.00000000E+00  0.00000000E+00  0.00000000E+00
  0.00000000E+00  0.00000000E+00  0.00000000E+00
  0.00000000E+00  0.00000000E+00  0.00000000E+00
  0.00000000E+00  0.00000000E+00  0.00000000E+00
  0.00000000E+00  0.00000000E+00  0.00000000E+00
  0.00000000E+00  0.00000000E+00  0.00000000E+00
  0.00000000E+00  0.00000000E+00  0.00000000E+00
  0.00000000E+00  0.00000000E+00  0.00000000E+00
  0.00000000E+00  0.00000000E+00  0.00000000E+00
  0.00000000E+00  0.00000000E+00  0.00000000E+00
  0.00000000E+00  0.00000000E+00  0.00000000E+00
  0.00000000E+00  0.00000000E+00  0.00000000E+00
  0.00000000E+00  0.00000000E+00  0.00000000E+00
  0.00000000E+00  0.00000000E+00  0.00000000E+00
  0.00000000E+00  0.00000000E+00  0.00000000E+00
  0.00000000E+00  0.00000000E+00  0.00000000E+00
  0.00000000E+00  0.00000000E+00  0.00000000E+00
  0.00000000E+00  0.00000000E+00  0.00000000E+00
  0.00000000E+00  0.00000000E+00  0.00000000E+00
  0.00000000E+00  0.00000000E+00  0.00000000E+00
  0.00000000E+00  0.00000000E+00  0.00000000E+00
  0.00000000E+00  0.00000000E+00  0.00000000E+00
  0.00000000E+00  0.00000000E+00  0.00000000E+00
  0.00000000E+00  0.00000000E+00  0.00000000E+00
  0.00000000E+00  0.00000000E+00  0.00000000E+00
  0.00000000E+00  0.00000000E+00  0.00000000E+00
  0.00000000E+00  0.00000000E+00  0.00000000E+00
  0.00000000E+00  0.00000000E+00  0.00000000E+00
  0.00000000E+00  0.00000000E+00  0.00000000E+00
  0.00000000E+00  0.00000000E+00  0.00000000E+00
  0.00000000E+00  0.00000000E+00  0.00000000E+00
  0.00000000E+00  0.00000000E+00  0.00000000E+00
  0.00000000E+00  0.00000000E+00  0.00000000E+00
  0.00000000E+00  0.00000000E+00  0.00000000E+00
  0.00000000E+00  0.00000000E+00  0.00000000E+00
  0.00000000E+00  0.00000000E+00  0.00000000E+00
  0.00000000E+00  0.00000000E+00  0.00000000E+00
