CeO2-you-111-you-Sn                     
   1.00000000000000     
     9.8342780670139245   -5.6778234603652953    0.0000000000000000
     0.0000000011951773   11.3556449244480486   -0.0000000000000000
     0.0000000000000000    0.0000000000000000   20.8735578591270787
   O    Sn   Ce
    54     1    26
Selective dynamics
Direct
 -0.0003076553601187 -0.0002632566668400  0.9938628081756412   T   T   T
  0.1147063355308806  0.2240196677653035  0.1507440139565829   T   T   T
  0.2171764643902919  0.1010199287798849  0.3023913626320195   T   T   T
  0.1354893426781434  0.2344111713387095  0.3792931786502465   T   T   T
 -0.0029378075089576 -0.0010999893828790  0.2294940394609215   T   T   T
  0.2221317078524088  0.1109304157047631  0.0738024331921789   T   T   T
  0.3333773986933039 -0.0002632566668722  0.9938628081756412   T   T   T
  0.4426463322344191  0.2240196677651805  0.1507440139565829   T   T   T
  0.5541411475282728  0.1125258524714759  0.3076567244214798   T   T   T
  0.4322548286605622  0.2344111713383866  0.3792931786502465   T   T   T
  0.3351708181259846 -0.0010999893832562  0.2294940394609215   T   T   T
  0.5546063908543704  0.1120606091454742  0.0745867982128697   T   T   T
  0.6666669999999968  0.0000000000000000  0.9947537967388257   T   T   T
  0.7771672812371627  0.2210005624742142  0.1490050144476378   T   T   T
  0.8917187049432822  0.1125258524715543  0.3076567244214798   T   T   T
  0.7782815617412688  0.2232291234824611  0.3858612049602018   T   T   T
  0.6666669999999968 -0.0000000000000000  0.2313524791466789   T   T   T
  0.8907882182911536  0.1120606091455232  0.0745867982128697   T   T   T
 -0.0003076553600694  0.3332886013066519  0.9938628081756412   T   T   T
  0.1113032619756541  0.5553637380244143  0.1493941515298370   T   T   T
  0.2171764643918589  0.4494895356104031  0.3023913626320195   T   T   T
  0.1107505532310145  0.5559164467689688  0.3863806904715608   T   T   T
 -0.0029378075091769  0.3314951818730745  0.2294940394609215   T   T   T
  0.2221317078525240  0.4445342921476416  0.0738024331921789   T   T   T
  0.3333330000000032  0.3333330000000032  0.9939003474871757   T   T   T
  0.4426463322346962  0.5519606644695234  0.1507440139565829   T   T   T
  0.5656470712178564  0.4494895356097076  0.3023913626320195   T   T   T
  0.4322548286612899  0.5311776573229110  0.3792931786502465   T   T   T
  0.3333330000000032  0.3333330000000032  0.2387151244160214   T   T   T
  0.5557365842950743  0.4445342921475905  0.0738024331921789   T   T   T
  0.6669302566666930  0.3332886013065975  0.9938628081756412   T   T   T
  0.7773934760487364  0.5553637380243950  0.1493941515298370   T   T   T
  0.8893781897019267  0.4454223794038315  0.3051126210186151   T   T   T
  0.7784988935379564  0.5559164467689749  0.3863806904715608   T   T   T
  0.6677669893823427  0.3314951818727947  0.2294940394609215   T   T   T
  0.8888551437874458  0.4443762875748797  0.0739838596819397   T   T   T
 -0.0000000000000000  0.6666669999999968  0.9940740267657023   T   T   T
  0.1113032619756094  0.8892735239511954  0.1493941515298370   T   T   T
  0.2212436205961006  0.7772888102980701  0.3051126210186151   T   T   T
  0.1107505532310289  0.8881681064620607  0.3863806904715608   T   T   T
 -0.0000000000000000  0.6666669999999968  0.2293598499138369   T   T   T
  0.2222897124250830  0.7778118562125510  0.0739838596819397   T   T   T
  0.3333773986934259  0.6669746553602421  0.9938628081756412   T   T   T
  0.4456654375254036  0.8894997187628341  0.1490050144476378   T   T   T
  0.5541411475284499  0.7749482950569699  0.3076567244214798   T   T   T
  0.4434368765172694  0.8883854382587280  0.3858612049602018   T   T   T
  0.3351708181266153  0.6696048075100842  0.2294940394609215   T   T   T
  0.5546063908544807  0.7758787817090029  0.0745867982128697   T   T   T
  0.6669302566667655  0.6669746553602202  0.9938628081756412   T   T   T
  0.7771672812374273  0.8894997187629515  0.1490050144476378   T   T   T
  0.8893781897019726  0.7772888102980906  0.3051126210186151   T   T   T
  0.7782815617414548  0.8883854382588110  0.3858612049602018   T   T   T
  0.6677669893831921  0.6696048075101811  0.2294940394609215   T   T   T
  0.8888551437874710  0.7778118562125623  0.0739838596819397   T   T   T
  0.3333330000000032  0.3333330000000032  0.3410189753983010   T   T   T
  0.0023504648434626 -0.0000666074760783  0.3447480042966829   T   T   T
  0.2215875676799004  0.1098421353597351  0.1907642777420063   T   T   T
  0.1115681503828703  0.2224505751915266  0.0342925834462636   T   T   T
  0.3309159276811783 -0.0000666074760427  0.3447480042966829   T   T   T
  0.5555808482381572  0.1110861517623286  0.1899308891428525   T   T   T
  0.4442154248086525  0.2224505751916063  0.0342925834462636   T   T   T
  0.6666669999999968  0.0000000000000000  0.3468528439191960   T   T   T
  0.8888393035240237  0.1110861517621804  0.1899308891428525   T   T   T
  0.7779286393414875  0.2225232786830084  0.0341354675231576   T   T   T
  0.0023504648450758  0.3357500723196244  0.3447480042966829   T   T   T
  0.2215875676800412  0.4450784323201614  0.1907642777420063   T   T   T
  0.1112319116421857  0.5554350883576930  0.0337985991501589   T   T   T
  0.5568248646400655  0.4450784323200989  0.1907642777420063   T   T   T
  0.4442154248084727  0.5550988496168739  0.0342925834462636   T   T   T
  0.6667336074738263  0.3357500723189438  0.3447480042966829   T   T   T
  0.8888893133684287  0.4444446267369473  0.1892658454146793   T   T   T
  0.7775361767155420  0.5554350883577318  0.0337985991501589   T   T   T
  0.0000000000000000  0.6666669999999968  0.3455302978320326   T   T   T
  0.2222213732633470  0.7777776866315681  0.1892658454146793   T   T   T
  0.1112319116422722  0.8891308232845795  0.0337985991501589   T   T   T
  0.3309159276827113  0.6643165351571343  0.3447480042966829   T   T   T
  0.5555808482378235  0.7778276964754912  0.1899308891428525   T   T   T
  0.4441427213170782  0.8887383606585093  0.0341354675231576   T   T   T
  0.6667336074737461  0.6643165351564181  0.3447480042966829   T   T   T
  0.8888893133682243  0.7777776866314772  0.1892658454146793   T   T   T
  0.7779286393414275  0.8887383606584821  0.0341354675231576   T   T   T
 
  0.00000000E+00  0.00000000E+00  0.00000000E+00
  0.00000000E+00  0.00000000E+00  0.00000000E+00
  0.00000000E+00  0.00000000E+00  0.00000000E+00
  0.00000000E+00  0.00000000E+00  0.00000000E+00
  0.00000000E+00  0.00000000E+00  0.00000000E+00
  0.00000000E+00  0.00000000E+00  0.00000000E+00
  0.00000000E+00  0.00000000E+00  0.00000000E+00
  0.00000000E+00  0.00000000E+00  0.00000000E+00
  0.00000000E+00  0.00000000E+00  0.00000000E+00
  0.00000000E+00  0.00000000E+00  0.00000000E+00
  0.00000000E+00  0.00000000E+00  0.00000000E+00
  0.00000000E+00  0.00000000E+00  0.00000000E+00
  0.00000000E+00  0.00000000E+00  0.00000000E+00
  0.00000000E+00  0.00000000E+00  0.00000000E+00
  0.00000000E+00  0.00000000E+00  0.00000000E+00
  0.00000000E+00  0.00000000E+00  0.00000000E+00
  0.00000000E+00  0.00000000E+00  0.00000000E+00
  0.00000000E+00  0.00000000E+00  0.00000000E+00
  0.00000000E+00  0.00000000E+00  0.00000000E+00
  0.00000000E+00  0.00000000E+00  0.00000000E+00
  0.00000000E+00  0.00000000E+00  0.00000000E+00
  0.00000000E+00  0.00000000E+00  0.00000000E+00
  0.00000000E+00  0.00000000E+00  0.00000000E+00
  0.00000000E+00  0.00000000E+00  0.00000000E+00
  0.00000000E+00  0.00000000E+00  0.00000000E+00
  0.00000000E+00  0.00000000E+00  0.00000000E+00
  0.00000000E+00  0.00000000E+00  0.00000000E+00
  0.00000000E+00  0.00000000E+00  0.00000000E+00
  0.00000000E+00  0.00000000E+00  0.00000000E+00
  0.00000000E+00  0.00000000E+00  0.00000000E+00
  0.00000000E+00  0.00000000E+00  0.00000000E+00
  0.00000000E+00  0.00000000E+00  0.00000000E+00
  0.00000000E+00  0.00000000E+00  0.00000000E+00
  0.00000000E+00  0.00000000E+00  0.00000000E+00
  0.00000000E+00  0.00000000E+00  0.00000000E+00
  0.00000000E+00  0.00000000E+00  0.00000000E+00
  0.00000000E+00  0.00000000E+00  0.00000000E+00
  0.00000000E+00  0.00000000E+00  0.00000000E+00
  0.00000000E+00  0.00000000E+00  0.00000000E+00
  0.00000000E+00  0.00000000E+00  0.00000000E+00
  0.00000000E+00  0.00000000E+00  0.00000000E+00
  0.00000000E+00  0.00000000E+00  0.00000000E+00
  0.00000000E+00  0.00000000E+00  0.00000000E+00
  0.00000000E+00  0.00000000E+00  0.00000000E+00
  0.00000000E+00  0.00000000E+00  0.00000000E+00
  0.00000000E+00  0.00000000E+00  0.00000000E+00
  0.00000000E+00  0.00000000E+00  0.00000000E+00
  0.00000000E+00  0.00000000E+00  0.00000000E+00
  0.00000000E+00  0.00000000E+00  0.00000000E+00
  0.00000000E+00  0.00000000E+00  0.00000000E+00
  0.00000000E+00  0.00000000E+00  0.00000000E+00
  0.00000000E+00  0.00000000E+00  0.00000000E+00
  0.00000000E+00  0.00000000E+00  0.00000000E+00
  0.00000000E+00  0.00000000E+00  0.00000000E+00
  0.00000000E+00  0.00000000E+00  0.00000000E+00
  0.00000000E+00  0.00000000E+00  0.00000000E+00
  0.00000000E+00  0.00000000E+00  0.00000000E+00
  0.00000000E+00  0.00000000E+00  0.00000000E+00
  0.00000000E+00  0.00000000E+00  0.00000000E+00
  0.00000000E+00  0.00000000E+00  0.00000000E+00
  0.00000000E+00  0.00000000E+00  0.00000000E+00
  0.00000000E+00  0.00000000E+00  0.00000000E+00
  0.00000000E+00  0.00000000E+00  0.00000000E+00
  0.00000000E+00  0.00000000E+00  0.00000000E+00
  0.00000000E+00  0.00000000E+00  0.00000000E+00
  0.00000000E+00  0.00000000E+00  0.00000000E+00
  0.00000000E+00  0.00000000E+00  0.00000000E+00
  0.00000000E+00  0.00000000E+00  0.00000000E+00
  0.00000000E+00  0.00000000E+00  0.00000000E+00
  0.00000000E+00  0.00000000E+00  0.00000000E+00
  0.00000000E+00  0.00000000E+00  0.00000000E+00
  0.00000000E+00  0.00000000E+00  0.00000000E+00
  0.00000000E+00  0.00000000E+00  0.00000000E+00
  0.00000000E+00  0.00000000E+00  0.00000000E+00
  0.00000000E+00  0.00000000E+00  0.00000000E+00
  0.00000000E+00  0.00000000E+00  0.00000000E+00
  0.00000000E+00  0.00000000E+00  0.00000000E+00
  0.00000000E+00  0.00000000E+00  0.00000000E+00
  0.00000000E+00  0.00000000E+00  0.00000000E+00
  0.00000000E+00  0.00000000E+00  0.00000000E+00
  0.00000000E+00  0.00000000E+00  0.00000000E+00
