CeO2-you-111-you-Pd                     
   1.00000000000000     
     9.8407277926077672   -5.7034591373138852    0.0049026423384079
    -0.0189762798966484   11.3740483885446650   -0.0049026414973334
     0.0057117553690380   -0.0098930499079391   20.9782519937804466
   O    Pd   Ce   H 
    53     1    26     2
Selective dynamics
Direct
 -0.0000617516058440  0.9998671583391822  0.9947215691851627   T   T   T
  0.1086400489583497  0.2203047072684399  0.1470419185651011   F   F   F
  0.2363107440610007  0.1179781673680984  0.3074882242385787   T   T   T
  0.1206951311433801  0.2424964784283255  0.3697616508639134   T   T   T
  0.0047429555296145  0.0032643694243269  0.2306837959942612   T   T   T
  0.2219420290298970  0.1107214887539030  0.0748418139699325   F   F   F
  0.3346595428952254  0.0007230053379619  0.9955691925688788   T   T   T
  0.4424467081223824  0.2242192918759969  0.1512625105510850   F   F   F
  0.5495602196207260  0.1056151475861692  0.3053277670708444   T   T   T
  0.4611241565587608  0.1790626117417519  0.4168613193580836   T   T   T
  0.3315083297794735 -0.0013315036237787  0.2285625591367212   T   T   T
  0.5559644986136902  0.1107025013864060  0.0771940555239610   F   F   F
  0.6658017349866158  0.0007137229062195  0.9949162069962151   T   T   T
  0.7844913412668362  0.2254030255780748  0.1523135756690976   F   F   F
  0.8853049645755178  0.1075148472749617  0.3031556704616437   T   T   T
  0.7840055276383644  0.2138747473679488  0.3889333550094036   T   T   T
  0.6672426596534105  0.0008743007397476  0.2282600074713508   T   T   T
  0.8873315388791596  0.1098743667262596  0.0742441723023290   F   F   F
  0.9979650107558090  0.3324726864292931  0.9944514359483737   T   T   T
  0.1102720535972566  0.5563949464003031  0.1477717544122257   F   F   F
  0.1184549044252118  0.5492322958053453  0.3789201125133382   T   T   T
  0.0166671661901310  0.3422368310379001  0.2350061644164010   T   T   T
  0.2220295273131541  0.4446364726883303  0.0716412758958000   F   F   F
  0.3342768124789217  0.3324921417978955  0.9944761657854091   T   T   T
  0.4463612927350411  0.5580269510437290  0.1470419185644687   F   F   F
  0.5410335169930122  0.4370867706430951  0.3079337815678460   T   T   T
  0.4308410391443867  0.5582175217719469  0.3767548641663004   T   T   T
  0.3232324513760484  0.3412380749877300  0.2288664938840516   T   T   T
  0.5559455112457030  0.4447239709697470  0.0748418139700178   F   F   F
  0.6655758744882649  0.3315965847151905  0.9955623138118127   T   T   T
  0.7786552163891116  0.5554194478571901  0.1505763541580691   F   F   F
  0.8884541370546579  0.4461802179390971  0.3059030699559069   T   T   T
  0.7838615613654045  0.5721944927928874  0.3866362341639104   T   T   T
  0.6657016028476582  0.3335029508513070  0.2282735210359833   T   T   T
  0.8881225040979146  0.4443770165902379  0.0746816176921641   F   F   F
  0.9998846744554103  0.6671801747784756  0.9948772569575245   T   T   T
  0.1112475521414140  0.8880117836088033  0.1505763541580265   F   F   F
  0.2222026726126709  0.7803509106706568  0.3055343093546088   T   T   T
  0.1089809860032016  0.8902971031088961  0.3848532503106224   T   T   T
  0.0010872780512920  0.6672938398104569  0.2303644991856204   T   T   T
  0.2222889834095199  0.7785444959016274  0.0746816176920007   F   F   F
  0.3342073694640200  0.6683706301203178  0.9942990238302825   T   T   T
  0.4412629744240419  0.8821756587319953  0.1523135756697584   F   F   F
  0.5598732895119966  0.7835303611526125  0.3036513173674486   T   T   T
  0.4453335752316199  0.8863285826537843  0.3876986727545592   T   T   T
  0.3239771891974770  0.6494769076789240  0.2353044288870641   T   T   T
  0.5567926332743056  0.7793354611221446  0.0742441723020946   F   F   F
  0.6674008884820708  0.6671207411893405  0.9945674748808533   T   T   T
  0.7785233606466733  0.8881436393536148  0.1505197746867566   F   F   F
  0.8908240316367320  0.7808479870080319  0.3031914268445285   T   T   T
  0.7811271065025229  0.8900502351527494  0.3842580282806414   T   T   T
  0.6657262109949919  0.6640293907712743  0.2307496421228555   T   T   T
  0.8888293539087542  0.7778376460902834  0.0749563577595111   F   F   F
  0.3297930680054029  0.3419762453967169  0.3379655314494385   T   T   T
  0.0044321284093524  0.0040794027648248  0.3430215013450559   T   T   T
  0.2231967863397912  0.1124768412507109  0.1917421487084994   F   F   F
  0.1101110932006506  0.2200143509389108  0.0333355748873743   F   F   F
  0.3318996772798266 -0.0021258894532297  0.3460549069664269   T   T   T
  0.5558653315287927  0.1108016684728881  0.1910519172436054   F   F   F
  0.4443830457170534  0.2222829542829459  0.0357649733695808   F   F   F
  0.6678480149264030  0.0004930373490379  0.3459549249768995   T   T   T
  0.8900608405739519  0.1110862701252486  0.1903047473730908   F   F   F
  0.7778223124774399  0.2222640475780366  0.0353739535155526   F   F   F
  0.9895486482428054  0.3282608406979393  0.3464855176564561   T   T   T
  0.2219573495081093  0.4447086504839035  0.1816021907212289   F   F   F
  0.1098832392779414  0.5567837607211885  0.0334567822605436   F   F   F
  0.5541901587490798  0.4434692136599665  0.1917421487084070   F   F   F
  0.4466516490597101  0.5565559067989199  0.0333355748872677   F   F   F
  0.6627105482354112  0.3336091997474710  0.3512159954088696   T   T   T
  0.8888656300530684  0.4444254059036084  0.1914652456444799   F   F   F
  0.7773477126462325  0.5547123957640778  0.0358113327285565   F   F   F
  0.9969778455037011  0.6673650890344052  0.3441645762516311   T   T   T
  0.2222405940991550  0.7778013699537141  0.1914652456445580   F   F   F
  0.1119546042376882  0.8893192873555122  0.0358113327284926   F   F   F
  0.3393079435151240  0.6769307608393023  0.3474238013074282   T   T   T
  0.5555807298699591  0.7766061594247375  0.1903047473732684   F   F   F
  0.4444019524207690  0.8888446875226066  0.0353739535155952   F   F   F
  0.6647572546596550  0.6660390554919458  0.3439598191019947   T   T   T
  0.8892101208826020  0.7774568791196899  0.1897308193972762   F   F   F
  0.7775461484380415  0.8891208515612590  0.0350675790566015   F   F   F
  0.3459635791459179  0.3323842489348784  0.4087513276428604   T   T   T
  0.4205342349432503  0.2099647452787779  0.4486897527414351   T   T   T
 
  0.00000000E+00  0.00000000E+00  0.00000000E+00
  0.00000000E+00  0.00000000E+00  0.00000000E+00
  0.00000000E+00  0.00000000E+00  0.00000000E+00
  0.00000000E+00  0.00000000E+00  0.00000000E+00
  0.00000000E+00  0.00000000E+00  0.00000000E+00
  0.00000000E+00  0.00000000E+00  0.00000000E+00
  0.00000000E+00  0.00000000E+00  0.00000000E+00
  0.00000000E+00  0.00000000E+00  0.00000000E+00
  0.00000000E+00  0.00000000E+00  0.00000000E+00
  0.00000000E+00  0.00000000E+00  0.00000000E+00
  0.00000000E+00  0.00000000E+00  0.00000000E+00
  0.00000000E+00  0.00000000E+00  0.00000000E+00
  0.00000000E+00  0.00000000E+00  0.00000000E+00
  0.00000000E+00  0.00000000E+00  0.00000000E+00
  0.00000000E+00  0.00000000E+00  0.00000000E+00
  0.00000000E+00  0.00000000E+00  0.00000000E+00
  0.00000000E+00  0.00000000E+00  0.00000000E+00
  0.00000000E+00  0.00000000E+00  0.00000000E+00
  0.00000000E+00  0.00000000E+00  0.00000000E+00
  0.00000000E+00  0.00000000E+00  0.00000000E+00
  0.00000000E+00  0.00000000E+00  0.00000000E+00
  0.00000000E+00  0.00000000E+00  0.00000000E+00
  0.00000000E+00  0.00000000E+00  0.00000000E+00
  0.00000000E+00  0.00000000E+00  0.00000000E+00
  0.00000000E+00  0.00000000E+00  0.00000000E+00
  0.00000000E+00  0.00000000E+00  0.00000000E+00
  0.00000000E+00  0.00000000E+00  0.00000000E+00
  0.00000000E+00  0.00000000E+00  0.00000000E+00
  0.00000000E+00  0.00000000E+00  0.00000000E+00
  0.00000000E+00  0.00000000E+00  0.00000000E+00
  0.00000000E+00  0.00000000E+00  0.00000000E+00
  0.00000000E+00  0.00000000E+00  0.00000000E+00
  0.00000000E+00  0.00000000E+00  0.00000000E+00
  0.00000000E+00  0.00000000E+00  0.00000000E+00
  0.00000000E+00  0.00000000E+00  0.00000000E+00
  0.00000000E+00  0.00000000E+00  0.00000000E+00
  0.00000000E+00  0.00000000E+00  0.00000000E+00
  0.00000000E+00  0.00000000E+00  0.00000000E+00
  0.00000000E+00  0.00000000E+00  0.00000000E+00
  0.00000000E+00  0.00000000E+00  0.00000000E+00
  0.00000000E+00  0.00000000E+00  0.00000000E+00
  0.00000000E+00  0.00000000E+00  0.00000000E+00
  0.00000000E+00  0.00000000E+00  0.00000000E+00
  0.00000000E+00  0.00000000E+00  0.00000000E+00
  0.00000000E+00  0.00000000E+00  0.00000000E+00
  0.00000000E+00  0.00000000E+00  0.00000000E+00
  0.00000000E+00  0.00000000E+00  0.00000000E+00
  0.00000000E+00  0.00000000E+00  0.00000000E+00
  0.00000000E+00  0.00000000E+00  0.00000000E+00
  0.00000000E+00  0.00000000E+00  0.00000000E+00
  0.00000000E+00  0.00000000E+00  0.00000000E+00
  0.00000000E+00  0.00000000E+00  0.00000000E+00
  0.00000000E+00  0.00000000E+00  0.00000000E+00
  0.00000000E+00  0.00000000E+00  0.00000000E+00
  0.00000000E+00  0.00000000E+00  0.00000000E+00
  0.00000000E+00  0.00000000E+00  0.00000000E+00
  0.00000000E+00  0.00000000E+00  0.00000000E+00
  0.00000000E+00  0.00000000E+00  0.00000000E+00
  0.00000000E+00  0.00000000E+00  0.00000000E+00
  0.00000000E+00  0.00000000E+00  0.00000000E+00
  0.00000000E+00  0.00000000E+00  0.00000000E+00
  0.00000000E+00  0.00000000E+00  0.00000000E+00
  0.00000000E+00  0.00000000E+00  0.00000000E+00
  0.00000000E+00  0.00000000E+00  0.00000000E+00
  0.00000000E+00  0.00000000E+00  0.00000000E+00
  0.00000000E+00  0.00000000E+00  0.00000000E+00
  0.00000000E+00  0.00000000E+00  0.00000000E+00
  0.00000000E+00  0.00000000E+00  0.00000000E+00
  0.00000000E+00  0.00000000E+00  0.00000000E+00
  0.00000000E+00  0.00000000E+00  0.00000000E+00
  0.00000000E+00  0.00000000E+00  0.00000000E+00
  0.00000000E+00  0.00000000E+00  0.00000000E+00
  0.00000000E+00  0.00000000E+00  0.00000000E+00
  0.00000000E+00  0.00000000E+00  0.00000000E+00
  0.00000000E+00  0.00000000E+00  0.00000000E+00
  0.00000000E+00  0.00000000E+00  0.00000000E+00
  0.00000000E+00  0.00000000E+00  0.00000000E+00
  0.00000000E+00  0.00000000E+00  0.00000000E+00
  0.00000000E+00  0.00000000E+00  0.00000000E+00
  0.00000000E+00  0.00000000E+00  0.00000000E+00
  0.00000000E+00  0.00000000E+00  0.00000000E+00
  0.00000000E+00  0.00000000E+00  0.00000000E+00
