CeO2-you-111-you-Ba                     
   1.00000000000000     
     9.9505843146359734   -5.7449729071838416   -0.0000000011977279
    -0.0482207415449156   11.4064230234211088   -0.0231388465825700
    -0.0245427452407895   -0.0425092745764979   21.1800511710695005
   O    Ba   Ce   H 
    53     1    26     2
Selective dynamics
Direct
  0.0008212063757472  0.0003601192773814  0.9971330456606349   T   T   T
  0.1090538331579580  0.2221027772618527  0.1502549463920531   F   F   F
  0.2242976658203017  0.1057472888781690  0.3065183476639237   T   T   T
  0.0741294263253248  0.2053841061098750  0.3879913296414914   T   T   T
  0.0014778387208426  0.0012883837964054  0.2284270021704466   T   T   T
  0.2232207050248007  0.1131084100494704  0.0763315935658113   F   F   F
  0.3327946082003153  0.0009291498480299  0.9969166404537172   T   T   T
  0.4463819441037700  0.2221027772617106  0.1502549463921028   F   F   F
  0.5516124202595173  0.1146668922133787  0.3025921959128729   T   T   T
  0.4664154812872707  0.2060608387870258  0.4065265469126901   T   T   T
  0.3321508377572422 -0.0012375608671663  0.2275867975532021   T   T   T
  0.5562491072378606  0.1116487555114389  0.0750869119928623   F   F   F
  0.6666560495131892  0.9996449011338985  0.9965905768774432   T   T   T
  0.7755912736747064  0.2178485473495613  0.1515032160894734   F   F   F
  0.8830523240362707  0.1087774300432976  0.2998181495555067   T   T   T
  0.7754865880289582  0.2222925109458086  0.3798906027964841   T   T   T
  0.6607203536823163  0.9945211837144192  0.2291730758205871   T   T   T
  0.8887336482736856  0.1116487555116024  0.0750869119928694   F   F   F
  0.0007107688441950  0.3337789872746361  0.9976068305629668   T   T   T
  0.1111067656807734  0.5549015765567233  0.1497829237412560   F   F   F
  0.2221894413800348  0.4532082213544776  0.3064813165162986   T   T   T
  0.1107367486194942  0.5616012570888121  0.3832688458189104   T   T   T
  0.0003228405143040  0.3337111959989663  0.2292666790724378   T   T   T
  0.2233961230296870  0.4448250289921276  0.0765126406875680   F   F   F
  0.3335422759238919  0.3338209837470459  0.9971134131737598   T   T   T
  0.4451827019692374  0.5570334039392435  0.1504621227545044   F   F   F
  0.5644630912138294  0.4490847633122378  0.3073643615912476   T   T   T
  0.3342357570421318  0.3347249448040993  0.2245955752886356   T   T   T
  0.5547629059622210  0.4448250289920210  0.0765126406875893   F   F   F
  0.6667475074279003  0.3337531379708207  0.9977236715419648   T   T   T
  0.7771278108755268  0.5549015765565386  0.1497829237412560   F   F   F
  0.8911391247986790  0.4472455569653299  0.3030498535699208   T   T   T
  0.7846863611918342  0.5602143346322208  0.3830789706962155   T   T   T
  0.6691396253270101  0.3351915588406137  0.2290275495254690   T   T   T
  0.8878085140055632  0.4422830280111683  0.0767786154978651   F   F   F
  0.9986287520219976  0.6644169038963433  0.9975565399639958   T   T   T
  0.1120771685568158  0.8908213371128539  0.1482013662130583   F   F   F
  0.2192672983941098  0.7781383528956543  0.3011339205694867   T   T   T
  0.1119918769376885  0.8867574526553155  0.3835503275301249   T   T   T
  0.0001174659537748  0.6686738051079226  0.2271667193392758   T   T   T
  0.2215531179444312  0.7781600159566864  0.0744836308151164   F   F   F
  0.3331199108437137  0.6662888289462864  0.9975065538899766   T   T   T
  0.4436544396640514  0.8887012661567226  0.1475963144335353   F   F   F
  0.5502764214366304  0.7684774329418866  0.3040581643071907   T   T   T
  0.4417054230205921  0.8895348856471650  0.3790570398098407   T   T   T
  0.3328382423899864  0.6702739270616602  0.2273131093892940   T   T   T
  0.5556227120642276  0.7779114241284120  0.0754779365516995   F   F   F
  0.6669199883009278  0.6666349684386936  0.9972474497340736   T   T   T
  0.7783798264932358  0.8887012661570637  0.1475963144335353   F   F   F
  0.8921688128832878  0.7801620357352124  0.3023408159528966   T   T   T
  0.7767749658166586  0.8892361226819726  0.3792450497153898   T   T   T
  0.6702929847920794  0.6698057135911645  0.2279862424353249   T   T   T
  0.8899398980123721  0.7781600159567006  0.0744836308151022   F   F   F
  0.3316902032016375  0.3347813673159101  0.3697219642673848   T   T   T
 -0.0004756034583743  0.0028751200058138  0.3416889885827863   T   T   T
  0.2243865251781401  0.1154400503577193  0.1908751111451963   F   F   F
  0.1117584722997904  0.2227241284987258  0.0372995189302188   F   F   F
  0.3275623746977286 -0.0061965696414573  0.3399364466574815   T   T   T
  0.5544324141849444  0.1096955474434296  0.1889019665733755   F   F   F
  0.4442986561990310  0.2227241284989319  0.0372995189302188   F   F   F
  0.6644314625457654 -0.0009448508066266  0.3398774030641512   T   T   T
  0.8885971332571287  0.1096955474422856  0.1889019665733827   F   F   F
  0.7773889574749191  0.2214439149497380  0.0368909312681325   F   F   F
 -0.0011234089268414  0.3326592754543845  0.3420970889222623   T   T   T
  0.2228145621000692  0.4435904231377705  0.1914469607102234   F   F   F
  0.1104468933479765  0.5540648308176017  0.0369621464188157   F   F   F
  0.5541098610402031  0.4435904231387653  0.1914469607101594   F   F   F
  0.4438977592099818  0.5544635184198157  0.0367728568680263   F   F   F
  0.6768063560319435  0.3398931251529796  0.3404550346394961   T   T   T
  0.8890605009823815  0.4447870019641087  0.1896468637865709   F   F   F
  0.7769509374696639  0.5540648308177580  0.0369621464188086   F   F   F
  0.0014025007927061  0.6692381454703350  0.3434115769670144   T   T   T
  0.2207063341286499  0.7795510451576462  0.1861941258152484   F   F   F
  0.1114628944339202  0.8895927888681499  0.0354604241534986   F   F   F
  0.3269583900854198  0.6712022157175735  0.3387114965392866   T   T   T
  0.5542809866465603  0.7752279732930631  0.1868716628346192   F   F   F
  0.4441717704221944  0.8886375710059085  0.0355671435148324   F   F   F
  0.6781201752171359  0.6736078240479647  0.3387901466317456   T   T   T
  0.8921777110278413  0.7795510451569356  0.1861941258152342   F   F   F
  0.7777988005836107  0.8886375710059227  0.0355671435148395   F   F   F
  0.4653253423461822  0.5969417775699709  0.3939128453483938   T   T   T
  0.4816125075199516  0.1898795953453995  0.4500002893783967   T   T   T
 
  0.00000000E+00  0.00000000E+00  0.00000000E+00
  0.00000000E+00  0.00000000E+00  0.00000000E+00
  0.00000000E+00  0.00000000E+00  0.00000000E+00
  0.00000000E+00  0.00000000E+00  0.00000000E+00
  0.00000000E+00  0.00000000E+00  0.00000000E+00
  0.00000000E+00  0.00000000E+00  0.00000000E+00
  0.00000000E+00  0.00000000E+00  0.00000000E+00
  0.00000000E+00  0.00000000E+00  0.00000000E+00
  0.00000000E+00  0.00000000E+00  0.00000000E+00
  0.00000000E+00  0.00000000E+00  0.00000000E+00
  0.00000000E+00  0.00000000E+00  0.00000000E+00
  0.00000000E+00  0.00000000E+00  0.00000000E+00
  0.00000000E+00  0.00000000E+00  0.00000000E+00
  0.00000000E+00  0.00000000E+00  0.00000000E+00
  0.00000000E+00  0.00000000E+00  0.00000000E+00
  0.00000000E+00  0.00000000E+00  0.00000000E+00
  0.00000000E+00  0.00000000E+00  0.00000000E+00
  0.00000000E+00  0.00000000E+00  0.00000000E+00
  0.00000000E+00  0.00000000E+00  0.00000000E+00
  0.00000000E+00  0.00000000E+00  0.00000000E+00
  0.00000000E+00  0.00000000E+00  0.00000000E+00
  0.00000000E+00  0.00000000E+00  0.00000000E+00
  0.00000000E+00  0.00000000E+00  0.00000000E+00
  0.00000000E+00  0.00000000E+00  0.00000000E+00
  0.00000000E+00  0.00000000E+00  0.00000000E+00
  0.00000000E+00  0.00000000E+00  0.00000000E+00
  0.00000000E+00  0.00000000E+00  0.00000000E+00
  0.00000000E+00  0.00000000E+00  0.00000000E+00
  0.00000000E+00  0.00000000E+00  0.00000000E+00
  0.00000000E+00  0.00000000E+00  0.00000000E+00
  0.00000000E+00  0.00000000E+00  0.00000000E+00
  0.00000000E+00  0.00000000E+00  0.00000000E+00
  0.00000000E+00  0.00000000E+00  0.00000000E+00
  0.00000000E+00  0.00000000E+00  0.00000000E+00
  0.00000000E+00  0.00000000E+00  0.00000000E+00
  0.00000000E+00  0.00000000E+00  0.00000000E+00
  0.00000000E+00  0.00000000E+00  0.00000000E+00
  0.00000000E+00  0.00000000E+00  0.00000000E+00
  0.00000000E+00  0.00000000E+00  0.00000000E+00
  0.00000000E+00  0.00000000E+00  0.00000000E+00
  0.00000000E+00  0.00000000E+00  0.00000000E+00
  0.00000000E+00  0.00000000E+00  0.00000000E+00
  0.00000000E+00  0.00000000E+00  0.00000000E+00
  0.00000000E+00  0.00000000E+00  0.00000000E+00
  0.00000000E+00  0.00000000E+00  0.00000000E+00
  0.00000000E+00  0.00000000E+00  0.00000000E+00
  0.00000000E+00  0.00000000E+00  0.00000000E+00
  0.00000000E+00  0.00000000E+00  0.00000000E+00
  0.00000000E+00  0.00000000E+00  0.00000000E+00
  0.00000000E+00  0.00000000E+00  0.00000000E+00
  0.00000000E+00  0.00000000E+00  0.00000000E+00
  0.00000000E+00  0.00000000E+00  0.00000000E+00
  0.00000000E+00  0.00000000E+00  0.00000000E+00
  0.00000000E+00  0.00000000E+00  0.00000000E+00
  0.00000000E+00  0.00000000E+00  0.00000000E+00
  0.00000000E+00  0.00000000E+00  0.00000000E+00
  0.00000000E+00  0.00000000E+00  0.00000000E+00
  0.00000000E+00  0.00000000E+00  0.00000000E+00
  0.00000000E+00  0.00000000E+00  0.00000000E+00
  0.00000000E+00  0.00000000E+00  0.00000000E+00
  0.00000000E+00  0.00000000E+00  0.00000000E+00
  0.00000000E+00  0.00000000E+00  0.00000000E+00
  0.00000000E+00  0.00000000E+00  0.00000000E+00
  0.00000000E+00  0.00000000E+00  0.00000000E+00
  0.00000000E+00  0.00000000E+00  0.00000000E+00
  0.00000000E+00  0.00000000E+00  0.00000000E+00
  0.00000000E+00  0.00000000E+00  0.00000000E+00
  0.00000000E+00  0.00000000E+00  0.00000000E+00
  0.00000000E+00  0.00000000E+00  0.00000000E+00
  0.00000000E+00  0.00000000E+00  0.00000000E+00
  0.00000000E+00  0.00000000E+00  0.00000000E+00
  0.00000000E+00  0.00000000E+00  0.00000000E+00
  0.00000000E+00  0.00000000E+00  0.00000000E+00
  0.00000000E+00  0.00000000E+00  0.00000000E+00
  0.00000000E+00  0.00000000E+00  0.00000000E+00
  0.00000000E+00  0.00000000E+00  0.00000000E+00
  0.00000000E+00  0.00000000E+00  0.00000000E+00
  0.00000000E+00  0.00000000E+00  0.00000000E+00
  0.00000000E+00  0.00000000E+00  0.00000000E+00
  0.00000000E+00  0.00000000E+00  0.00000000E+00
  0.00000000E+00  0.00000000E+00  0.00000000E+00
  0.00000000E+00  0.00000000E+00  0.00000000E+00
