CeO2-you-111-you-Zn                     
   1.00000000000000     
     9.8190175168190610   -5.6491485673770798   -0.0137909514713684
     0.0172029100728462   11.3280914588514783    0.0137909491410664
    -0.0149756420717091    0.0259385716269717   20.7095356203293797
   O    Zn   Ce   H 
    53     1    26     2
Selective dynamics
Direct
 -0.0000152306300213  0.9997378706177843  0.9909044251830735   T   T   T
  0.1068010229570220  0.2191520576788122  0.1462383122185997   F   F   F
  0.2161935703206875  0.0981700167070299  0.3067488875568497   T   T   T
  0.1131126667283508  0.2462035899497582  0.3868696688830982   T   T   T
  0.9977867250326967  0.0006784371750275  0.2299071230210384   T   T   T
  0.2217440108798883  0.1105619084784095  0.0724673002252771   F   F   F
  0.3343817660161806  0.0001832221180566  0.9924832920594903   T   T   T
  0.4437710897948648  0.2228949102033368  0.1499091211763712   F   F   F
  0.5530134992084271  0.1142510557501414  0.3075644021189725   T   T   T
  0.4659990813069591  0.2003293069956882  0.4090529360773768   T   T   T
  0.3352000714888518  0.9994024798810557  0.2294887410719563   T   T   T
  0.5566177935906396  0.1100492064095491  0.0752422520453280   F   F   F
  0.6652873856854695  0.0008819964024633  0.9911779458277356   T   T   T
  0.7842649146656058  0.2251072468182542  0.1510307901647749   F   F   F
  0.8865293239161879  0.1099404186989583  0.3070885374900693   T   T   T
  0.7758487400914809  0.2208870366061421  0.3895652249143219   T   T   T
  0.6662041356263090  0.0006912213866604  0.2311074421197877   T   T   T
  0.8880211223153154  0.1103684296937573  0.0715572390265535   F   F   F
  0.9985879647911683  0.3336230492913619  0.9910449280880428   T   T   T
  0.1108044830337107  0.5558625169648934  0.1476035123510400   F   F   F
  0.1169142680097743  0.5498010117836110  0.3811772954955451   T   T   T
  0.0176437357527007  0.3429845317549849  0.2369982820106460   T   T   T
  0.2226428165572045  0.4440231834441164  0.0702393181254664   F   F   F
  0.3341593960533261  0.3326991544538941  0.9909514997333447   T   T   T
  0.4475139423248393  0.5598659770435077  0.1462383122184718   F   F   F
  0.5679990726426822  0.4501819733644913  0.3067604711084305   T   T   T
  0.4191327674242481  0.5525984595701222  0.3868593473964479   T   T   T
  0.3286771161821331  0.3380099132884553  0.2234293030853104   T   T   T
  0.5561050915213102  0.4449219891195781  0.0724673002254406   F   F   F
  0.6659545015379204  0.3319245273325905  0.9924965942946306   T   T   T
  0.7783848458014120  0.5554928005357738  0.1503124408437699   F   F   F
  0.8842415402982109  0.4444094220964250  0.3075805138084268   T   T   T
  0.7805975576773334  0.5602117872697755  0.3897652394637146   T   T   T
  0.6673010600597877  0.3319148680988820  0.2293270394951565   T   T   T
  0.8885683474539832  0.4445007078581824  0.0732962774993453   F   F   F
  0.9998174701840197  0.6668079636213363  0.9918549866955398   T   T   T
  0.1111741994626954  0.8882821541964461  0.1503124408437060   F   F   F
  0.2226035510819504  0.7821263939724076  0.3073617713512202   T   T   T
  0.1068997304405403  0.8854869211069215  0.3899015011726483   T   T   T
  0.0008594585125731  0.6663114920235060  0.2312841096770830   T   T   T
  0.2221652921414190  0.7780986525457294  0.0732962774991464   F   F   F
  0.3330467989404219  0.6678366340334391  0.9909601558240503   T   T   T
  0.4415587531823988  0.8824020853342489  0.1510307901648105   F   F   F
  0.5567904888776751  0.7797394515900762  0.3070060160218829   T   T   T
  0.4464320998963179  0.8911262739449078  0.3893530347301205   T   T   T
  0.3242284473272919  0.6486455610193188  0.2365967657035009   T   T   T
  0.5562985703074403  0.7786458776856904  0.0715572390265891   F   F   F
  0.6668854483433031  0.6665254741897306  0.9907513931357776   T   T   T
  0.7762476441181434  0.8904193558825781  0.1482097794950263   F   F   F
  0.8889420622378060  0.7784169620852146  0.3056942487939639   T   T   T
  0.7786703940943547  0.8887176441172440  0.3873052785997346   T   T   T
  0.6664592627052819  0.6691512730971295  0.2301971295604019   T   T   T
  0.8885214137792516  0.7781455862202122  0.0726582729849099   F   F   F
  0.3016407882879566  0.3641803990995369  0.4183774392948735   T   T   T
  0.0040570569888885  0.0030021096665449  0.3461265608070530   T   T   T
  0.2231515485902307  0.1138305390542058  0.1917380516253786   F   F   F
  0.1100935764610327  0.2203100031471834  0.0303693795355002   F   F   F
  0.3294473842988607  0.0016828146273320  0.3473507840275002   T   T   T
  0.5557323088230888  0.1109346911791533  0.1907381953486009   F   F   F
  0.4443122559298729  0.2223537440699062  0.0335709191334033   F   F   F
  0.6664629503472397  0.0003566095640773  0.3480789586953920   T   T   T
  0.8893039803424188  0.1112899704004917  0.1899433463670803   F   F   F
  0.7780106665221567  0.2225352593689891  0.0326169197005370   F   F   F
  0.9877971508093752  0.3275422417008808  0.3500730232129041   T   T   T
  0.2243842299773107  0.4422817700171748  0.1819504260721700   F   F   F
  0.1100209251601711  0.5566460748394420  0.0312862656849120   F   F   F
  0.5528364609434888  0.4435144514083262  0.1917380516253644   F   F   F
  0.4463559968525743  0.5565734235386302  0.0303693795356139   F   F   F
  0.6648514957503180  0.3372965930124653  0.3473611948331838   T   T   T
  0.8900856022855450  0.4448397862688296  0.1912678576825257   F   F   F
  0.7771659053399560  0.5549712215273814  0.0332366097617864   F   F   F
 -0.0016614925089614  0.6684419814403316  0.3468298841615594   T   T   T
  0.2218262137343174  0.7765813977221470  0.1912678576824902   F   F   F
  0.1116957784739867  0.8895010946607727  0.0332366097617509   F   F   F
  0.3391570516924480  0.6786023688774684  0.3499046930848573   T   T   T
  0.5553770295941547  0.7773630196568249  0.1899433463671301   F   F   F
  0.4441307406303068  0.8886563334779183  0.0326169197006081   F   F   F
  0.6636617498324697  0.6625364217876274  0.3460638165766493   T   T   T
  0.8885139527443258  0.7781530472576534  0.1887689258219467   F   F   F
  0.7770875427753268  0.8895794572239382  0.0316415917379018   F   F   F
  0.3532051359707061  0.3127326251464919  0.4767716870230679   T   T   T
  0.4255052448085900  0.2398736819319994  0.4382926081961208   T   T   T
 
  0.00000000E+00  0.00000000E+00  0.00000000E+00
  0.00000000E+00  0.00000000E+00  0.00000000E+00
  0.00000000E+00  0.00000000E+00  0.00000000E+00
  0.00000000E+00  0.00000000E+00  0.00000000E+00
  0.00000000E+00  0.00000000E+00  0.00000000E+00
  0.00000000E+00  0.00000000E+00  0.00000000E+00
  0.00000000E+00  0.00000000E+00  0.00000000E+00
  0.00000000E+00  0.00000000E+00  0.00000000E+00
  0.00000000E+00  0.00000000E+00  0.00000000E+00
  0.00000000E+00  0.00000000E+00  0.00000000E+00
  0.00000000E+00  0.00000000E+00  0.00000000E+00
  0.00000000E+00  0.00000000E+00  0.00000000E+00
  0.00000000E+00  0.00000000E+00  0.00000000E+00
  0.00000000E+00  0.00000000E+00  0.00000000E+00
  0.00000000E+00  0.00000000E+00  0.00000000E+00
  0.00000000E+00  0.00000000E+00  0.00000000E+00
  0.00000000E+00  0.00000000E+00  0.00000000E+00
  0.00000000E+00  0.00000000E+00  0.00000000E+00
  0.00000000E+00  0.00000000E+00  0.00000000E+00
  0.00000000E+00  0.00000000E+00  0.00000000E+00
  0.00000000E+00  0.00000000E+00  0.00000000E+00
  0.00000000E+00  0.00000000E+00  0.00000000E+00
  0.00000000E+00  0.00000000E+00  0.00000000E+00
  0.00000000E+00  0.00000000E+00  0.00000000E+00
  0.00000000E+00  0.00000000E+00  0.00000000E+00
  0.00000000E+00  0.00000000E+00  0.00000000E+00
  0.00000000E+00  0.00000000E+00  0.00000000E+00
  0.00000000E+00  0.00000000E+00  0.00000000E+00
  0.00000000E+00  0.00000000E+00  0.00000000E+00
  0.00000000E+00  0.00000000E+00  0.00000000E+00
  0.00000000E+00  0.00000000E+00  0.00000000E+00
  0.00000000E+00  0.00000000E+00  0.00000000E+00
  0.00000000E+00  0.00000000E+00  0.00000000E+00
  0.00000000E+00  0.00000000E+00  0.00000000E+00
  0.00000000E+00  0.00000000E+00  0.00000000E+00
  0.00000000E+00  0.00000000E+00  0.00000000E+00
  0.00000000E+00  0.00000000E+00  0.00000000E+00
  0.00000000E+00  0.00000000E+00  0.00000000E+00
  0.00000000E+00  0.00000000E+00  0.00000000E+00
  0.00000000E+00  0.00000000E+00  0.00000000E+00
  0.00000000E+00  0.00000000E+00  0.00000000E+00
  0.00000000E+00  0.00000000E+00  0.00000000E+00
  0.00000000E+00  0.00000000E+00  0.00000000E+00
  0.00000000E+00  0.00000000E+00  0.00000000E+00
  0.00000000E+00  0.00000000E+00  0.00000000E+00
  0.00000000E+00  0.00000000E+00  0.00000000E+00
  0.00000000E+00  0.00000000E+00  0.00000000E+00
  0.00000000E+00  0.00000000E+00  0.00000000E+00
  0.00000000E+00  0.00000000E+00  0.00000000E+00
  0.00000000E+00  0.00000000E+00  0.00000000E+00
  0.00000000E+00  0.00000000E+00  0.00000000E+00
  0.00000000E+00  0.00000000E+00  0.00000000E+00
  0.00000000E+00  0.00000000E+00  0.00000000E+00
  0.00000000E+00  0.00000000E+00  0.00000000E+00
  0.00000000E+00  0.00000000E+00  0.00000000E+00
  0.00000000E+00  0.00000000E+00  0.00000000E+00
  0.00000000E+00  0.00000000E+00  0.00000000E+00
  0.00000000E+00  0.00000000E+00  0.00000000E+00
  0.00000000E+00  0.00000000E+00  0.00000000E+00
  0.00000000E+00  0.00000000E+00  0.00000000E+00
  0.00000000E+00  0.00000000E+00  0.00000000E+00
  0.00000000E+00  0.00000000E+00  0.00000000E+00
  0.00000000E+00  0.00000000E+00  0.00000000E+00
  0.00000000E+00  0.00000000E+00  0.00000000E+00
  0.00000000E+00  0.00000000E+00  0.00000000E+00
  0.00000000E+00  0.00000000E+00  0.00000000E+00
  0.00000000E+00  0.00000000E+00  0.00000000E+00
  0.00000000E+00  0.00000000E+00  0.00000000E+00
  0.00000000E+00  0.00000000E+00  0.00000000E+00
  0.00000000E+00  0.00000000E+00  0.00000000E+00
  0.00000000E+00  0.00000000E+00  0.00000000E+00
  0.00000000E+00  0.00000000E+00  0.00000000E+00
  0.00000000E+00  0.00000000E+00  0.00000000E+00
  0.00000000E+00  0.00000000E+00  0.00000000E+00
  0.00000000E+00  0.00000000E+00  0.00000000E+00
  0.00000000E+00  0.00000000E+00  0.00000000E+00
  0.00000000E+00  0.00000000E+00  0.00000000E+00
  0.00000000E+00  0.00000000E+00  0.00000000E+00
  0.00000000E+00  0.00000000E+00  0.00000000E+00
  0.00000000E+00  0.00000000E+00  0.00000000E+00
  0.00000000E+00  0.00000000E+00  0.00000000E+00
  0.00000000E+00  0.00000000E+00  0.00000000E+00
