CeO2-you-111-you-Sb                     
   1.00000000000000     
     9.8679166377705858   -5.6706253857158293   -0.0064438353167162
     0.0230529924195964   11.3811777271862269    0.0064438342295400
    -0.0068950893421751    0.0119426444752088   21.0723991228819436
   O    Sb   Ce
    53     1    26
Selective dynamics
Direct
 -0.0000824302057346 -0.0000506312415320  0.9956673900442637   T   T   T
  0.1097930494396051  0.2208633560685768  0.1462762776637634   T   T   T
  0.2319022180874835  0.1215276878515509  0.3044410896013296   T   T   T
  0.0820282455176538  0.1998699566319123  0.3868341736074331   T   T   T
  0.0039873936922815  0.0029823640194958  0.2293010719779316   T   T   T
  0.2215506565759941  0.1099022998132116  0.0748371981851454   T   T   T
  0.3348944775214447  0.0007738666875665  0.9969044825889106   T   T   T
  0.4418936197114480  0.2247723802887275  0.1505694194122424   T   T   T
  0.5541571444511936  0.1125098555480807  0.3034438406339500   T   T   T
  0.4434534618827510  0.2232125381167253  0.3847436547943331   T   T   T
  0.3325117089306517  0.0007787829944925  0.2286609197738367   T   T   T
  0.5560650118703725  0.1106019881289231  0.0778953562734092   T   T   T
  0.6662072064800761  0.0004597935216821  0.9965611311821769   T   T   T
  0.7845700271845117  0.2273953902680760  0.1515180288976700   T   T   T
  0.8795418290130066  0.1061381942094017  0.3005969017026743   T   T   T
  0.7708320092214980  0.2198038128122842  0.3854237421967148   T   T   T
  0.6644672670963051  0.0021997329043097  0.2260217285804518   T   T   T
  0.8873287760182041  0.1094730714843554  0.0749403205123911   T   T   T
 -0.0024296097674678  0.3313047912416627  0.9954808908669077   T   T   T
  0.1102888636931841  0.5563781363047547  0.1469446358333028   T   T   T
  0.1178664046970585  0.5488005953011817  0.3769870697268277   T   T   T
  0.0198883763508368  0.3420050663102135  0.2340737468942808   T   T   T
  0.2220016919575465  0.4446643080430757  0.0714969530373859   T   T   T
  0.3344782961712700  0.3321877038277279  0.9956037890200757   T   T   T
  0.4458026439345269  0.5568739505618886  0.1462762776634668   T   T   T
  0.5451393121501534  0.4347637819130942  0.3044410896010257   T   T   T
  0.4667960433713249  0.5846387544835779  0.3868341736076893   T   T   T
  0.3264074619882857  0.3402585380128371  0.2313250363215661   T   T   T
  0.5567647001873590  0.4451153434240611  0.0748371981852442   T   T   T
  0.6658931333113867  0.3317715224776505  0.9969044825887053   T   T   T
  0.7786998271270857  0.5553422899434306  0.1505083378835710   T   T   T
  0.8848253680151634  0.4431015830551799  0.3029197634434107   T   T   T
  0.7793317972037752  0.5539703669354896  0.3816503090580048   T   T   T
  0.6658882170046413  0.3341542910691555  0.2286609197740362   T   T   T
  0.8890838378708306  0.4451774726066417  0.0744945894025796   T   T   T
 -0.0007416014294557  0.6674086014288698  0.9956492762120768   T   T   T
  0.1113247100557268  0.8879671728719895  0.1505083378835206   T   T   T
  0.2235644169421375  0.7818416319803697  0.3029197634434576   T   T   T
  0.1126966330645002  0.8873352027952367  0.3816503090578577   T   T   T
  0.0009743788300853  0.6656926211680582  0.2292226042767148   T   T   T
  0.2214885273928337  0.7775831621289367  0.0744945894024336   T   T   T
  0.3353612087589066  0.6690966097683267  0.9954808908668509   T   T   T
  0.4392706097321782  0.8820969728149448  0.1515180288976923   T   T   T
  0.5605288057948669  0.7871251709880055  0.3005969017029518   T   T   T
  0.4468621871878102  0.8958349907748733  0.3854237421963347   T   T   T
  0.3246609336894328  0.6467786236490803  0.2340737468942127   T   T   T
  0.5571939285159246  0.7793382239820325  0.0749403205123935   T   T   T
  0.6667176312417059  0.6667494302054903  0.9956673900442146   T   T   T
  0.7779228992171242  0.8887441007832139  0.1516295581475582   T   T   T
  0.8890765142598341  0.7775904857394773  0.3032290360580600   T   T   T
  0.7763976181368643  0.8902693818633018  0.3832924613230726   T   T   T
  0.6636846359809501  0.6626796063086433  0.2293010719777615   T   T   T
  0.8885351107956229  0.7781318892042031  0.0757345018707649   T   T   T
  0.3484350789139106  0.3182309210843137  0.3422339012200434   T   T   T
 -0.0023240835505797  0.0012140145234293  0.3450210291532924   T   T   T
  0.2214562296053070  0.1121650361586699  0.1894386432041726   T   T   T
  0.1097093121814580  0.2200254154029399  0.0336412315074420   T   T   T
  0.3317130157809600 -0.0021586719640455  0.3432732346383641   T   T   T
  0.5550018086797642  0.1116651913217735  0.1902305397070458   T   T   T
  0.4443784755159119  0.2222875244841365  0.0360626725795813   T   T   T
  0.6660893685706633  0.0005776314308664  0.3428669480555808   T   T   T
  0.8901020404110906  0.1119106295423264  0.1902564138144697   T   T   T
  0.7780627212100624  0.2223932081032143  0.0362877167694461   T   T   T
 -0.0111801474125171  0.3227879621880013  0.3494273671944710   T   T   T
  0.2223282269601359  0.4443377730359565  0.1814322202865737   T   T   T
  0.1100051833479140  0.5566618166523842  0.0337858717845882   T   T   T
  0.5545019638392907  0.4452097703936763  0.1894386432041621   T   T   T
  0.4466405845963947  0.5569576878180420  0.0336412315074997   T   T   T
  0.6688256719671186  0.3349529842192663  0.3432732346384484   T   T   T
  0.8905251216940324  0.4447619775136793  0.1906674259264440   T   T   T
  0.7778087196360157  0.5554595117298394  0.0363185134269507   T   T   T
  0.0008126789052467  0.6658543210976483  0.3418169952701259   T   T   T
  0.2219040224891317  0.7761418783112697  0.1906674259264338   T   T   T
  0.1112074882711668  0.8888582803647209  0.0363185134269015   T   T   T
  0.3438780378105545  0.6778471474136367  0.3494273671951020   T   T   T
  0.5547563704538546  0.7765649595889449  0.1902564138145091   T   T   T
  0.4442727918965665  0.8886042787901610  0.0362877167694515   T   T   T
  0.6654529854743997  0.6689910835497386  0.3450210291532537   T   T   T
  0.8886964944269909  0.7779705055741469  0.1902437820602998   T   T   T
  0.7773706524023959  0.8892963475967506  0.0361793964608209   T   T   T
 
  0.00000000E+00  0.00000000E+00  0.00000000E+00
  0.00000000E+00  0.00000000E+00  0.00000000E+00
  0.00000000E+00  0.00000000E+00  0.00000000E+00
  0.00000000E+00  0.00000000E+00  0.00000000E+00
  0.00000000E+00  0.00000000E+00  0.00000000E+00
  0.00000000E+00  0.00000000E+00  0.00000000E+00
  0.00000000E+00  0.00000000E+00  0.00000000E+00
  0.00000000E+00  0.00000000E+00  0.00000000E+00
  0.00000000E+00  0.00000000E+00  0.00000000E+00
  0.00000000E+00  0.00000000E+00  0.00000000E+00
  0.00000000E+00  0.00000000E+00  0.00000000E+00
  0.00000000E+00  0.00000000E+00  0.00000000E+00
  0.00000000E+00  0.00000000E+00  0.00000000E+00
  0.00000000E+00  0.00000000E+00  0.00000000E+00
  0.00000000E+00  0.00000000E+00  0.00000000E+00
  0.00000000E+00  0.00000000E+00  0.00000000E+00
  0.00000000E+00  0.00000000E+00  0.00000000E+00
  0.00000000E+00  0.00000000E+00  0.00000000E+00
  0.00000000E+00  0.00000000E+00  0.00000000E+00
  0.00000000E+00  0.00000000E+00  0.00000000E+00
  0.00000000E+00  0.00000000E+00  0.00000000E+00
  0.00000000E+00  0.00000000E+00  0.00000000E+00
  0.00000000E+00  0.00000000E+00  0.00000000E+00
  0.00000000E+00  0.00000000E+00  0.00000000E+00
  0.00000000E+00  0.00000000E+00  0.00000000E+00
  0.00000000E+00  0.00000000E+00  0.00000000E+00
  0.00000000E+00  0.00000000E+00  0.00000000E+00
  0.00000000E+00  0.00000000E+00  0.00000000E+00
  0.00000000E+00  0.00000000E+00  0.00000000E+00
  0.00000000E+00  0.00000000E+00  0.00000000E+00
  0.00000000E+00  0.00000000E+00  0.00000000E+00
  0.00000000E+00  0.00000000E+00  0.00000000E+00
  0.00000000E+00  0.00000000E+00  0.00000000E+00
  0.00000000E+00  0.00000000E+00  0.00000000E+00
  0.00000000E+00  0.00000000E+00  0.00000000E+00
  0.00000000E+00  0.00000000E+00  0.00000000E+00
  0.00000000E+00  0.00000000E+00  0.00000000E+00
  0.00000000E+00  0.00000000E+00  0.00000000E+00
  0.00000000E+00  0.00000000E+00  0.00000000E+00
  0.00000000E+00  0.00000000E+00  0.00000000E+00
  0.00000000E+00  0.00000000E+00  0.00000000E+00
  0.00000000E+00  0.00000000E+00  0.00000000E+00
  0.00000000E+00  0.00000000E+00  0.00000000E+00
  0.00000000E+00  0.00000000E+00  0.00000000E+00
  0.00000000E+00  0.00000000E+00  0.00000000E+00
  0.00000000E+00  0.00000000E+00  0.00000000E+00
  0.00000000E+00  0.00000000E+00  0.00000000E+00
  0.00000000E+00  0.00000000E+00  0.00000000E+00
  0.00000000E+00  0.00000000E+00  0.00000000E+00
  0.00000000E+00  0.00000000E+00  0.00000000E+00
  0.00000000E+00  0.00000000E+00  0.00000000E+00
  0.00000000E+00  0.00000000E+00  0.00000000E+00
  0.00000000E+00  0.00000000E+00  0.00000000E+00
  0.00000000E+00  0.00000000E+00  0.00000000E+00
  0.00000000E+00  0.00000000E+00  0.00000000E+00
  0.00000000E+00  0.00000000E+00  0.00000000E+00
  0.00000000E+00  0.00000000E+00  0.00000000E+00
  0.00000000E+00  0.00000000E+00  0.00000000E+00
  0.00000000E+00  0.00000000E+00  0.00000000E+00
  0.00000000E+00  0.00000000E+00  0.00000000E+00
  0.00000000E+00  0.00000000E+00  0.00000000E+00
  0.00000000E+00  0.00000000E+00  0.00000000E+00
  0.00000000E+00  0.00000000E+00  0.00000000E+00
  0.00000000E+00  0.00000000E+00  0.00000000E+00
  0.00000000E+00  0.00000000E+00  0.00000000E+00
  0.00000000E+00  0.00000000E+00  0.00000000E+00
  0.00000000E+00  0.00000000E+00  0.00000000E+00
  0.00000000E+00  0.00000000E+00  0.00000000E+00
  0.00000000E+00  0.00000000E+00  0.00000000E+00
  0.00000000E+00  0.00000000E+00  0.00000000E+00
  0.00000000E+00  0.00000000E+00  0.00000000E+00
  0.00000000E+00  0.00000000E+00  0.00000000E+00
  0.00000000E+00  0.00000000E+00  0.00000000E+00
  0.00000000E+00  0.00000000E+00  0.00000000E+00
  0.00000000E+00  0.00000000E+00  0.00000000E+00
  0.00000000E+00  0.00000000E+00  0.00000000E+00
  0.00000000E+00  0.00000000E+00  0.00000000E+00
  0.00000000E+00  0.00000000E+00  0.00000000E+00
  0.00000000E+00  0.00000000E+00  0.00000000E+00
  0.00000000E+00  0.00000000E+00  0.00000000E+00
