CeO2-you-111-you-Mg                     
   1.00000000000000     
     9.8232278121244700   -5.6767089410028344   -0.0028396531369779
    -0.0045599216952601   11.3455178685279154    0.0028396526589569
    -0.0029274835483283    0.0050705500057764   21.0904913556552209
   O    Mg   Ce H
    53     1    26 1
Selective dynamics
Direct
 -0.0004203589371204 -0.0007593267546343  0.9953874509156099   T   T   T
  0.1090435028732703  0.2203092944586081  0.1472956839921414   T   T   T
  0.2240864617074552  0.1100903969635815  0.3025121673889117   T   T   T
  0.1250913914331117  0.2453962788844013  0.3678395304469727   T   T   T
 -0.0004030805923988  0.0015151993611956  0.2298382606477702   T   T   T
  0.2217788427810689  0.1105414233116005  0.0753191624905782   T   T   T
  0.3347890049098735  0.0008801091309463  0.9965824410603129   T   T   T
  0.4418948631194077  0.2247711368792719  0.1519613045792675   T   T   T
  0.5569874532607870  0.1096795467381988  0.3048071028633957   T   T   T
  0.4452863320704297  0.2213796679286947  0.3818692838862875   T   T   T
  0.3352009303551975  0.0003744228953384  0.2291444747688824   T   T   T
  0.5559210396649055  0.1107459603350161  0.0783008375204673   T   T   T
  0.6657135749640326  0.0009534250366974  0.9958208235600270   T   T   T
  0.7844121033939282  0.2255802282837721  0.1521156614128570   T   T   T
  0.8839882946318108  0.1081957878910784  0.3038717724306511   T   T   T
  0.7778138872791249  0.2196904374067450  0.3874457999715161   T   T   T
  0.6666093130199217  0.0000576869802702  0.2284850313574636   T   T   T
  0.8876002674948676  0.1100808326623072  0.0749007527370051   T   T   T
 -0.0017529662591836  0.3326819930736672  0.9953920736507447   T   T   T
  0.1110679615119789  0.5555990384866176  0.1483184255082702   T   T   T
  0.1178635747693077  0.5488034252352588  0.3768562949022154   T   T   T
  0.0176278203790789  0.3426469930805597  0.2354073825670901   T   T   T
  0.2224635842636071  0.4442024157373786  0.0724900491146315   T   T   T
  0.3340281982678713  0.3326378017316555  0.9952871938383427   T   T   T
  0.4463567055450829  0.5576234971277162  0.1472956839920250   T   T   T
  0.5565766030366249  0.4425795382931745  0.3025121673889964   T   T   T
  0.4212697211112469  0.5415756085671578  0.3678395304469884   T   T   T
  0.3248581841771328  0.3418078158199260  0.2329365312143722   T   T   T
  0.5561255766883205  0.4448871572186575  0.0753191624906339   T   T   T
  0.6657868908687831  0.3318769950897259  0.9965824410602815   T   T   T
  0.7781245565896737  0.5553962919806256  0.1517376226078252   T   T   T
  0.8842909520284695  0.4430751694656938  0.3050557106240524   T   T   T
  0.7768907554317973  0.5582975204539389  0.3840758427505322   T   T   T
  0.6662925771022467  0.3314650696440241  0.2291444747689131   T   T   T
  0.8884861296589115  0.4447751331141471  0.0755961191872854   T   T   T
 -0.0004926654465273  0.6671596654457542  0.9957984535668328   T   T   T
  0.1112707080181561  0.8885424434085183  0.1517376226078142   T   T   T
  0.2235908305325374  0.7823760479675602  0.3050557106240064   T   T   T
  0.1083694795457924  0.8897762445661322  0.3840758427504378   T   T   T
  0.0011861710286518  0.6654808289694029  0.2305816283821866   T   T   T
  0.2218908668855930  0.7781808703405071  0.0755961191872211   T   T   T
  0.3339840069267758  0.6684199662599108  0.9953920736507076   T   T   T
  0.4410857717169014  0.8822548966059685  0.1521156614129236   T   T   T
  0.5584712121119364  0.7826787053679498  0.3038717724306193   T   T   T
  0.4469755625936407  0.8888531127184985  0.3874457999712257   T   T   T
  0.3240190069205949  0.6490391796268828  0.2354073825670259   T   T   T
  0.5565861673385113  0.7790667325057017  0.0749007527370172   T   T   T
  0.6674263267549158  0.6670873589368467  0.9953874509156013   T   T   T
  0.7777099034145962  0.8889570965858912  0.1506089412898132   T   T   T
  0.8889514673317934  0.7777155326672871  0.3030698105456390   T   T   T
  0.7787037559286615  0.8879632440713592  0.3835755667886145   T   T   T
  0.6651518006393355  0.6670700805930299  0.2298382606477730   T   T   T
  0.8888953880656484  0.7777716119338332  0.0760276968416497   T   T   T
  0.3427879438682336  0.3238780561384112  0.3363570269793740   T   T   T
  0.0052333392106165  0.0053735295024926  0.3421836842880092   T   T   T
  0.2229428699131953  0.1133392760270301  0.1923139393679434   T   T   T
  0.1100632474266855  0.2200778788411510  0.0338536055552513   T   T   T
  0.3344935125893916  0.0061860621551281  0.3450793325227828   T   T   T
  0.5557899192854753  0.1108770807170582  0.1912961365046500   T   T   T
  0.4442165088521162  0.2224494911477591  0.0368259028803765   T   T   T
  0.6673369498182996 -0.0006699498157936  0.3460007800474490   T   T   T
  0.8896026924163909  0.1115324343449252  0.1904777602989851   T   T   T
  0.7777788015719501  0.2223331486715182  0.0362413638319839   T   T   T
 -0.0090799320334141  0.3262767371252241  0.3468143042730759   T   T   T
  0.2234873595352859  0.4431786404595132  0.1823386210837108   T   T   T
  0.1100313160497987  0.5566356839498363  0.0344949967498399   T   T   T
  0.5533277239703165  0.4437231300851350  0.1923139393679365   T   T   T
  0.4465881211586487  0.5566037525729353  0.0338536055553081   T   T   T
  0.6604809378483145  0.3321724874111038  0.3450793325225930   T   T   T
  0.8899040983990072  0.4447506355188141  0.1916417591764385   T   T   T
  0.7773780005946525  0.5549177055388198  0.0367752136127317   T   T   T
 -0.0013569958878525  0.6680239958948350  0.3432653572511017   T   T   T
  0.2219153644841703  0.7767629016084980  0.1916417591764604   T   T   T
  0.1117492944622381  0.8892889994059769  0.0367752136127016   T   T   T
  0.3403892628726353  0.6757469320303913  0.3468143042735880   T   T   T
  0.5551345656498182  0.7770643075829743  0.1904777602990519   T   T   T
  0.4443328513279560  0.8888881984282425  0.0362413638319917   T   T   T
  0.6612934704931848  0.6614336607872590  0.3421836842877991   T   T   T
  0.8889359547775457  0.7777310452245583  0.1899883055806975   T   T   T
  0.7774944124371982  0.8891725875621567  0.0357641520078536   T   T   T
0.446598 0.216020 0.433410 T T T 
 
  0.00000000E+00  0.00000000E+00  0.00000000E+00
  0.00000000E+00  0.00000000E+00  0.00000000E+00
  0.00000000E+00  0.00000000E+00  0.00000000E+00
  0.00000000E+00  0.00000000E+00  0.00000000E+00
  0.00000000E+00  0.00000000E+00  0.00000000E+00
  0.00000000E+00  0.00000000E+00  0.00000000E+00
  0.00000000E+00  0.00000000E+00  0.00000000E+00
  0.00000000E+00  0.00000000E+00  0.00000000E+00
  0.00000000E+00  0.00000000E+00  0.00000000E+00
  0.00000000E+00  0.00000000E+00  0.00000000E+00
  0.00000000E+00  0.00000000E+00  0.00000000E+00
  0.00000000E+00  0.00000000E+00  0.00000000E+00
  0.00000000E+00  0.00000000E+00  0.00000000E+00
  0.00000000E+00  0.00000000E+00  0.00000000E+00
  0.00000000E+00  0.00000000E+00  0.00000000E+00
  0.00000000E+00  0.00000000E+00  0.00000000E+00
  0.00000000E+00  0.00000000E+00  0.00000000E+00
  0.00000000E+00  0.00000000E+00  0.00000000E+00
  0.00000000E+00  0.00000000E+00  0.00000000E+00
  0.00000000E+00  0.00000000E+00  0.00000000E+00
  0.00000000E+00  0.00000000E+00  0.00000000E+00
  0.00000000E+00  0.00000000E+00  0.00000000E+00
  0.00000000E+00  0.00000000E+00  0.00000000E+00
  0.00000000E+00  0.00000000E+00  0.00000000E+00
  0.00000000E+00  0.00000000E+00  0.00000000E+00
  0.00000000E+00  0.00000000E+00  0.00000000E+00
  0.00000000E+00  0.00000000E+00  0.00000000E+00
  0.00000000E+00  0.00000000E+00  0.00000000E+00
  0.00000000E+00  0.00000000E+00  0.00000000E+00
  0.00000000E+00  0.00000000E+00  0.00000000E+00
  0.00000000E+00  0.00000000E+00  0.00000000E+00
  0.00000000E+00  0.00000000E+00  0.00000000E+00
  0.00000000E+00  0.00000000E+00  0.00000000E+00
  0.00000000E+00  0.00000000E+00  0.00000000E+00
  0.00000000E+00  0.00000000E+00  0.00000000E+00
  0.00000000E+00  0.00000000E+00  0.00000000E+00
  0.00000000E+00  0.00000000E+00  0.00000000E+00
  0.00000000E+00  0.00000000E+00  0.00000000E+00
  0.00000000E+00  0.00000000E+00  0.00000000E+00
  0.00000000E+00  0.00000000E+00  0.00000000E+00
  0.00000000E+00  0.00000000E+00  0.00000000E+00
  0.00000000E+00  0.00000000E+00  0.00000000E+00
  0.00000000E+00  0.00000000E+00  0.00000000E+00
  0.00000000E+00  0.00000000E+00  0.00000000E+00
  0.00000000E+00  0.00000000E+00  0.00000000E+00
  0.00000000E+00  0.00000000E+00  0.00000000E+00
  0.00000000E+00  0.00000000E+00  0.00000000E+00
  0.00000000E+00  0.00000000E+00  0.00000000E+00
  0.00000000E+00  0.00000000E+00  0.00000000E+00
  0.00000000E+00  0.00000000E+00  0.00000000E+00
  0.00000000E+00  0.00000000E+00  0.00000000E+00
  0.00000000E+00  0.00000000E+00  0.00000000E+00
  0.00000000E+00  0.00000000E+00  0.00000000E+00
  0.00000000E+00  0.00000000E+00  0.00000000E+00
  0.00000000E+00  0.00000000E+00  0.00000000E+00
  0.00000000E+00  0.00000000E+00  0.00000000E+00
  0.00000000E+00  0.00000000E+00  0.00000000E+00
  0.00000000E+00  0.00000000E+00  0.00000000E+00
  0.00000000E+00  0.00000000E+00  0.00000000E+00
  0.00000000E+00  0.00000000E+00  0.00000000E+00
  0.00000000E+00  0.00000000E+00  0.00000000E+00
  0.00000000E+00  0.00000000E+00  0.00000000E+00
  0.00000000E+00  0.00000000E+00  0.00000000E+00
  0.00000000E+00  0.00000000E+00  0.00000000E+00
  0.00000000E+00  0.00000000E+00  0.00000000E+00
  0.00000000E+00  0.00000000E+00  0.00000000E+00
  0.00000000E+00  0.00000000E+00  0.00000000E+00
  0.00000000E+00  0.00000000E+00  0.00000000E+00
  0.00000000E+00  0.00000000E+00  0.00000000E+00
  0.00000000E+00  0.00000000E+00  0.00000000E+00
  0.00000000E+00  0.00000000E+00  0.00000000E+00
  0.00000000E+00  0.00000000E+00  0.00000000E+00
  0.00000000E+00  0.00000000E+00  0.00000000E+00
  0.00000000E+00  0.00000000E+00  0.00000000E+00
  0.00000000E+00  0.00000000E+00  0.00000000E+00
  0.00000000E+00  0.00000000E+00  0.00000000E+00
  0.00000000E+00  0.00000000E+00  0.00000000E+00
  0.00000000E+00  0.00000000E+00  0.00000000E+00
  0.00000000E+00  0.00000000E+00  0.00000000E+00
  0.00000000E+00  0.00000000E+00  0.00000000E+00
