CeO2-you-111-you-Ir                     
   1.00000000000000     
     9.8507512437236411   -5.6719206299868103   -0.0021654055961505
    -0.0000000004961807   11.3438392628842966    0.0000000003772081
    -0.0035056149597278    0.0000000005414563   21.0795775007116006
   O    Ir   Ce H
    53     1    26 1
Selective dynamics
Direct
 -0.0009884825701045  0.0011636517279545  0.9960508635297227   T   T   T
  0.1204427401711048  0.2268878700864569  0.1520267612921003   T   T   T
  0.2131323228758109  0.1176412028163384  0.3002153488965338   T   T   T
  0.1353338765515552  0.2343334382763862  0.3869831646909927   T   T   T
 -0.0024079350522863 -0.0007074390487110  0.2274137106006656   T   T   T
  0.2210277241992435  0.1098369008467978  0.0743938070317018   T   T   T
  0.3339286028996409 -0.0004377435580140  0.9956289191600255   T   T   T
  0.4425818603421018  0.2207588273908303  0.1477135610899032   T   T   T
  0.5520113977500396  0.1047159683754923  0.3053997058202659   T   T   T
  0.4264776056003076  0.2455257902855443  0.3644635825279391   T   T   T
  0.3310311294163586  0.0018246326673956  0.2302827676306218   T   T   T
  0.5548499079185631  0.1100899504894655  0.0756724428632653   T   T   T
  0.6688754959328637  0.0011042479665459  0.9967949387691776   T   T   T
  0.7729579358855566  0.2229969106459370  0.1517333253930067   T   T   T
  0.8936862120166321  0.1135096060095330  0.3052404654876079   T   T   T
  0.7827370388867870  0.2168343895415339  0.3876238501737854   T   T   T
  0.6688271502246257  0.0010800751128269  0.2300214629822331   T   T   T
  0.8903252004191335  0.1118291002093212  0.0783770293961429   T   T   T
 -0.0009884825698406  0.3311808657014900  0.9960508635297488   T   T   T
  0.1112549446168881  0.5555599922398842  0.1503975135843174   T   T   T
  0.2131323228785992  0.4288241200492708  0.3002153488984358   T   T   T
  0.1170962238106818  0.5558271942623121  0.3828382345165518   T   T   T
 -0.0024079350514606  0.3316325039970800  0.2274137106005735   T   T   T
  0.2210277241992043  0.4445238233507284  0.0743938070315168   T   T   T
  0.3322698002917193  0.3328014001451181  0.9954199414256035   T   T   T
  0.4425818603410077  0.5551570329516069  0.1477135610910986   T   T   T
  0.4264776056015868  0.5142858153221995  0.3644635825274504   T   T   T
  0.3645624298847245  0.3489477149413924  0.2399598751758752   T   T   T
  0.5561274628051222  0.4447297314030351  0.0722670735770073   T   T   T
  0.6678268321846487  0.3323822626183626  0.9956461328745739   T   T   T
  0.7800467495448794  0.5566903747742518  0.1471781189344799   T   T   T
  0.8960598462042353  0.4443239347559981  0.3040364289563608   T   T   T
  0.7887567600914159  0.5610453800528293  0.3840666194774072   T   T   T
  0.6607207647974644  0.3417968713706701  0.2332584366697991   T   T   T
  0.8902937496996077  0.4443573287704447  0.0750113825024338   T   T   T
  0.0003519132342186  0.6668429566170455  0.9954731013797985   T   T   T
  0.1112549446161080  0.8890289523741164  0.1503975135843529   T   T   T
  0.2237088295474447  0.7785214147734331  0.3030659655940268   T   T   T
  0.1170962238102517  0.8946030295509138  0.3828382345176839   T   T   T
 -0.0013230606609485  0.6660054696675584  0.2294246308487169   T   T   T
  0.2222691746723703  0.7778015873362022  0.0755933440646241   T   T   T
  0.3339286028998874  0.6677003464575576  0.9956289191602488   T   T   T
  0.4438891856679120  0.8886115928337355  0.1523461887348757   T   T   T
  0.5520113977482574  0.7806284293698060  0.3053997058197188   T   T   T
  0.4401865399607431  0.8867602699787569  0.3853935812056229   T   T   T
  0.3310311294164871  0.6625404967473967  0.2302827676293732   T   T   T
  0.5548499079187430  0.7780929574309525  0.0756724428634136   T   T   T
  0.6678268321848482  0.6687775695673248  0.9956461328747311   T   T   T
  0.7729579358843564  0.8832940252381358  0.1517333253918784   T   T   T
  0.8960598462029761  0.7850689114476740  0.3040364289566275   T   T   T
  0.7827370388858929  0.8992356493493142  0.3876238501754806   T   T   T
  0.6607207647978338  0.6522568934317655  0.2332584366708934   T   T   T
  0.8902937496995216  0.7792694209288810  0.0750113825026300   T   T   T
  0.3044853211109093  0.3189091605539939  0.3337342301480445   T   T   T
  0.0005863391572170  0.0010374135638240  0.3444457120076326   T   T   T
  0.2224622100729938  0.1110038506204447  0.1895318306231693   T   T   T
  0.1111854445264642  0.2222592222636726  0.0354719285667853   T   T   T
  0.3319426048659827  0.0026275735499363  0.3422876400964754   T   T   T
  0.5550959479168327  0.1123925971098630  0.1922629170250772   T   T   T
  0.4437897324946510  0.2202239309758900  0.0342371694442742   T   T   T
  0.6654266498602487 -0.0006201750677485  0.3463987340589486   T   T   T
  0.8883268369558223  0.1108299184794252  0.1909950289347667   T   T   T
  0.7775991110860706  0.2221473439963328  0.0366846613596776   T   T   T
  0.0005863391558461  0.3328819255859543  0.3444457120076502   T   T   T
  0.2224622100728505  0.4447913594502638  0.1895318306234369   T   T   T
  0.1107028738121933  0.5550723075699096  0.0358398401598466   T   T   T
  0.5584555095733374  0.4458937547869219  0.1823999036587448   T   T   T
  0.4437897324948684  0.5568998015180295  0.0342371694442374   T   T   T
  0.6704422708110753  0.3309130460575330  0.3504797590179744   T   T   T
  0.8877588633557056  0.4440264136461669  0.1913374652183166   T   T   T
  0.7799417646937384  0.5566378823468218  0.0340547880956991   T   T   T
  0.0003183143727019  0.6668261571911649  0.3436706782705726   T   T   T
  0.2211248793410529  0.7772294396719909  0.1899088711698581   T   T   T
  0.1107028738124429  0.8889645662425275  0.0358398401600395   T   T   T
  0.3319426048675547  0.6626490313136960  0.3422876400982952   T   T   T
  0.5550959479198525  0.7760363508044158  0.1922629170255289   T   T   T
  0.4448999731260642  0.8891169865632974  0.0368835565064489   T   T   T
  0.6704422708127632  0.6728622247498161  0.3504797590159836   T   T   T
  0.8877588633587803  0.7770654497173899  0.1913374652195325   T   T   T
  0.7775991110866575  0.8887847670895909  0.0366846613594709   T   T   T
0.446598 0.216020 0.433410 T T T 
 
  0.00000000E+00  0.00000000E+00  0.00000000E+00
  0.00000000E+00  0.00000000E+00  0.00000000E+00
  0.00000000E+00  0.00000000E+00  0.00000000E+00
  0.00000000E+00  0.00000000E+00  0.00000000E+00
  0.00000000E+00  0.00000000E+00  0.00000000E+00
  0.00000000E+00  0.00000000E+00  0.00000000E+00
  0.00000000E+00  0.00000000E+00  0.00000000E+00
  0.00000000E+00  0.00000000E+00  0.00000000E+00
  0.00000000E+00  0.00000000E+00  0.00000000E+00
  0.00000000E+00  0.00000000E+00  0.00000000E+00
  0.00000000E+00  0.00000000E+00  0.00000000E+00
  0.00000000E+00  0.00000000E+00  0.00000000E+00
  0.00000000E+00  0.00000000E+00  0.00000000E+00
  0.00000000E+00  0.00000000E+00  0.00000000E+00
  0.00000000E+00  0.00000000E+00  0.00000000E+00
  0.00000000E+00  0.00000000E+00  0.00000000E+00
  0.00000000E+00  0.00000000E+00  0.00000000E+00
  0.00000000E+00  0.00000000E+00  0.00000000E+00
  0.00000000E+00  0.00000000E+00  0.00000000E+00
  0.00000000E+00  0.00000000E+00  0.00000000E+00
  0.00000000E+00  0.00000000E+00  0.00000000E+00
  0.00000000E+00  0.00000000E+00  0.00000000E+00
  0.00000000E+00  0.00000000E+00  0.00000000E+00
  0.00000000E+00  0.00000000E+00  0.00000000E+00
  0.00000000E+00  0.00000000E+00  0.00000000E+00
  0.00000000E+00  0.00000000E+00  0.00000000E+00
  0.00000000E+00  0.00000000E+00  0.00000000E+00
  0.00000000E+00  0.00000000E+00  0.00000000E+00
  0.00000000E+00  0.00000000E+00  0.00000000E+00
  0.00000000E+00  0.00000000E+00  0.00000000E+00
  0.00000000E+00  0.00000000E+00  0.00000000E+00
  0.00000000E+00  0.00000000E+00  0.00000000E+00
  0.00000000E+00  0.00000000E+00  0.00000000E+00
  0.00000000E+00  0.00000000E+00  0.00000000E+00
  0.00000000E+00  0.00000000E+00  0.00000000E+00
  0.00000000E+00  0.00000000E+00  0.00000000E+00
  0.00000000E+00  0.00000000E+00  0.00000000E+00
  0.00000000E+00  0.00000000E+00  0.00000000E+00
  0.00000000E+00  0.00000000E+00  0.00000000E+00
  0.00000000E+00  0.00000000E+00  0.00000000E+00
  0.00000000E+00  0.00000000E+00  0.00000000E+00
  0.00000000E+00  0.00000000E+00  0.00000000E+00
  0.00000000E+00  0.00000000E+00  0.00000000E+00
  0.00000000E+00  0.00000000E+00  0.00000000E+00
  0.00000000E+00  0.00000000E+00  0.00000000E+00
  0.00000000E+00  0.00000000E+00  0.00000000E+00
  0.00000000E+00  0.00000000E+00  0.00000000E+00
  0.00000000E+00  0.00000000E+00  0.00000000E+00
  0.00000000E+00  0.00000000E+00  0.00000000E+00
  0.00000000E+00  0.00000000E+00  0.00000000E+00
  0.00000000E+00  0.00000000E+00  0.00000000E+00
  0.00000000E+00  0.00000000E+00  0.00000000E+00
  0.00000000E+00  0.00000000E+00  0.00000000E+00
  0.00000000E+00  0.00000000E+00  0.00000000E+00
  0.00000000E+00  0.00000000E+00  0.00000000E+00
  0.00000000E+00  0.00000000E+00  0.00000000E+00
  0.00000000E+00  0.00000000E+00  0.00000000E+00
  0.00000000E+00  0.00000000E+00  0.00000000E+00
  0.00000000E+00  0.00000000E+00  0.00000000E+00
  0.00000000E+00  0.00000000E+00  0.00000000E+00
  0.00000000E+00  0.00000000E+00  0.00000000E+00
  0.00000000E+00  0.00000000E+00  0.00000000E+00
  0.00000000E+00  0.00000000E+00  0.00000000E+00
  0.00000000E+00  0.00000000E+00  0.00000000E+00
  0.00000000E+00  0.00000000E+00  0.00000000E+00
  0.00000000E+00  0.00000000E+00  0.00000000E+00
  0.00000000E+00  0.00000000E+00  0.00000000E+00
  0.00000000E+00  0.00000000E+00  0.00000000E+00
  0.00000000E+00  0.00000000E+00  0.00000000E+00
  0.00000000E+00  0.00000000E+00  0.00000000E+00
  0.00000000E+00  0.00000000E+00  0.00000000E+00
  0.00000000E+00  0.00000000E+00  0.00000000E+00
  0.00000000E+00  0.00000000E+00  0.00000000E+00
  0.00000000E+00  0.00000000E+00  0.00000000E+00
  0.00000000E+00  0.00000000E+00  0.00000000E+00
  0.00000000E+00  0.00000000E+00  0.00000000E+00
  0.00000000E+00  0.00000000E+00  0.00000000E+00
  0.00000000E+00  0.00000000E+00  0.00000000E+00
  0.00000000E+00  0.00000000E+00  0.00000000E+00
  0.00000000E+00  0.00000000E+00  0.00000000E+00
