CeO2-you-111-you-Hf                     
   1.00000000000000     
     9.8619590680797273   -5.6774977908801709    0.0092171674820506
    -0.0000000017734778   11.3549935805432227   -0.0000000010859093
     0.0210025747266469   -0.0000000021792587   20.8195059257523027
   O    Hf   Ce H
    53     1    26 2
Selective dynamics
Direct
 -0.0009796103322328  0.0010074898640628  0.9943993227731300   T   T   T
  0.1191382009953518  0.2262356004982077  0.1510301699911263   F   F   F
  0.2143178720477207  0.1104360108521628  0.3021885039353780   T   T   T
  0.1247050304990151  0.2290190152540998  0.3842378958724780   T   T   T
 -0.0023003221574635 -0.0000692727156534  0.2276771115763321   T   T   T
  0.2213574923080850  0.1098828030145872  0.0727328037463959   F   F   F
  0.3341416408256943 -0.0001231989551821  0.9929954464037527   T   T   T
  0.4421493873595955  0.2213720735283419  0.1472077389547474   F   F   F
  0.5513392918196529  0.1051417694274511  0.3063215735374341   T   T   T
  0.4342851636967926  0.2486902722446068  0.3715169334071050   T   T   T
  0.3320571138915571  0.0015792320344043  0.2299032187267602   T   T   T
  0.5548325553212298  0.1103367382190842  0.0741282762299682   F   F   F
  0.6696633986264777  0.0014981993131784  0.9949647139244738   T   T   T
  0.7727497667345976  0.2242514371034345  0.1514736611230579   F   F   F
  0.8918001518670352  0.1125665759338062  0.3048357279437986   T   T   T
  0.7834953197510203  0.2154664537461274  0.3892234606869068   T   T   T
  0.6677235811505324  0.0005282905752296  0.2299517454637920   T   T   T
  0.8898781185613062  0.1116055592805640  0.0772151797040607   F   F   F
 -0.0009796103324900  0.3313458998036555  0.9943993227731144   T   T   T
  0.1106826873244536  0.5552106729105429  0.1497348669229640   F   F   F
  0.2143178720349662  0.4372148611927356  0.3021885039367653   T   T   T
  0.1169024916276479  0.5571234627189371  0.3859190117610078   T   T   T
 -0.0023003221577974  0.3311019505582566  0.2276771115762538   T   T   T
  0.2213574923077957  0.4448076892932393  0.0727328037464123   F   F   F
  0.3330696847755104  0.3332013423876136  0.9929187458956527   T   T   T
  0.4421493873585366  0.5541113138309213  0.1472077389548758   F   F   F
  0.4342851636771620  0.5189288914389359  0.3715169334077464   T   T   T
  0.3522699498944639  0.3428014749497355  0.2395118555234154   T   T   T
  0.5563472375843839  0.4448396187920769  0.0709933433518768   F   F   F
  0.6682177158305380  0.3326896605482493  0.9933571542594797   T   T   T
  0.7788339315519948  0.5560839657757108  0.1469804503744434   F   F   F
  0.8961317535373198  0.4446151452420547  0.3046693556623634   T   T   T
  0.7914084504890179  0.5623712252433186  0.3876058056918902   T   T   T
  0.6582736244275897  0.3426982536197792  0.2342157537337351   T   T   T
  0.8899132920176349  0.4448218574733073  0.0737649025619395   F   F   F
  0.0015016314286184  0.6674178157143070  0.9930750751551939   T   T   T
  0.1106826873249160  0.8888060144143149  0.1497348669229966   F   F   F
  0.2239369343285459  0.7786354671646705  0.3040578411244038   T   T   T
  0.1169024916278331  0.8931130289104000  0.3859190117611462   T   T   T
 -0.0009758892615820  0.6661790553692861  0.2296552587132656   T   T   T
  0.2231943599764514  0.7782641799882701  0.0739241910048400   F   F   F
  0.3341416408255469  0.6675988397808450  0.9929954464038117   T   T   T
  0.4443932053935538  0.8888636026968469  0.1512694721466894   F   F   F
  0.5513392918213564  0.7795305223918522  0.3063215735370072   T   T   T
  0.4395204921876166  0.8864272460936143  0.3869895037303388   T   T   T
  0.3320571138907213  0.6638118818569386  0.2299032187266297   T   T   T
  0.5548325553209246  0.7778288171020800  0.0741282762300252   F   F   F
  0.6682177158305176  0.6688610552822715  0.9933571542596077   T   T   T
  0.7727497667347156  0.8818313296311048  0.1514736611228061   F   F   F
  0.8961317535369320  0.7848496082949252  0.3046693556624732   T   T   T
  0.7834953197497908  0.9013618660033753  0.3892234606871269   T   T   T
  0.6582736244209659  0.6489083708020067  0.2342157537338958   T   T   T
  0.8899132920175297  0.7784244345440201  0.0737649025620352   F   F   F
  0.3117654028568618  0.3225492014212015  0.3394254591107967   T   T   T
  0.0004242746802742  0.0010819385424758  0.3453995218198119   T   T   T
  0.2215828026232732  0.1102641955586676  0.1898733342436333   F   F   F
  0.1116462178735752  0.2224896089367798  0.0339849839634270   F   F   F
  0.3314791652157549  0.0022270879495941  0.3439624173149522   T   T   T
  0.5546477936099581  0.1122367500538779  0.1919194212164288   F   F   F
  0.4440157785231397  0.2203398866817300  0.0320490099012191   F   F   F
  0.6653709279001089 -0.0006480360490835  0.3471366122319117   T   T   T
  0.8876794324779282  0.1105062162390316  0.1906613312900632   F   F   F
  0.7779844621748915  0.2226120704429766  0.0349791552454849   F   F   F
  0.0004242746829632  0.3326753361366501  0.3453995218192403   T   T   T
  0.2215828026285477  0.4446516070647477  0.1898733342433052   F   F   F
  0.1110672681310277  0.5552985514688643  0.0340757830353698   F   F   F
  0.5560080025454049  0.4446700012735532  0.1822624562135159   F   F   F
  0.4440157785235471  0.5570098918416293  0.0320490099011354   F   F   F
  0.6725058330951863  0.3312432946339924  0.3536595451814754   T   T   T
  0.8871773943218866  0.4444874287084697  0.1914439350428395   F   F   F
  0.7803090392985107  0.5568215196493504  0.0324839003422150   F   F   F
  0.0014986454009249  0.6674163227003550  0.3459636074367711   T   T   T
  0.2213131134073553  0.7773235567033008  0.1894954762076817   F   F   F
  0.1110672681304477  0.8891027166618459  0.0340757830354348   F   F   F
  0.3314791652204507  0.6625860772666643  0.3439624173149209   T   T   T
  0.5546477936133746  0.7757440435575979  0.1919194212161731   F   F   F
  0.4455407313922633  0.8894373656959353  0.0347107595843376   F   F   F
  0.6725058331058811  0.6745955384735468  0.3536595451807523   T   T   T
  0.8871773943219210  0.7760229656155045  0.1914439350428636   F   F   F
  0.7779844621748868  0.8887053917320311  0.0349791552454222   F   F   F
0.3117654028568618 0.3225492014212015 0.439425 T T T
0.446598 0.216020 0.433410 T T T 
 
  0.00000000E+00  0.00000000E+00  0.00000000E+00
  0.00000000E+00  0.00000000E+00  0.00000000E+00
  0.00000000E+00  0.00000000E+00  0.00000000E+00
  0.00000000E+00  0.00000000E+00  0.00000000E+00
  0.00000000E+00  0.00000000E+00  0.00000000E+00
  0.00000000E+00  0.00000000E+00  0.00000000E+00
  0.00000000E+00  0.00000000E+00  0.00000000E+00
  0.00000000E+00  0.00000000E+00  0.00000000E+00
  0.00000000E+00  0.00000000E+00  0.00000000E+00
  0.00000000E+00  0.00000000E+00  0.00000000E+00
  0.00000000E+00  0.00000000E+00  0.00000000E+00
  0.00000000E+00  0.00000000E+00  0.00000000E+00
  0.00000000E+00  0.00000000E+00  0.00000000E+00
  0.00000000E+00  0.00000000E+00  0.00000000E+00
  0.00000000E+00  0.00000000E+00  0.00000000E+00
  0.00000000E+00  0.00000000E+00  0.00000000E+00
  0.00000000E+00  0.00000000E+00  0.00000000E+00
  0.00000000E+00  0.00000000E+00  0.00000000E+00
  0.00000000E+00  0.00000000E+00  0.00000000E+00
  0.00000000E+00  0.00000000E+00  0.00000000E+00
  0.00000000E+00  0.00000000E+00  0.00000000E+00
  0.00000000E+00  0.00000000E+00  0.00000000E+00
  0.00000000E+00  0.00000000E+00  0.00000000E+00
  0.00000000E+00  0.00000000E+00  0.00000000E+00
  0.00000000E+00  0.00000000E+00  0.00000000E+00
  0.00000000E+00  0.00000000E+00  0.00000000E+00
  0.00000000E+00  0.00000000E+00  0.00000000E+00
  0.00000000E+00  0.00000000E+00  0.00000000E+00
  0.00000000E+00  0.00000000E+00  0.00000000E+00
  0.00000000E+00  0.00000000E+00  0.00000000E+00
  0.00000000E+00  0.00000000E+00  0.00000000E+00
  0.00000000E+00  0.00000000E+00  0.00000000E+00
  0.00000000E+00  0.00000000E+00  0.00000000E+00
  0.00000000E+00  0.00000000E+00  0.00000000E+00
  0.00000000E+00  0.00000000E+00  0.00000000E+00
  0.00000000E+00  0.00000000E+00  0.00000000E+00
  0.00000000E+00  0.00000000E+00  0.00000000E+00
  0.00000000E+00  0.00000000E+00  0.00000000E+00
  0.00000000E+00  0.00000000E+00  0.00000000E+00
  0.00000000E+00  0.00000000E+00  0.00000000E+00
  0.00000000E+00  0.00000000E+00  0.00000000E+00
  0.00000000E+00  0.00000000E+00  0.00000000E+00
  0.00000000E+00  0.00000000E+00  0.00000000E+00
  0.00000000E+00  0.00000000E+00  0.00000000E+00
  0.00000000E+00  0.00000000E+00  0.00000000E+00
  0.00000000E+00  0.00000000E+00  0.00000000E+00
  0.00000000E+00  0.00000000E+00  0.00000000E+00
  0.00000000E+00  0.00000000E+00  0.00000000E+00
  0.00000000E+00  0.00000000E+00  0.00000000E+00
  0.00000000E+00  0.00000000E+00  0.00000000E+00
  0.00000000E+00  0.00000000E+00  0.00000000E+00
  0.00000000E+00  0.00000000E+00  0.00000000E+00
  0.00000000E+00  0.00000000E+00  0.00000000E+00
  0.00000000E+00  0.00000000E+00  0.00000000E+00
  0.00000000E+00  0.00000000E+00  0.00000000E+00
  0.00000000E+00  0.00000000E+00  0.00000000E+00
  0.00000000E+00  0.00000000E+00  0.00000000E+00
  0.00000000E+00  0.00000000E+00  0.00000000E+00
  0.00000000E+00  0.00000000E+00  0.00000000E+00
  0.00000000E+00  0.00000000E+00  0.00000000E+00
  0.00000000E+00  0.00000000E+00  0.00000000E+00
  0.00000000E+00  0.00000000E+00  0.00000000E+00
  0.00000000E+00  0.00000000E+00  0.00000000E+00
  0.00000000E+00  0.00000000E+00  0.00000000E+00
  0.00000000E+00  0.00000000E+00  0.00000000E+00
  0.00000000E+00  0.00000000E+00  0.00000000E+00
  0.00000000E+00  0.00000000E+00  0.00000000E+00
  0.00000000E+00  0.00000000E+00  0.00000000E+00
  0.00000000E+00  0.00000000E+00  0.00000000E+00
  0.00000000E+00  0.00000000E+00  0.00000000E+00
  0.00000000E+00  0.00000000E+00  0.00000000E+00
  0.00000000E+00  0.00000000E+00  0.00000000E+00
  0.00000000E+00  0.00000000E+00  0.00000000E+00
  0.00000000E+00  0.00000000E+00  0.00000000E+00
  0.00000000E+00  0.00000000E+00  0.00000000E+00
  0.00000000E+00  0.00000000E+00  0.00000000E+00
  0.00000000E+00  0.00000000E+00  0.00000000E+00
  0.00000000E+00  0.00000000E+00  0.00000000E+00
  0.00000000E+00  0.00000000E+00  0.00000000E+00
  0.00000000E+00  0.00000000E+00  0.00000000E+00
