CeO2-you-111-you-Rh                     
   1.00000000000000     
     9.7925622306971345   -5.6537388120115013    0.0000000000000000
     0.0000000061605534   11.3074756448175151    0.0000000000000000
     0.0000000000000000    0.0000000000000000   21.1075598993297469
   O    Rh   Ce   H 
    54     1    26     1
Selective dynamics
Direct
  0.0003121472085466  0.0002655903190051  0.9947571480393931   T   T   T
  0.1029314727720489  0.2181322363857774  0.1481409006569052   F   F   F
  0.2397446092461428  0.1368643943404844  0.3072001536525909   T   T   T
  0.1229680488265431  0.2301055278179197  0.3861229588907765   T   T   T
  0.0047443336581173  0.0012879639666865  0.2317763560730636   T   T   T
  0.2226498917630622  0.1119667835260643  0.0747617187685705   F   F   F
  0.3330828574831625  0.0001648062630962  0.9947209695782593   T   T   T
  0.4485337636137174  0.2181322363855500  0.1481409006569052   F   F   F
  0.5497819174333940  0.1171672872061422  0.3082773072652654   T   T   T
  0.4319799022023482  0.2355367972016703  0.3985434761963965   T   T   T
  0.3303773645098696 -0.0007963535123767  0.2310179165305406   T   T   T
  0.5572524022371894  0.1094145977627079  0.0745377949818433   F   F   F
  0.6664074025137614  0.0000046323267641  0.9927813525239423   T   T   T
  0.7775305929922496  0.2217271859845766  0.1514737698997450   F   F   F
  0.8924750029927377  0.1123412199494109  0.3056600541687293   T   T   T
  0.7778975102257032  0.2234820681236439  0.3838565370722097   T   T   T
  0.6650785095426890  0.0008477636018560  0.2331777058680606   T   T   T
  0.8854961955255547  0.1094145977627434  0.0745377949818433   F   F   F
  0.0001338177895055  0.3331155874748132  0.9947062078747948   T   T   T
  0.1104792564938322  0.5561877435065909  0.1493963722377813   F   F   F
  0.2373249680203652  0.4307028475764089  0.3039473410047070   T   T   T
  0.1148135330393974  0.5523493412211540  0.3822192521873651   T   T   T
  0.0033816843490908  0.3361035395815417  0.2314658708959600   T   T   T
  0.2226498917631901  0.4440161082369940  0.0747617187685705   F   F   F
  0.3332139483916886  0.3331370311150215  0.9945304144675323   T   T   T
  0.4485337636142219  0.5637355272286797  0.1481409006569052   F   F   F
  0.5304615096438148  0.4275299187426216  0.3073873966229775   T   T   T
  0.4376916601952960  0.5451834508985345  0.3863172322398301   T   T   T
  0.3336463542933523  0.3327767792301579  0.2121615148763840   T   T   T
  0.5547002164737549  0.4440161082369372  0.0747617187685705   F   F   F
  0.6664428034055077  0.3334317179783680  0.9946387078405057   T   T   T
  0.7790414870126270  0.5561877435064631  0.1493963722377813   F   F   F
  0.8903964677577032  0.4462793348252977  0.3048491926791447   T   T   T
  0.7742105244953714  0.5525521323936345  0.3833234535938718   T   T   T
  0.6676636229734233  0.3362286895542186  0.2312977597940879   T   T   T
  0.8881683791293185  0.4430027582587144  0.0750021896640476   F   F   F
 -0.0000463549261590  0.6668062648509020  0.9953736481393947   T   T   T
  0.1104792564935408  0.8876255129869506  0.1493963722377813   F   F   F
  0.2213654764169412  0.7768794885770827  0.3049855354924434   T   T   T
  0.1155571164406846  0.8936409668039113  0.3832828739577815   T   T   T
 -0.0001027453440394  0.6671830852426403  0.2302441474083290   T   T   T
  0.2236632417415265  0.7784986208706783  0.0750021896640476   F   F   F
  0.3333020066123333  0.6663287124808850  0.9946779072008709   T   T   T
  0.4449388140156358  0.8891364070077472  0.1514737698997450   F   F   F
  0.5543374785333181  0.7745030330003038  0.3059499573704742   T   T   T
  0.4442769044492275  0.8895431220874883  0.3839217525128842   T   T   T
  0.3308498247944197  0.6636011495903734  0.2313742709808444   T   T   T
  0.5572524022372605  0.7811708044745487  0.0745377949818433   F   F   F
  0.6666915330004303  0.6666623522753177  0.9947215747120814   T   T   T
  0.7775305929921004  0.8891364070076762  0.1514737698997450   F   F   F
  0.8898085499551988  0.7781539085912913  0.3057123475138454   T   T   T
  0.7768392295218807  0.8901029269765962  0.3845474969767245   T   T   T
  0.6657378587240901  0.6623735148708727  0.2318500764761352   T   T   T
  0.8881683791291550  0.7784986208706002  0.0750021896640476   F   F   F
  0.3307566521467941  0.3367686419812447  0.3496055987977900   T   T   T
  0.0070562531249863  0.0074298232997588  0.3445996775017181   T   T   T
  0.2234597438413601  0.1135864876827171  0.1884996689387890   F   F   F
  0.1104526092930413  0.2218928046466360  0.0345208583880634   F   F   F
  0.3294548352406810 -0.0027163668707114  0.3428924127454129   T   T   T
  0.5555111091569316  0.1111558908437971  0.1905834331167142   F   F   F
  0.4447731953535907  0.2218928046467354  0.0345208583880634   F   F   F
  0.6670844844758818 -0.0001244078968667  0.3466329626467433   T   T   T
  0.8889787816866388  0.1111558908435768  0.1905834331167142   F   F   F
  0.7773844454948247  0.2214348909896202  0.0345168291226372   F   F   F
  0.0080375062324546  0.3327402437788726  0.3445751108810470   T   T   T
  0.2234597438413459  0.4432062561586392  0.1884996689387890   F   F   F
  0.1111392671855640  0.5555277328140278  0.0353480674243869   F   F   F
  0.5530805123173010  0.4432062561586392  0.1884996689387890   F   F   F
  0.4447731953533633  0.5562143907066357  0.0345208583880634   F   F   F
  0.6701069563524370  0.3380351263167186  0.3429867242737364   T   T   T
  0.8887890940614227  0.4442441881227879  0.1901447171382742   F   F   F
  0.7777214656285878  0.5555277328141557  0.0353480674243869   F   F   F
  0.0004217065690261  0.6670041163799906  0.3427933740574577   T   T   T
  0.2224218118770267  0.7778779059385741  0.1901447171382742   F   F   F
  0.1111392671858482  0.8889455343718140  0.0353480674243869   F   F   F
  0.3345493168273916  0.6592595064508003  0.3446824984232925   T   T   T
  0.5555111091564271  0.7776882183126332  0.1905834331167142   F   F   F
  0.4452311090102441  0.8892825545051721  0.0345168291226372   F   F   F
  0.6599610540977898  0.6605262341539022  0.3447277042902251   T   T   T
  0.8887890940615506  0.7778779059386309  0.1901447171382742   F   F   F
  0.7773844454949241  0.8892825545052077  0.0345168291226372   F   F   F
  0.4226650515206840  0.2439490251927862  0.4439733408724970   T   T   T
 
  0.00000000E+00  0.00000000E+00  0.00000000E+00
  0.00000000E+00  0.00000000E+00  0.00000000E+00
  0.00000000E+00  0.00000000E+00  0.00000000E+00
  0.00000000E+00  0.00000000E+00  0.00000000E+00
  0.00000000E+00  0.00000000E+00  0.00000000E+00
  0.00000000E+00  0.00000000E+00  0.00000000E+00
  0.00000000E+00  0.00000000E+00  0.00000000E+00
  0.00000000E+00  0.00000000E+00  0.00000000E+00
  0.00000000E+00  0.00000000E+00  0.00000000E+00
  0.00000000E+00  0.00000000E+00  0.00000000E+00
  0.00000000E+00  0.00000000E+00  0.00000000E+00
  0.00000000E+00  0.00000000E+00  0.00000000E+00
  0.00000000E+00  0.00000000E+00  0.00000000E+00
  0.00000000E+00  0.00000000E+00  0.00000000E+00
  0.00000000E+00  0.00000000E+00  0.00000000E+00
  0.00000000E+00  0.00000000E+00  0.00000000E+00
  0.00000000E+00  0.00000000E+00  0.00000000E+00
  0.00000000E+00  0.00000000E+00  0.00000000E+00
  0.00000000E+00  0.00000000E+00  0.00000000E+00
  0.00000000E+00  0.00000000E+00  0.00000000E+00
  0.00000000E+00  0.00000000E+00  0.00000000E+00
  0.00000000E+00  0.00000000E+00  0.00000000E+00
  0.00000000E+00  0.00000000E+00  0.00000000E+00
  0.00000000E+00  0.00000000E+00  0.00000000E+00
  0.00000000E+00  0.00000000E+00  0.00000000E+00
  0.00000000E+00  0.00000000E+00  0.00000000E+00
  0.00000000E+00  0.00000000E+00  0.00000000E+00
  0.00000000E+00  0.00000000E+00  0.00000000E+00
  0.00000000E+00  0.00000000E+00  0.00000000E+00
  0.00000000E+00  0.00000000E+00  0.00000000E+00
  0.00000000E+00  0.00000000E+00  0.00000000E+00
  0.00000000E+00  0.00000000E+00  0.00000000E+00
  0.00000000E+00  0.00000000E+00  0.00000000E+00
  0.00000000E+00  0.00000000E+00  0.00000000E+00
  0.00000000E+00  0.00000000E+00  0.00000000E+00
  0.00000000E+00  0.00000000E+00  0.00000000E+00
  0.00000000E+00  0.00000000E+00  0.00000000E+00
  0.00000000E+00  0.00000000E+00  0.00000000E+00
  0.00000000E+00  0.00000000E+00  0.00000000E+00
  0.00000000E+00  0.00000000E+00  0.00000000E+00
  0.00000000E+00  0.00000000E+00  0.00000000E+00
  0.00000000E+00  0.00000000E+00  0.00000000E+00
  0.00000000E+00  0.00000000E+00  0.00000000E+00
  0.00000000E+00  0.00000000E+00  0.00000000E+00
  0.00000000E+00  0.00000000E+00  0.00000000E+00
  0.00000000E+00  0.00000000E+00  0.00000000E+00
  0.00000000E+00  0.00000000E+00  0.00000000E+00
  0.00000000E+00  0.00000000E+00  0.00000000E+00
  0.00000000E+00  0.00000000E+00  0.00000000E+00
  0.00000000E+00  0.00000000E+00  0.00000000E+00
  0.00000000E+00  0.00000000E+00  0.00000000E+00
  0.00000000E+00  0.00000000E+00  0.00000000E+00
  0.00000000E+00  0.00000000E+00  0.00000000E+00
  0.00000000E+00  0.00000000E+00  0.00000000E+00
  0.00000000E+00  0.00000000E+00  0.00000000E+00
  0.00000000E+00  0.00000000E+00  0.00000000E+00
  0.00000000E+00  0.00000000E+00  0.00000000E+00
  0.00000000E+00  0.00000000E+00  0.00000000E+00
  0.00000000E+00  0.00000000E+00  0.00000000E+00
  0.00000000E+00  0.00000000E+00  0.00000000E+00
  0.00000000E+00  0.00000000E+00  0.00000000E+00
  0.00000000E+00  0.00000000E+00  0.00000000E+00
  0.00000000E+00  0.00000000E+00  0.00000000E+00
  0.00000000E+00  0.00000000E+00  0.00000000E+00
  0.00000000E+00  0.00000000E+00  0.00000000E+00
  0.00000000E+00  0.00000000E+00  0.00000000E+00
  0.00000000E+00  0.00000000E+00  0.00000000E+00
  0.00000000E+00  0.00000000E+00  0.00000000E+00
  0.00000000E+00  0.00000000E+00  0.00000000E+00
  0.00000000E+00  0.00000000E+00  0.00000000E+00
  0.00000000E+00  0.00000000E+00  0.00000000E+00
  0.00000000E+00  0.00000000E+00  0.00000000E+00
  0.00000000E+00  0.00000000E+00  0.00000000E+00
  0.00000000E+00  0.00000000E+00  0.00000000E+00
  0.00000000E+00  0.00000000E+00  0.00000000E+00
  0.00000000E+00  0.00000000E+00  0.00000000E+00
  0.00000000E+00  0.00000000E+00  0.00000000E+00
  0.00000000E+00  0.00000000E+00  0.00000000E+00
  0.00000000E+00  0.00000000E+00  0.00000000E+00
  0.00000000E+00  0.00000000E+00  0.00000000E+00
  0.00000000E+00  0.00000000E+00  0.00000000E+00
  0.00000000E+00  0.00000000E+00  0.00000000E+00
