CeO2-you-111-you-Hg                     
   1.00000000000000     
     9.8292150828747875   -5.6930540959102558    0.0104842658773298
     0.0000000019385902   11.3861061914195290   -0.0000000012251360
     0.0220630686403782   -0.0000000022110212   21.0849428826154366
   O    Hg   Ce   H 
    53     1    26     1
Selective dynamics
Direct
  0.0003987387242957  0.0014098019939571  0.9946744210648428   T   T   T
  0.1112987602113560  0.2227094909365323  0.1490812750602346   T   T   T
  0.2208954841027108  0.0991946425996021  0.3031154149406743   T   T   T
  0.0971207249033807  0.2120852073262383  0.3957601880718041   T   T   T
  0.0006107147013310  0.0014674594854939  0.2275300316158418   T   T   T
  0.2232463369573282  0.1113849518124181  0.0734490882226299   T   T   T
  0.3328591247226991 -0.0003835791575827  0.9929560608999005   T   T   T
  0.4468409436947561  0.2182544497672721  0.1456293734777056   T   T   T
  0.5503831987787227  0.1062786136166140  0.3039813795007382   T   T   T
  0.4478849105968478  0.2010620609897042  0.4047845845783859   T   T   T
  0.3338765673534516 -0.0025185500704675  0.2270336606982546   T   T   T
  0.5562806755206743  0.1097087337318222  0.0720108871889064   T   T   T
  0.6688138421975235  0.0012530124732424  0.9928063024448940   T   T   T
  0.7736793231049786  0.2250731297568346  0.1505471078455839   T   T   T
  0.8945683868582656  0.1133879948946540  0.3037422987982740   T   T   T
  0.7829953022277987  0.2167406465133724  0.3852061101002121   T   T   T
  0.6688688110127000  0.0017407902063594  0.2292861912572565   T   T   T
  0.8859628966439315  0.1093933929506994  0.0756725475370292   T   T   T
  0.0003219004471581  0.3321851369907859  0.9952587881587259   T   T   T
  0.1108224366734182  0.5555680278038626  0.1494919025179952   T   T   T
  0.2150228834832126  0.4528417153717890  0.3008025024741527   T   T   T
  0.1126084634084014  0.5588780393926216  0.3850289426047353   T   T   T
  0.9964570492931749  0.3313522480515069  0.2271724203775931   T   T   T
  0.2236472102024907  0.4453346738600076  0.0735519272171103   T   T   T
  0.3320799644734436  0.3327880864580110  0.9931964384679349   T   T   T
  0.4482081884503162  0.5620878441175667  0.1454863835517578   T   T   T
  0.4634501866294703  0.5545697991162052  0.3850555685496058   T   T   T
  0.3433525482390612  0.3387316367277525  0.2213739404382824   T   T   T
  0.5552616887922218  0.4434977782787670  0.0706492199137880   T   T   T
  0.6684607792383065  0.3336012791972391  0.9932205057060326   T   T   T
  0.7794412845946119  0.5576601442172736  0.1458458987441919   T   T   T
  0.8944724024936819  0.4462462811016795  0.3038992286496072   T   T   T
  0.7713373270323280  0.5627294833466930  0.3789612254762416   T   T   T
  0.6568779964960728  0.3433440718674417  0.2333717739928283   T   T   T
  0.8891504240604526  0.4442657052216346  0.0738648026880318   T   T   T
  0.0021645633583022  0.6670682592265892  0.9942102246761070   T   T   T
  0.1101455868189974  0.8881266466884405  0.1485347251544391   T   T   T
  0.2201885898515026  0.7742264987556347  0.3015709191407082   T   T   T
  0.1112778661965087  0.8833448073330343  0.3846108199003984   T   T   T
  0.9979472344353961  0.6665839948286021  0.2284316134671225   T   T   T
  0.2242336840344969  0.7783870789992723  0.0736818720974628   T   T   T
  0.3336243093029637  0.6666335714529485  0.9934612211650987   T   T   T
  0.4479416082481956  0.8898998102296169  0.1484606495864246   T   T   T
  0.5585909144229753  0.7797393564634310  0.3038687840252471   T   T   T
  0.4411466353419438  0.8830338004151947  0.3818192792517568   T   T   T
  0.3374974606999011  0.6699458433042470  0.2276445272242675   T   T   T
  0.5575678453981328  0.7798851604911353  0.0719260452329088   T   T   T
  0.6679004684810985  0.6672922969383906  0.9929615000755129   T   T   T
  0.7748700097711181  0.8826331930612173  0.1506869529216510   T   T   T
  0.8943131697561604  0.7848892410549658  0.3027597146096871   T   T   T
  0.7810858640627337  0.8931865970348623  0.3843449031092467   T   T   T
  0.6589441822332929  0.6478652459482384  0.2350606079585328   T   T   T
  0.8894042354462219  0.7788960869023918  0.0725710044860295   T   T   T
  0.2990535374097222  0.3611986606125650  0.3942964777783504   T   T   T
  0.0094532045125273  0.0048978179279956  0.3423619963859870   T   T   T
  0.2252396128300629  0.1145962953041176  0.1907614798833472   T   T   T
  0.1119707869336569  0.2224955806251811  0.0350507029083181   T   T   T
  0.3278104437257998 -0.0071561934170534  0.3416453717747868   T   T   T
  0.5548476634921353  0.1118328666646792  0.1898270872588572   T   T   T
  0.4438511176210181  0.2199639090342798  0.0318667158378050   T   T   T
  0.6681425420551800  0.0015638976940100  0.3428501807027866   T   T   T
  0.8895910662337798  0.1118299546422295  0.1890938528622685   T   T   T
  0.7777634972877120  0.2222667799344441  0.0342038053081749   T   T   T
  0.0012427222814481  0.3357569282547950  0.3419760072376156   T   T   T
  0.2245883312971901  0.4436251692091560  0.1900179759894938   T   T   T
  0.1116564920994959  0.5548501399693297  0.0349393303154267   T   T   T
  0.5527321672758118  0.4425538413229717  0.1800832193160930   T   T   T
  0.4443380846263107  0.5567806486735879  0.0318307925618056   T   T   T
  0.6704386469571033  0.3274328576959744  0.3498248835090329   T   T   T
  0.8868865896246184  0.4449579446247987  0.1896675742018448   T   T   T
  0.7803893852085557  0.5565761157960801  0.0322216113487060   T   T   T
 -0.0002496479424723  0.6660578238893975  0.3424250073085752   T   T   T
  0.2227619534739181  0.7778374091963159  0.1866850432134024   T   T   T
  0.1118846038151285  0.8899567413559778  0.0344227797699188   T   T   T
  0.3308102390340371  0.6661976227985205  0.3405727554230787   T   T   T
  0.5559562163083382  0.7773101833396447  0.1886521946146117   T   T   T
  0.4466352850403026  0.8897893063169252  0.0333245724078844   T   T   T
  0.6780109267123775  0.6831982024821230  0.3456110325859577   T   T   T
  0.8893712159579731  0.7772275227499256  0.1886316037050998   T   T   T
  0.7782480632239855  0.8891668499468610  0.0335183533524329   T   T   T
  0.4312155487237779  0.2032494332793793  0.4498678355240880   T   T   T
 
  0.00000000E+00  0.00000000E+00  0.00000000E+00
  0.00000000E+00  0.00000000E+00  0.00000000E+00
  0.00000000E+00  0.00000000E+00  0.00000000E+00
  0.00000000E+00  0.00000000E+00  0.00000000E+00
  0.00000000E+00  0.00000000E+00  0.00000000E+00
  0.00000000E+00  0.00000000E+00  0.00000000E+00
  0.00000000E+00  0.00000000E+00  0.00000000E+00
  0.00000000E+00  0.00000000E+00  0.00000000E+00
  0.00000000E+00  0.00000000E+00  0.00000000E+00
  0.00000000E+00  0.00000000E+00  0.00000000E+00
  0.00000000E+00  0.00000000E+00  0.00000000E+00
  0.00000000E+00  0.00000000E+00  0.00000000E+00
  0.00000000E+00  0.00000000E+00  0.00000000E+00
  0.00000000E+00  0.00000000E+00  0.00000000E+00
  0.00000000E+00  0.00000000E+00  0.00000000E+00
  0.00000000E+00  0.00000000E+00  0.00000000E+00
  0.00000000E+00  0.00000000E+00  0.00000000E+00
  0.00000000E+00  0.00000000E+00  0.00000000E+00
  0.00000000E+00  0.00000000E+00  0.00000000E+00
  0.00000000E+00  0.00000000E+00  0.00000000E+00
  0.00000000E+00  0.00000000E+00  0.00000000E+00
  0.00000000E+00  0.00000000E+00  0.00000000E+00
  0.00000000E+00  0.00000000E+00  0.00000000E+00
  0.00000000E+00  0.00000000E+00  0.00000000E+00
  0.00000000E+00  0.00000000E+00  0.00000000E+00
  0.00000000E+00  0.00000000E+00  0.00000000E+00
  0.00000000E+00  0.00000000E+00  0.00000000E+00
  0.00000000E+00  0.00000000E+00  0.00000000E+00
  0.00000000E+00  0.00000000E+00  0.00000000E+00
  0.00000000E+00  0.00000000E+00  0.00000000E+00
  0.00000000E+00  0.00000000E+00  0.00000000E+00
  0.00000000E+00  0.00000000E+00  0.00000000E+00
  0.00000000E+00  0.00000000E+00  0.00000000E+00
  0.00000000E+00  0.00000000E+00  0.00000000E+00
  0.00000000E+00  0.00000000E+00  0.00000000E+00
  0.00000000E+00  0.00000000E+00  0.00000000E+00
  0.00000000E+00  0.00000000E+00  0.00000000E+00
  0.00000000E+00  0.00000000E+00  0.00000000E+00
  0.00000000E+00  0.00000000E+00  0.00000000E+00
  0.00000000E+00  0.00000000E+00  0.00000000E+00
  0.00000000E+00  0.00000000E+00  0.00000000E+00
  0.00000000E+00  0.00000000E+00  0.00000000E+00
  0.00000000E+00  0.00000000E+00  0.00000000E+00
  0.00000000E+00  0.00000000E+00  0.00000000E+00
  0.00000000E+00  0.00000000E+00  0.00000000E+00
  0.00000000E+00  0.00000000E+00  0.00000000E+00
  0.00000000E+00  0.00000000E+00  0.00000000E+00
  0.00000000E+00  0.00000000E+00  0.00000000E+00
  0.00000000E+00  0.00000000E+00  0.00000000E+00
  0.00000000E+00  0.00000000E+00  0.00000000E+00
  0.00000000E+00  0.00000000E+00  0.00000000E+00
  0.00000000E+00  0.00000000E+00  0.00000000E+00
  0.00000000E+00  0.00000000E+00  0.00000000E+00
  0.00000000E+00  0.00000000E+00  0.00000000E+00
  0.00000000E+00  0.00000000E+00  0.00000000E+00
  0.00000000E+00  0.00000000E+00  0.00000000E+00
  0.00000000E+00  0.00000000E+00  0.00000000E+00
  0.00000000E+00  0.00000000E+00  0.00000000E+00
  0.00000000E+00  0.00000000E+00  0.00000000E+00
  0.00000000E+00  0.00000000E+00  0.00000000E+00
  0.00000000E+00  0.00000000E+00  0.00000000E+00
  0.00000000E+00  0.00000000E+00  0.00000000E+00
  0.00000000E+00  0.00000000E+00  0.00000000E+00
  0.00000000E+00  0.00000000E+00  0.00000000E+00
  0.00000000E+00  0.00000000E+00  0.00000000E+00
  0.00000000E+00  0.00000000E+00  0.00000000E+00
  0.00000000E+00  0.00000000E+00  0.00000000E+00
  0.00000000E+00  0.00000000E+00  0.00000000E+00
  0.00000000E+00  0.00000000E+00  0.00000000E+00
  0.00000000E+00  0.00000000E+00  0.00000000E+00
  0.00000000E+00  0.00000000E+00  0.00000000E+00
  0.00000000E+00  0.00000000E+00  0.00000000E+00
  0.00000000E+00  0.00000000E+00  0.00000000E+00
  0.00000000E+00  0.00000000E+00  0.00000000E+00
  0.00000000E+00  0.00000000E+00  0.00000000E+00
  0.00000000E+00  0.00000000E+00  0.00000000E+00
  0.00000000E+00  0.00000000E+00  0.00000000E+00
  0.00000000E+00  0.00000000E+00  0.00000000E+00
  0.00000000E+00  0.00000000E+00  0.00000000E+00
  0.00000000E+00  0.00000000E+00  0.00000000E+00
  0.00000000E+00  0.00000000E+00  0.00000000E+00
