CeO2-you-111-you-Zr                     
   1.00000000000000     
     9.8518895043353041   -5.7021335396174759   -0.0064323220735845
    -0.0122474249484077   11.3830519112755599    0.0064323209663919
    -0.0074174781373857    0.0128474481342418   20.8608738583768805
   O    Zr   Ce   H 
    53     1    26     1
Selective dynamics
Direct
 -0.0001272036576026  0.0000427381894306  0.9926963107440464   T   T   T
  0.1127660225510359  0.2205419626026098  0.1471083654926329   T   T   T
  0.2327051277567486  0.1169241632075052  0.3036480778133103   T   T   T
  0.1485680653525136  0.2540847510627138  0.3752962621875438   T   T   T
  0.0025837749404613  0.0007504261978891  0.2299868570905170   T   T   T
  0.2229346063716778  0.1101998432075508  0.0726215911627045   T   T   T
  0.3358704331538599  0.0015623472428571  0.9933591534533988   T   T   T
  0.4402377963361738  0.2263779575024660  0.1519424728058530   T   T   T
  0.5585380818199680  0.1188947570765546  0.3054779359255846   T   T   T
  0.4360222410822471  0.2385871395857760  0.4009996154499463   T   T   T
  0.3353059228107936  0.9985860613051107  0.2259343199385253   T   T   T
  0.5551534646989537  0.1116329187630130  0.0768023893355486   T   T   T
  0.6665668037134824  0.0010365861289668  0.9946512783110930   T   T   T
  0.7852492664918176  0.2236284832935663  0.1508982461272561   T   T   T
  0.8885089980874439  0.1049098569577700  0.3067258757433737   T   T   T
  0.7690569752739826  0.2190369478344633  0.3894591977682425   T   T   T
  0.6668390378811134  0.0004472437882986  0.2298084311063781   T   T   T
  0.8894206505899969  0.1091413309342563  0.0744682656166383   T   T   T
  0.9974039026328511  0.3312590306931809  0.9928983926781859   T   T   T
  0.1106595870538856  0.5570880742952150  0.1455207559520598   T   T   T
  0.1058242462158979  0.5614817056566850  0.3875960886320422   T   T   T
  0.0174767739452641  0.3423473657183271  0.2332030029619184   T   T   T
  0.2214804973564862  0.4439342591129503  0.0700129053390878   T   T   T
  0.3339364861941215  0.3327867808349262  0.9924177697865136   T   T   T
  0.4452254730190120  0.5530681677568570  0.1462682337351440   T   T   T
  0.5510479015435763  0.4250809794862820  0.3032636655921433   T   T   T
  0.4222196321580517  0.5223540912701967  0.3726498163699880   T   T   T
  0.3220890771217314  0.3482847284873729  0.2399067258379206   T   T   T
  0.5563191319620058  0.4434370828264612  0.0724463897854335   T   T   T
  0.6659060374093347  0.3310139299590302  0.9933821603719664   T   T   T
  0.7771330779672116  0.5551532843358081  0.1482446598718516   T   T   T
  0.8854225357411802  0.4462456415150127  0.3033251589885023   T   T   T
  0.7726573704122807  0.5550793750851731  0.3846412578205575   T   T   T
  0.6702066554514216  0.3332063283184602  0.2259990062882839   T   T   T
  0.8878470672507438  0.4440058971591092  0.0726724074642051   T   T   T
 -0.0000918266326029  0.6665146642373411  0.9923430027746539   T   T   T
  0.1106168425755515  0.8895505508073274  0.1493558755774541   T   T   T
  0.2175300893612110  0.7779137336015540  0.3037861620250010   T   T   T
  0.0960645988019871  0.8864792847909229  0.3878708430785369   T   T   T
 -0.0009057549025150  0.6658420465479692  0.2279000866097051   T   T   T
  0.2225932896093518  0.7793258063096969  0.0727023168061762   T   T   T
  0.3340767383479071  0.6684154684572389  0.9927995732161039   T   T   T
  0.4433200005316340  0.8816547434638277  0.1507875215323003   T   T   T
  0.5630286505192991  0.7784350179694730  0.3044189512732899   T   T   T
  0.4616907549911676  0.8945322675838695  0.3911617774862331   T   T   T
  0.3249297751890728  0.6490484202383410  0.2328528253163059   T   T   T
  0.5564893535293717  0.7768967030162374  0.0733122019035677   T   T   T
  0.6665978950680377  0.6664469031218698  0.9924208216658171   T   T   T
  0.7767606333861797  0.8868229259097381  0.1512011573019058   T   T   T
  0.8863108245779789  0.7767748746415215  0.3027100619530965   T   T   T
  0.7789587532450994  0.8827444957546819  0.3863357492940492   T   T   T
  0.6628899659511738  0.6592032925252345  0.2301285701171805   T   T   T
  0.8890753817875757  0.7781508367511296  0.0727045754487485   T   T   T
  0.3375994836700766  0.3265592871057998  0.3391821702499518   T   T   T
  0.0013488484480098 -0.0020922883047768  0.3438426070238799   T   T   T
  0.2221565043655608  0.1096546855733735  0.1910673697505314   T   T   T
  0.1100948120665617  0.2194989653492713  0.0320141129350855   T   T   T
  0.3314065196888478 -0.0057338204418647  0.3485146810778438   T   T   T
  0.5560708654712729  0.1100265523812169  0.1909709446384541   T   T   T
  0.4444425294156580  0.2219615293467300  0.0335919947026343   T   T   T
  0.6678602667581600  0.9979228356195438  0.3469375818940442   T   T   T
  0.8913016127136959  0.1120006601511698  0.1918138687540318   T   T   T
  0.7783112908773474  0.2216553295814923  0.0346793465426129   T   T   T
  0.9935518956675292  0.3324331956320332  0.3530971321725164   T   T   T
  0.2212429875738747  0.4452497246760297  0.1807759038890163   T   T   T
  0.1101704230372458  0.5567296354096626  0.0311242130876560   T   T   T
  0.5559847124479188  0.4434783305673309  0.1894485564653279   T   T   T
  0.4463502845983671  0.5559671906138970  0.0315048281188145   T   T   T
  0.6750567888167419  0.3354665719247454  0.3426236592266862   T   T   T
  0.8915263021953194  0.4450469098024351  0.1891958338965303   T   T   T
  0.7772355655057739  0.5544303045160582  0.0330354915218924   T   T   T
  0.0002828697673022  0.6674069432251900  0.3450814382433643   T   T   T
  0.2222486522506123  0.7766442180995988  0.1909830800056472   T   T   T
  0.1123336429697096  0.8896070476500433  0.0336687358384592   T   T   T
  0.3365419698981718  0.6741278770371394  0.3525848339808635   T   T   T
  0.5539062215509397  0.7745353217251576  0.1913220757211822   T   T   T
  0.4445348492010870  0.8884490807636989  0.0347369552178619   T   T   T
  0.6646127634222654  0.6619027114123058  0.3431084926402477   T   T   T
  0.8888831982118712  0.7763600525216067  0.1884830593717199   T   T   T
  0.7775350350834491  0.8887368244755439  0.0345260387354312   T   T   T
  0.4327936196993866  0.2465860504657560  0.4472938773692874   T   T   T
 
  0.00000000E+00  0.00000000E+00  0.00000000E+00
  0.00000000E+00  0.00000000E+00  0.00000000E+00
  0.00000000E+00  0.00000000E+00  0.00000000E+00
  0.00000000E+00  0.00000000E+00  0.00000000E+00
  0.00000000E+00  0.00000000E+00  0.00000000E+00
  0.00000000E+00  0.00000000E+00  0.00000000E+00
  0.00000000E+00  0.00000000E+00  0.00000000E+00
  0.00000000E+00  0.00000000E+00  0.00000000E+00
  0.00000000E+00  0.00000000E+00  0.00000000E+00
  0.00000000E+00  0.00000000E+00  0.00000000E+00
  0.00000000E+00  0.00000000E+00  0.00000000E+00
  0.00000000E+00  0.00000000E+00  0.00000000E+00
  0.00000000E+00  0.00000000E+00  0.00000000E+00
  0.00000000E+00  0.00000000E+00  0.00000000E+00
  0.00000000E+00  0.00000000E+00  0.00000000E+00
  0.00000000E+00  0.00000000E+00  0.00000000E+00
  0.00000000E+00  0.00000000E+00  0.00000000E+00
  0.00000000E+00  0.00000000E+00  0.00000000E+00
  0.00000000E+00  0.00000000E+00  0.00000000E+00
  0.00000000E+00  0.00000000E+00  0.00000000E+00
  0.00000000E+00  0.00000000E+00  0.00000000E+00
  0.00000000E+00  0.00000000E+00  0.00000000E+00
  0.00000000E+00  0.00000000E+00  0.00000000E+00
  0.00000000E+00  0.00000000E+00  0.00000000E+00
  0.00000000E+00  0.00000000E+00  0.00000000E+00
  0.00000000E+00  0.00000000E+00  0.00000000E+00
  0.00000000E+00  0.00000000E+00  0.00000000E+00
  0.00000000E+00  0.00000000E+00  0.00000000E+00
  0.00000000E+00  0.00000000E+00  0.00000000E+00
  0.00000000E+00  0.00000000E+00  0.00000000E+00
  0.00000000E+00  0.00000000E+00  0.00000000E+00
  0.00000000E+00  0.00000000E+00  0.00000000E+00
  0.00000000E+00  0.00000000E+00  0.00000000E+00
  0.00000000E+00  0.00000000E+00  0.00000000E+00
  0.00000000E+00  0.00000000E+00  0.00000000E+00
  0.00000000E+00  0.00000000E+00  0.00000000E+00
  0.00000000E+00  0.00000000E+00  0.00000000E+00
  0.00000000E+00  0.00000000E+00  0.00000000E+00
  0.00000000E+00  0.00000000E+00  0.00000000E+00
  0.00000000E+00  0.00000000E+00  0.00000000E+00
  0.00000000E+00  0.00000000E+00  0.00000000E+00
  0.00000000E+00  0.00000000E+00  0.00000000E+00
  0.00000000E+00  0.00000000E+00  0.00000000E+00
  0.00000000E+00  0.00000000E+00  0.00000000E+00
  0.00000000E+00  0.00000000E+00  0.00000000E+00
  0.00000000E+00  0.00000000E+00  0.00000000E+00
  0.00000000E+00  0.00000000E+00  0.00000000E+00
  0.00000000E+00  0.00000000E+00  0.00000000E+00
  0.00000000E+00  0.00000000E+00  0.00000000E+00
  0.00000000E+00  0.00000000E+00  0.00000000E+00
  0.00000000E+00  0.00000000E+00  0.00000000E+00
  0.00000000E+00  0.00000000E+00  0.00000000E+00
  0.00000000E+00  0.00000000E+00  0.00000000E+00
  0.00000000E+00  0.00000000E+00  0.00000000E+00
  0.00000000E+00  0.00000000E+00  0.00000000E+00
  0.00000000E+00  0.00000000E+00  0.00000000E+00
  0.00000000E+00  0.00000000E+00  0.00000000E+00
  0.00000000E+00  0.00000000E+00  0.00000000E+00
  0.00000000E+00  0.00000000E+00  0.00000000E+00
  0.00000000E+00  0.00000000E+00  0.00000000E+00
  0.00000000E+00  0.00000000E+00  0.00000000E+00
  0.00000000E+00  0.00000000E+00  0.00000000E+00
  0.00000000E+00  0.00000000E+00  0.00000000E+00
  0.00000000E+00  0.00000000E+00  0.00000000E+00
  0.00000000E+00  0.00000000E+00  0.00000000E+00
  0.00000000E+00  0.00000000E+00  0.00000000E+00
  0.00000000E+00  0.00000000E+00  0.00000000E+00
  0.00000000E+00  0.00000000E+00  0.00000000E+00
  0.00000000E+00  0.00000000E+00  0.00000000E+00
  0.00000000E+00  0.00000000E+00  0.00000000E+00
  0.00000000E+00  0.00000000E+00  0.00000000E+00
  0.00000000E+00  0.00000000E+00  0.00000000E+00
  0.00000000E+00  0.00000000E+00  0.00000000E+00
  0.00000000E+00  0.00000000E+00  0.00000000E+00
  0.00000000E+00  0.00000000E+00  0.00000000E+00
  0.00000000E+00  0.00000000E+00  0.00000000E+00
  0.00000000E+00  0.00000000E+00  0.00000000E+00
  0.00000000E+00  0.00000000E+00  0.00000000E+00
  0.00000000E+00  0.00000000E+00  0.00000000E+00
  0.00000000E+00  0.00000000E+00  0.00000000E+00
  0.00000000E+00  0.00000000E+00  0.00000000E+00
