CeO2-you-111-you-Nb                     
   1.00000000000000     
     9.8703502434844470   -5.7004729662073883   -0.0081075596446615
    -0.0000000025238452   11.4009439218023250    0.0000000009385530
    -0.0139863496229065    0.0000000013437395   20.1431291946427571
   O    Nb   Ce   H 
    53     1    26     2
Selective dynamics
Direct
  0.9975892788232299  0.0001294435544074  0.9877730572780750   T   T   T
  0.1200401002638145  0.2266865501314754  0.1512778247013173   F   F   F
  0.2464981766775891  0.1336572089982215  0.3126913228651673   T   T   T
  0.1514426248198314  0.2458344757611536  0.3957829561804609   T   T   T
  0.0045229890938714  0.0020393418927052  0.2304202843579373   T   T   T
  0.2203268215950374  0.1102249872238374  0.0693032678070367   F   F   F
  0.3326052737807947  0.9995211986702360  0.9869939978164732   T   T   T
  0.4410411477996448  0.2223748825501062  0.1467039674719217   F   F   F
  0.5487673331384791  0.1058541494487505  0.3101384161636033   T   T   T
  0.4508106927622412  0.1822459677237248  0.4219999868957527   T   T   T
  0.3299589896817665 -0.0003032064842313  0.2300788518918089   T   T   T
  0.5531486557033674  0.1109010927268628  0.0707757522489914   F   F   F
  0.6672711140741771 -0.0000047109892490  0.9892127406111314   T   T   T
  0.7727726549004572  0.2231438513405166  0.1505712791544624   F   F   F
  0.8873038597279029  0.1106100833254880  0.3084173752703396   T   T   T
  0.7709217702120705  0.2082784550179040  0.3992086204397646   T   T   T
  0.6634231726749803  0.9957517089172468  0.2320979111375100   T   T   T
  0.8895115554036153  0.1114222777015215  0.0732594882803781   F   F   F
  0.9976041573059391  0.3306781475341106  0.9874029369700060   T   T   T
  0.1105892111981603  0.5545295624913607  0.1478500804565357   F   F   F
  0.2397001580023624  0.4481750529416185  0.3118500926908818   T   T   T
  0.1229180017549795  0.5713175805653885  0.3938391338022260   T   T   T
  0.0044935657854802  0.3359914003946853  0.2299550849665125   T   T   T
  0.2203268215951582  0.4434348343708407  0.0693032678072640   F   F   F
  0.3311935611565132  0.3326101460542917  0.9867003863957138   T   T   T
  0.4410411477995098  0.5520002652512801  0.1467039674716801   F   F   F
  0.4727670541362461  0.4353741136463689  0.3711987233383506   T   T   T
  0.3426746361114893  0.3400879656715174  0.2371025495266296   T   T   T
  0.5550193354967092  0.4441756677482616  0.0672047511291822   F   F   F
  0.6666774504553644  0.3317314580277986  0.9872875501616811   T   T   T
  0.7780697171188251  0.5557018585594662  0.1452055456129600   F   F   F
  0.8903580255142578  0.4466486917687605  0.3081938594442096   T   T   T
  0.7925602388329606  0.5621895845331579  0.3975191597613921   T   T   T
  0.6548342705008022  0.3412325217142773  0.2351557917439025   T   T   T
  0.8889181070174743  0.4433771291447002  0.0700898333238911   F   F   F
  0.9980513366359092  0.6657936587472320  0.9867629015573302   T   T   T
  0.1105892111983522  0.8893936487062675  0.1478500804568128   F   F   F
  0.2224038217548510  0.7787978311388392  0.3052331181537751   T   T   T
  0.1232929783113709  0.8871182956250871  0.3936412545250393   T   T   T
 -0.0010531602890821  0.6665134437285709  0.2288548237051676   T   T   T
  0.2210069580966447  0.7771704790481309  0.0693512494867861   F   F   F
  0.3320629072141348  0.6662467860429723  0.9870259557289096   T   T   T
  0.4451911183684629  0.8892625591843810  0.1489317390469154   F   F   F
  0.5431687537938646  0.7665071014834858  0.3137058924333628   T   T   T
  0.4367418407137698  0.8819157617810831  0.3952433268669637   T   T   T
  0.3304253691698656  0.6653985693418475  0.2301490870834797   T   T   T
  0.5531486557040068  0.7755805629771118  0.0707757522495172   F   F   F
  0.6665713416524499  0.6682295933276011  0.9870679381299858   T   T   T
  0.7727726549015088  0.8829618035606543  0.1505712791541853   F   F   F
  0.8921014465680298  0.7785649744464764  0.3086434497313994   T   T   T
  0.7720194248377192  0.8946596790998695  0.3989453151467395   T   T   T
  0.6588324631195598  0.6505832990198577  0.2346082722267465   T   T   T
  0.8889181070176804  0.7788739778730616  0.0700898333239408   F   F   F
  0.3015680023524643  0.3223191012087303  0.3369807464965642   T   T   T
  0.0009745699174193  0.0000713702516354  0.3563138327603284   T   T   T
  0.2210865173483469  0.1090602063707280  0.1903709870619750   F   F   F
  0.1102597830859651  0.2217963915437551  0.0291794859667505   F   F   F
  0.3326726570999282  0.9938401019191211  0.3532652803339554   T   T   T
  0.5544115695299752  0.1121245646086280  0.1920076435214639   F   F   F
  0.4423106070537557  0.2199149965637019  0.0274458441142045   F   F   F
  0.6686028249052369  0.0000530574788339  0.3537061146472781   T   T   T
  0.8881527323178915  0.1107428661587093  0.1921682447856199   F   F   F
  0.7766184033169594  0.2218603234707857  0.0302993671488281   F   F   F
 -0.0033920362233832  0.3339546270103149  0.3560270325599159   T   T   T
  0.2210865173481125  0.4453593109800735  0.1903709870615415   F   F   F
  0.1094857515820991  0.5536611481139389  0.0286945298424754   F   F   F
  0.5573841780703859  0.4453580890341939  0.1820548214459166   F   F   F
  0.4423106070501177  0.5557296104896210  0.0274458441143679   F   F   F
  0.6691119686499951  0.3296967124775358  0.3622201990606603   T   T   T
  0.8874735353290717  0.4445122735106395  0.1911775881643152   F   F   F
  0.7788865969144751  0.5561102984560193  0.0271971360066985   F   F   F
 -0.0024398429931243  0.6653890600404615  0.3509346346845284   T   T   T
  0.2207307300901746  0.7770323650453221  0.1875207139810584   F   F   F
  0.1094857515816869  0.8891586034679904  0.0286945298424826   F   F   F
  0.3260743259965916  0.6773718708101849  0.3479471643485982   T   T   T
  0.5544115695298188  0.7756200049194248  0.1920076435212437   F   F   F
  0.4442202490795779  0.8887771245400273  0.0299650942488441   F   F   F
  0.6783273751882209  0.6735351876013125  0.3575011771381014   T   T   T
  0.8874735353270893  0.7762942618179238  0.1911775881643010   F   F   F
  0.7766184033156804  0.8880910798450827  0.0302993671489276   F   F   F
  0.3142447171322430  0.3380934011987389  0.5350076871649787   T   T   T
  0.4151043571056122  0.2152218130472749  0.4565320614239542   T   T   T
 
  0.00000000E+00  0.00000000E+00  0.00000000E+00
  0.00000000E+00  0.00000000E+00  0.00000000E+00
  0.00000000E+00  0.00000000E+00  0.00000000E+00
  0.00000000E+00  0.00000000E+00  0.00000000E+00
  0.00000000E+00  0.00000000E+00  0.00000000E+00
  0.00000000E+00  0.00000000E+00  0.00000000E+00
  0.00000000E+00  0.00000000E+00  0.00000000E+00
  0.00000000E+00  0.00000000E+00  0.00000000E+00
  0.00000000E+00  0.00000000E+00  0.00000000E+00
  0.00000000E+00  0.00000000E+00  0.00000000E+00
  0.00000000E+00  0.00000000E+00  0.00000000E+00
  0.00000000E+00  0.00000000E+00  0.00000000E+00
  0.00000000E+00  0.00000000E+00  0.00000000E+00
  0.00000000E+00  0.00000000E+00  0.00000000E+00
  0.00000000E+00  0.00000000E+00  0.00000000E+00
  0.00000000E+00  0.00000000E+00  0.00000000E+00
  0.00000000E+00  0.00000000E+00  0.00000000E+00
  0.00000000E+00  0.00000000E+00  0.00000000E+00
  0.00000000E+00  0.00000000E+00  0.00000000E+00
  0.00000000E+00  0.00000000E+00  0.00000000E+00
  0.00000000E+00  0.00000000E+00  0.00000000E+00
  0.00000000E+00  0.00000000E+00  0.00000000E+00
  0.00000000E+00  0.00000000E+00  0.00000000E+00
  0.00000000E+00  0.00000000E+00  0.00000000E+00
  0.00000000E+00  0.00000000E+00  0.00000000E+00
  0.00000000E+00  0.00000000E+00  0.00000000E+00
  0.00000000E+00  0.00000000E+00  0.00000000E+00
  0.00000000E+00  0.00000000E+00  0.00000000E+00
  0.00000000E+00  0.00000000E+00  0.00000000E+00
  0.00000000E+00  0.00000000E+00  0.00000000E+00
  0.00000000E+00  0.00000000E+00  0.00000000E+00
  0.00000000E+00  0.00000000E+00  0.00000000E+00
  0.00000000E+00  0.00000000E+00  0.00000000E+00
  0.00000000E+00  0.00000000E+00  0.00000000E+00
  0.00000000E+00  0.00000000E+00  0.00000000E+00
  0.00000000E+00  0.00000000E+00  0.00000000E+00
  0.00000000E+00  0.00000000E+00  0.00000000E+00
  0.00000000E+00  0.00000000E+00  0.00000000E+00
  0.00000000E+00  0.00000000E+00  0.00000000E+00
  0.00000000E+00  0.00000000E+00  0.00000000E+00
  0.00000000E+00  0.00000000E+00  0.00000000E+00
  0.00000000E+00  0.00000000E+00  0.00000000E+00
  0.00000000E+00  0.00000000E+00  0.00000000E+00
  0.00000000E+00  0.00000000E+00  0.00000000E+00
  0.00000000E+00  0.00000000E+00  0.00000000E+00
  0.00000000E+00  0.00000000E+00  0.00000000E+00
  0.00000000E+00  0.00000000E+00  0.00000000E+00
  0.00000000E+00  0.00000000E+00  0.00000000E+00
  0.00000000E+00  0.00000000E+00  0.00000000E+00
  0.00000000E+00  0.00000000E+00  0.00000000E+00
  0.00000000E+00  0.00000000E+00  0.00000000E+00
  0.00000000E+00  0.00000000E+00  0.00000000E+00
  0.00000000E+00  0.00000000E+00  0.00000000E+00
  0.00000000E+00  0.00000000E+00  0.00000000E+00
  0.00000000E+00  0.00000000E+00  0.00000000E+00
  0.00000000E+00  0.00000000E+00  0.00000000E+00
  0.00000000E+00  0.00000000E+00  0.00000000E+00
  0.00000000E+00  0.00000000E+00  0.00000000E+00
  0.00000000E+00  0.00000000E+00  0.00000000E+00
  0.00000000E+00  0.00000000E+00  0.00000000E+00
  0.00000000E+00  0.00000000E+00  0.00000000E+00
  0.00000000E+00  0.00000000E+00  0.00000000E+00
  0.00000000E+00  0.00000000E+00  0.00000000E+00
  0.00000000E+00  0.00000000E+00  0.00000000E+00
  0.00000000E+00  0.00000000E+00  0.00000000E+00
  0.00000000E+00  0.00000000E+00  0.00000000E+00
  0.00000000E+00  0.00000000E+00  0.00000000E+00
  0.00000000E+00  0.00000000E+00  0.00000000E+00
  0.00000000E+00  0.00000000E+00  0.00000000E+00
  0.00000000E+00  0.00000000E+00  0.00000000E+00
  0.00000000E+00  0.00000000E+00  0.00000000E+00
  0.00000000E+00  0.00000000E+00  0.00000000E+00
  0.00000000E+00  0.00000000E+00  0.00000000E+00
  0.00000000E+00  0.00000000E+00  0.00000000E+00
  0.00000000E+00  0.00000000E+00  0.00000000E+00
  0.00000000E+00  0.00000000E+00  0.00000000E+00
  0.00000000E+00  0.00000000E+00  0.00000000E+00
  0.00000000E+00  0.00000000E+00  0.00000000E+00
  0.00000000E+00  0.00000000E+00  0.00000000E+00
  0.00000000E+00  0.00000000E+00  0.00000000E+00
  0.00000000E+00  0.00000000E+00  0.00000000E+00
  0.00000000E+00  0.00000000E+00  0.00000000E+00
