CeO2-you-111-you-Ti                     
   1.00000000000000     
     9.8409571659083532   -5.6876494504878057    0.0227002394230686
     0.0000000004810956   11.3752969000920654   -0.0000000026411335
     0.0498716554239602   -0.0000000050673935   21.0351206131162982
   O    Ti   Ce   H 
    53     1    26     2
Selective dynamics
Direct
 -0.0004178492570100  0.0007719294168546  0.9961794280778424   T   T   T
  0.1196968356337536  0.2265149178177523  0.1519596015941715   F   F   F
  0.2343654092664456  0.1304353698281093  0.3072388551293500   T   T   T
  0.1249610974845371  0.2344000189950535  0.3796250148574471   T   T   T
  0.0020773250083190  0.0014846625372162  0.2298894881226638   T   T   T
  0.2219085926171260  0.1102510176887534  0.0744604428404756   F   F   F
  0.3345300194355831  0.0001366754926417  0.9953902348211783   T   T   T
  0.4425508975402010  0.2225509127492700  0.1489149582515594   F   F   F
  0.5601504221558348  0.1076929107865791  0.3049956815749956   T   T   T
  0.4658089198345505  0.1921219145430338  0.4184324763901396   T   T   T
  0.3311810408489546  0.0003779529956575  0.2281889110273194   T   T   T
  0.5547619473990721  0.1112565016183353  0.0755110459875326   F   F   F
  0.6695500274497443  0.0014987399470746  0.9967206690185284   T   T   T
  0.7726372998314162  0.2237489798647800  0.1516848015770478   F   F   F
  0.8909739764661081  0.1113689436171054  0.3038316310033785   T   T   T
  0.7879445284627128  0.2157596203248219  0.3887645543569495   T   T   T
  0.6676350280873050 -0.0037206340790609  0.2299945188985662   T   T   T
  0.8897479700891537  0.1115404850445643  0.0782291739488770   F   F   F
  0.9996119490377020  0.3313344015033614  0.9960648056590043   T   T   T
  0.1104981292138945  0.5549478553119229  0.1503576945049545   F   F   F
  0.2318247619278152  0.4471175651042494  0.3056628862691610   T   T   T
  0.1131847731474903  0.5559014164113443  0.3852756852577036   T   T   T
  0.0017176647691275  0.3323933066530531  0.2294833631104112   T   T   T
  0.2219085926167566  0.4449905749277008  0.0744604428404045   F   F   F
  0.3327128513427148  0.3330478979578020  0.9953702887184094   T   T   T
  0.4425508975394763  0.5533339847916636  0.1489149582513321   F   F   F
  0.4651825874344175  0.4306119880063231  0.3552491484230180   T   T   T
  0.3376867771832406  0.3379860258254051  0.2334095203290359   T   T   T
  0.5556685590184998  0.4445002795092563  0.0731435310273341   F   F   F
  0.6684724851377400  0.3332468063775312  0.9954107735054758   T   T   T
  0.7780321064282347  0.5556830532135990  0.1475356784317796   F   F   F
  0.8937490289376252  0.4423891142104339  0.3041883281892409   T   T   T
  0.7898006349416024  0.5605253916916885  0.3872509688631906   T   T   T
  0.6571173907981082  0.3433465552088656  0.2337158773433151   T   T   T
  0.8901174318438336  0.4446001187306905  0.0750455010801971   F   F   F
  0.0008662996727202  0.6673060978253295  0.9953133138549910   T   T   T
  0.1104981292135037  0.8888842739007501  0.1503576945051677   F   F   F
  0.2179412338910497  0.7741262567745647  0.3038003319788295   T   T   T
  0.0959445475211535  0.8858308423653345  0.3859880379083465   T   T   T
  0.9967857233122384  0.6648905017340625  0.2288613116698421   T   T   T
  0.2226450172821473  0.7779895086410775  0.0752195983355719   F   F   F
  0.3345018527749472  0.6676943063963089  0.9953695664482173   T   T   T
  0.4465074970027416  0.8899207485019289  0.1506959030953823   F   F   F
  0.5461332263185041  0.7681022883786255  0.3073207399891304   T   T   T
  0.4439981783074305  0.8745233065243373  0.3884244427237640   T   T   T
  0.3309779303833739  0.6665436691225165  0.2290618781257266   T   T   T
  0.5547619473988163  0.7768384457811024  0.0755110459875610   F   F   F
  0.6685227098197047  0.6688185962717828  0.9953935111087834   T   T   T
  0.7726372998308761  0.8822213199655593  0.1516848015767067   F   F   F
  0.8901127669881909  0.7811110110464548  0.3028400995497376   T   T   T
  0.7834841137064735  0.8987259430116689  0.3872879539175687   T   T   T
  0.6587937385701973  0.6501607711585423  0.2327578317043220   T   T   T
  0.8901174318440468  0.7788503131130753  0.0750455010803392   F   F   F
  0.2940723125823346  0.3202364895465265  0.3260542391383932   T   T   T
  0.0003626386900756  0.0001572046806762  0.3452960471613615   T   T   T
  0.2214665511365155  0.1099978584882706  0.1907240304888589   F   F   F
  0.1119682330119645  0.2226506165062929  0.0360338317556455   F   F   F
  0.3329397974522537 -0.0004076589283438  0.3514703019328964   T   T   T
  0.5549256558614317  0.1121612823340428  0.1921077452798272   F   F   F
  0.4441552125543211  0.2208152915867601  0.0343468006184864   F   F   F
  0.6669128945016246 -0.0021286040006230  0.3462620300026614   T   T   T
  0.8878106369165621  0.1105718184595474  0.1907290826048751   F   F   F
  0.7779942984640229  0.2227572414280417  0.0365072280972427   F   F   F
 -0.0015273914059505  0.3328870939469030  0.3453838963588390   T   T   T
  0.2214665511379437  0.4448016926464717  0.1907240304886813   F   F   F
  0.1112149382005114  0.5550118946217566  0.0356160874551179   F   F   F
  0.5550331466489098  0.4441825733230331  0.1839060581631884   F   F   F
  0.4441552125539729  0.5566739209669151  0.0343468006186214   F   F   F
  0.6689432051708455  0.3275165887439538  0.3552293149541180   T   T   T
  0.8868610898219558  0.4444343642832038  0.1913100326434147   F   F   F
  0.7799418365629052  0.5566379182816306  0.0341802137429639   F   F   F
 -0.0040393057958282  0.6656509523437096  0.3450232707570101   T   T   T
  0.2213768271866599  0.7773554135935825  0.1885327845229412   F   F   F
  0.1112149382001419  0.8895370435786987  0.0356160874552245   F   F   F
  0.3253598991192090  0.6752005434288118  0.3417292970675698   T   T   T
  0.5549256558653326  0.7760973735272501  0.1921077452799551   F   F   F
  0.4460919885053301  0.8897129942525197  0.0364614667592420   F   F   F
  0.6734222348632724  0.6688588845620630  0.3494530671160740   T   T   T
  0.8868610898237819  0.7757597255442192  0.1913100326438695   F   F   F
  0.7779942984640016  0.8885700570359774  0.0365072280971219   F   F   F
  0.2841855689903035  0.3171446445041279  0.4645021165317211   T   T   T
  0.4309598269611412  0.2414314533979333  0.4424347729933464   T   T   T
 
  0.00000000E+00  0.00000000E+00  0.00000000E+00
  0.00000000E+00  0.00000000E+00  0.00000000E+00
  0.00000000E+00  0.00000000E+00  0.00000000E+00
  0.00000000E+00  0.00000000E+00  0.00000000E+00
  0.00000000E+00  0.00000000E+00  0.00000000E+00
  0.00000000E+00  0.00000000E+00  0.00000000E+00
  0.00000000E+00  0.00000000E+00  0.00000000E+00
  0.00000000E+00  0.00000000E+00  0.00000000E+00
  0.00000000E+00  0.00000000E+00  0.00000000E+00
  0.00000000E+00  0.00000000E+00  0.00000000E+00
  0.00000000E+00  0.00000000E+00  0.00000000E+00
  0.00000000E+00  0.00000000E+00  0.00000000E+00
  0.00000000E+00  0.00000000E+00  0.00000000E+00
  0.00000000E+00  0.00000000E+00  0.00000000E+00
  0.00000000E+00  0.00000000E+00  0.00000000E+00
  0.00000000E+00  0.00000000E+00  0.00000000E+00
  0.00000000E+00  0.00000000E+00  0.00000000E+00
  0.00000000E+00  0.00000000E+00  0.00000000E+00
  0.00000000E+00  0.00000000E+00  0.00000000E+00
  0.00000000E+00  0.00000000E+00  0.00000000E+00
  0.00000000E+00  0.00000000E+00  0.00000000E+00
  0.00000000E+00  0.00000000E+00  0.00000000E+00
  0.00000000E+00  0.00000000E+00  0.00000000E+00
  0.00000000E+00  0.00000000E+00  0.00000000E+00
  0.00000000E+00  0.00000000E+00  0.00000000E+00
  0.00000000E+00  0.00000000E+00  0.00000000E+00
  0.00000000E+00  0.00000000E+00  0.00000000E+00
  0.00000000E+00  0.00000000E+00  0.00000000E+00
  0.00000000E+00  0.00000000E+00  0.00000000E+00
  0.00000000E+00  0.00000000E+00  0.00000000E+00
  0.00000000E+00  0.00000000E+00  0.00000000E+00
  0.00000000E+00  0.00000000E+00  0.00000000E+00
  0.00000000E+00  0.00000000E+00  0.00000000E+00
  0.00000000E+00  0.00000000E+00  0.00000000E+00
  0.00000000E+00  0.00000000E+00  0.00000000E+00
  0.00000000E+00  0.00000000E+00  0.00000000E+00
  0.00000000E+00  0.00000000E+00  0.00000000E+00
  0.00000000E+00  0.00000000E+00  0.00000000E+00
  0.00000000E+00  0.00000000E+00  0.00000000E+00
  0.00000000E+00  0.00000000E+00  0.00000000E+00
  0.00000000E+00  0.00000000E+00  0.00000000E+00
  0.00000000E+00  0.00000000E+00  0.00000000E+00
  0.00000000E+00  0.00000000E+00  0.00000000E+00
  0.00000000E+00  0.00000000E+00  0.00000000E+00
  0.00000000E+00  0.00000000E+00  0.00000000E+00
  0.00000000E+00  0.00000000E+00  0.00000000E+00
  0.00000000E+00  0.00000000E+00  0.00000000E+00
  0.00000000E+00  0.00000000E+00  0.00000000E+00
  0.00000000E+00  0.00000000E+00  0.00000000E+00
  0.00000000E+00  0.00000000E+00  0.00000000E+00
  0.00000000E+00  0.00000000E+00  0.00000000E+00
  0.00000000E+00  0.00000000E+00  0.00000000E+00
  0.00000000E+00  0.00000000E+00  0.00000000E+00
  0.00000000E+00  0.00000000E+00  0.00000000E+00
  0.00000000E+00  0.00000000E+00  0.00000000E+00
  0.00000000E+00  0.00000000E+00  0.00000000E+00
  0.00000000E+00  0.00000000E+00  0.00000000E+00
  0.00000000E+00  0.00000000E+00  0.00000000E+00
  0.00000000E+00  0.00000000E+00  0.00000000E+00
  0.00000000E+00  0.00000000E+00  0.00000000E+00
  0.00000000E+00  0.00000000E+00  0.00000000E+00
  0.00000000E+00  0.00000000E+00  0.00000000E+00
  0.00000000E+00  0.00000000E+00  0.00000000E+00
  0.00000000E+00  0.00000000E+00  0.00000000E+00
  0.00000000E+00  0.00000000E+00  0.00000000E+00
  0.00000000E+00  0.00000000E+00  0.00000000E+00
  0.00000000E+00  0.00000000E+00  0.00000000E+00
  0.00000000E+00  0.00000000E+00  0.00000000E+00
  0.00000000E+00  0.00000000E+00  0.00000000E+00
  0.00000000E+00  0.00000000E+00  0.00000000E+00
  0.00000000E+00  0.00000000E+00  0.00000000E+00
  0.00000000E+00  0.00000000E+00  0.00000000E+00
  0.00000000E+00  0.00000000E+00  0.00000000E+00
  0.00000000E+00  0.00000000E+00  0.00000000E+00
  0.00000000E+00  0.00000000E+00  0.00000000E+00
  0.00000000E+00  0.00000000E+00  0.00000000E+00
  0.00000000E+00  0.00000000E+00  0.00000000E+00
  0.00000000E+00  0.00000000E+00  0.00000000E+00
  0.00000000E+00  0.00000000E+00  0.00000000E+00
  0.00000000E+00  0.00000000E+00  0.00000000E+00
  0.00000000E+00  0.00000000E+00  0.00000000E+00
  0.00000000E+00  0.00000000E+00  0.00000000E+00
