CeO2-you-111-you-Ir                     
   1.00000000000000     
     9.8393639207085020   -5.6945770500708228    0.0032647703247930
    -0.0119661037972027   11.3684261974431973   -0.0032647695880576
     0.0029772132499499   -0.0051566837878197   21.0724412952429354
   O    Ir   Ce   H 
    53     1    26     1
Selective dynamics
Direct
  0.0002120501843332  0.9990132086197079  0.9948701317951681   T   T   T
  0.1110750547468829  0.2195679068764980  0.1468943245322208   T   T   T
  0.2459026831145041  0.1197028096963444  0.3012124749251145   T   T   T
  0.1447617784425532  0.2347375275232187  0.3656290246235966   T   T   T
  0.0061483656465507  0.0028021337773825  0.2312642438293274   T   T   T
  0.2237772489784055  0.1102964409222936  0.0736821905617795   T   T   T
  0.3360168759847542  0.0002361999011844  0.9950862229428969   T   T   T
  0.4405966756646617  0.2259205790046830  0.1520715913352476   T   T   T
  0.5495255933260970  0.1162631711471198  0.3069721580054208   T   T   T
  0.4247909925823535  0.2400152323069709  0.4034340633817337   T   T   T
  0.3350252552675753  0.9966596139422260  0.2266715793488768   T   T   T
  0.5554711368810920  0.1119615428189089  0.0775120175757990   T   T   T
  0.6666890823151992  0.0006637717044317  0.9959633278223632   T   T   T
  0.7843064261473991  0.2230328812630037  0.1509642179938235   T   T   T
  0.8842865021251111  0.1035701607937268  0.3045826999940677   T   T   T
  0.7686151952619195  0.2172593772109712  0.3872647944650255   T   T   T
  0.6642327429487903  0.0026383620704474  0.2303470521806073   T   T   T
  0.8895181991650934  0.1091786898324507  0.0749973287765915   T   T   T
  0.9980538046375236  0.3312255605506706  0.9946973324076234   T   T   T
  0.1101246533626007  0.5564220136418360  0.1460005694191502   T   T   T
  0.1068810743006220  0.5590218325148237  0.3840854512064364   T   T   T
  0.0152222709235750  0.3413938605396342  0.2326904692131952   T   T   T
  0.2225701788313776  0.4443646753465310  0.0712008572477631   T   T   T
  0.3347216653818461  0.3324341827619117  0.9941979818138414   T   T   T
  0.4476102470717354  0.5558402165524357  0.1467741089427671   T   T   T
  0.5472690450209532  0.4215384198990172  0.3015006636509270   T   T   T
  0.4318297948461037  0.5216301265237755  0.3662070414603409   T   T   T
  0.3169861329417637  0.3501034851172832  0.2387075665033049   T   T   T
  0.5567278934702353  0.4433861340077798  0.0737626642402679   T   T   T
  0.6665868434623377  0.3313943318944479  0.9952221858681498   T   T   T
  0.7772697722742183  0.5552407125981993  0.1501108430916111   T   T   T
  0.8840900376267569  0.4439956328180477  0.3033303042044672   T   T   T
  0.7735641553963692  0.5540286992854098  0.3832287995377363   T   T   T
  0.6694969432602219  0.3312592940117706  0.2269953122592953   T   T   T
  0.8882974235456987  0.4440162791360753  0.0741502152531437   T   T   T
  0.0001197143014748  0.6672047026544041  0.9947838288602243   T   T   T
  0.1108626985575318  0.8894766235575673  0.1501541835754201   T   T   T
  0.2211473189536417  0.7819752585831734  0.3032828921590839   T   T   T
  0.1116502033234974  0.8921654979101841  0.3831879229531352   T   T   T
  0.0006624810746538  0.6655741418615582  0.2289172285212425   T   T   T
  0.2224746441978029  0.7787019417693740  0.0742351102870841   T   T   T
  0.3348184130330716  0.6684459788119815  0.9946035967386264   T   T   T
  0.4442963044206593  0.8827722911173908  0.1506392523722594   T   T   T
  0.5625878604149170  0.7813451651415243  0.3046908938374095   T   T   T
  0.4481989572794375  0.8969959235114366  0.3870274810627772   T   T   T
  0.3256150208682461  0.6522037662279681  0.2323604088804556   T   T   T
  0.5581753092289279  0.7781456106301523  0.0746991483852753   T   T   T
  0.6684944201703474  0.6670406310998429  0.9949306970010605   T   T   T
  0.7784137151988104  0.8889043161712876  0.1533256648711327   T   T   T
  0.8887550225237261  0.7775716278370866  0.3036374108363677   T   T   T
  0.7795121381555310  0.8883111753853351  0.3860928331636957   T   T   T
  0.6636620105926579  0.6603866657467118  0.2311128473530878   T   T   T
  0.8889583035816224  0.7778948255693242  0.0754695622009740   T   T   T
  0.3471341379228439  0.3195719600072950  0.3320522958533148   T   T   T
  0.0048292173405550  0.0035187491912131  0.3432199890691315   T   T   T
  0.2225428213519659  0.1112738880318426  0.1896569843266668   T   T   T
  0.1106341131671788  0.2198267866223956  0.0334190314264861   T   T   T
  0.3305212503257017 -0.0068432313572302  0.3433143997551177   T   T   T
  0.5558880681252359  0.1107688936058778  0.1903518488865847   T   T   T
  0.4450843386119790  0.2219374680597636  0.0345702556406343   T   T   T
  0.6675839588827256  0.9984913192821262  0.3460940448576643   T   T   T
  0.8912979599396462  0.1124718988277077  0.1920828331532172   T   T   T
  0.7786035144748170  0.2216161781273393  0.0359116498821055   T   T   T
  0.9966727324768080  0.3289101718566159  0.3500163812892835   T   T   T
  0.2213965901702317  0.4454230089140546  0.1816245610510873   T   T   T
  0.1105949423045850  0.5562748208340148  0.0328961253143384   T   T   T
  0.5554743404213721  0.4440210185623072  0.1896762659686045   T   T   T
  0.4471937649344695  0.5563086677301957  0.0334498521311613   T   T   T
  0.6726911617205807  0.3351793946396175  0.3433851890453083   T   T   T
  0.8904694547035983  0.4439456462530973  0.1901466453145411   T   T   T
  0.7779416555553641  0.5547644673782535  0.0354390881501097   T   T   T
  0.0002226812125730  0.6655319560696932  0.3436797061700243   T   T   T
  0.2225018040365543  0.7761874637077383  0.1899755862692019   T   T   T
  0.1120802186729617  0.8889705266620345  0.0353792096153271   T   T   T
  0.3368524502544432  0.6691551737809829  0.3497827490352348   T   T   T
  0.5544704603996262  0.7756627006836415  0.1919373466833006   T   T   T
  0.4453693064674358  0.8885243245385325  0.0357525428529962   T   T   T
  0.6625631773664067  0.6611617305993143  0.3432350976496000   T   T   T
  0.8895311562698478  0.7769582637457972  0.1904222922086077   T   T   T
  0.7783640282622218  0.8888265762134291  0.0363528812292692   T   T   T
  0.4092083636144735  0.2572049672348362  0.4470763737022307   T   T   T
 
  0.00000000E+00  0.00000000E+00  0.00000000E+00
  0.00000000E+00  0.00000000E+00  0.00000000E+00
  0.00000000E+00  0.00000000E+00  0.00000000E+00
  0.00000000E+00  0.00000000E+00  0.00000000E+00
  0.00000000E+00  0.00000000E+00  0.00000000E+00
  0.00000000E+00  0.00000000E+00  0.00000000E+00
  0.00000000E+00  0.00000000E+00  0.00000000E+00
  0.00000000E+00  0.00000000E+00  0.00000000E+00
  0.00000000E+00  0.00000000E+00  0.00000000E+00
  0.00000000E+00  0.00000000E+00  0.00000000E+00
  0.00000000E+00  0.00000000E+00  0.00000000E+00
  0.00000000E+00  0.00000000E+00  0.00000000E+00
  0.00000000E+00  0.00000000E+00  0.00000000E+00
  0.00000000E+00  0.00000000E+00  0.00000000E+00
  0.00000000E+00  0.00000000E+00  0.00000000E+00
  0.00000000E+00  0.00000000E+00  0.00000000E+00
  0.00000000E+00  0.00000000E+00  0.00000000E+00
  0.00000000E+00  0.00000000E+00  0.00000000E+00
  0.00000000E+00  0.00000000E+00  0.00000000E+00
  0.00000000E+00  0.00000000E+00  0.00000000E+00
  0.00000000E+00  0.00000000E+00  0.00000000E+00
  0.00000000E+00  0.00000000E+00  0.00000000E+00
  0.00000000E+00  0.00000000E+00  0.00000000E+00
  0.00000000E+00  0.00000000E+00  0.00000000E+00
  0.00000000E+00  0.00000000E+00  0.00000000E+00
  0.00000000E+00  0.00000000E+00  0.00000000E+00
  0.00000000E+00  0.00000000E+00  0.00000000E+00
  0.00000000E+00  0.00000000E+00  0.00000000E+00
  0.00000000E+00  0.00000000E+00  0.00000000E+00
  0.00000000E+00  0.00000000E+00  0.00000000E+00
  0.00000000E+00  0.00000000E+00  0.00000000E+00
  0.00000000E+00  0.00000000E+00  0.00000000E+00
  0.00000000E+00  0.00000000E+00  0.00000000E+00
  0.00000000E+00  0.00000000E+00  0.00000000E+00
  0.00000000E+00  0.00000000E+00  0.00000000E+00
  0.00000000E+00  0.00000000E+00  0.00000000E+00
  0.00000000E+00  0.00000000E+00  0.00000000E+00
  0.00000000E+00  0.00000000E+00  0.00000000E+00
  0.00000000E+00  0.00000000E+00  0.00000000E+00
  0.00000000E+00  0.00000000E+00  0.00000000E+00
  0.00000000E+00  0.00000000E+00  0.00000000E+00
  0.00000000E+00  0.00000000E+00  0.00000000E+00
  0.00000000E+00  0.00000000E+00  0.00000000E+00
  0.00000000E+00  0.00000000E+00  0.00000000E+00
  0.00000000E+00  0.00000000E+00  0.00000000E+00
  0.00000000E+00  0.00000000E+00  0.00000000E+00
  0.00000000E+00  0.00000000E+00  0.00000000E+00
  0.00000000E+00  0.00000000E+00  0.00000000E+00
  0.00000000E+00  0.00000000E+00  0.00000000E+00
  0.00000000E+00  0.00000000E+00  0.00000000E+00
  0.00000000E+00  0.00000000E+00  0.00000000E+00
  0.00000000E+00  0.00000000E+00  0.00000000E+00
  0.00000000E+00  0.00000000E+00  0.00000000E+00
  0.00000000E+00  0.00000000E+00  0.00000000E+00
  0.00000000E+00  0.00000000E+00  0.00000000E+00
  0.00000000E+00  0.00000000E+00  0.00000000E+00
  0.00000000E+00  0.00000000E+00  0.00000000E+00
  0.00000000E+00  0.00000000E+00  0.00000000E+00
  0.00000000E+00  0.00000000E+00  0.00000000E+00
  0.00000000E+00  0.00000000E+00  0.00000000E+00
  0.00000000E+00  0.00000000E+00  0.00000000E+00
  0.00000000E+00  0.00000000E+00  0.00000000E+00
  0.00000000E+00  0.00000000E+00  0.00000000E+00
  0.00000000E+00  0.00000000E+00  0.00000000E+00
  0.00000000E+00  0.00000000E+00  0.00000000E+00
  0.00000000E+00  0.00000000E+00  0.00000000E+00
  0.00000000E+00  0.00000000E+00  0.00000000E+00
  0.00000000E+00  0.00000000E+00  0.00000000E+00
  0.00000000E+00  0.00000000E+00  0.00000000E+00
  0.00000000E+00  0.00000000E+00  0.00000000E+00
  0.00000000E+00  0.00000000E+00  0.00000000E+00
  0.00000000E+00  0.00000000E+00  0.00000000E+00
  0.00000000E+00  0.00000000E+00  0.00000000E+00
  0.00000000E+00  0.00000000E+00  0.00000000E+00
  0.00000000E+00  0.00000000E+00  0.00000000E+00
  0.00000000E+00  0.00000000E+00  0.00000000E+00
  0.00000000E+00  0.00000000E+00  0.00000000E+00
  0.00000000E+00  0.00000000E+00  0.00000000E+00
  0.00000000E+00  0.00000000E+00  0.00000000E+00
  0.00000000E+00  0.00000000E+00  0.00000000E+00
  0.00000000E+00  0.00000000E+00  0.00000000E+00
