CeO2-you-111-you-Pt                     
   1.00000000000000     
     9.8535556292941333   -5.6472438583061084    0.0023499418985517
    -0.0000000007722844   11.2944857278403088   -0.0000000001648340
     0.0058047347855341   -0.0000000004705927   21.1178782821267461
   O    Pt   Ce H
    53     1    26 2
Selective dynamics
Direct
  0.0008829426954430  0.0015338235071050  0.9959090560428113   T   T   T
  0.1034940941989196  0.2184135470996891  0.1484593860322690   F   F   F
  0.2331594602265472  0.1445084532133744  0.3092709964362264   T   T   T
  0.0488712424989366  0.1911021212492938  0.3992535517617435   T   T   T
  0.0046279945739660  0.0019075151181661  0.2303427947409635   T   T   T
  0.2228292565982651  0.1112208754950649  0.0753936054822769   F   F   F
  0.3334393450684583  0.0008261404510171  0.9948889521648007   T   T   T
  0.4494017926209606  0.2171191501080585  0.1459641601662147   F   F   F
  0.5536511423905389  0.1099175602286075  0.3041861299652124   T   T   T
  0.4586798948025789  0.2503472920865991  0.3766389254749413   T   T   T
  0.3290331300816197  0.0039094357144740  0.2318697715612270   T   T   T
  0.5573809464397742  0.1076120004335788  0.0742821550250011   F   F   F
  0.6684539937942992  0.0008934968971625  0.9935511567857553   T   T   T
  0.7751482194536028  0.2250731069014144  0.1532353837001755   F   F   F
  0.8829692735055530  0.1081511367532451  0.3010069583418675   T   T   T
  0.7726112314885620  0.2185464471513076  0.3851932171122130   T   T   T
  0.6623785731832081 -0.0021442134082604  0.2291417808787125   T   T   T
  0.8842459027685161  0.1087894513842642  0.0759720676487206   F   F   F
  0.0008829426955113  0.3326821191881158  0.9959090560428352   T   T   T
  0.1093982529311835  0.5566361014528303  0.1502783072848260   F   F   F
  0.2331594602160550  0.4219840070036417  0.3092709964374839   T   T   T
  0.1182884505559039  0.5571746840504969  0.3811509170334720   T   T   T
  0.0046279945759203  0.3360534794573466  0.2303427947405954   T   T   T
  0.2228292565981912  0.4449413811027874  0.0753936054822409   F   F   F
  0.3327423078903431  0.3330376539445768  0.9954765197266708   T   T   T
  0.4494017926185556  0.5656166425122252  0.1459641601676878   F   F   F
  0.4586798947884959  0.5416666027145939  0.3766389254771577   T   T   T
  0.3392306336661725  0.3362818168332868  0.2109728193788216   T   T   T
  0.5563598054568857  0.4448459027290053  0.0725346217516454   F   F   F
  0.6679454659838272  0.3329539076580462  0.9952608231938816   T   T   T
  0.7798352204423207  0.5565846102223957  0.1478967771349258   F   F   F
  0.8919321553784078  0.4433058581509243  0.3051616816900368   T   T   T
  0.7705776256426132  0.5519558128223622  0.3784618090395502   T   T   T
  0.6594152856630634  0.3436462345510326  0.2349549960279643   T   T   T
  0.8897608400378767  0.4435987499776339  0.0750573530172550   F   F   F
  0.0005447656265585  0.6669393828131372  0.9955363334483399   T   T   T
  0.1093982529303885  0.8860961514759045  0.1502783072849287   F   F   F
  0.2235623003559801  0.7784481501780058  0.3032706547120779   T   T   T
  0.1182884505549491  0.8944477665070155  0.3811509170342221   T   T   T
 -0.0014746621856434  0.6659296689062976  0.2309487554154863   T   T   T
  0.2235941439955585  0.7784640719979899  0.0748418969553640   F   F   F
  0.3334393450684126  0.6659472046170652  0.9948889521650394   T   T   T
  0.4410421373218586  0.8871880686606369  0.1521698606277709   F   F   F
  0.5536511423904498  0.7770665821604641  0.3041861299639544   T   T   T
  0.4419038302604514  0.8876189151292118  0.3827332385275074   T   T   T
  0.3290331300812622  0.6584576943663706  0.2318697715602470   T   T   T
  0.5573809464405999  0.7831019460078426  0.0742821550252015   F   F   F
  0.6679454659837969  0.6683245583262190  0.9952608231940434   T   T   T
  0.7751482194517975  0.8834081125503447  0.1532353836995719   F   F   F
  0.8919321553772749  0.7819592972254797  0.3051616816905556   T   T   T
  0.7726112314857730  0.8873977843367906  0.3851932171127767   T   T   T
  0.6594152856529074  0.6491020511089318  0.2349549960301222   T   T   T
  0.8897608400377300  0.7794950900601461  0.0750573530172982   F   F   F
  0.3541543912424610  0.3437436956202842  0.3434347253793948   T   T   T
  0.0024866277379063  0.0091576649168580  0.3470428858956147   T   T   T
  0.2219976169377136  0.1141780889868603  0.1892435754107163   F   F   F
  0.1106396785041852  0.2219863392521864  0.0355311535025485   F   F   F
  0.3334137684593825  0.0072234018928535  0.3428964717276087   T   T   T
  0.5539565484838592  0.1109776698143017  0.1907134476121951   F   F   F
  0.4443023650702521  0.2202695654447030  0.0336663685375058   F   F   F
  0.6632785994095256 -0.0016942002937969  0.3448586944882321   T   T   T
  0.8874609926422549  0.1103969963217533  0.1909357561982721   F   F   F
  0.7775079517891125  0.2214732227996548  0.0351626563571637   F   F   F
  0.0024866277328420  0.3266619628151705  0.3470428858967693   T   T   T
  0.2219976169358663  0.4411525279496318  0.1892435754106725   F   F   F
  0.1109573222079445  0.5551356983148116  0.0361769388140605   F   F   F
  0.5536981927783899  0.4435150963880845  0.1813392668279982   F   F   F
  0.4443023650715780  0.5573667996255470  0.0336663685372819   F   F   F
  0.6715884862763217  0.3305383093317164  0.3460103938093474   T   T   T
  0.8888459374498903  0.4443412708559458  0.1914539921612222   F   F   F
  0.7805993654551924  0.5569666827273542  0.0345211883957584   F   F   F
  0.0040540789380755  0.6686940394726093  0.3421639940319754   T   T   T
  0.2214287029004774  0.7773813514516178  0.1903093956593733   F   F   F
  0.1109573222081445  0.8891556238932981  0.0361769388142156   F   F   F
  0.3334137684582532  0.6595243665647931  0.3428964717280851   T   T   T
  0.5539565484882258  0.7763118786699382  0.1907134476118962   F   F   F
  0.4455139469281432  0.8894239734643586  0.0347897244541265   F   F   F
  0.6715884862893362  0.6743831769485112  0.3460103938066348   T   T   T
  0.8888459374529529  0.7778376665981793  0.1914539921617665   F   F   F
  0.7775079517905304  0.8893677289894618  0.0351626563569845   F   F   F
0.3941543912424610 0.3637436956202842 0.403435 T T T
0.446598 0.216020 0.433410 T T T 
 
  0.00000000E+00  0.00000000E+00  0.00000000E+00
  0.00000000E+00  0.00000000E+00  0.00000000E+00
  0.00000000E+00  0.00000000E+00  0.00000000E+00
  0.00000000E+00  0.00000000E+00  0.00000000E+00
  0.00000000E+00  0.00000000E+00  0.00000000E+00
  0.00000000E+00  0.00000000E+00  0.00000000E+00
  0.00000000E+00  0.00000000E+00  0.00000000E+00
  0.00000000E+00  0.00000000E+00  0.00000000E+00
  0.00000000E+00  0.00000000E+00  0.00000000E+00
  0.00000000E+00  0.00000000E+00  0.00000000E+00
  0.00000000E+00  0.00000000E+00  0.00000000E+00
  0.00000000E+00  0.00000000E+00  0.00000000E+00
  0.00000000E+00  0.00000000E+00  0.00000000E+00
  0.00000000E+00  0.00000000E+00  0.00000000E+00
  0.00000000E+00  0.00000000E+00  0.00000000E+00
  0.00000000E+00  0.00000000E+00  0.00000000E+00
  0.00000000E+00  0.00000000E+00  0.00000000E+00
  0.00000000E+00  0.00000000E+00  0.00000000E+00
  0.00000000E+00  0.00000000E+00  0.00000000E+00
  0.00000000E+00  0.00000000E+00  0.00000000E+00
  0.00000000E+00  0.00000000E+00  0.00000000E+00
  0.00000000E+00  0.00000000E+00  0.00000000E+00
  0.00000000E+00  0.00000000E+00  0.00000000E+00
  0.00000000E+00  0.00000000E+00  0.00000000E+00
  0.00000000E+00  0.00000000E+00  0.00000000E+00
  0.00000000E+00  0.00000000E+00  0.00000000E+00
  0.00000000E+00  0.00000000E+00  0.00000000E+00
  0.00000000E+00  0.00000000E+00  0.00000000E+00
  0.00000000E+00  0.00000000E+00  0.00000000E+00
  0.00000000E+00  0.00000000E+00  0.00000000E+00
  0.00000000E+00  0.00000000E+00  0.00000000E+00
  0.00000000E+00  0.00000000E+00  0.00000000E+00
  0.00000000E+00  0.00000000E+00  0.00000000E+00
  0.00000000E+00  0.00000000E+00  0.00000000E+00
  0.00000000E+00  0.00000000E+00  0.00000000E+00
  0.00000000E+00  0.00000000E+00  0.00000000E+00
  0.00000000E+00  0.00000000E+00  0.00000000E+00
  0.00000000E+00  0.00000000E+00  0.00000000E+00
  0.00000000E+00  0.00000000E+00  0.00000000E+00
  0.00000000E+00  0.00000000E+00  0.00000000E+00
  0.00000000E+00  0.00000000E+00  0.00000000E+00
  0.00000000E+00  0.00000000E+00  0.00000000E+00
  0.00000000E+00  0.00000000E+00  0.00000000E+00
  0.00000000E+00  0.00000000E+00  0.00000000E+00
  0.00000000E+00  0.00000000E+00  0.00000000E+00
  0.00000000E+00  0.00000000E+00  0.00000000E+00
  0.00000000E+00  0.00000000E+00  0.00000000E+00
  0.00000000E+00  0.00000000E+00  0.00000000E+00
  0.00000000E+00  0.00000000E+00  0.00000000E+00
  0.00000000E+00  0.00000000E+00  0.00000000E+00
  0.00000000E+00  0.00000000E+00  0.00000000E+00
  0.00000000E+00  0.00000000E+00  0.00000000E+00
  0.00000000E+00  0.00000000E+00  0.00000000E+00
  0.00000000E+00  0.00000000E+00  0.00000000E+00
  0.00000000E+00  0.00000000E+00  0.00000000E+00
  0.00000000E+00  0.00000000E+00  0.00000000E+00
  0.00000000E+00  0.00000000E+00  0.00000000E+00
  0.00000000E+00  0.00000000E+00  0.00000000E+00
  0.00000000E+00  0.00000000E+00  0.00000000E+00
  0.00000000E+00  0.00000000E+00  0.00000000E+00
  0.00000000E+00  0.00000000E+00  0.00000000E+00
  0.00000000E+00  0.00000000E+00  0.00000000E+00
  0.00000000E+00  0.00000000E+00  0.00000000E+00
  0.00000000E+00  0.00000000E+00  0.00000000E+00
  0.00000000E+00  0.00000000E+00  0.00000000E+00
  0.00000000E+00  0.00000000E+00  0.00000000E+00
  0.00000000E+00  0.00000000E+00  0.00000000E+00
  0.00000000E+00  0.00000000E+00  0.00000000E+00
  0.00000000E+00  0.00000000E+00  0.00000000E+00
  0.00000000E+00  0.00000000E+00  0.00000000E+00
  0.00000000E+00  0.00000000E+00  0.00000000E+00
  0.00000000E+00  0.00000000E+00  0.00000000E+00
  0.00000000E+00  0.00000000E+00  0.00000000E+00
  0.00000000E+00  0.00000000E+00  0.00000000E+00
  0.00000000E+00  0.00000000E+00  0.00000000E+00
  0.00000000E+00  0.00000000E+00  0.00000000E+00
  0.00000000E+00  0.00000000E+00  0.00000000E+00
  0.00000000E+00  0.00000000E+00  0.00000000E+00
  0.00000000E+00  0.00000000E+00  0.00000000E+00
  0.00000000E+00  0.00000000E+00  0.00000000E+00
