CeO2-you-111-you-Re                     
   1.00000000000000     
     9.8465586595326720   -5.6849136637097528    0.0000000000000000
     0.0000000001908902   11.3698253269020384    0.0000000000000000
     0.0000000000000000    0.0000000000000000   21.0931913324391900
   O    Re   Ce   H 
    54     1    26     1
Selective dynamics
Direct
  0.0000714532196661  0.0002043290245835  0.9953143120862590   T   T   T
  0.0999205081359023  0.2166267540659703  0.1470009042313052   F   F   F
  0.2623803434409413  0.1663097095188732  0.3094962215420587   T   T   T
  0.1826449577525818  0.2417187700952860  0.4070318659536515   T   T   T
  0.0103387130376712  0.0032746368913042  0.2304532635811783   T   T   T
  0.2224373874521675  0.1115417749048930  0.0743739078608598   F   F   F
  0.3335354035563814  0.0008409452279761  0.9951864124841143   T   T   T
  0.4500392459300642  0.2166267540642153  0.1470009042313052   F   F   F
  0.5495749504850758  0.1169594433761471  0.3053383998802141   T   T   T
  0.4351676629204981  0.2310427572171271  0.4041098844269347   T   T   T
  0.3271793485630826  0.0017015163055095  0.2305836427108148   T   T   T
  0.5582279947479094  0.1084390052475825  0.0744417611275665   F   F   F
  0.6667678175036008  0.0000021415797136  0.9927988954049545   T   T   T
  0.7780021503578780  0.2226703007151301  0.1518291288060212   F   F   F
  0.8901227007216502  0.1124396226858605  0.3054860153206937   T   T   T
  0.7662253363886767  0.2205541421962706  0.3863901353045191   T   T   T
  0.6655928939821617  0.0016149432634591  0.2311597798389695   T   T   T
  0.8835450105010594  0.1084390052489681  0.0744417611275665   F   F   F
  0.0004161689901205  0.3325783089804174  0.9951327209631874   T   T   T
  0.1099854264250837  0.5566815735737904  0.1479237715517314   F   F   F
  0.2510457145572508  0.4159792830350399  0.3097752743258344   T   T   T
  0.1047498627549254  0.5609614771786799  0.3845743938366607   T   T   T
  0.0110024651133086  0.3410592653277621  0.2305881568159847   T   T   T
  0.2224373874508956  0.4442286125472705  0.0743739078608598   F   F   F
  0.3329756438399459  0.3329383387472160  0.9953231592343789   T   T   T
  0.4500392459340219  0.5667464918698144  0.1470009042313052   F   F   F
  0.5002738802826938  0.4045863848677810  0.3092902463695651   T   T   T
  0.4250696921782648  0.4839631728252851  0.4070654788630867   T   T   T
  0.3329623325147758  0.3337867720604635  0.2080667345830887   T   T   T
  0.5551252250969512  0.4442286125478319  0.0743739078608598   F   F   F
  0.6655521408955271  0.3326936160929514  0.9950093593706300   T   T   T
  0.7800291471490439  0.5566815735741386  0.1479237715517314   F   F   F
  0.8847379102319498  0.4425293813490122  0.3020218413681528   T   T   T
  0.7745726791891371  0.5409197806145196  0.3836820713964257   T   T   T
  0.6645510445455454  0.3394858395950643  0.2307266475778759   T   T   T
  0.8879787701148913  0.4426235402295120  0.0741376496674135   F   F   F
 -0.0001635064378525  0.6667964021254509  0.9954937501206985   T   T   T
  0.1099854264258653  0.8866378528520826  0.1479237715517314   F   F   F
  0.2232396858409232  0.7811278611260734  0.3018455147888033   T   T   T
  0.1248602805290871  0.8912836324990879  0.3833795669403071   T   T   T
 -0.0002825498603365  0.6666059779875292  0.2284621798074349   T   T   T
  0.2240424597695991  0.7786882298851054  0.0741376496674135   F   F   F
  0.3340018113261475  0.6662236596594593  0.9951051160391868   T   T   T
  0.4439956992828087  0.8886648496421188  0.1518291288060212   F   F   F
  0.5533779682026867  0.7762712969977368  0.3058184503012851   T   T   T
  0.4445801584820382  0.9002152920557561  0.3864386087326484   T   T   T
  0.3260600615678942  0.6557808381450663  0.2305538696849824   T   T   T
  0.5582279947510358  0.7831219895034494  0.0744417611275665   F   F   F
  0.6660533243613095  0.6663499745069554  0.9951036156473068   T   T   T
  0.7780021503592991  0.8886648496427512  0.1518291288060212   F   F   F
  0.8901896883043587  0.7757331729262504  0.3060088717723854   T   T   T
  0.7719108124101728  0.8945005402148020  0.3892170918372520   T   T   T
  0.6631300774913774  0.6564216638848844  0.2303658597544732   T   T   T
  0.8879787701155095  0.7786882298853754  0.0741376496674135   F   F   F
  0.3296389875665445  0.3370170198279432  0.3561719376370511   T   T   T
  0.9985431684752690  0.9972072525933755  0.3475608125253830   T   T   T
  0.2236998676887580  0.1140667353754878  0.1870744512460973   F   F   F
  0.1099950619089185  0.2216640309526952  0.0344888305650599   F   F   F
  0.3315190180348237  0.9958531098350359  0.3435020590932940   T   T   T
  0.5552036148166124  0.1114633851742965  0.1905623919813735   F   F   F
  0.4450019690437728  0.2216640309511249  0.0344888305650599   F   F   F
  0.6676374536089650 -0.0013825059883977  0.3454184870437793   T   T   T
  0.8895937703604773  0.1114633851770890  0.1905623919813735   F   F   F
  0.7770456095496385  0.2207572190992337  0.0347024577121928   F   F   F
  0.9920402044676004  0.3351080566200164  0.3467643330319979   T   T   T
  0.2236998676933339  0.4429661323132663  0.1870744512460973   F   F   F
  0.1111303862380453  0.5555366137672735  0.0348372603207210   F   F   F
  0.5526002646179151  0.4429661323112413  0.1870744512460973   F   F   F
  0.4450019690473042  0.5566719380961800  0.0344888305650599   F   F   F
  0.6704346837846010  0.3345439416010389  0.3436123026109612   T   T   T
  0.8893041610708252  0.4452743221408895  0.1884169480740354   F   F   F
  0.7777392275275901  0.5555366137656392  0.0348372603207210   F   F   F
  0.0001526266931608  0.6658606246459398  0.3426254549472826   T   T   T
  0.2213916778566656  0.7773628389291716  0.1884169480740354   F   F   F
  0.1111303862343647  0.8889277724670919  0.0348372603207210   F   F   F
  0.3308086266441739  0.6742768758556427  0.3467980733098628   T   T   T
  0.5552036148229149  0.7770732296486145  0.1905623919813735   F   F   F
  0.4459087809006022  0.8896213904503583  0.0347024577121928   F   F   F
  0.6689819171584810  0.6676671078979229  0.3475398003603140   T   T   T
  0.8893041610725092  0.7773628389299247  0.1884169480740354   F   F   F
  0.7770456095497522  0.8896213904504080  0.0347024577121928   F   F   F
  0.4309488200904150  0.2352814736573427  0.4501000195687526   T   T   T
 
  0.00000000E+00  0.00000000E+00  0.00000000E+00
  0.00000000E+00  0.00000000E+00  0.00000000E+00
  0.00000000E+00  0.00000000E+00  0.00000000E+00
  0.00000000E+00  0.00000000E+00  0.00000000E+00
  0.00000000E+00  0.00000000E+00  0.00000000E+00
  0.00000000E+00  0.00000000E+00  0.00000000E+00
  0.00000000E+00  0.00000000E+00  0.00000000E+00
  0.00000000E+00  0.00000000E+00  0.00000000E+00
  0.00000000E+00  0.00000000E+00  0.00000000E+00
  0.00000000E+00  0.00000000E+00  0.00000000E+00
  0.00000000E+00  0.00000000E+00  0.00000000E+00
  0.00000000E+00  0.00000000E+00  0.00000000E+00
  0.00000000E+00  0.00000000E+00  0.00000000E+00
  0.00000000E+00  0.00000000E+00  0.00000000E+00
  0.00000000E+00  0.00000000E+00  0.00000000E+00
  0.00000000E+00  0.00000000E+00  0.00000000E+00
  0.00000000E+00  0.00000000E+00  0.00000000E+00
  0.00000000E+00  0.00000000E+00  0.00000000E+00
  0.00000000E+00  0.00000000E+00  0.00000000E+00
  0.00000000E+00  0.00000000E+00  0.00000000E+00
  0.00000000E+00  0.00000000E+00  0.00000000E+00
  0.00000000E+00  0.00000000E+00  0.00000000E+00
  0.00000000E+00  0.00000000E+00  0.00000000E+00
  0.00000000E+00  0.00000000E+00  0.00000000E+00
  0.00000000E+00  0.00000000E+00  0.00000000E+00
  0.00000000E+00  0.00000000E+00  0.00000000E+00
  0.00000000E+00  0.00000000E+00  0.00000000E+00
  0.00000000E+00  0.00000000E+00  0.00000000E+00
  0.00000000E+00  0.00000000E+00  0.00000000E+00
  0.00000000E+00  0.00000000E+00  0.00000000E+00
  0.00000000E+00  0.00000000E+00  0.00000000E+00
  0.00000000E+00  0.00000000E+00  0.00000000E+00
  0.00000000E+00  0.00000000E+00  0.00000000E+00
  0.00000000E+00  0.00000000E+00  0.00000000E+00
  0.00000000E+00  0.00000000E+00  0.00000000E+00
  0.00000000E+00  0.00000000E+00  0.00000000E+00
  0.00000000E+00  0.00000000E+00  0.00000000E+00
  0.00000000E+00  0.00000000E+00  0.00000000E+00
  0.00000000E+00  0.00000000E+00  0.00000000E+00
  0.00000000E+00  0.00000000E+00  0.00000000E+00
  0.00000000E+00  0.00000000E+00  0.00000000E+00
  0.00000000E+00  0.00000000E+00  0.00000000E+00
  0.00000000E+00  0.00000000E+00  0.00000000E+00
  0.00000000E+00  0.00000000E+00  0.00000000E+00
  0.00000000E+00  0.00000000E+00  0.00000000E+00
  0.00000000E+00  0.00000000E+00  0.00000000E+00
  0.00000000E+00  0.00000000E+00  0.00000000E+00
  0.00000000E+00  0.00000000E+00  0.00000000E+00
  0.00000000E+00  0.00000000E+00  0.00000000E+00
  0.00000000E+00  0.00000000E+00  0.00000000E+00
  0.00000000E+00  0.00000000E+00  0.00000000E+00
  0.00000000E+00  0.00000000E+00  0.00000000E+00
  0.00000000E+00  0.00000000E+00  0.00000000E+00
  0.00000000E+00  0.00000000E+00  0.00000000E+00
  0.00000000E+00  0.00000000E+00  0.00000000E+00
  0.00000000E+00  0.00000000E+00  0.00000000E+00
  0.00000000E+00  0.00000000E+00  0.00000000E+00
  0.00000000E+00  0.00000000E+00  0.00000000E+00
  0.00000000E+00  0.00000000E+00  0.00000000E+00
  0.00000000E+00  0.00000000E+00  0.00000000E+00
  0.00000000E+00  0.00000000E+00  0.00000000E+00
  0.00000000E+00  0.00000000E+00  0.00000000E+00
  0.00000000E+00  0.00000000E+00  0.00000000E+00
  0.00000000E+00  0.00000000E+00  0.00000000E+00
  0.00000000E+00  0.00000000E+00  0.00000000E+00
  0.00000000E+00  0.00000000E+00  0.00000000E+00
  0.00000000E+00  0.00000000E+00  0.00000000E+00
  0.00000000E+00  0.00000000E+00  0.00000000E+00
  0.00000000E+00  0.00000000E+00  0.00000000E+00
  0.00000000E+00  0.00000000E+00  0.00000000E+00
  0.00000000E+00  0.00000000E+00  0.00000000E+00
  0.00000000E+00  0.00000000E+00  0.00000000E+00
  0.00000000E+00  0.00000000E+00  0.00000000E+00
  0.00000000E+00  0.00000000E+00  0.00000000E+00
  0.00000000E+00  0.00000000E+00  0.00000000E+00
  0.00000000E+00  0.00000000E+00  0.00000000E+00
  0.00000000E+00  0.00000000E+00  0.00000000E+00
  0.00000000E+00  0.00000000E+00  0.00000000E+00
  0.00000000E+00  0.00000000E+00  0.00000000E+00
  0.00000000E+00  0.00000000E+00  0.00000000E+00
  0.00000000E+00  0.00000000E+00  0.00000000E+00
  0.00000000E+00  0.00000000E+00  0.00000000E+00
