CeO2-you-111-you-Au                     
   1.00000000000000     
     9.8423850000000002   -5.6825039999999998    0.0000000000000000
     0.0000000000000000   11.3650059999999993    0.0000000000000000
     0.0000000000000000    0.0000000000000000   21.0000000000000000
   O    Au   Ce   H 
    54     1    26     1
Selective dynamics
Direct
  0.0002567675755862  0.0001794222364464  0.9948180943250639   T   T   T
  0.1045719382562286  0.2183005406251128  0.1474011147153489   T   T   T
  0.2340251364654880  0.1241777726973358  0.3072337641081748   T   T   T
  0.1080706399294902  0.2210270092372140  0.3868614622163873   T   T   T
  0.0033237064026775  0.0013094137157425  0.2305783631979962   T   T   T
  0.2230585108005769  0.1117227112271423  0.0744324801459329   T   T   T
  0.3327708527353173  0.0000530014024098  0.9945128787602096   T   T   T
  0.4482006900673886  0.2188289764290823  0.1483983779183925   T   T   T
  0.5506910976003854  0.1158293962851684  0.3060435216189072   T   T   T
  0.4482641712811665  0.2177738934886697  0.4025909455388507   T   T   T
  0.3304287763841984 -0.0018655884722639  0.2297335114775083   T   T   T
  0.5570305551406106  0.1098670798268269  0.0735665197309808   T   T   T
  0.6666824940374830  0.0000300907477186  0.9927341067041012   T   T   T
  0.7782560369419923  0.2223723232906510  0.1497009513657760   T   T   T
  0.8899843262278053  0.1110772869898634  0.3047704609396140   T   T   T
  0.7773514860889306  0.2227446516895644  0.3830024580782475   T   T   T
  0.6656118124656519  0.0019050037810658  0.2310538741649078   T   T   T
  0.8857007962017767  0.1093459126413048  0.0736783404881320   T   T   T
  0.0005031056954096  0.3331686698158656  0.9944048630569837   T   T   T
  0.1109560637529825  0.5557993774388600  0.1482558518339572   T   T   T
  0.2279293613475589  0.4385133644569827  0.3042011920786380   T   T   T
  0.1122412267760635  0.5538735451512219  0.3827445890548572   T   T   T
  0.0025107215642410  0.3347938042958581  0.2298476246126628   T   T   T
  0.2230316762613774  0.4442876057449890  0.0737590496234622   T   T   T
  0.3331494799866608  0.3325976057117912  0.9943287943888840   T   T   T
  0.4488019885293204  0.5622675633550496  0.1477314315462701   T   T   T
  0.5423479014324724  0.4320764241120533  0.3075156143816389   T   T   T
  0.4454738692092498  0.5588524296199916  0.3869047441374875   T   T   T
  0.3331832096426157  0.3331794926200550  0.2153438456032170   T   T   T
  0.5550588024615939  0.4440406604109548  0.0743081421625034   T   T   T
  0.6661665457573663  0.3335220667353427  0.9941784920604532   T   T   T
  0.7788115053857727  0.5564142472067172  0.1489897534787239   T   T   T
  0.8905814886022916  0.4452617247896830  0.3038772883139743   T   T   T
  0.7770160686243890  0.5538858969755021  0.3827747541193217   T   T   T
  0.6685304327537872  0.3357121411958450  0.2296759968459370   T   T   T
  0.8884596514771308  0.4438804837398263  0.0737888727903915   T   T   T
 -0.0001134575642575  0.6673238686937548  0.9949334174815971   T   T   T
  0.1106177427594022  0.8873982846933441  0.1488353340852318   T   T   T
  0.2218013334475152  0.7757707109307493  0.3040091751199593   T   T   T
  0.1133045401747453  0.8895094523009482  0.3827597240183030   T   T   T
  0.0001977342870106  0.6670623367722399  0.2293405767600948   T   T   T
  0.2233163819457406  0.7773786146302324  0.0736896582482860   T   T   T
  0.3336327870648702  0.6661383009599264  0.9937557364851916   T   T   T
  0.4443690695042373  0.8886712175222226  0.1497859594889811   T   T   T
  0.5549913315364400  0.7769329161314763  0.3046360453021925   T   T   T
  0.4441277825369992  0.8894254210510824  0.3833830255173205   T   T   T
  0.3315606138672488  0.6636746185666218  0.2298037916343123   T   T   T
  0.5567055275137227  0.7802054664758700  0.0735808021516828   T   T   T
  0.6671642951749405  0.6667107870602609  0.9944161884026659   T   T   T
  0.7770614177807045  0.8885265923396501  0.1509421879719330   T   T   T
  0.8895435593941050  0.7782315109211543  0.3048856057741696   T   T   T
  0.7765119284703272  0.8893907907964760  0.3839226921881285   T   T   T
  0.6655384866219254  0.6627438292083553  0.2312165228459969   T   T   T
  0.8885404983937907  0.7789447457626436  0.0745233967174357   T   T   T
  0.3292339611499126  0.3374183244607775  0.3517653462735384   T   T   T
  0.0028348315551526  0.0030849801503165  0.3440907216583907   T   T   T
  0.2237641983017851  0.1134345187652137  0.1890682829119560   T   T   T
  0.1107710489921106  0.2215018407150045  0.0340616302829208   T   T   T
  0.3292956078629188 -0.0048845245601410  0.3426220132026909   T   T   T
  0.5554083117216444  0.1111876219723914  0.1892901441410633   T   T   T
  0.4446696056587194  0.2220105420381155  0.0341420614738963   T   T   T
  0.6663163735595209  0.0000296496241448  0.3445717824468534   T   T   T
  0.8891055499675343  0.1115065890316372  0.1894298047421592   T   T   T
  0.7773298924366170  0.2215732547002711  0.0336919257205244   T   T   T
  0.0026641518887423  0.3324188004505644  0.3440774499008445   T   T   T
  0.2237202586788183  0.4428916212937882  0.1875960996100899   T   T   T
  0.1112666182128874  0.5554748903062902  0.0339285969715330   T   T   T
  0.5532032544560204  0.4428448923442713  0.1891843131542116   T   T   T
  0.4450205107847265  0.5559117943809034  0.0339577874140395   T   T   T
  0.6713417525234082  0.3372020192308476  0.3426184671770772   T   T   T
  0.8897025539570707  0.4446330896455077  0.1884656021090840   T   T   T
  0.7776127582847367  0.5557567998489671  0.0347538712084758   T   T   T
  0.0003778365821369  0.6662561645683464  0.3427240822907270   T   T   T
  0.2221385188457961  0.7768349930068058  0.1884940660426615   T   T   T
  0.1111185875898333  0.8889672711350978  0.0348021458176627   T   T   T
  0.3339976827324569  0.6638188975934242  0.3442285492266586   T   T   T
  0.5550626349744612  0.7773605809230175  0.1895790810857397   T   T   T
  0.4450708080188384  0.8890503647585830  0.0335817787456221   T   T   T
  0.6636818615634894  0.6639620039513640  0.3442348889990005   T   T   T
  0.8890353467621094  0.7777270262635739  0.1896754470210513   T   T   T
  0.7774751741936788  0.8891738634114813  0.0341214292746092   T   T   T
  0.4374738419723473  0.2280266639568038  0.4478766653195963   T   T   T
 
  0.00000000E+00  0.00000000E+00  0.00000000E+00
  0.00000000E+00  0.00000000E+00  0.00000000E+00
  0.00000000E+00  0.00000000E+00  0.00000000E+00
  0.00000000E+00  0.00000000E+00  0.00000000E+00
  0.00000000E+00  0.00000000E+00  0.00000000E+00
  0.00000000E+00  0.00000000E+00  0.00000000E+00
  0.00000000E+00  0.00000000E+00  0.00000000E+00
  0.00000000E+00  0.00000000E+00  0.00000000E+00
  0.00000000E+00  0.00000000E+00  0.00000000E+00
  0.00000000E+00  0.00000000E+00  0.00000000E+00
  0.00000000E+00  0.00000000E+00  0.00000000E+00
  0.00000000E+00  0.00000000E+00  0.00000000E+00
  0.00000000E+00  0.00000000E+00  0.00000000E+00
  0.00000000E+00  0.00000000E+00  0.00000000E+00
  0.00000000E+00  0.00000000E+00  0.00000000E+00
  0.00000000E+00  0.00000000E+00  0.00000000E+00
  0.00000000E+00  0.00000000E+00  0.00000000E+00
  0.00000000E+00  0.00000000E+00  0.00000000E+00
  0.00000000E+00  0.00000000E+00  0.00000000E+00
  0.00000000E+00  0.00000000E+00  0.00000000E+00
  0.00000000E+00  0.00000000E+00  0.00000000E+00
  0.00000000E+00  0.00000000E+00  0.00000000E+00
  0.00000000E+00  0.00000000E+00  0.00000000E+00
  0.00000000E+00  0.00000000E+00  0.00000000E+00
  0.00000000E+00  0.00000000E+00  0.00000000E+00
  0.00000000E+00  0.00000000E+00  0.00000000E+00
  0.00000000E+00  0.00000000E+00  0.00000000E+00
  0.00000000E+00  0.00000000E+00  0.00000000E+00
  0.00000000E+00  0.00000000E+00  0.00000000E+00
  0.00000000E+00  0.00000000E+00  0.00000000E+00
  0.00000000E+00  0.00000000E+00  0.00000000E+00
  0.00000000E+00  0.00000000E+00  0.00000000E+00
  0.00000000E+00  0.00000000E+00  0.00000000E+00
  0.00000000E+00  0.00000000E+00  0.00000000E+00
  0.00000000E+00  0.00000000E+00  0.00000000E+00
  0.00000000E+00  0.00000000E+00  0.00000000E+00
  0.00000000E+00  0.00000000E+00  0.00000000E+00
  0.00000000E+00  0.00000000E+00  0.00000000E+00
  0.00000000E+00  0.00000000E+00  0.00000000E+00
  0.00000000E+00  0.00000000E+00  0.00000000E+00
  0.00000000E+00  0.00000000E+00  0.00000000E+00
  0.00000000E+00  0.00000000E+00  0.00000000E+00
  0.00000000E+00  0.00000000E+00  0.00000000E+00
  0.00000000E+00  0.00000000E+00  0.00000000E+00
  0.00000000E+00  0.00000000E+00  0.00000000E+00
  0.00000000E+00  0.00000000E+00  0.00000000E+00
  0.00000000E+00  0.00000000E+00  0.00000000E+00
  0.00000000E+00  0.00000000E+00  0.00000000E+00
  0.00000000E+00  0.00000000E+00  0.00000000E+00
  0.00000000E+00  0.00000000E+00  0.00000000E+00
  0.00000000E+00  0.00000000E+00  0.00000000E+00
  0.00000000E+00  0.00000000E+00  0.00000000E+00
  0.00000000E+00  0.00000000E+00  0.00000000E+00
  0.00000000E+00  0.00000000E+00  0.00000000E+00
  0.00000000E+00  0.00000000E+00  0.00000000E+00
  0.00000000E+00  0.00000000E+00  0.00000000E+00
  0.00000000E+00  0.00000000E+00  0.00000000E+00
  0.00000000E+00  0.00000000E+00  0.00000000E+00
  0.00000000E+00  0.00000000E+00  0.00000000E+00
  0.00000000E+00  0.00000000E+00  0.00000000E+00
  0.00000000E+00  0.00000000E+00  0.00000000E+00
  0.00000000E+00  0.00000000E+00  0.00000000E+00
  0.00000000E+00  0.00000000E+00  0.00000000E+00
  0.00000000E+00  0.00000000E+00  0.00000000E+00
  0.00000000E+00  0.00000000E+00  0.00000000E+00
  0.00000000E+00  0.00000000E+00  0.00000000E+00
  0.00000000E+00  0.00000000E+00  0.00000000E+00
  0.00000000E+00  0.00000000E+00  0.00000000E+00
  0.00000000E+00  0.00000000E+00  0.00000000E+00
  0.00000000E+00  0.00000000E+00  0.00000000E+00
  0.00000000E+00  0.00000000E+00  0.00000000E+00
  0.00000000E+00  0.00000000E+00  0.00000000E+00
  0.00000000E+00  0.00000000E+00  0.00000000E+00
  0.00000000E+00  0.00000000E+00  0.00000000E+00
  0.00000000E+00  0.00000000E+00  0.00000000E+00
  0.00000000E+00  0.00000000E+00  0.00000000E+00
  0.00000000E+00  0.00000000E+00  0.00000000E+00
  0.00000000E+00  0.00000000E+00  0.00000000E+00
  0.00000000E+00  0.00000000E+00  0.00000000E+00
  0.00000000E+00  0.00000000E+00  0.00000000E+00
  0.00000000E+00  0.00000000E+00  0.00000000E+00
  0.00000000E+00  0.00000000E+00  0.00000000E+00
