CeO2-you-111-you-Ru                     
   1.00000000000000     
     9.7931939021342469   -5.6541035076303876    0.0000000000000000
     0.0000000060060840   11.3082050356593840    0.0000000000000000
     0.0000000000000000    0.0000000000000000   21.3384357948287331
   O    Ru   Ce   H 
    54     1    26     2
Selective dynamics
Direct
  0.0005095760395571  0.0001957644412246  0.9963050212452731   T   T   T
  0.1042075768681210  0.2177720718928824  0.1487985828564306   T   T   T
  0.2408950979574665  0.1366168265358074  0.3076332787781222   T   T   T
  0.1144934363075985  0.2236945732241459  0.3816517273931194   T   T   T
  0.0056886922247349  0.0014165211512104  0.2318576871143641   T   T   T
  0.2229699691120996  0.1115482029670498  0.0761723976303611   T   T   T
  0.3335662526144673  0.0004272093841292  0.9962494880037552   T   T   T
  0.4479052614621489  0.2185457028557824  0.1491054747358734   T   T   T
  0.5508174904828135  0.1150539120392922  0.3050653546366031   T   T   T
  0.4403304507272514  0.2265547217946041  0.3952194937038407   T   T   T
  0.3296998869653210  0.9985296346837731  0.2304416245830706   T   T   T
  0.5568729475278951  0.1091579294165737  0.0756523157717016   T   T   T
  0.6668033777117336 -0.0003291271201139  0.9951268816177858   T   T   T
  0.7783213727879877  0.2221056740957438  0.1511200573792692   T   T   T
  0.8898294282278458  0.1109970993366524  0.3039057638313458   T   T   T
  0.7774959983770386  0.2229623942299597  0.3817370360933568   T   T   T
  0.6658511510937889  0.0017199430943244  0.2311951901104660   T   T   T
  0.8856127304314177  0.1091341987690266  0.0756446766306704   T   T   T
  0.0004298306277867  0.3328073445350539  0.9961483076206575   T   T   T
  0.1108016654667637  0.5557758641966712  0.1492624662784165   T   T   T
  0.2366270529545215  0.4308268779600178  0.3047709780015291   T   T   T
  0.1139977263382823  0.5525640352491202  0.3806252074107839   T   T   T
  0.0047245352814895  0.3361505240180730  0.2305090119189054   T   T   T
  0.2225501430819885  0.4436040843837024  0.0757691738322879   T   T   T
  0.3332491728956758  0.3326282351603276  0.9960979503125299   T   T   T
  0.4486726294846505  0.5621580918661757  0.1485261433744217   T   T   T
  0.5301881452511487  0.4257420714083670  0.3074718785059702   T   T   T
  0.4430453867327116  0.5522554502856919  0.3820090627016515   T   T   T
  0.3340391803100413  0.3329277546513619  0.2163813828719801   T   T   T
  0.5549903308436394  0.4438377198718743  0.0760238283371250   T   T   T
  0.6661277054810198  0.3333553950893819  0.9967442066725429   T   T   T
  0.7794039186956495  0.5560993604846648  0.1499707505910801   T   T   T
  0.8912609422058063  0.4454607911377362  0.3030933458383188   T   T   T
  0.7751486032999649  0.5516453315315426  0.3807511550754225   T   T   T
  0.6679763451786930  0.3361229566175067  0.2303368607299426   T   T   T
  0.8887782838342925  0.4432482722277584  0.0754814896388070   T   T   T
 -0.0001835576732749  0.6670183408554831  0.9968560464890230   T   T   T
  0.1104511337343254  0.8869362639237567  0.1498524253311076   T   T   T
  0.2217809824568461  0.7754127574657451  0.3031842353292856   T   T   T
  0.1151746353593441  0.8917625445554873  0.3808734792552040   T   T   T
  0.0004905169692483  0.6666385510763515  0.2296113947217449   T   T   T
  0.2236944841759118  0.7780907832061618  0.0753621104915667   T   T   T
  0.3334777208122640  0.6654517038583450  0.9962907925762879   T   T   T
  0.4443503081963204  0.8880902308490972  0.1513403505423762   T   T   T
  0.5554299255680767  0.7770371508564973  0.3035344533193024   T   T   T
  0.4439236463165044  0.8889168231907019  0.3821639861731492   T   T   T
  0.3306164565600177  0.6617273690912731  0.2304291487509337   T   T   T
  0.5573236879383331  0.7808041894576914  0.0756688261472572   T   T   T
  0.6670128952241876  0.6665195037372681  0.9964161418979118   T   T   T
  0.7783462998314213  0.8887988458938503  0.1527798469902248   T   T   T
  0.8894789302047509  0.7770969175808400  0.3043216160117912   T   T   T
  0.7765979640901786  0.8888793573378830  0.3823468879604917   T   T   T
  0.6651374823413084  0.6610739761228159  0.2316896049947504   T   T   T
  0.8884263574910478  0.7788805541821846  0.0763873078061671   T   T   T
  0.3306739106150339  0.3362194605396198  0.3481533609047788   T   T   T
  0.0050693539885319  0.0051647622381396  0.3430051973011660   T   T   T
  0.2240556022290459  0.1135637107434407  0.1895943583916673   T   T   T
  0.1106927152187369  0.2214378539685796  0.0360476130670248   T   T   T
  0.3299768069390048 -0.0042469184195460  0.3409830783057163   T   T   T
  0.5555670087822127  0.1109336342191620  0.1900185744462972   T   T   T
  0.4446973590200340  0.2217578707182920  0.0360460563490722   T   T   T
  0.6667962840767676 -0.0003935617038400  0.3440812047684919   T   T   T
  0.8893434347945534  0.1112160246196944  0.1906805681804910   T   T   T
  0.7776183659373047  0.2213536500512289  0.0359163238606307   T   T   T
  0.0060782442142035  0.3321051425291796  0.3426526154849748   T   T   T
  0.2241774824355001  0.4424532265741161  0.1885790967652753   T   T   T
  0.1112990152553006  0.5552392492895453  0.0361223146437717   T   T   T
  0.5530404687762251  0.4425283644436321  0.1895049566878326   T   T   T
  0.4449903120341304  0.5556885452560121  0.0360759921598887   T   T   T
  0.6707846119229239  0.3366557030690395  0.3408930603667125   T   T   T
  0.8901234028396745  0.4446387469694921  0.1893138452428809   T   T   T
  0.7779306451570591  0.5558023248065517  0.0368443693018438   T   T   T
  0.0007767582028509  0.6658946711099988  0.3414739168060602   T   T   T
  0.2219746108013349  0.7764153090037008  0.1893497790275308   T   T   T
  0.1111417319982038  0.8889025856646687  0.0367763451228431   T   T   T
  0.3347132867516684  0.6607109493801090  0.3427616973268920   T   T   T
  0.5553998937492096  0.7772395156380631  0.1906085067387559   T   T   T
  0.4452114298578611  0.8889382502508889  0.0358455129259857   T   T   T
  0.6614481824808351  0.6616736050842230  0.3429924399878411   T   T   T
  0.8894055071719089  0.7773875700164140  0.1908789735237811   T   T   T
  0.7776824694073137  0.8890250805614975  0.0362902676399460   T   T   T
  0.3225132909386529  0.3442281488019719  0.4201426513848934   T   T   T
  0.4313366499237253  0.2343702478675947  0.4401634166706381   T   T   T
 
  0.00000000E+00  0.00000000E+00  0.00000000E+00
  0.00000000E+00  0.00000000E+00  0.00000000E+00
  0.00000000E+00  0.00000000E+00  0.00000000E+00
  0.00000000E+00  0.00000000E+00  0.00000000E+00
  0.00000000E+00  0.00000000E+00  0.00000000E+00
  0.00000000E+00  0.00000000E+00  0.00000000E+00
  0.00000000E+00  0.00000000E+00  0.00000000E+00
  0.00000000E+00  0.00000000E+00  0.00000000E+00
  0.00000000E+00  0.00000000E+00  0.00000000E+00
  0.00000000E+00  0.00000000E+00  0.00000000E+00
  0.00000000E+00  0.00000000E+00  0.00000000E+00
  0.00000000E+00  0.00000000E+00  0.00000000E+00
  0.00000000E+00  0.00000000E+00  0.00000000E+00
  0.00000000E+00  0.00000000E+00  0.00000000E+00
  0.00000000E+00  0.00000000E+00  0.00000000E+00
  0.00000000E+00  0.00000000E+00  0.00000000E+00
  0.00000000E+00  0.00000000E+00  0.00000000E+00
  0.00000000E+00  0.00000000E+00  0.00000000E+00
  0.00000000E+00  0.00000000E+00  0.00000000E+00
  0.00000000E+00  0.00000000E+00  0.00000000E+00
  0.00000000E+00  0.00000000E+00  0.00000000E+00
  0.00000000E+00  0.00000000E+00  0.00000000E+00
  0.00000000E+00  0.00000000E+00  0.00000000E+00
  0.00000000E+00  0.00000000E+00  0.00000000E+00
  0.00000000E+00  0.00000000E+00  0.00000000E+00
  0.00000000E+00  0.00000000E+00  0.00000000E+00
  0.00000000E+00  0.00000000E+00  0.00000000E+00
  0.00000000E+00  0.00000000E+00  0.00000000E+00
  0.00000000E+00  0.00000000E+00  0.00000000E+00
  0.00000000E+00  0.00000000E+00  0.00000000E+00
  0.00000000E+00  0.00000000E+00  0.00000000E+00
  0.00000000E+00  0.00000000E+00  0.00000000E+00
  0.00000000E+00  0.00000000E+00  0.00000000E+00
  0.00000000E+00  0.00000000E+00  0.00000000E+00
  0.00000000E+00  0.00000000E+00  0.00000000E+00
  0.00000000E+00  0.00000000E+00  0.00000000E+00
  0.00000000E+00  0.00000000E+00  0.00000000E+00
  0.00000000E+00  0.00000000E+00  0.00000000E+00
  0.00000000E+00  0.00000000E+00  0.00000000E+00
  0.00000000E+00  0.00000000E+00  0.00000000E+00
  0.00000000E+00  0.00000000E+00  0.00000000E+00
  0.00000000E+00  0.00000000E+00  0.00000000E+00
  0.00000000E+00  0.00000000E+00  0.00000000E+00
  0.00000000E+00  0.00000000E+00  0.00000000E+00
  0.00000000E+00  0.00000000E+00  0.00000000E+00
  0.00000000E+00  0.00000000E+00  0.00000000E+00
  0.00000000E+00  0.00000000E+00  0.00000000E+00
  0.00000000E+00  0.00000000E+00  0.00000000E+00
  0.00000000E+00  0.00000000E+00  0.00000000E+00
  0.00000000E+00  0.00000000E+00  0.00000000E+00
  0.00000000E+00  0.00000000E+00  0.00000000E+00
  0.00000000E+00  0.00000000E+00  0.00000000E+00
  0.00000000E+00  0.00000000E+00  0.00000000E+00
  0.00000000E+00  0.00000000E+00  0.00000000E+00
  0.00000000E+00  0.00000000E+00  0.00000000E+00
  0.00000000E+00  0.00000000E+00  0.00000000E+00
  0.00000000E+00  0.00000000E+00  0.00000000E+00
  0.00000000E+00  0.00000000E+00  0.00000000E+00
  0.00000000E+00  0.00000000E+00  0.00000000E+00
  0.00000000E+00  0.00000000E+00  0.00000000E+00
  0.00000000E+00  0.00000000E+00  0.00000000E+00
  0.00000000E+00  0.00000000E+00  0.00000000E+00
  0.00000000E+00  0.00000000E+00  0.00000000E+00
  0.00000000E+00  0.00000000E+00  0.00000000E+00
  0.00000000E+00  0.00000000E+00  0.00000000E+00
  0.00000000E+00  0.00000000E+00  0.00000000E+00
  0.00000000E+00  0.00000000E+00  0.00000000E+00
  0.00000000E+00  0.00000000E+00  0.00000000E+00
  0.00000000E+00  0.00000000E+00  0.00000000E+00
  0.00000000E+00  0.00000000E+00  0.00000000E+00
  0.00000000E+00  0.00000000E+00  0.00000000E+00
  0.00000000E+00  0.00000000E+00  0.00000000E+00
  0.00000000E+00  0.00000000E+00  0.00000000E+00
  0.00000000E+00  0.00000000E+00  0.00000000E+00
  0.00000000E+00  0.00000000E+00  0.00000000E+00
  0.00000000E+00  0.00000000E+00  0.00000000E+00
  0.00000000E+00  0.00000000E+00  0.00000000E+00
  0.00000000E+00  0.00000000E+00  0.00000000E+00
  0.00000000E+00  0.00000000E+00  0.00000000E+00
  0.00000000E+00  0.00000000E+00  0.00000000E+00
  0.00000000E+00  0.00000000E+00  0.00000000E+00
  0.00000000E+00  0.00000000E+00  0.00000000E+00
  0.00000000E+00  0.00000000E+00  0.00000000E+00
