CeO2-you-111-you-Sc                     
   1.00000000000000     
     9.8179485597385323   -5.6683956152533419    0.0000000000000000
     0.0000000029989134   11.3367892406665067    0.0000000000000000
     0.0000000000000000    0.0000000000000000   21.2677635382006294
   O    Sc   Ce   H 
    54     1    26     1
Selective dynamics
Direct
 -0.0000400898676860 -0.0000449506413118  0.9972290044724771   T   T   T
  0.1118827989789892  0.2226078994894038  0.1504589650972363   F   F   F
  0.2355712518498784  0.1218809640595458  0.3045317230766553   T   T   T
  0.1193370403177655  0.2272382936454575  0.3776726593330266   T   T   T
  0.0021718115015683  0.0011724297657849  0.2304100309162575   T   T   T
  0.2223439623548913  0.1113549247097509  0.0763190396437992   F   F   F
  0.3331839878699277  0.0000020631329318  0.9969109571446014   T   T   T
  0.4440581005104107  0.2226078994893186  0.1504589650972363   F   F   F
  0.5511174733678234  0.1148067471767108  0.3048245270598866   T   T   T
  0.4461395297653826  0.2211836826059818  0.3971975178558611   T   T   T
  0.3321844989900513 -0.0018055919841505  0.2292347123040268   T   T   T
  0.5554270036918396  0.1112399963081145  0.0764138142298805   F   F   F
  0.6668354167908480 -0.0000060797097420  0.9969179063173333   T   T   T
  0.7777519988410333  0.2221699976820943  0.1502950142796777   F   F   F
  0.8890628919080038  0.1107577472959433  0.3039184055960522   T   T   T
  0.7773430276121590  0.2229422151199603  0.3820741163804862   T   T   T
  0.6658256063283328  0.0008305234388167  0.2300098434817053   T   T   T
  0.8891469926162969  0.1112399963081288  0.0764138142298805   F   F   F
  0.0000002007137120  0.3332031630855189  0.9969051400614967   T   T   T
  0.1112305317889053  0.5554364682113473  0.1503676104769553   F   F   F
  0.2239438568298706  0.4419225261103976  0.3016717110814184   T   T   T
  0.1124230399906000  0.5542537798565095  0.3825069720491742   T   T   T
 -0.0007115610369484  0.3324011017669249  0.2294982854968911   T   T   T
  0.2223439623549552  0.4443220376451364  0.0763190396437992   F   F   F
  0.3332781348776971  0.3331598735067781  0.9967772064685900   T   T   T
  0.4440581005105955  0.5547842010212847  0.1504589650972363   F   F   F
  0.5450166374417911  0.4316704096437525  0.3047133370947456   T   T   T
  0.4387136912956184  0.5475308996990550  0.3777658896644185   T   T   T
  0.3321986140500249  0.3348173618474774  0.2299451079382059   T   T   T
  0.5553120752901677  0.4443220376451080  0.0763190396437992   F   F   F
  0.6668391205253937  0.3333172609395208  0.9970374730190995   T   T   T
  0.7775389364223599  0.5554364682112691  0.1503676104769553   F   F   F
  0.8906284512955426  0.4457526468576258  0.3035898139714988   T   T   T
  0.7761262699287841  0.5534506707777901  0.3821685731352423   T   T   T
  0.6685504860111317  0.3340858511690281  0.2293509149497455   T   T   T
  0.8887958459559826  0.4442576919119787  0.0763768594337861   F   F   F
 -0.0000067660317020  0.6667966901566221  0.9970412957495411   T   T   T
  0.1112305317887348  0.8891280635773882  0.1503676104769553   F   F   F
  0.2215808895330476  0.7763015902477870  0.3036432789669282   T   T   T
  0.1133183865183146  0.8904639200135445  0.3821261363754931   T   T   T
 -0.0002310566325953  0.6670747761095374  0.2294557498551520   T   T   T
  0.2224083080880916  0.7778711540440142  0.0763768594337861   F   F   F
  0.3334832452312899  0.6669064758184222  0.9970313622669777   T   T   T
  0.4444960023179618  0.8889150011589635  0.1502950142796777   F   F   F
  0.5562231947567293  0.7778399196041754  0.3038280935790986   T   T   T
  0.4444437493590573  0.8892124022161252  0.3825632341762182   T   T   T
  0.3345904657819758  0.6673099394050990  0.2297722165655561   T   T   T
  0.5554270036918751  0.7775200073837567  0.0764138142298805   F   F   F
  0.6668229357910823  0.6668341580949046  0.9969209274361411   T   T   T
  0.7777519988409978  0.8889150011589422  0.1502950142796777   F   F   F
  0.8891513841381040  0.7777369018238690  0.3041252575801594   T   T   T
  0.7769893704994867  0.8892630999135170  0.3823837876749783   T   T   T
  0.6654289461655311  0.6641245397912338  0.2305083481157071   T   T   T
  0.8887958459559329  0.7778711540440000  0.0763768594337861   F   F   F
  0.3248584703782825  0.3415356774219901  0.3305324697567625   T   T   T
  0.0049336680885050  0.0051865535947610  0.3428408636684658   T   T   T
  0.2227518727819913  0.1121707455641499  0.1905957523796289   F   F   F
  0.1113846671731054  0.2223588335865614  0.0368637993280032   F   F   F
  0.3301526220826423 -0.0037120098435141  0.3419447375688771   T   T   T
  0.5552632356216307  0.1114037643787356  0.1897413825094816   F   F   F
  0.4443071664134521  0.2223588335865685  0.0368637993280032   F   F   F
  0.6668871968924098 -0.0004350678375215  0.3436253962656400   T   T   T
  0.8894745287569847  0.1114037643786219  0.1897413825094816   F   F   F
  0.7778858967408198  0.2224377934816175  0.0366377042545309   F   F   F
  0.0034524797802033  0.3325229636865711  0.3431590639895348   T   T   T
  0.2227518727816147  0.4439141272178375  0.1905957523796289   F   F   F
  0.1111534458302259  0.5555135541697211  0.0369779174785876   F   F   F
  0.5544962544364012  0.4439141272180080  0.1905957523796289   F   F   F
  0.4443071664134379  0.5552823328268843  0.0368637993280032   F   F   F
  0.6703179928952887  0.3366413675018069  0.3419104600576564   T   T   T
  0.8888696459091889  0.4444052918183061  0.1899823754872045   F   F   F
  0.7776931083395127  0.5555135541697354  0.0369779174785876   F   F   F
  0.0001454240403739  0.6665787252557726  0.3425282155794715   T   T   T
  0.2222607081814374  0.7777973540908079  0.1899823754872045   F   F   F
  0.1111534458302685  0.8889738916605481  0.0369779174785876   F   F   F
  0.3342558672278752  0.6632143423461853  0.3432825976374854   T   T   T
  0.5552632356213820  0.7771924712426497  0.1897413825094816   F   F   F
  0.4442282065183107  0.8887811032591770  0.0366377042545309   F   F   F
  0.6614728647186026  0.6618033764244746  0.3428998024710977   T   T   T
  0.8888696459093666  0.7777973540908860  0.1899823754872045   F   F   F
  0.7778858967408624  0.8887811032591983  0.0366377042545309   F   F   F
  0.4370097256141408  0.2291791639863185  0.4422442852873838   T   T   T
 
  0.00000000E+00  0.00000000E+00  0.00000000E+00
  0.00000000E+00  0.00000000E+00  0.00000000E+00
  0.00000000E+00  0.00000000E+00  0.00000000E+00
  0.00000000E+00  0.00000000E+00  0.00000000E+00
  0.00000000E+00  0.00000000E+00  0.00000000E+00
  0.00000000E+00  0.00000000E+00  0.00000000E+00
  0.00000000E+00  0.00000000E+00  0.00000000E+00
  0.00000000E+00  0.00000000E+00  0.00000000E+00
  0.00000000E+00  0.00000000E+00  0.00000000E+00
  0.00000000E+00  0.00000000E+00  0.00000000E+00
  0.00000000E+00  0.00000000E+00  0.00000000E+00
  0.00000000E+00  0.00000000E+00  0.00000000E+00
  0.00000000E+00  0.00000000E+00  0.00000000E+00
  0.00000000E+00  0.00000000E+00  0.00000000E+00
  0.00000000E+00  0.00000000E+00  0.00000000E+00
  0.00000000E+00  0.00000000E+00  0.00000000E+00
  0.00000000E+00  0.00000000E+00  0.00000000E+00
  0.00000000E+00  0.00000000E+00  0.00000000E+00
  0.00000000E+00  0.00000000E+00  0.00000000E+00
  0.00000000E+00  0.00000000E+00  0.00000000E+00
  0.00000000E+00  0.00000000E+00  0.00000000E+00
  0.00000000E+00  0.00000000E+00  0.00000000E+00
  0.00000000E+00  0.00000000E+00  0.00000000E+00
  0.00000000E+00  0.00000000E+00  0.00000000E+00
  0.00000000E+00  0.00000000E+00  0.00000000E+00
  0.00000000E+00  0.00000000E+00  0.00000000E+00
  0.00000000E+00  0.00000000E+00  0.00000000E+00
  0.00000000E+00  0.00000000E+00  0.00000000E+00
  0.00000000E+00  0.00000000E+00  0.00000000E+00
  0.00000000E+00  0.00000000E+00  0.00000000E+00
  0.00000000E+00  0.00000000E+00  0.00000000E+00
  0.00000000E+00  0.00000000E+00  0.00000000E+00
  0.00000000E+00  0.00000000E+00  0.00000000E+00
  0.00000000E+00  0.00000000E+00  0.00000000E+00
  0.00000000E+00  0.00000000E+00  0.00000000E+00
  0.00000000E+00  0.00000000E+00  0.00000000E+00
  0.00000000E+00  0.00000000E+00  0.00000000E+00
  0.00000000E+00  0.00000000E+00  0.00000000E+00
  0.00000000E+00  0.00000000E+00  0.00000000E+00
  0.00000000E+00  0.00000000E+00  0.00000000E+00
  0.00000000E+00  0.00000000E+00  0.00000000E+00
  0.00000000E+00  0.00000000E+00  0.00000000E+00
  0.00000000E+00  0.00000000E+00  0.00000000E+00
  0.00000000E+00  0.00000000E+00  0.00000000E+00
  0.00000000E+00  0.00000000E+00  0.00000000E+00
  0.00000000E+00  0.00000000E+00  0.00000000E+00
  0.00000000E+00  0.00000000E+00  0.00000000E+00
  0.00000000E+00  0.00000000E+00  0.00000000E+00
  0.00000000E+00  0.00000000E+00  0.00000000E+00
  0.00000000E+00  0.00000000E+00  0.00000000E+00
  0.00000000E+00  0.00000000E+00  0.00000000E+00
  0.00000000E+00  0.00000000E+00  0.00000000E+00
  0.00000000E+00  0.00000000E+00  0.00000000E+00
  0.00000000E+00  0.00000000E+00  0.00000000E+00
  0.00000000E+00  0.00000000E+00  0.00000000E+00
  0.00000000E+00  0.00000000E+00  0.00000000E+00
  0.00000000E+00  0.00000000E+00  0.00000000E+00
  0.00000000E+00  0.00000000E+00  0.00000000E+00
  0.00000000E+00  0.00000000E+00  0.00000000E+00
  0.00000000E+00  0.00000000E+00  0.00000000E+00
  0.00000000E+00  0.00000000E+00  0.00000000E+00
  0.00000000E+00  0.00000000E+00  0.00000000E+00
  0.00000000E+00  0.00000000E+00  0.00000000E+00
  0.00000000E+00  0.00000000E+00  0.00000000E+00
  0.00000000E+00  0.00000000E+00  0.00000000E+00
  0.00000000E+00  0.00000000E+00  0.00000000E+00
  0.00000000E+00  0.00000000E+00  0.00000000E+00
  0.00000000E+00  0.00000000E+00  0.00000000E+00
  0.00000000E+00  0.00000000E+00  0.00000000E+00
  0.00000000E+00  0.00000000E+00  0.00000000E+00
  0.00000000E+00  0.00000000E+00  0.00000000E+00
  0.00000000E+00  0.00000000E+00  0.00000000E+00
  0.00000000E+00  0.00000000E+00  0.00000000E+00
  0.00000000E+00  0.00000000E+00  0.00000000E+00
  0.00000000E+00  0.00000000E+00  0.00000000E+00
  0.00000000E+00  0.00000000E+00  0.00000000E+00
  0.00000000E+00  0.00000000E+00  0.00000000E+00
  0.00000000E+00  0.00000000E+00  0.00000000E+00
  0.00000000E+00  0.00000000E+00  0.00000000E+00
  0.00000000E+00  0.00000000E+00  0.00000000E+00
  0.00000000E+00  0.00000000E+00  0.00000000E+00
  0.00000000E+00  0.00000000E+00  0.00000000E+00
