CeO2-you-111-you-Ti                     
   1.00000000000000     
     9.8040322899416275   -5.6603610484190874    0.0000000011997966
     0.0430183905107126   11.3952301378587642    0.0231724018578684
     0.0248657510310825    0.0430687369243788   21.0614675456251419
   O    Ti   Ce
    53     1    26
Selective dynamics
Direct
 -0.0017801580266477 -0.0002217072865758  0.9960568735020821   T   T   T
  0.1112865606943467  0.2226981386548172  0.1486795548592383   T   T   T
  0.2218900921212716  0.1104471842459255  0.2967376845405393   T   T   T
  0.1382435177917765  0.2229501668250025  0.3753408757877142   T   T   T
 -0.0016135086837209 -0.0018276312132465  0.2278644562508660   T   T   T
  0.2215646423184172  0.1097962846368131  0.0727238651171084   T   T   T
  0.3348914507400650 -0.0002217072866519  0.9960568735020814   T   T   T
  0.4447445779600206  0.2226981386542883  0.1486795548592265   T   T   T
  0.5557218244129543  0.1169093775318935  0.3044471751935172   T   T   T
  0.4180396490337900  0.2229501668300080  0.3753408757881968   T   T   T
  0.3331188774705864 -0.0018276312137764  0.2278644562508887   T   T   T
  0.5579620876225544  0.1117599049488536  0.0759622435587031   T   T   T
  0.6665279394264707 -0.0002781211470290  0.9959418164831645   T   T   T
  0.7796826048149674  0.2260312096299942  0.1528933463000174   T   T   T
  0.8945215531192404  0.1169093775323563  0.3044471751935079   T   T   T
  0.7796077925008235  0.2258815850015281  0.3831412975344661   T   T   T
  0.6677994885706193  0.0022649771409322  0.2312594174480817   T   T   T
  0.8871318173263540  0.1117599049489543  0.0759622435586808   T   T   T
  0.0009675472464768  0.3333684900574387  0.9959661092971331   T   T   T
  0.1104490249428649  0.5544158001275764  0.1499372173050700   T   T   T
  0.2531537147248389  0.4403877621555991  0.3116287049346427   T   T   T
  0.0988456044387637  0.5443973828982045  0.3834631319316547   T   T   T
  0.0104769748155199  0.3386033071037494  0.2323102452894056   T   T   T
  0.2234290314735590  0.4450907025974139  0.0760169184520911   T   T   T
  0.3334234076635854  0.3335138153272788  0.9958918101186799   T   T   T
  0.4443335996581009  0.5553351993165786  0.1522358902035089   T   T   T
  0.5205680474347043  0.4403877621643144  0.3116287049353943   T   T   T
  0.3275714452971563  0.3218098905956514  0.2294334625203281   T   T   T
  0.5549956711237731  0.4450907025973861  0.0760169184520942   T   T   T
  0.6657349428108661  0.3333684900573773  0.9959661092971299   T   T   T
  0.7772997751846670  0.5544158001274401  0.1499372173050606   T   T   T
  0.8873738428082818  0.4414136856163987  0.3019385369740754   T   T   T
  0.7788847784592343  0.5443973828986798  0.3834631319315683   T   T   T
  0.6614603322881583  0.3386033071037592  0.2323102452894031   T   T   T
  0.8887377165200183  0.4441414330399897  0.0750403469760484   T   T   T
  0.0003605205525530  0.6673880411050134  0.9957369552108462   T   T   T
  0.1102438386743570  0.8871546773482273  0.1475979216302020   T   T   T
  0.2189304036920240  0.7795823614185998  0.3038757363774842   T   T   T
  0.1120624519955574  0.8907919039904462  0.3836726403850580   T   T   T
 -0.0002404922143683  0.6661860155710967  0.2289823584532700   T   T   T
  0.2231626868529007  0.7772888116854207  0.0751013376723807   T   T   T
  0.3339109017745592  0.6664735915851837  0.9959626804611699   T   T   T
  0.4469778217416500  0.8901312101248197  0.1507420093655017   T   T   T
  0.5567914074809248  0.7802488149606075  0.3071881320578771   T   T   T
  0.4499584494117441  0.9053441080615574  0.3867428976184130   T   T   T
  0.3303540727006447  0.6651619705158318  0.2288868453407396   T   T   T
  0.5548036479830645  0.7762732959661202  0.0763467162636337   T   T   T
  0.6658956898106286  0.6664735915852071  0.9959626804611698   T   T   T
  0.7764863883834501  0.8901312101250375  0.1507420093654794   T   T   T
  0.8939849577293568  0.7795823614213058  0.3038757363775491   T   T   T
  0.7887186586515390  0.9053441080625608  0.3867428976184076   T   T   T
  0.6681408978151548  0.6651619705161707  0.2288868453407334   T   T   T
  0.8874591248326462  0.7772888116854831  0.0751013376723858   T   T   T
  0.3148720438844661  0.2964110877610104  0.3250521688691240   T   T   T
  0.0022879984539406  0.0009500095744792  0.3440467887954937   T   T   T
  0.2198367134346182  0.1063404268696069  0.1850444598486631   T   T   T
  0.1109254824283198  0.2231925842443912  0.0352411118878867   T   T   T
  0.3319950111210042  0.0009500095769805  0.3440467887954246   T   T   T
  0.5550186791460646  0.1117966468499487  0.1906022654831823   T   T   T
  0.4456001018162221  0.2231925842445986  0.0352411118878968   T   T   T
  0.6689290239790552  0.0045240479598033  0.3461264983220212   T   T   T
  0.8901119677035396  0.1117966468491895  0.1906022654832348   T   T   T
  0.7781961731304772  0.2230583462608526  0.0363517225446680   T   T   T
  0.0066587879414032  0.3341729614998054  0.3436929589468150   T   T   T
  0.2252233317537592  0.4449769372704870  0.1915239688870445   T   T   T
  0.1120357749418033  0.5557370265986130  0.0362004293644448   T   T   T
  0.5530876055182745  0.4449769372716033  0.1915239688870902   T   T   T
  0.4446934219580417  0.5560548439160007  0.0360849320718820   T   T   T
  0.6608481735590016  0.3341729614996599  0.3436929589468065   T   T   T
  0.8897215130342792  0.4461090260686376  0.1906724051494388   T   T   T
  0.7770342516568216  0.5557370265986709  0.0362004293644393   T   T   T
 -0.0021388212101210  0.6623893575808774  0.3431128374122060   T   T   T
  0.2224029258480849  0.7771271168917701  0.1890106969936853   T   T   T
  0.1105883807945938  0.8878437615893104  0.0339893220358041   T   T   T
  0.3293432656207176  0.6725725228771279  0.3439094954309098   T   T   T
  0.5562425390684524  0.7791510781370528  0.1927283223422777   T   T   T
  0.4456438414666605  0.8890415121516365  0.0361633376060060   T   T   T
  0.6765622572498998  0.6725725228672207  0.3439094954302475   T   T   T
  0.8880571910428855  0.7771271168915848  0.1890106969937579   T   T   T
  0.7767306706848917  0.8890415121514660  0.0361633376059858   T   T   T
 
  0.00000000E+00  0.00000000E+00  0.00000000E+00
  0.00000000E+00  0.00000000E+00  0.00000000E+00
  0.00000000E+00  0.00000000E+00  0.00000000E+00
  0.00000000E+00  0.00000000E+00  0.00000000E+00
  0.00000000E+00  0.00000000E+00  0.00000000E+00
  0.00000000E+00  0.00000000E+00  0.00000000E+00
  0.00000000E+00  0.00000000E+00  0.00000000E+00
  0.00000000E+00  0.00000000E+00  0.00000000E+00
  0.00000000E+00  0.00000000E+00  0.00000000E+00
  0.00000000E+00  0.00000000E+00  0.00000000E+00
  0.00000000E+00  0.00000000E+00  0.00000000E+00
  0.00000000E+00  0.00000000E+00  0.00000000E+00
  0.00000000E+00  0.00000000E+00  0.00000000E+00
  0.00000000E+00  0.00000000E+00  0.00000000E+00
  0.00000000E+00  0.00000000E+00  0.00000000E+00
  0.00000000E+00  0.00000000E+00  0.00000000E+00
  0.00000000E+00  0.00000000E+00  0.00000000E+00
  0.00000000E+00  0.00000000E+00  0.00000000E+00
  0.00000000E+00  0.00000000E+00  0.00000000E+00
  0.00000000E+00  0.00000000E+00  0.00000000E+00
  0.00000000E+00  0.00000000E+00  0.00000000E+00
  0.00000000E+00  0.00000000E+00  0.00000000E+00
  0.00000000E+00  0.00000000E+00  0.00000000E+00
  0.00000000E+00  0.00000000E+00  0.00000000E+00
  0.00000000E+00  0.00000000E+00  0.00000000E+00
  0.00000000E+00  0.00000000E+00  0.00000000E+00
  0.00000000E+00  0.00000000E+00  0.00000000E+00
  0.00000000E+00  0.00000000E+00  0.00000000E+00
  0.00000000E+00  0.00000000E+00  0.00000000E+00
  0.00000000E+00  0.00000000E+00  0.00000000E+00
  0.00000000E+00  0.00000000E+00  0.00000000E+00
  0.00000000E+00  0.00000000E+00  0.00000000E+00
  0.00000000E+00  0.00000000E+00  0.00000000E+00
  0.00000000E+00  0.00000000E+00  0.00000000E+00
  0.00000000E+00  0.00000000E+00  0.00000000E+00
  0.00000000E+00  0.00000000E+00  0.00000000E+00
  0.00000000E+00  0.00000000E+00  0.00000000E+00
  0.00000000E+00  0.00000000E+00  0.00000000E+00
  0.00000000E+00  0.00000000E+00  0.00000000E+00
  0.00000000E+00  0.00000000E+00  0.00000000E+00
  0.00000000E+00  0.00000000E+00  0.00000000E+00
  0.00000000E+00  0.00000000E+00  0.00000000E+00
  0.00000000E+00  0.00000000E+00  0.00000000E+00
  0.00000000E+00  0.00000000E+00  0.00000000E+00
  0.00000000E+00  0.00000000E+00  0.00000000E+00
  0.00000000E+00  0.00000000E+00  0.00000000E+00
  0.00000000E+00  0.00000000E+00  0.00000000E+00
  0.00000000E+00  0.00000000E+00  0.00000000E+00
  0.00000000E+00  0.00000000E+00  0.00000000E+00
  0.00000000E+00  0.00000000E+00  0.00000000E+00
  0.00000000E+00  0.00000000E+00  0.00000000E+00
  0.00000000E+00  0.00000000E+00  0.00000000E+00
  0.00000000E+00  0.00000000E+00  0.00000000E+00
  0.00000000E+00  0.00000000E+00  0.00000000E+00
  0.00000000E+00  0.00000000E+00  0.00000000E+00
  0.00000000E+00  0.00000000E+00  0.00000000E+00
  0.00000000E+00  0.00000000E+00  0.00000000E+00
  0.00000000E+00  0.00000000E+00  0.00000000E+00
  0.00000000E+00  0.00000000E+00  0.00000000E+00
  0.00000000E+00  0.00000000E+00  0.00000000E+00
  0.00000000E+00  0.00000000E+00  0.00000000E+00
  0.00000000E+00  0.00000000E+00  0.00000000E+00
  0.00000000E+00  0.00000000E+00  0.00000000E+00
  0.00000000E+00  0.00000000E+00  0.00000000E+00
  0.00000000E+00  0.00000000E+00  0.00000000E+00
  0.00000000E+00  0.00000000E+00  0.00000000E+00
  0.00000000E+00  0.00000000E+00  0.00000000E+00
  0.00000000E+00  0.00000000E+00  0.00000000E+00
  0.00000000E+00  0.00000000E+00  0.00000000E+00
  0.00000000E+00  0.00000000E+00  0.00000000E+00
  0.00000000E+00  0.00000000E+00  0.00000000E+00
  0.00000000E+00  0.00000000E+00  0.00000000E+00
  0.00000000E+00  0.00000000E+00  0.00000000E+00
  0.00000000E+00  0.00000000E+00  0.00000000E+00
  0.00000000E+00  0.00000000E+00  0.00000000E+00
  0.00000000E+00  0.00000000E+00  0.00000000E+00
  0.00000000E+00  0.00000000E+00  0.00000000E+00
  0.00000000E+00  0.00000000E+00  0.00000000E+00
  0.00000000E+00  0.00000000E+00  0.00000000E+00
  0.00000000E+00  0.00000000E+00  0.00000000E+00
