CeO2-you-111-you-Cd                     
   1.00000000000000     
     9.8357034854278265   -5.6881016909493534    0.0061944160380808
     0.0000000010299278   11.3762013816842167   -0.0000000007226126
     0.0128798806111637   -0.0000000012878579   21.1702882241084396
   O    Cd   Ce   H 
    53     1    26     2
Selective dynamics
Direct
  0.9993247873195464  0.0008094449148237  0.9972252616190401   T   T   T
  0.1142990818640897  0.2238160409317587  0.1513985569245335   F   F   F
  0.2151709807146826  0.1152622489690432  0.3061703322749788   T   T   T
  0.1018493828665506  0.2204787453361620  0.4037181462124053   T   T   T
 -0.0003952955134696 -0.0001690311999137  0.2284561882630944   T   T   T
  0.2223784295824984  0.1107647017386952  0.0757375080496061   F   F   F
  0.3326581034124622 -0.0002293502504779  0.9958137873281134   T   T   T
  0.4459540781624369  0.2202057996233506  0.1470105110612465   F   F   F
  0.5585081019805775  0.1077974423987934  0.3046417789187305   T   T   T
  0.4456333724188712  0.2409296025711209  0.3971554048618247   T   T   T
  0.3325869748678170  0.0014369294043376  0.2286639684039684   T   T   T
  0.5557407409141035  0.1096091559699843  0.0746483766922807   F   F   F
  0.6695254250518616  0.0013645335710335  0.9960951324035350   T   T   T
  0.7747656490974038  0.2264770519235242  0.1520916436141704   F   F   F
  0.8986218387666886  0.1152006028596800  0.3055761412688826   T   T   T
  0.7873338959208352  0.2208648303331269  0.3870836419439042   T   T   T
  0.6701925728737632  0.0018074726990684  0.2285282128823120   T   T   T
  0.8875219940396235  0.1104274970197636  0.0785916047172037   F   F   F
  0.9993103188046689  0.3312876675626700  0.9973177546394814   T   T   T
  0.1106721922689928  0.5559551059973060  0.1513354158539855   F   F   F
  0.2145114417513856  0.4414143949927067  0.3040840546378557   T   T   T
  0.1127045321817802  0.5564845479136905  0.3860276584081008   T   T   T
  0.9981374458039447  0.3318536720605820  0.2283662526010553   T   T   T
  0.2223784295823918  0.4449467278438206  0.0757375080496274   F   F   F
  0.3307863595983355  0.3322564185853371  0.9958274390741402   T   T   T
  0.4459540781606748  0.5590822785398046  0.1470105110611613   F   F   F
  0.4584155490712780  0.5532406076919698  0.3756538337906097   T   T   T
  0.3478192028651674  0.3413848346823275  0.2289304589856386   T   T   T
  0.5546857017417395  0.4440088508711497  0.0724277412097294   F   F   F
  0.6680608127818344  0.3325337141293249  0.9958143251483982   T   T   T
  0.7780761851303239  0.5557050925644802  0.1479702859550329   F   F   F
  0.8969331553386455  0.4478947972967014  0.3036971867528876   T   T   T
  0.7713014994656221  0.5620732926475069  0.3791918151508666   T   T   T
  0.6572535358632481  0.3427647560592305  0.2337329119434704   T   T   T
  0.8895355119580799  0.4448513040042457  0.0758718377276324   F   F   F
  0.0002798807931967  0.6669669208033435  0.9963266564873436   T   T   T
  0.1106721922685736  0.8880510862706430  0.1513354158539713   F   F   F
  0.2198681364621155  0.7708972629130867  0.3035995607902517   T   T   T
  0.0963574362698369  0.8789333774132915  0.3863235437183739   T   T   T
  0.9980842474416903  0.6669896953970419  0.2295062320819266   T   T   T
  0.2226820832502554  0.7780080416250712  0.0757031558823584   F   F   F
  0.3321720146046320  0.6665507583151877  0.9958484844394425   T   T   T
  0.4446285942404558  0.8889812971203952  0.1499829171651186   F   F   F
  0.5607733999993347  0.7834272627463864  0.3023383140240681   T   T   T
  0.4506023340663178  0.8773565889271313  0.3862437519494148   T   T   T
  0.3358117604402613  0.6658548611172919  0.2295701358638093   T   T   T
  0.5557407409140609  0.7794645849443143  0.0746483766922452   F   F   F
  0.6677143402812196  0.6685372711997783  0.9958481888205416   T   T   T
  0.7747656490968637  0.8816215971736554  0.1520916436142201   F   F   F
  0.8902182223467199  0.7823657027227303  0.3024401018839280   T   T   T
  0.7805360509464346  0.8918147727149476  0.3859058868147633   T   T   T
  0.6564894750687352  0.6466991092540259  0.2353865535094964   T   T   T
  0.8895355119578525  0.7780172079535674  0.0758718377275969   F   F   F
  0.3229198507054891  0.3329014412683867  0.3456207240305609   T   T   T
  0.0015156289606999 -0.0030906107717316  0.3429759590765386   T   T   T
  0.2240953445631675  0.1135528648968887  0.1918707516644531   F   F   F
  0.1113667149744799  0.2223498574871883  0.0375235564572449   F   F   F
  0.3299751527082732 -0.0052747356253800  0.3458462493978654   T   T   T
  0.5551575192555802  0.1112926187836720  0.1897761569568814   F   F   F
  0.4433507075312377  0.2202331086991478  0.0342194803417897   F   F   F
  0.6675230002019408  0.0008838223252200  0.3442034430915279   T   T   T
  0.8889459566310691  0.1111394783163391  0.1907156238627294   F   F   F
  0.7780652944364164  0.2224701321304536  0.0366317457003831   F   F   F
  0.0014929128290499  0.3390997835992624  0.3436093230948921   T   T   T
  0.2240953445632314  0.4438754796654010  0.1918707516644105   F   F   F
  0.1108701837015644  0.5548944118492898  0.0373213877093121   F   F   F
  0.5525863222372251  0.4429591611164554  0.1816837149320421   F   F   F
  0.4433507075311880  0.5564515988317424  0.0342194803418181   F   F   F
  0.6756681052585214  0.3299308658245736  0.3481681513327273   T   T   T
  0.8881402714263231  0.4448953255962138  0.1910888469118106   F   F   F
  0.7798682747678214  0.5566011373838649  0.0347756779738333   F   F   F
  0.0006202676538811  0.6679196203924922  0.3434884653994158   T   T   T
  0.2225488218380107  0.7779414109195741  0.1892106056537557   F   F   F
  0.1108701837014152  0.8893097718526874  0.0373213877093121   F   F   F
  0.3354988527850177  0.6654184593314060  0.3433076039860832   T   T   T
  0.5551575192582021  0.7771979004713145  0.1897761569569099   F   F   F
  0.4454375734375162  0.8893857867185773  0.0359071572993059   F   F   F
  0.6721537058657426  0.6792986184415154  0.3463540062107986   T   T   T
  0.8881402714288527  0.7765779458348305  0.1910888469117964   F   F   F
  0.7780652944368427  0.8889281623061649  0.0366317457003973   F   F   F
  0.1067665626525871  0.2242914766702197  0.4495863413213935   T   T   T
  0.4417893196922448  0.2634886362346844  0.4411812022696409   T   T   T
 
  0.00000000E+00  0.00000000E+00  0.00000000E+00
  0.00000000E+00  0.00000000E+00  0.00000000E+00
  0.00000000E+00  0.00000000E+00  0.00000000E+00
  0.00000000E+00  0.00000000E+00  0.00000000E+00
  0.00000000E+00  0.00000000E+00  0.00000000E+00
  0.00000000E+00  0.00000000E+00  0.00000000E+00
  0.00000000E+00  0.00000000E+00  0.00000000E+00
  0.00000000E+00  0.00000000E+00  0.00000000E+00
  0.00000000E+00  0.00000000E+00  0.00000000E+00
  0.00000000E+00  0.00000000E+00  0.00000000E+00
  0.00000000E+00  0.00000000E+00  0.00000000E+00
  0.00000000E+00  0.00000000E+00  0.00000000E+00
  0.00000000E+00  0.00000000E+00  0.00000000E+00
  0.00000000E+00  0.00000000E+00  0.00000000E+00
  0.00000000E+00  0.00000000E+00  0.00000000E+00
  0.00000000E+00  0.00000000E+00  0.00000000E+00
  0.00000000E+00  0.00000000E+00  0.00000000E+00
  0.00000000E+00  0.00000000E+00  0.00000000E+00
  0.00000000E+00  0.00000000E+00  0.00000000E+00
  0.00000000E+00  0.00000000E+00  0.00000000E+00
  0.00000000E+00  0.00000000E+00  0.00000000E+00
  0.00000000E+00  0.00000000E+00  0.00000000E+00
  0.00000000E+00  0.00000000E+00  0.00000000E+00
  0.00000000E+00  0.00000000E+00  0.00000000E+00
  0.00000000E+00  0.00000000E+00  0.00000000E+00
  0.00000000E+00  0.00000000E+00  0.00000000E+00
  0.00000000E+00  0.00000000E+00  0.00000000E+00
  0.00000000E+00  0.00000000E+00  0.00000000E+00
  0.00000000E+00  0.00000000E+00  0.00000000E+00
  0.00000000E+00  0.00000000E+00  0.00000000E+00
  0.00000000E+00  0.00000000E+00  0.00000000E+00
  0.00000000E+00  0.00000000E+00  0.00000000E+00
  0.00000000E+00  0.00000000E+00  0.00000000E+00
  0.00000000E+00  0.00000000E+00  0.00000000E+00
  0.00000000E+00  0.00000000E+00  0.00000000E+00
  0.00000000E+00  0.00000000E+00  0.00000000E+00
  0.00000000E+00  0.00000000E+00  0.00000000E+00
  0.00000000E+00  0.00000000E+00  0.00000000E+00
  0.00000000E+00  0.00000000E+00  0.00000000E+00
  0.00000000E+00  0.00000000E+00  0.00000000E+00
  0.00000000E+00  0.00000000E+00  0.00000000E+00
  0.00000000E+00  0.00000000E+00  0.00000000E+00
  0.00000000E+00  0.00000000E+00  0.00000000E+00
  0.00000000E+00  0.00000000E+00  0.00000000E+00
  0.00000000E+00  0.00000000E+00  0.00000000E+00
  0.00000000E+00  0.00000000E+00  0.00000000E+00
  0.00000000E+00  0.00000000E+00  0.00000000E+00
  0.00000000E+00  0.00000000E+00  0.00000000E+00
  0.00000000E+00  0.00000000E+00  0.00000000E+00
  0.00000000E+00  0.00000000E+00  0.00000000E+00
  0.00000000E+00  0.00000000E+00  0.00000000E+00
  0.00000000E+00  0.00000000E+00  0.00000000E+00
  0.00000000E+00  0.00000000E+00  0.00000000E+00
  0.00000000E+00  0.00000000E+00  0.00000000E+00
  0.00000000E+00  0.00000000E+00  0.00000000E+00
  0.00000000E+00  0.00000000E+00  0.00000000E+00
  0.00000000E+00  0.00000000E+00  0.00000000E+00
  0.00000000E+00  0.00000000E+00  0.00000000E+00
  0.00000000E+00  0.00000000E+00  0.00000000E+00
  0.00000000E+00  0.00000000E+00  0.00000000E+00
  0.00000000E+00  0.00000000E+00  0.00000000E+00
  0.00000000E+00  0.00000000E+00  0.00000000E+00
  0.00000000E+00  0.00000000E+00  0.00000000E+00
  0.00000000E+00  0.00000000E+00  0.00000000E+00
  0.00000000E+00  0.00000000E+00  0.00000000E+00
  0.00000000E+00  0.00000000E+00  0.00000000E+00
  0.00000000E+00  0.00000000E+00  0.00000000E+00
  0.00000000E+00  0.00000000E+00  0.00000000E+00
  0.00000000E+00  0.00000000E+00  0.00000000E+00
  0.00000000E+00  0.00000000E+00  0.00000000E+00
  0.00000000E+00  0.00000000E+00  0.00000000E+00
  0.00000000E+00  0.00000000E+00  0.00000000E+00
  0.00000000E+00  0.00000000E+00  0.00000000E+00
  0.00000000E+00  0.00000000E+00  0.00000000E+00
  0.00000000E+00  0.00000000E+00  0.00000000E+00
  0.00000000E+00  0.00000000E+00  0.00000000E+00
  0.00000000E+00  0.00000000E+00  0.00000000E+00
  0.00000000E+00  0.00000000E+00  0.00000000E+00
  0.00000000E+00  0.00000000E+00  0.00000000E+00
  0.00000000E+00  0.00000000E+00  0.00000000E+00
  0.00000000E+00  0.00000000E+00  0.00000000E+00
  0.00000000E+00  0.00000000E+00  0.00000000E+00
