CeO2-you-111-you-Ca                     
   1.00000000000000     
     9.8514133484285260   -5.6805637473543014    0.0071891768441111
     0.0061944800385027   11.3718546488748196   -0.0071891756121677
     0.0078019002788867   -0.0135132869020937   20.4113414082253755
   O    Ca   Ce   H 
    53     1    26     1
Selective dynamics
Direct
  0.0001701437449387  0.9995756299492639  0.9887873799617704   T   T   T
  0.1084427737638325  0.2194876687800442  0.1450282240832809   T   T   T
  0.2187675402331604  0.1090684308736088  0.3072479315772396   T   T   T
  0.1058428017954817  0.2324957626491564  0.3832045575719599   T   T   T
  0.9983916180123594  0.0004154519065837  0.2302286940436273   T   T   T
  0.2224208500222959  0.1101574944176929  0.0709967768018539   T   T   T
  0.3354463706173402  0.0005631137142009  0.9895756394138157   T   T   T
  0.4419903306611477  0.2241076308902410  0.1507518246303977   T   T   T
  0.5595028430354012  0.1195178025860357  0.3091723376037608   T   T   T
  0.4524678652494474  0.2306430824686051  0.4095803043212721   T   T   T
  0.3342938432143315 -0.0019683209626936  0.2287924953983267   T   T   T
  0.5559773407376153  0.1104937633716152  0.0740420612802923   T   T   T
  0.6657628916283073  0.0010413326724514  0.9887252909526763   T   T   T
  0.7852350381423401  0.2258209144054801  0.1498647347170949   T   T   T
  0.8815840039025453  0.1076483701626968  0.3063984410377103   T   T   T
  0.7765337180474350  0.2236228024638309  0.3932295750983476   T   T   T
  0.6647767113153967  0.0016239143464215  0.2291857833716515   T   T   T
  0.8876159400592120  0.1092486819508267  0.0702483580180610   T   T   T
  0.9987236961249392  0.3319411795500010  0.9882176504968940   T   T   T
  0.1110988020409911  0.5555796161051049  0.1454944994834244   T   T   T
  0.1216946000048017  0.5442771290417591  0.3825066630083183   T   T   T
  0.0194119497893347  0.3418619037050220  0.2362668722350196   T   T   T
  0.2228402805383056  0.4441200258156509  0.0672327737775736   T   T   T
  0.3344692722440898  0.3317675778269493  0.9879578271337093   T   T   T
  0.4471457634167723  0.5583442795985258  0.1441926334507548   T   T   T
  0.5598618521082954  0.4403151548490589  0.3076967487788382   T   T   T
  0.4374224672551226  0.5609605475103507  0.3820972373921476   T   T   T
  0.3269732301198511  0.3432973228901279  0.2310318547688940   T   T   T
  0.5559546842066878  0.4436312189617690  0.0704377741603674   T   T   T
  0.6662004886260787  0.3312662273376750  0.9894857515605070   T   T   T
  0.7780799293712171  0.5555301287255010  0.1482588033337224   T   T   T
  0.8875350989833216  0.4438320476277818  0.3075115134654313   T   T   T
  0.7798931003835023  0.5580776122730975  0.3900705045009704   T   T   T
  0.6694149055349207  0.3341715671077986  0.2285547422607475   T   T   T
  0.8888388855075894  0.4444664554105367  0.0703587498104996   T   T   T
  0.0000574477823182  0.6669399608961861  0.9884677343817487   T   T   T
  0.1103031471813154  0.8883071332305458  0.1496223998687019   T   T   T
  0.2195888933952033  0.7747326209532094  0.3082195718102154   T   T   T
  0.0928756659803374  0.8785218676342642  0.3922534659522124   T   T   T
 -0.0001759719958375  0.6648630934862242  0.2301367846531493   T   T   T
  0.2215419708052380  0.7778597811696303  0.0708668045220183   T   T   T
  0.3341392002491705  0.6683199396359638  0.9881317847427639   T   T   T
  0.4404786525351779  0.8806269511762344  0.1497635178410460   T   T   T
  0.5596019015837058  0.7837318366838276  0.3049883036632527   T   T   T
  0.4531710908813983  0.8862908343614322  0.3939286909521842   T   T   T
  0.3249139470288469  0.6471073985777154  0.2359015596359860   T   T   T
  0.5571400420478225  0.7787721363174258  0.0694639624820671   T   T   T
  0.6676041690260192  0.6662348202028601  0.9879028719598256   T   T   T
  0.7766111514599905  0.8886411788610603  0.1486518361619118   T   T   T
  0.8863528302288218  0.7757084265296040  0.3049295362759791   T   T   T
  0.7760688103083874  0.8872171270217410  0.3889124210820649   T   T   T
  0.6632110168810407  0.6643688488512635  0.2301006485207975   T   T   T
  0.8888008636940602  0.7780007196157578  0.0706692678738829   T   T   T
  0.3368701079781821  0.3293064388036289  0.3509330900988298   T   T   T
  0.0002154365358270  0.0012069829103654  0.3472338021023696   T   T   T
  0.2223184158953539  0.1125939571571840  0.1930355879317038   T   T   T
  0.1104990647675880  0.2194686977427516  0.0281860047655809   T   T   T
  0.3284026954932667 -0.0027560442334961  0.3520254582711235   T   T   T
  0.5547249174248374  0.1110153006212141  0.1911099600611549   T   T   T
  0.4441821833401983  0.2215894299466916  0.0312243061177159   T   T   T
  0.6656161687604735  0.0000092914043628  0.3490563987475312   T   T   T
  0.8894379333607688  0.1113853215033059  0.1895935173046688   T   T   T
  0.7779080043983154  0.2217557103632082  0.0303232938445143   T   T   T
  0.9886482486026009  0.3247018658003227  0.3520283195160523   T   T   T
  0.2235935044110758  0.4430487505743136  0.1802055191193890   T   T   T
  0.1104312437021185  0.5564566294306390  0.0279035981000181   T   T   T
  0.5531778821700448  0.4434984139269360  0.1909751271727538   T   T   T
  0.4469176955165983  0.5559878907914342  0.0275422827656389   T   T   T
  0.6722591333187309  0.3389040926651051  0.3471170515040592   T   T   T
  0.8909949433865278  0.4452707756732927  0.1892127234146963   T   T   T
  0.7774372646940504  0.5545325212680061  0.0303533641968990   T   T   T
 -0.0010981252126720  0.6684789334815250  0.3475684102136682   T   T   T
  0.2214936166407273  0.7764310343971480  0.1906867052569095   T   T   T
  0.1120945346600099  0.8893036867754630  0.0312652134381247   T   T   T
  0.3426525510555991  0.6784092489137172  0.3513649136700931   T   T   T
  0.5546982254628654  0.7765410857523375  0.1891615909954689   T   T   T
  0.4443337453756384  0.8885836952980624  0.0305019338137149   T   T   T
  0.6634661583942081  0.6648465310969348  0.3468070231160073   T   T   T
  0.8881177912703673  0.7771606989136111  0.1885766077238854   T   T   T
  0.7775450866393293  0.8890167022678058  0.0297846807391669   T   T   T
  0.4543711124459283  0.2315801605664357  0.4572133441176175   T   T   T
 
  0.00000000E+00  0.00000000E+00  0.00000000E+00
  0.00000000E+00  0.00000000E+00  0.00000000E+00
  0.00000000E+00  0.00000000E+00  0.00000000E+00
  0.00000000E+00  0.00000000E+00  0.00000000E+00
  0.00000000E+00  0.00000000E+00  0.00000000E+00
  0.00000000E+00  0.00000000E+00  0.00000000E+00
  0.00000000E+00  0.00000000E+00  0.00000000E+00
  0.00000000E+00  0.00000000E+00  0.00000000E+00
  0.00000000E+00  0.00000000E+00  0.00000000E+00
  0.00000000E+00  0.00000000E+00  0.00000000E+00
  0.00000000E+00  0.00000000E+00  0.00000000E+00
  0.00000000E+00  0.00000000E+00  0.00000000E+00
  0.00000000E+00  0.00000000E+00  0.00000000E+00
  0.00000000E+00  0.00000000E+00  0.00000000E+00
  0.00000000E+00  0.00000000E+00  0.00000000E+00
  0.00000000E+00  0.00000000E+00  0.00000000E+00
  0.00000000E+00  0.00000000E+00  0.00000000E+00
  0.00000000E+00  0.00000000E+00  0.00000000E+00
  0.00000000E+00  0.00000000E+00  0.00000000E+00
  0.00000000E+00  0.00000000E+00  0.00000000E+00
  0.00000000E+00  0.00000000E+00  0.00000000E+00
  0.00000000E+00  0.00000000E+00  0.00000000E+00
  0.00000000E+00  0.00000000E+00  0.00000000E+00
  0.00000000E+00  0.00000000E+00  0.00000000E+00
  0.00000000E+00  0.00000000E+00  0.00000000E+00
  0.00000000E+00  0.00000000E+00  0.00000000E+00
  0.00000000E+00  0.00000000E+00  0.00000000E+00
  0.00000000E+00  0.00000000E+00  0.00000000E+00
  0.00000000E+00  0.00000000E+00  0.00000000E+00
  0.00000000E+00  0.00000000E+00  0.00000000E+00
  0.00000000E+00  0.00000000E+00  0.00000000E+00
  0.00000000E+00  0.00000000E+00  0.00000000E+00
  0.00000000E+00  0.00000000E+00  0.00000000E+00
  0.00000000E+00  0.00000000E+00  0.00000000E+00
  0.00000000E+00  0.00000000E+00  0.00000000E+00
  0.00000000E+00  0.00000000E+00  0.00000000E+00
  0.00000000E+00  0.00000000E+00  0.00000000E+00
  0.00000000E+00  0.00000000E+00  0.00000000E+00
  0.00000000E+00  0.00000000E+00  0.00000000E+00
  0.00000000E+00  0.00000000E+00  0.00000000E+00
  0.00000000E+00  0.00000000E+00  0.00000000E+00
  0.00000000E+00  0.00000000E+00  0.00000000E+00
  0.00000000E+00  0.00000000E+00  0.00000000E+00
  0.00000000E+00  0.00000000E+00  0.00000000E+00
  0.00000000E+00  0.00000000E+00  0.00000000E+00
  0.00000000E+00  0.00000000E+00  0.00000000E+00
  0.00000000E+00  0.00000000E+00  0.00000000E+00
  0.00000000E+00  0.00000000E+00  0.00000000E+00
  0.00000000E+00  0.00000000E+00  0.00000000E+00
  0.00000000E+00  0.00000000E+00  0.00000000E+00
  0.00000000E+00  0.00000000E+00  0.00000000E+00
  0.00000000E+00  0.00000000E+00  0.00000000E+00
  0.00000000E+00  0.00000000E+00  0.00000000E+00
  0.00000000E+00  0.00000000E+00  0.00000000E+00
  0.00000000E+00  0.00000000E+00  0.00000000E+00
  0.00000000E+00  0.00000000E+00  0.00000000E+00
  0.00000000E+00  0.00000000E+00  0.00000000E+00
  0.00000000E+00  0.00000000E+00  0.00000000E+00
  0.00000000E+00  0.00000000E+00  0.00000000E+00
  0.00000000E+00  0.00000000E+00  0.00000000E+00
  0.00000000E+00  0.00000000E+00  0.00000000E+00
  0.00000000E+00  0.00000000E+00  0.00000000E+00
  0.00000000E+00  0.00000000E+00  0.00000000E+00
  0.00000000E+00  0.00000000E+00  0.00000000E+00
  0.00000000E+00  0.00000000E+00  0.00000000E+00
  0.00000000E+00  0.00000000E+00  0.00000000E+00
  0.00000000E+00  0.00000000E+00  0.00000000E+00
  0.00000000E+00  0.00000000E+00  0.00000000E+00
  0.00000000E+00  0.00000000E+00  0.00000000E+00
  0.00000000E+00  0.00000000E+00  0.00000000E+00
  0.00000000E+00  0.00000000E+00  0.00000000E+00
  0.00000000E+00  0.00000000E+00  0.00000000E+00
  0.00000000E+00  0.00000000E+00  0.00000000E+00
  0.00000000E+00  0.00000000E+00  0.00000000E+00
  0.00000000E+00  0.00000000E+00  0.00000000E+00
  0.00000000E+00  0.00000000E+00  0.00000000E+00
  0.00000000E+00  0.00000000E+00  0.00000000E+00
  0.00000000E+00  0.00000000E+00  0.00000000E+00
  0.00000000E+00  0.00000000E+00  0.00000000E+00
  0.00000000E+00  0.00000000E+00  0.00000000E+00
  0.00000000E+00  0.00000000E+00  0.00000000E+00
