CeO2-you-111-you-Sc                     
   1.00000000000000     
     9.8316279131391227   -5.6938444357237321   -0.0004171354623701
    -0.0151996434780920   11.3613603143726358    0.0004171353993626
    -0.0005685848935740    0.0009848178526604   21.1176104069576205
   O    Sc   Ce   H 
    53     1    26     1
Selective dynamics
Direct
 -0.0001583357587064  0.9996225302810628  0.9948056653596022   T   T   T
  0.1107338291864391  0.2197123922699198  0.1474654076961905   T   T   T
  0.2329325584229718  0.1161192241200621  0.3012662398064889   T   T   T
  0.1386420529790892  0.2383994972808423  0.3718734759594591   T   T   T
  0.0019795154662580  0.0010530280812372  0.2300349294520969   T   T   T
  0.2232794129714721  0.1109458099521143  0.0742131472878260   T   T   T
  0.3352340554297696  0.0009210199096265  0.9957063084267088   T   T   T
  0.4420377272660819  0.2260941758573975  0.1522181968740805   T   T   T
  0.5589946679533191  0.1171992972149073  0.3054410485243679   T   T   T
  0.4378440136337157  0.2377567393985221  0.3970741787038651   T   T   T
  0.3358451153914099 -0.0018254369991753  0.2259595795324922   T   T   T
  0.5556027075739248  0.1110833696117200  0.0781242460681274   T   T   T
  0.6662769185958023  0.0011477220208093  0.9959380435740678   T   T   T
  0.7849242994190232  0.2242594807471300  0.1517084723998914   T   T   T
  0.8858831894047167  0.1058747358351078  0.3047495505768860   T   T   T
  0.7684084602217196  0.2190185226453537  0.3884901888035570   T   T   T
  0.6656433097416428 -0.0003777966220775  0.2294713443206090   T   T   T
  0.8892534120553642  0.1093971202025237  0.0750326802747677   T   T   T
  0.9978182039434977  0.3318994191061428  0.9950232207929344   T   T   T
  0.1121245379409313  0.5572258723398305  0.1466656278962915   T   T   T
  0.1234437104843697  0.5647129473178270  0.3821956840524781   T   T   T
  0.0173935504312822  0.3427238531515028  0.2331797968029976   T   T   T
  0.2220910701301540  0.4436334264020332  0.0715823868429086   T   T   T
  0.3345564531485013  0.3326421353723566  0.9944309410924859   T   T   T
  0.4459745155032362  0.5555730175678643  0.1468250825681586   T   T   T
  0.5521673011381156  0.4313326132190438  0.3036064316670911   T   T   T
  0.4086529119755963  0.5276424218798451  0.3654778094163266   T   T   T
  0.3237212288206611  0.3451119021397155  0.2361669269482533   T   T   T
  0.5559781877038421  0.4442942073127410  0.0745071003160435   T   T   T
  0.6660307528167144  0.3313828638041126  0.9961092453516341   T   T   T
  0.7775725307833339  0.5549811671555100  0.1502565420441886   T   T   T
  0.8875680190361606  0.4482193628499384  0.3041336725044905   T   T   T
  0.7746491197796760  0.5564417092110048  0.3836379341655606   T   T   T
  0.6695992133312988  0.3329613072377606  0.2276391665238581   T   T   T
  0.8888585975523918  0.4446343216572087  0.0747768627209986   T   T   T
  0.9996522465036435  0.6671348992890886  0.9952158938948075   T   T   T
  0.1107556944402512  0.8894580305855068  0.1500438361154688   T   T   T
  0.2220051954669423  0.7770407785160028  0.3029477164057613   T   T   T
  0.0972197611830162  0.8838752515596671  0.3850163301623686   T   T   T
  0.0012895760389777  0.6672848427481487  0.2287034070602177   T   T   T
  0.2224385867114212  0.7789917550208190  0.0743500953476493   T   T   T
  0.3339092643572396  0.6681701870986666  0.9947930922129238   T   T   T
  0.4428708313003117  0.8811135742086548  0.1510097714137268   T   T   T
  0.5585822978336070  0.7785862739934073  0.3035700497910319   T   T   T
  0.4540639092748716  0.8825804850011265  0.3883375881892137   T   T   T
  0.3248695623524598  0.6483953127437645  0.2340424696921541   T   T   T
  0.5567532917914315  0.7779233847508443  0.0743158294747280   T   T   T
  0.6676042895578833  0.6668304873487464  0.9948463980402324   T   T   T
  0.7768863509780785  0.8880546857563383  0.1514651783185287   T   T   T
  0.8856948921453782  0.7752328103138844  0.3017303575397975   T   T   T
  0.7764945294322243  0.8832491348541406  0.3834014923532864   T   T   T
  0.6627074766395312  0.6618529967209543  0.2300159278035342   T   T   T
  0.8885762208682043  0.7781174954527569  0.0751468554224261   T   T   T
  0.3336979110058768  0.3219732751782089  0.3359287983486755   T   T   T
  0.0059443509112478  0.0041217723437248  0.3420989085884509   T   T   T
  0.2232466422637741  0.1115535233816750  0.1917175291761211   T   T   T
  0.1103603079474844  0.2197046593553769  0.0336440142283556   T   T   T
  0.3318097141461879 -0.0032823129380649  0.3472624904740976   T   T   T
  0.5560546509800403  0.1103083298585297  0.1913485361541624   T   T   T
  0.4446904960728639  0.2222454068713042  0.0358333485538949   T   T   T
  0.6684601268417976 -0.0010355016938150  0.3455221671667610   T   T   T
  0.8908874910325613  0.1121876744538670  0.1917800121697492   T   T   T
  0.7783653388104512  0.2218800630282332  0.0364076441699208   T   T   T
  0.9953092651819784  0.3297183498397682  0.3519597111108143   T   T   T
  0.2218094089571636  0.4432989729350659  0.1813159240688599   T   T   T
  0.1102949281199774  0.5565370024417877  0.0333366784306085   T   T   T
  0.5541139286202306  0.4431163377062148  0.1912490330083022   T   T   T
  0.4466379345058231  0.5560222465053934  0.0332859130658051   T   T   T
  0.6731869427668090  0.3364822708840326  0.3422688812103182   T   T   T
  0.8919656277004188  0.4453595863102560  0.1904697320150556   T   T   T
  0.7773711539700894  0.5547299424609378  0.0359851628168885   T   T   T
  0.0007882368287409  0.6692305691255711  0.3430025890153071   T   T   T
  0.2225057414960070  0.7774021832014445  0.1902202587953329   T   T   T
  0.1120936626581224  0.8896329978729431  0.0357915729645363   T   T   T
  0.3383144674753378  0.6750591109037614  0.3461802140500883   T   T   T
  0.5546789792576923  0.7755780838536923  0.1903020719848592   T   T   T
  0.4446887852739828  0.8887064550094784  0.0358627648094115   T   T   T
  0.6633467963615954  0.6614227033890695  0.3412254278848297   T   T   T
  0.8890555976260963  0.7771533313104010  0.1891498935692267   T   T   T
  0.7777434089862466  0.8890996841305161  0.0358618885342570   T   T   T
  0.4330233128521455  0.2476629167865842  0.4425834090498033   T   T   T
 
  0.00000000E+00  0.00000000E+00  0.00000000E+00
  0.00000000E+00  0.00000000E+00  0.00000000E+00
  0.00000000E+00  0.00000000E+00  0.00000000E+00
  0.00000000E+00  0.00000000E+00  0.00000000E+00
  0.00000000E+00  0.00000000E+00  0.00000000E+00
  0.00000000E+00  0.00000000E+00  0.00000000E+00
  0.00000000E+00  0.00000000E+00  0.00000000E+00
  0.00000000E+00  0.00000000E+00  0.00000000E+00
  0.00000000E+00  0.00000000E+00  0.00000000E+00
  0.00000000E+00  0.00000000E+00  0.00000000E+00
  0.00000000E+00  0.00000000E+00  0.00000000E+00
  0.00000000E+00  0.00000000E+00  0.00000000E+00
  0.00000000E+00  0.00000000E+00  0.00000000E+00
  0.00000000E+00  0.00000000E+00  0.00000000E+00
  0.00000000E+00  0.00000000E+00  0.00000000E+00
  0.00000000E+00  0.00000000E+00  0.00000000E+00
  0.00000000E+00  0.00000000E+00  0.00000000E+00
  0.00000000E+00  0.00000000E+00  0.00000000E+00
  0.00000000E+00  0.00000000E+00  0.00000000E+00
  0.00000000E+00  0.00000000E+00  0.00000000E+00
  0.00000000E+00  0.00000000E+00  0.00000000E+00
  0.00000000E+00  0.00000000E+00  0.00000000E+00
  0.00000000E+00  0.00000000E+00  0.00000000E+00
  0.00000000E+00  0.00000000E+00  0.00000000E+00
  0.00000000E+00  0.00000000E+00  0.00000000E+00
  0.00000000E+00  0.00000000E+00  0.00000000E+00
  0.00000000E+00  0.00000000E+00  0.00000000E+00
  0.00000000E+00  0.00000000E+00  0.00000000E+00
  0.00000000E+00  0.00000000E+00  0.00000000E+00
  0.00000000E+00  0.00000000E+00  0.00000000E+00
  0.00000000E+00  0.00000000E+00  0.00000000E+00
  0.00000000E+00  0.00000000E+00  0.00000000E+00
  0.00000000E+00  0.00000000E+00  0.00000000E+00
  0.00000000E+00  0.00000000E+00  0.00000000E+00
  0.00000000E+00  0.00000000E+00  0.00000000E+00
  0.00000000E+00  0.00000000E+00  0.00000000E+00
  0.00000000E+00  0.00000000E+00  0.00000000E+00
  0.00000000E+00  0.00000000E+00  0.00000000E+00
  0.00000000E+00  0.00000000E+00  0.00000000E+00
  0.00000000E+00  0.00000000E+00  0.00000000E+00
  0.00000000E+00  0.00000000E+00  0.00000000E+00
  0.00000000E+00  0.00000000E+00  0.00000000E+00
  0.00000000E+00  0.00000000E+00  0.00000000E+00
  0.00000000E+00  0.00000000E+00  0.00000000E+00
  0.00000000E+00  0.00000000E+00  0.00000000E+00
  0.00000000E+00  0.00000000E+00  0.00000000E+00
  0.00000000E+00  0.00000000E+00  0.00000000E+00
  0.00000000E+00  0.00000000E+00  0.00000000E+00
  0.00000000E+00  0.00000000E+00  0.00000000E+00
  0.00000000E+00  0.00000000E+00  0.00000000E+00
  0.00000000E+00  0.00000000E+00  0.00000000E+00
  0.00000000E+00  0.00000000E+00  0.00000000E+00
  0.00000000E+00  0.00000000E+00  0.00000000E+00
  0.00000000E+00  0.00000000E+00  0.00000000E+00
  0.00000000E+00  0.00000000E+00  0.00000000E+00
  0.00000000E+00  0.00000000E+00  0.00000000E+00
  0.00000000E+00  0.00000000E+00  0.00000000E+00
  0.00000000E+00  0.00000000E+00  0.00000000E+00
  0.00000000E+00  0.00000000E+00  0.00000000E+00
  0.00000000E+00  0.00000000E+00  0.00000000E+00
  0.00000000E+00  0.00000000E+00  0.00000000E+00
  0.00000000E+00  0.00000000E+00  0.00000000E+00
  0.00000000E+00  0.00000000E+00  0.00000000E+00
  0.00000000E+00  0.00000000E+00  0.00000000E+00
  0.00000000E+00  0.00000000E+00  0.00000000E+00
  0.00000000E+00  0.00000000E+00  0.00000000E+00
  0.00000000E+00  0.00000000E+00  0.00000000E+00
  0.00000000E+00  0.00000000E+00  0.00000000E+00
  0.00000000E+00  0.00000000E+00  0.00000000E+00
  0.00000000E+00  0.00000000E+00  0.00000000E+00
  0.00000000E+00  0.00000000E+00  0.00000000E+00
  0.00000000E+00  0.00000000E+00  0.00000000E+00
  0.00000000E+00  0.00000000E+00  0.00000000E+00
  0.00000000E+00  0.00000000E+00  0.00000000E+00
  0.00000000E+00  0.00000000E+00  0.00000000E+00
  0.00000000E+00  0.00000000E+00  0.00000000E+00
  0.00000000E+00  0.00000000E+00  0.00000000E+00
  0.00000000E+00  0.00000000E+00  0.00000000E+00
  0.00000000E+00  0.00000000E+00  0.00000000E+00
  0.00000000E+00  0.00000000E+00  0.00000000E+00
  0.00000000E+00  0.00000000E+00  0.00000000E+00
