CeO2-you-111-you-Sc                     
   1.00000000000000     
     9.8179485597385323   -5.6683956152533419    0.0000000000000000
     0.0000000029989134   11.3367892406665067    0.0000000000000000
     0.0000000000000000    0.0000000000000000   21.2677635382006294
   O    Sc   Ce   H 
    54     1    26     2
Selective dynamics
Direct
  0.0001894257773884 -0.0003453369562852  0.9959446420352124   T   T   T
  0.1101546997451011  0.2208417731486379  0.1494189100780952   T   T   T
  0.2394912115503633  0.1260208245263166  0.3068743829573409   T   T   T
  0.1185153153306843  0.2305504361362465  0.3771947897813116   T   T   T
  0.0049768016962546  0.0019009586368810  0.2311705522687274   T   T   T
  0.2229968628410650  0.1114650759871403  0.0758631242289632   T   T   T
  0.3332378228085455  0.0002941844313936  0.9961243077042912   T   T   T
  0.4444821803347034  0.2222898648294516  0.1506664710741367   T   T   T
  0.5521785616504247  0.1129926252434689  0.3039614084030870   T   T   T
  0.4658824671022383  0.2012104375317041  0.4045752048805234   T   T   T
  0.3317280974772460 -0.0015967776020578  0.2289347939956530   T   T   T
  0.5552844732207720  0.1110276271171759  0.0755640738620976   T   T   T
  0.6670023916643543 -0.0001890076462447  0.9961289114636902   T   T   T
  0.7777444912814501  0.2213234680943525  0.1492988441059131   T   T   T
  0.8895798622392544  0.1100430424881281  0.3029930976627344   T   T   T
  0.7795581240175824  0.2219359260440866  0.3812595277793138   T   T   T
  0.6658128695122792  0.0004659647178222  0.2297458250152066   T   T   T
  0.8890556880526539  0.1093617722737814  0.0755492396365378   T   T   T
 -0.0003768879676071  0.3323880655055099  0.9960971027623523   T   T   T
  0.1109063120930681  0.5559934525691705  0.1488071233718244   T   T   T
  0.2224450224699530  0.4449171353413787  0.2994330003958774   T   T   T
  0.1119409513954808  0.5555376374840567  0.3819023514803983   T   T   T
 -0.0013926685552378  0.3325524813223975  0.2284541140494462   T   T   T
  0.2224703612975232  0.4443171919568656  0.0746650755293534   T   T   T
  0.3336487488806216  0.3328298165970980  0.9960592208755698   T   T   T
  0.4457093897596003  0.5561686483234360  0.1495163920074624   T   T   T
  0.5404359767383694  0.4261083729127936  0.3067224677855205   T   T   T
  0.4365057087326090  0.5474320687399054  0.3775193590195694   T   T   T
  0.3308807433716254  0.3358802983385541  0.2283825529368950   T   T   T
  0.5555553293435918  0.4438621101679232  0.0756650589346590   T   T   T
  0.6673390474958405  0.3326927497277142  0.9964786131674980   T   T   T
  0.7773590156714455  0.5552613584479673  0.1500222494178110   T   T   T
  0.8903096055241284  0.4460359431713249  0.3032827022489454   T   T   T
  0.7750725994261981  0.5530869764264968  0.3817813942428689   T   T   T
  0.6684578386769736  0.3338216166882067  0.2290732213495506   T   T   T
  0.8895922837447239  0.4446978938718860  0.0751148178707691   T   T   T
  0.0004482586935716  0.6671638373309441  0.9961548723562297   T   T   T
  0.1101641639684768  0.8891811047429651  0.1499500368108509   T   T   T
  0.2208913239029347  0.7767507626786433  0.3029059743897372   T   T   T
  0.1132694317810351  0.8909117237299026  0.3817494634616229   T   T   T
 -0.0000853803843746  0.6664499055225114  0.2289415788948750   T   T   T
  0.2228125474948891  0.7784137730207386  0.0752319710017210   T   T   T
  0.3347117096980968  0.6672639910477826  0.9964641094758189   T   T   T
  0.4453624240072602  0.8895887688114900  0.1496603196780015   T   T   T
  0.5563396108001533  0.7770184759898501  0.3032804978816223   T   T   T
  0.4440221652946624  0.8866039649498257  0.3814634595662484   T   T   T
  0.3339253487986229  0.6682042808920541  0.2282131615992063   T   T   T
  0.5568128419665465  0.7783229292453189  0.0758306022686416   T   T   T
  0.6672858469123522  0.6666681749845248  0.9961389305080443   T   T   T
  0.7788489504964512  0.8881245909377901  0.1517651743604194   T   T   T
  0.8889510773534207  0.7774608513959373  0.3040140531555443   T   T   T
  0.7776300222694533  0.8887980576637933  0.3819313501021597   T   T   T
  0.6644406415066475  0.6610677496473016  0.2313503101438501   T   T   T
  0.8885598252234107  0.7772503650616996  0.0758884115395990   T   T   T
  0.3211914240504529  0.3454064067015252  0.3286691569708159   T   T   T
  0.0055204353770094  0.0053081985592067  0.3427031712816494   T   T   T
  0.2236288115269441  0.1123658694968734  0.1909188745534346   T   T   T
  0.1112780841593981  0.2213646397565285  0.0358253524993635   T   T   T
  0.3316139353990438 -0.0032933560475140  0.3425687328431329   T   T   T
  0.5554716699162805  0.1109071243388320  0.1896752010835373   T   T   T
  0.4444394026940111  0.2221071636741106  0.0360027283954665   T   T   T
  0.6673934422214866 -0.0010734432476197  0.3433166183893987   T   T   T
  0.8892964811598880  0.1111220423463040  0.1897415916230850   T   T   T
  0.7778872536491288  0.2216235913857190  0.0358647936540533   T   T   T
  0.0023017230182399  0.3336979956745340  0.3420913307499417   T   T   T
  0.2215792126653773  0.4451504579001751  0.1875581298292099   T   T   T
  0.1113514574076994  0.5557765975389256  0.0352390957749057   T   T   T
  0.5542432236822386  0.4425280923643736  0.1910724614214963   T   T   T
  0.4454530917416751  0.5554935530932910  0.0360482268540054   T   T   T
  0.6697268581302035  0.3345035014138877  0.3426401200112366   T   T   T
  0.8886882603240522  0.4441200531567701  0.1888461465867982   T   T   T
  0.7777957790237022  0.5551898682029209  0.0363269459847956   T   T   T
  0.0000019663018479  0.6666689004049899  0.3421989239901337   T   T   T
  0.2222547389241798  0.7781840464605034  0.1888286696605822   T   T   T
  0.1112929183805906  0.8892030624273600  0.0362446723223039   T   T   T
  0.3330920054739978  0.6645883188485548  0.3421717031154836   T   T   T
  0.5553233277511301  0.7773333378757330  0.1898363726674949   T   T   T
  0.4450194603614137  0.8892668384172481  0.0359391307574482   T   T   T
  0.6610576307952700  0.6605412734197285  0.3429470626176958   T   T   T
  0.8892162765484082  0.7769471387498773  0.1905862008380876   T   T   T
  0.7781605609100791  0.8883558932003630  0.0361709729091096   T   T   T
  0.3212406963931030  0.3456369232179822  0.4403887278336422   T   T   T
  0.4352893378282991  0.2319089264210638  0.4405806832084116   T   T   T
 
  0.00000000E+00  0.00000000E+00  0.00000000E+00
  0.00000000E+00  0.00000000E+00  0.00000000E+00
  0.00000000E+00  0.00000000E+00  0.00000000E+00
  0.00000000E+00  0.00000000E+00  0.00000000E+00
  0.00000000E+00  0.00000000E+00  0.00000000E+00
  0.00000000E+00  0.00000000E+00  0.00000000E+00
  0.00000000E+00  0.00000000E+00  0.00000000E+00
  0.00000000E+00  0.00000000E+00  0.00000000E+00
  0.00000000E+00  0.00000000E+00  0.00000000E+00
  0.00000000E+00  0.00000000E+00  0.00000000E+00
  0.00000000E+00  0.00000000E+00  0.00000000E+00
  0.00000000E+00  0.00000000E+00  0.00000000E+00
  0.00000000E+00  0.00000000E+00  0.00000000E+00
  0.00000000E+00  0.00000000E+00  0.00000000E+00
  0.00000000E+00  0.00000000E+00  0.00000000E+00
  0.00000000E+00  0.00000000E+00  0.00000000E+00
  0.00000000E+00  0.00000000E+00  0.00000000E+00
  0.00000000E+00  0.00000000E+00  0.00000000E+00
  0.00000000E+00  0.00000000E+00  0.00000000E+00
  0.00000000E+00  0.00000000E+00  0.00000000E+00
  0.00000000E+00  0.00000000E+00  0.00000000E+00
  0.00000000E+00  0.00000000E+00  0.00000000E+00
  0.00000000E+00  0.00000000E+00  0.00000000E+00
  0.00000000E+00  0.00000000E+00  0.00000000E+00
  0.00000000E+00  0.00000000E+00  0.00000000E+00
  0.00000000E+00  0.00000000E+00  0.00000000E+00
  0.00000000E+00  0.00000000E+00  0.00000000E+00
  0.00000000E+00  0.00000000E+00  0.00000000E+00
  0.00000000E+00  0.00000000E+00  0.00000000E+00
  0.00000000E+00  0.00000000E+00  0.00000000E+00
  0.00000000E+00  0.00000000E+00  0.00000000E+00
  0.00000000E+00  0.00000000E+00  0.00000000E+00
  0.00000000E+00  0.00000000E+00  0.00000000E+00
  0.00000000E+00  0.00000000E+00  0.00000000E+00
  0.00000000E+00  0.00000000E+00  0.00000000E+00
  0.00000000E+00  0.00000000E+00  0.00000000E+00
  0.00000000E+00  0.00000000E+00  0.00000000E+00
  0.00000000E+00  0.00000000E+00  0.00000000E+00
  0.00000000E+00  0.00000000E+00  0.00000000E+00
  0.00000000E+00  0.00000000E+00  0.00000000E+00
  0.00000000E+00  0.00000000E+00  0.00000000E+00
  0.00000000E+00  0.00000000E+00  0.00000000E+00
  0.00000000E+00  0.00000000E+00  0.00000000E+00
  0.00000000E+00  0.00000000E+00  0.00000000E+00
  0.00000000E+00  0.00000000E+00  0.00000000E+00
  0.00000000E+00  0.00000000E+00  0.00000000E+00
  0.00000000E+00  0.00000000E+00  0.00000000E+00
  0.00000000E+00  0.00000000E+00  0.00000000E+00
  0.00000000E+00  0.00000000E+00  0.00000000E+00
  0.00000000E+00  0.00000000E+00  0.00000000E+00
  0.00000000E+00  0.00000000E+00  0.00000000E+00
  0.00000000E+00  0.00000000E+00  0.00000000E+00
  0.00000000E+00  0.00000000E+00  0.00000000E+00
  0.00000000E+00  0.00000000E+00  0.00000000E+00
  0.00000000E+00  0.00000000E+00  0.00000000E+00
  0.00000000E+00  0.00000000E+00  0.00000000E+00
  0.00000000E+00  0.00000000E+00  0.00000000E+00
  0.00000000E+00  0.00000000E+00  0.00000000E+00
  0.00000000E+00  0.00000000E+00  0.00000000E+00
  0.00000000E+00  0.00000000E+00  0.00000000E+00
  0.00000000E+00  0.00000000E+00  0.00000000E+00
  0.00000000E+00  0.00000000E+00  0.00000000E+00
  0.00000000E+00  0.00000000E+00  0.00000000E+00
  0.00000000E+00  0.00000000E+00  0.00000000E+00
  0.00000000E+00  0.00000000E+00  0.00000000E+00
  0.00000000E+00  0.00000000E+00  0.00000000E+00
  0.00000000E+00  0.00000000E+00  0.00000000E+00
  0.00000000E+00  0.00000000E+00  0.00000000E+00
  0.00000000E+00  0.00000000E+00  0.00000000E+00
  0.00000000E+00  0.00000000E+00  0.00000000E+00
  0.00000000E+00  0.00000000E+00  0.00000000E+00
  0.00000000E+00  0.00000000E+00  0.00000000E+00
  0.00000000E+00  0.00000000E+00  0.00000000E+00
  0.00000000E+00  0.00000000E+00  0.00000000E+00
  0.00000000E+00  0.00000000E+00  0.00000000E+00
  0.00000000E+00  0.00000000E+00  0.00000000E+00
  0.00000000E+00  0.00000000E+00  0.00000000E+00
  0.00000000E+00  0.00000000E+00  0.00000000E+00
  0.00000000E+00  0.00000000E+00  0.00000000E+00
  0.00000000E+00  0.00000000E+00  0.00000000E+00
  0.00000000E+00  0.00000000E+00  0.00000000E+00
  0.00000000E+00  0.00000000E+00  0.00000000E+00
  0.00000000E+00  0.00000000E+00  0.00000000E+00
