CeO2-you-111-you-Os                     
   1.00000000000000     
     9.8947516156391817   -5.7186499690715484   -0.0130697962616688
    -0.0051200245062741   11.4284297832956447    0.0130697941341233
    -0.0147824618020047    0.0256039738158727   21.0100051232745599
   O    Os   Ce H
    53     1    26 1
Selective dynamics
Direct
 -0.0009966341421479 -0.0002908669969117  0.9961222495910980   T   T   T
  0.1161470583111493  0.2234107383558684  0.1482936174772373   T   T   T
  0.2463661540164333  0.1238728157126510  0.3010268103912039   T   T   T
  0.1678405729849683  0.2663158625918276  0.3654949445082608   T   T   T
  0.0051607481860641  0.0023492669776007  0.2290445931480840   T   T   T
  0.2215624718600692  0.1091799214072519  0.0743183191776690   T   T   T
  0.3356227627862860  0.0015029639259996  0.9967385290831010   T   T   T
  0.4382516015496387  0.2284143984488890  0.1532173551505603   T   T   T
  0.5492974955569982  0.1173695044436178  0.3058594196674309   T   T   T
  0.4201859902340781  0.2464800097632624  0.3887578330736570   T   T   T
  0.3337516034919828 -0.0028654509044229  0.2262316045404939   T   T   T
  0.5539701217745839  0.1126968782246136  0.0790751074686874   T   T   T
  0.6657560609592864  0.0009109390414450  0.9992086001912496   T   T   T
  0.7839452123051388  0.2237337824823105  0.1514079853407119   T   T   T
  0.8856940465504939  0.1104314734747166  0.3038289066264906   T   T   T
  0.7677472626610171  0.2198298625675589  0.3868619251031709   T   T   T
  0.6642384562924813  0.0024285437065208  0.2296481812192212   T   T   T
  0.8903728108103048  0.1103573480738123  0.0766370550504864   T   T   T
 -0.0026599629238156  0.3313464930592243  0.9957868548011343   T   T   T
  0.1105740958238564  0.5560929041733693  0.1452958136770722   T   T   T
  0.1069077327276608  0.5597592672729373  0.3828535566103077   T   T   T
  0.0180560841683732  0.3438569238466508  0.2315286584616380   T   T   T
  0.2219216156086775  0.4447443843929528  0.0711921795618364   T   T   T
  0.3340791511915471  0.3325868488067515  0.9958824162567975   T   T   T
  0.4432552616541447  0.5505199416919978  0.1482936174774240   T   T   T
  0.5427941842860807  0.4202998459676712  0.3010268103974863   T   T   T
  0.4003501374337393  0.4988264270202957  0.3654949445170428   T   T   T
  0.3182189145835963  0.3484470854096910  0.2456713477703649   T   T   T
  0.5574870785915338  0.4451035281388785  0.0743183191776839   T   T   T
  0.6651640360732763  0.3310432372127998  0.9967385290830265   T   T   T
  0.7781506128831639  0.5556148612148506  0.1497854355742111   T   T   T
  0.8845193478250581  0.4425516808892833  0.3010184856334155   T   T   T
  0.7804481225586897  0.5455596011579548  0.3840610793988865   T   T   T
  0.6695324508970872  0.3329143965042436  0.2262316045404201   T   T   T
  0.8881041478148723  0.4446576348130133  0.0738352863243921   T   T   T
 -0.0007787652520839  0.6674457652511556  0.9952119702174869   T   T   T
  0.1110521387832011  0.8885163871140036  0.1497854355740141   T   T   T
  0.2241143191015191  0.7821476521620705  0.3010184856332066   T   T   T
  0.1211073988395162  0.8862188774350516  0.3840610793990208   T   T   T
  0.0017899748053782  0.6648770251899775  0.2277000105117211   T   T   T
  0.2220083651860421  0.7785628521835004  0.0738352863245010   T   T   T
  0.3353195069421545  0.6693269629253644  0.9957868548014341   T   T   T
  0.4429322175189710  0.8827217876942257  0.1514079853405434   T   T   T
  0.5562355265341704  0.7809729534556134  0.3038289066246740   T   T   T
  0.4468361374325775  0.8989197373279701  0.3868619251025954   T   T   T
  0.3228090761655962  0.6486109158300422  0.2315286584654938   T   T   T
  0.5563096519274338  0.7762941891903720  0.0766370550505964   T   T   T
  0.6669578669970759  0.6676636341420145  0.9961222495911463   T   T   T
  0.7776057789499871  0.8890612210508452  0.1534912840570727   T   T   T
  0.8910964742930865  0.7755705257044917  0.3035923358988882   T   T   T
  0.7720683212045565  0.8945986787982833  0.3880838462673647   T   T   T
  0.6643177330251360  0.6615062518181072  0.2290445931482888   T   T   T
  0.8884768250341801  0.7781901749652265  0.0758289643982982   T   T   T
  0.3449060208090394  0.3217599792045591  0.3362225586681188   T   T   T
  0.0012934697947385 -0.0011540443677162  0.3456643171435501   T   T   T
  0.2201354964926003  0.1076376694016890  0.1894405714081048   T   T   T
  0.1097722567658661  0.2197881518089298  0.0343871776590121   T   T   T
  0.3298768693692776 -0.0074092517342546  0.3426968750539712   T   T   T
  0.5555056736808480  0.1111613263223107  0.1912408268155073   T   T   T
  0.4441436814186947  0.2225223185817905  0.0359490565115474   T   T   T
  0.6679816148739547 -0.0013146148682363  0.3457583920928107   T   T   T
  0.8912787192479040  0.1123119447297666  0.1930978542045731   T   T   T
  0.7779884753887751  0.2221885342762159  0.0373986567717541   T   T   T
 -0.0088224636599000  0.3321412933756890  0.3488648668047855   T   T   T
  0.2207415314849088  0.4459244685046809  0.1811276572437885   T   T   T
  0.1100751666266692  0.5565918333721404  0.0326963613469112   T   T   T
  0.5590293305936725  0.4465305035054483  0.1894405714077609   T   T   T
  0.4468778481905109  0.5568947432342322  0.0343871776585969   T   T   T
  0.6740762517317880  0.3367891306246000  0.3426968750542947   T   T   T
  0.8911120963080194  0.4446769975366127  0.1891203050842259   T   T   T
  0.7774694161233425  0.5556292344559207  0.0355830070368492   T   T   T
  0.0010720850708125  0.6655949149392227  0.3431546117848202   T   T   T
  0.2219890024698075  0.7755549037043690  0.1891203050846173   T   T   T
  0.1110377655453949  0.8891975838778696  0.0355830070369134   T   T   T
  0.3345247066141703  0.6754894636746585  0.3488648668012801   T   T   T
  0.5543550552612446  0.7753882807540559  0.1930978542042209   T   T   T
  0.4444774657233413  0.8886785246124455  0.0373986567717152   T   T   T
  0.6678210443612806  0.6653735302021252  0.3456643171441448   T   T   T
  0.8893526461141247  0.7773143538880447  0.1910972110539661   T   T   T
  0.7776314187242466  0.8890355812753427  0.0385551596739710   T   T   T
0.446598 0.216020 0.433410 T T T 
 
  0.00000000E+00  0.00000000E+00  0.00000000E+00
  0.00000000E+00  0.00000000E+00  0.00000000E+00
  0.00000000E+00  0.00000000E+00  0.00000000E+00
  0.00000000E+00  0.00000000E+00  0.00000000E+00
  0.00000000E+00  0.00000000E+00  0.00000000E+00
  0.00000000E+00  0.00000000E+00  0.00000000E+00
  0.00000000E+00  0.00000000E+00  0.00000000E+00
  0.00000000E+00  0.00000000E+00  0.00000000E+00
  0.00000000E+00  0.00000000E+00  0.00000000E+00
  0.00000000E+00  0.00000000E+00  0.00000000E+00
  0.00000000E+00  0.00000000E+00  0.00000000E+00
  0.00000000E+00  0.00000000E+00  0.00000000E+00
  0.00000000E+00  0.00000000E+00  0.00000000E+00
  0.00000000E+00  0.00000000E+00  0.00000000E+00
  0.00000000E+00  0.00000000E+00  0.00000000E+00
  0.00000000E+00  0.00000000E+00  0.00000000E+00
  0.00000000E+00  0.00000000E+00  0.00000000E+00
  0.00000000E+00  0.00000000E+00  0.00000000E+00
  0.00000000E+00  0.00000000E+00  0.00000000E+00
  0.00000000E+00  0.00000000E+00  0.00000000E+00
  0.00000000E+00  0.00000000E+00  0.00000000E+00
  0.00000000E+00  0.00000000E+00  0.00000000E+00
  0.00000000E+00  0.00000000E+00  0.00000000E+00
  0.00000000E+00  0.00000000E+00  0.00000000E+00
  0.00000000E+00  0.00000000E+00  0.00000000E+00
  0.00000000E+00  0.00000000E+00  0.00000000E+00
  0.00000000E+00  0.00000000E+00  0.00000000E+00
  0.00000000E+00  0.00000000E+00  0.00000000E+00
  0.00000000E+00  0.00000000E+00  0.00000000E+00
  0.00000000E+00  0.00000000E+00  0.00000000E+00
  0.00000000E+00  0.00000000E+00  0.00000000E+00
  0.00000000E+00  0.00000000E+00  0.00000000E+00
  0.00000000E+00  0.00000000E+00  0.00000000E+00
  0.00000000E+00  0.00000000E+00  0.00000000E+00
  0.00000000E+00  0.00000000E+00  0.00000000E+00
  0.00000000E+00  0.00000000E+00  0.00000000E+00
  0.00000000E+00  0.00000000E+00  0.00000000E+00
  0.00000000E+00  0.00000000E+00  0.00000000E+00
  0.00000000E+00  0.00000000E+00  0.00000000E+00
  0.00000000E+00  0.00000000E+00  0.00000000E+00
  0.00000000E+00  0.00000000E+00  0.00000000E+00
  0.00000000E+00  0.00000000E+00  0.00000000E+00
  0.00000000E+00  0.00000000E+00  0.00000000E+00
  0.00000000E+00  0.00000000E+00  0.00000000E+00
  0.00000000E+00  0.00000000E+00  0.00000000E+00
  0.00000000E+00  0.00000000E+00  0.00000000E+00
  0.00000000E+00  0.00000000E+00  0.00000000E+00
  0.00000000E+00  0.00000000E+00  0.00000000E+00
  0.00000000E+00  0.00000000E+00  0.00000000E+00
  0.00000000E+00  0.00000000E+00  0.00000000E+00
  0.00000000E+00  0.00000000E+00  0.00000000E+00
  0.00000000E+00  0.00000000E+00  0.00000000E+00
  0.00000000E+00  0.00000000E+00  0.00000000E+00
  0.00000000E+00  0.00000000E+00  0.00000000E+00
  0.00000000E+00  0.00000000E+00  0.00000000E+00
  0.00000000E+00  0.00000000E+00  0.00000000E+00
  0.00000000E+00  0.00000000E+00  0.00000000E+00
  0.00000000E+00  0.00000000E+00  0.00000000E+00
  0.00000000E+00  0.00000000E+00  0.00000000E+00
  0.00000000E+00  0.00000000E+00  0.00000000E+00
  0.00000000E+00  0.00000000E+00  0.00000000E+00
  0.00000000E+00  0.00000000E+00  0.00000000E+00
  0.00000000E+00  0.00000000E+00  0.00000000E+00
  0.00000000E+00  0.00000000E+00  0.00000000E+00
  0.00000000E+00  0.00000000E+00  0.00000000E+00
  0.00000000E+00  0.00000000E+00  0.00000000E+00
  0.00000000E+00  0.00000000E+00  0.00000000E+00
  0.00000000E+00  0.00000000E+00  0.00000000E+00
  0.00000000E+00  0.00000000E+00  0.00000000E+00
  0.00000000E+00  0.00000000E+00  0.00000000E+00
  0.00000000E+00  0.00000000E+00  0.00000000E+00
  0.00000000E+00  0.00000000E+00  0.00000000E+00
  0.00000000E+00  0.00000000E+00  0.00000000E+00
  0.00000000E+00  0.00000000E+00  0.00000000E+00
  0.00000000E+00  0.00000000E+00  0.00000000E+00
  0.00000000E+00  0.00000000E+00  0.00000000E+00
  0.00000000E+00  0.00000000E+00  0.00000000E+00
  0.00000000E+00  0.00000000E+00  0.00000000E+00
  0.00000000E+00  0.00000000E+00  0.00000000E+00
  0.00000000E+00  0.00000000E+00  0.00000000E+00
