CeO2-you-111-you-Pd                     
   1.00000000000000     
     9.8190258224034288   -5.6690175720206017    0.0000000005384357
     0.0100070328233557   11.3553658369564161    0.0100923443991119
     0.0104990367008895    0.0181848618904444   21.2674952597521951
   O    Pd   Ce H
    53     1    26 2
Selective dynamics
Direct
  0.0001500773937561  0.0006296757588953  0.9971827074241848   T   T   T
  0.1041137531406101  0.2198073727628962  0.1487779992194323   F   F   F
  0.2104355199723073  0.0875380399482750  0.2955440083347124   T   T   T
  0.1251840568523906  0.2257876996360220  0.3781925904300685   T   T   T
 -0.0063626420379648 -0.0026763020294922  0.2269084450328546   T   T   T
  0.2226002569651870  0.1118675139302456  0.0754768365050236   F   F   F
  0.3338125983652070  0.0006296757588412  0.9971827074241824   T   T   T
  0.4490266196219412  0.2198073727625741  0.1487779992194308   F   F   F
  0.5551060638787955  0.1133017095204366  0.3045842461549682   T   T   T
  0.4339366427839952  0.2257876996349022  0.3781925904301739   T   T   T
  0.3370193400085055 -0.0026763020299376  0.2269084450328896   T   T   T
  0.5586514261966962  0.1104302489820421  0.0758942665665359   F   F   F
  0.6669150765608104  0.0004961531217750  0.9954865870925010   T   T   T
  0.7785326677049336  0.2237313354100680  0.1546497335940318   F   F   F
  0.8915296456427472  0.1133017095214034  0.3045842461549669   T   T   T
  0.7765275677971428  0.2197211355937078  0.3828251885150513   T   T   T
  0.6635573072559660 -0.0062193854882098  0.2329723503039400   T   T   T
  0.8851128227854009  0.1104302489822753  0.0758942665665218   F   F   F
  0.0009405374315116  0.3340171273337456  0.9971768166385286   T   T   T
  0.1094494548160672  0.5540657773330951  0.1500102099061866   F   F   F
  0.2542509994542638  0.4535744500367927  0.3122726040068231   T   T   T
  0.1119861319774510  0.5554404639966969  0.3808258894987418   T   T   T
  0.0106399748606897  0.3385594611441631  0.2335286230296122   T   T   T
  0.2232474921545753  0.4443630785836685  0.0764188544182352   F   F   F
  0.3335026543596581  0.3336723087193690  0.9967919075885152   T   T   T
  0.4478042136282676  0.5622764272564739  0.1493915530195082   F   F   F
  0.5326574505800203  0.4535744500335498  0.3122726040073099   T   T   T
  0.3321556202611750  0.3309782405227663  0.2161354498515300   T   T   T
  0.5544495864286431  0.4443630785832590  0.0764188544182390   F   F   F
  0.6664105899019649  0.3340171273335721  0.9971768166385165   T   T   T
  0.7779493225168710  0.5540657773327212  0.1500102099062257   F   F   F
  0.8875041471285940  0.4416742942567305  0.3042596880812737   T   T   T
  0.7767873320200103  0.5554404639977056  0.3808258894987880   T   T   T
  0.6612534862828058  0.3385594611431791  0.2335286230295826   T   T   T
  0.8877184504849245  0.4421029009700519  0.0765962986596460   F   F   F
  0.0000901238947201  0.6668472477891867  0.9976314104487991   T   T   T
  0.1104097701317763  0.8874865402629747  0.1486868312115147   F   F   F
  0.2194236802333063  0.7788070355972456  0.3021154619492225   T   T   T
  0.1093865229477738  0.8854400458963556  0.3838434416295817   T   T   T
 -0.0004465584764335  0.6657738830463639  0.2289623745479736   T   T   T
  0.2230445250095436  0.7777941056402667  0.0756033288509578   F   F   F
  0.3326800946916154  0.6659798105017236  0.9968358105892435   T   T   T
  0.4468944978851074  0.8883091885321214  0.1495983710145507   F   F   F
  0.5475112455176504  0.7616884910389724  0.3097732020386566   T   T   T
  0.4429017148152669  0.8886668075383637  0.3811413869996809   T   T   T
  0.3308304651497650  0.6669410352277757  0.2292394839938849   T   T   T
  0.5560151610658538  0.7786963221318204  0.0748129463054678   F   F   F
  0.6666327158102430  0.6659798105016175  0.9968358105892432   T   T   T
  0.7747476906472873  0.8883091885324238  0.1495983710145294   F   F   F
  0.8927163553652202  0.7788070355991319  0.3021154619492954   T   T   T
  0.7790980927230642  0.8886668075392851  0.3811413869997385   T   T   T
  0.6694435700778960  0.6669410352284599  0.2292394839939124   T   T   T
  0.8880825806309460  0.7777941056402322  0.0756033288509804   F   F   F
  0.3374851192238348  0.3416372384453602  0.3492590805660564   T   T   T
  0.0081312819810503  0.0044557953303469  0.3415960467215119   T   T   T
  0.2218973941989595  0.1104617883986058  0.1886196848474429   F   F   F
  0.1106866702825831  0.2224623609382145  0.0367841324773078   F   F   F
  0.3296575133511560  0.0044557953323047  0.3415960467217221   T   T   T
  0.5549493374633563  0.1104610982305613  0.1907064865732657   F   F   F
  0.4451086906556018  0.2224623609385751  0.0367841324773421   F   F   F
  0.6675847913312364  0.0018355826664253  0.3444710709361596   T   T   T
  0.8888457607656339  0.1104610982286967  0.1907064865732974   F   F   F
  0.7778276912611407  0.2223213825220966  0.0367456990352871   F   F   F
  0.0070331956307063  0.3317111565564614  0.3436848784380871   T   T   T
  0.2250762023019051  0.4428115175347587  0.1892145272416572   F   F   F
  0.1107857011303841  0.5550300628056338  0.0371281241288385   F   F   F
  0.5510693152348971  0.4428115175361577  0.1892145272418376   F   F   F
  0.4446570401912966  0.5559820803822958  0.0357719418161180   F   F   F
  0.6580119609251477  0.3317111565558191  0.3436848784382788   T   T   T
  0.8892869483394835  0.4452398966784755  0.1920867129652110   F   F   F
  0.7775773616756129  0.5550300628061203  0.0371281241288551   F   F   F
 -0.0006971125572778  0.6652727748867594  0.3422394278870929   T   T   T
  0.2219510665600787  0.7777212273730167  0.1876390184172231   F   F   F
  0.1113347370108666  0.8893364740218914  0.0359384244419249   F   F   F
  0.3261703864405940  0.6726317110404451  0.3390764591166966   T   T   T
  0.5554685017895393  0.7776030035785866  0.1894689813456578   F   F   F
  0.4458190422982690  0.8894074661010433  0.0359813153770554   F   F   F
  0.6797943246029667  0.6726317110392087  0.3390764591160035   T   T   T
  0.8891031608116234  0.7777212273724426  0.1876390184171775   F   F   F
  0.7769214238028325  0.8894074661011135  0.0359813153770346   F   F   F
0.3374851192238348 0.3416372384453602 0.449259 T T T
0.446598 0.216020 0.433410 T T T 
 
  0.00000000E+00  0.00000000E+00  0.00000000E+00
  0.00000000E+00  0.00000000E+00  0.00000000E+00
  0.00000000E+00  0.00000000E+00  0.00000000E+00
  0.00000000E+00  0.00000000E+00  0.00000000E+00
  0.00000000E+00  0.00000000E+00  0.00000000E+00
  0.00000000E+00  0.00000000E+00  0.00000000E+00
  0.00000000E+00  0.00000000E+00  0.00000000E+00
  0.00000000E+00  0.00000000E+00  0.00000000E+00
  0.00000000E+00  0.00000000E+00  0.00000000E+00
  0.00000000E+00  0.00000000E+00  0.00000000E+00
  0.00000000E+00  0.00000000E+00  0.00000000E+00
  0.00000000E+00  0.00000000E+00  0.00000000E+00
  0.00000000E+00  0.00000000E+00  0.00000000E+00
  0.00000000E+00  0.00000000E+00  0.00000000E+00
  0.00000000E+00  0.00000000E+00  0.00000000E+00
  0.00000000E+00  0.00000000E+00  0.00000000E+00
  0.00000000E+00  0.00000000E+00  0.00000000E+00
  0.00000000E+00  0.00000000E+00  0.00000000E+00
  0.00000000E+00  0.00000000E+00  0.00000000E+00
  0.00000000E+00  0.00000000E+00  0.00000000E+00
  0.00000000E+00  0.00000000E+00  0.00000000E+00
  0.00000000E+00  0.00000000E+00  0.00000000E+00
  0.00000000E+00  0.00000000E+00  0.00000000E+00
  0.00000000E+00  0.00000000E+00  0.00000000E+00
  0.00000000E+00  0.00000000E+00  0.00000000E+00
  0.00000000E+00  0.00000000E+00  0.00000000E+00
  0.00000000E+00  0.00000000E+00  0.00000000E+00
  0.00000000E+00  0.00000000E+00  0.00000000E+00
  0.00000000E+00  0.00000000E+00  0.00000000E+00
  0.00000000E+00  0.00000000E+00  0.00000000E+00
  0.00000000E+00  0.00000000E+00  0.00000000E+00
  0.00000000E+00  0.00000000E+00  0.00000000E+00
  0.00000000E+00  0.00000000E+00  0.00000000E+00
  0.00000000E+00  0.00000000E+00  0.00000000E+00
  0.00000000E+00  0.00000000E+00  0.00000000E+00
  0.00000000E+00  0.00000000E+00  0.00000000E+00
  0.00000000E+00  0.00000000E+00  0.00000000E+00
  0.00000000E+00  0.00000000E+00  0.00000000E+00
  0.00000000E+00  0.00000000E+00  0.00000000E+00
  0.00000000E+00  0.00000000E+00  0.00000000E+00
  0.00000000E+00  0.00000000E+00  0.00000000E+00
  0.00000000E+00  0.00000000E+00  0.00000000E+00
  0.00000000E+00  0.00000000E+00  0.00000000E+00
  0.00000000E+00  0.00000000E+00  0.00000000E+00
  0.00000000E+00  0.00000000E+00  0.00000000E+00
  0.00000000E+00  0.00000000E+00  0.00000000E+00
  0.00000000E+00  0.00000000E+00  0.00000000E+00
  0.00000000E+00  0.00000000E+00  0.00000000E+00
  0.00000000E+00  0.00000000E+00  0.00000000E+00
  0.00000000E+00  0.00000000E+00  0.00000000E+00
  0.00000000E+00  0.00000000E+00  0.00000000E+00
  0.00000000E+00  0.00000000E+00  0.00000000E+00
  0.00000000E+00  0.00000000E+00  0.00000000E+00
  0.00000000E+00  0.00000000E+00  0.00000000E+00
  0.00000000E+00  0.00000000E+00  0.00000000E+00
  0.00000000E+00  0.00000000E+00  0.00000000E+00
  0.00000000E+00  0.00000000E+00  0.00000000E+00
  0.00000000E+00  0.00000000E+00  0.00000000E+00
  0.00000000E+00  0.00000000E+00  0.00000000E+00
  0.00000000E+00  0.00000000E+00  0.00000000E+00
  0.00000000E+00  0.00000000E+00  0.00000000E+00
  0.00000000E+00  0.00000000E+00  0.00000000E+00
  0.00000000E+00  0.00000000E+00  0.00000000E+00
  0.00000000E+00  0.00000000E+00  0.00000000E+00
  0.00000000E+00  0.00000000E+00  0.00000000E+00
  0.00000000E+00  0.00000000E+00  0.00000000E+00
  0.00000000E+00  0.00000000E+00  0.00000000E+00
  0.00000000E+00  0.00000000E+00  0.00000000E+00
  0.00000000E+00  0.00000000E+00  0.00000000E+00
  0.00000000E+00  0.00000000E+00  0.00000000E+00
  0.00000000E+00  0.00000000E+00  0.00000000E+00
  0.00000000E+00  0.00000000E+00  0.00000000E+00
  0.00000000E+00  0.00000000E+00  0.00000000E+00
  0.00000000E+00  0.00000000E+00  0.00000000E+00
  0.00000000E+00  0.00000000E+00  0.00000000E+00
  0.00000000E+00  0.00000000E+00  0.00000000E+00
  0.00000000E+00  0.00000000E+00  0.00000000E+00
  0.00000000E+00  0.00000000E+00  0.00000000E+00
  0.00000000E+00  0.00000000E+00  0.00000000E+00
  0.00000000E+00  0.00000000E+00  0.00000000E+00
