CeO2-you-111-you-Os                     
   1.00000000000000     
     9.8001823334342202   -5.6581382802178579    0.0000000000000000
     0.0000000052879148   11.3162745781703453    0.0000000000000000
     0.0000000000000000    0.0000000000000000   21.2059951529222772
   O    Os   Ce
    54     1    26
Selective dynamics
Direct
  0.0004202069468874  0.0003963993573032  0.9956871698148958   T   T   T
  0.1016077711783720  0.2174703855886034  0.1480609399889944   T   T   T
  0.2370710409589706  0.1408090819154167  0.3032373579401355   T   T   T
  0.1482473493406865  0.2407901746679335  0.3878879898572892   T   T   T
  0.0035803713580745  0.0001161852049257  0.2308466950703892   T   T   T
  0.2226561366037599  0.1119792732073970  0.0752024991652481   T   T   T
  0.3333091924105178  0.0003963993572997  0.9956871698148958   T   T   T
  0.4491956144102277  0.2174703855880849  0.1480609399889944   T   T   T
  0.5514805820368941  0.1151864179630541  0.3063441671165464   T   T   T
  0.4258758253272429  0.2407901746657931  0.3878879898572892   T   T   T
  0.3298688138468400  0.0001161852045412  0.2308466950703892   T   T   T
  0.5575289566795789  0.1091380433197974  0.0750365433742796   T   T   T
  0.6666669999999968 -0.0000000000000000  0.9941791822778625   T   T   T
  0.7774614025582306  0.2215888051165573  0.1519670832084217   T   T   T
  0.8970398359261783  0.1151864179630713  0.3063441671165464   T   T   T
  0.7774581344200999  0.2215822688399199  0.3825519177208356   T   T   T
  0.6666669999999968 -0.0000000000000000  0.2332972294673510   T   T   T
  0.8849430866404121  0.1091380433199903  0.0750365433742796   T   T   T
  0.0004202069471104  0.3333568075895797  0.9956871698148958   T   T   T
  0.1101953672378011  0.5564716327628090  0.1490918115461844   T   T   T
  0.2370710409646511  0.4295949590435498  0.3032373579401355   T   T   T
  0.1132735778509485  0.5533934221482074  0.3805329650684114   T   T   T
  0.0035803713580419  0.3367971861522857  0.2308466950703892   T   T   T
  0.2226561366040292  0.4440098633963590  0.0752024991652481   T   T   T
  0.3333330000000032  0.3333330000000032  0.9955968598822775   T   T   T
  0.4491956144113958  0.5650592288233187  0.1480609399889944   T   T   T
  0.5258579180763854  0.4295949590410286  0.3032373579401355   T   T   T
  0.4258758253320656  0.5184196506662805  0.3878879898572892   T   T   T
  0.3333330000000032  0.3333330000000032  0.2107955926502644   T   T   T
  0.5546877267922179  0.4440098633962394  0.0752024991652481   T   T   T
  0.6662706006423641  0.3333568075894774  0.9956871698148958   T   T   T
  0.7796092655248177  0.5564716327626225  0.1490918115461844   T   T   T
  0.8889464549870506  0.4445589099741926  0.3041137103214758   T   T   T
  0.7734528442975154  0.5533934221484683  0.3805329650684114   T   T   T
  0.6665508147942519  0.3367971861519155  0.2308466950703892   T   T   T
  0.8879215093670616  0.4425090187341829  0.0752448760025667   T   T   T
  0.0000000000000000  0.6666669999999968  0.9964264873276142   T   T   T
  0.1101953672373811  0.8870577344745727  0.1490918115461844   T   T   T
  0.2221070900261057  0.7777205450129462  0.3041137103214758   T   T   T
  0.1132735778515361  0.8932141557033298  0.3805329650684114   T   T   T
  0.0000000000000000  0.6666669999999968  0.2295102347015358   T   T   T
  0.2241569812660126  0.7787454906329352  0.0752448760025667   T   T   T
  0.3333091924107486  0.6662467930532194  0.9956871698148958   T   T   T
  0.4450771948837313  0.8892055974417662  0.1519670832084217   T   T   T
  0.5514805820369328  0.7696271640738747  0.3063441671165464   T   T   T
  0.4450837311591471  0.8892088655798969  0.3825519177208356   T   T   T
  0.3298688138476740  0.6630866286431586  0.2308466950703892   T   T   T
  0.5575289566800136  0.7817239133602122  0.0750365433742796   T   T   T
  0.6662706006423714  0.6662467930531203  0.9956871698148958   T   T   T
  0.7774614025580309  0.8892055974416767  0.1519670832084217   T   T   T
  0.8889464549868434  0.7777205450128543  0.3041137103214758   T   T   T
  0.7774581344207460  0.8892088655801831  0.3825519177208356   T   T   T
  0.6665508147951181  0.6630866286431730  0.2308466950703892   T   T   T
  0.8879215093669257  0.7787454906328748  0.0752448760025667   T   T   T
  0.3333330000000032  0.3333330000000032  0.3507431842780520   T   T   T
  0.0044692429592780  0.0027058654159226  0.3427289486729950   T   T   T
  0.2234250716296373  0.1135171432591239  0.1880894883955085   T   T   T
  0.1103132173132531  0.2218231086567866  0.0352175000679215   T   T   T
  0.3315696224575406  0.0027058654159084  0.3427289486729950   T   T   T
  0.5553183066477952  0.1113486933532108  0.1907360620103042   T   T   T
  0.4448428913435294  0.2218231086569271  0.0352175000679215   T   T   T
  0.6666669999999968 -0.0000000000000000  0.3456756630006700   T   T   T
  0.8893643867051082  0.1113486933529028  0.1907360620103042   T   T   T
  0.7773043819319165  0.2212747638636970  0.0353621917337080   T   T   T
  0.0044692429612895  0.3350963775433266  0.3427289486729950   T   T   T
  0.2234250716299693  0.4432409283705094  0.1880894883955085   T   T   T
  0.1111159112595844  0.5555510887395736  0.0358671245328750   T   T   T
  0.5531498567404004  0.4432409283703622  0.1880894883955085   T   T   T
  0.4448428913432129  0.5563537826862934  0.0352175000679215   T   T   T
  0.6639611345811377  0.3350963775424198  0.3427289486729950   T   T   T
  0.8888113689033450  0.4442887378066711  0.1896166255127046   T   T   T
  0.7777681774802454  0.5555510887398335  0.0358671245328750   T   T   T
 -0.0000000000000000  0.6666669999999968  0.3411021243745685   T   T   T
  0.2223772621932694  0.7778556310966518  0.1896166255127046   T   T   T
  0.1111159112601703  0.8888988225205976  0.0358671245328750   T   T   T
  0.3315696224595839  0.6621977570416573  0.3427289486729950   T   T   T
  0.5553183066471011  0.7773026132938861  0.1907360620103042   T   T   T
  0.4453912361358367  0.8893626180680803  0.0353621917337080   T   T   T
  0.6639611345811699  0.6621977570407649  0.3427289486729950   T   T   T
  0.8888113689033855  0.7778556310966699  0.1896166255127046   T   T   T
  0.7773043819322393  0.8893626180682229  0.0353621917337080   T   T   T
 
  0.00000000E+00  0.00000000E+00  0.00000000E+00
  0.00000000E+00  0.00000000E+00  0.00000000E+00
  0.00000000E+00  0.00000000E+00  0.00000000E+00
  0.00000000E+00  0.00000000E+00  0.00000000E+00
  0.00000000E+00  0.00000000E+00  0.00000000E+00
  0.00000000E+00  0.00000000E+00  0.00000000E+00
  0.00000000E+00  0.00000000E+00  0.00000000E+00
  0.00000000E+00  0.00000000E+00  0.00000000E+00
  0.00000000E+00  0.00000000E+00  0.00000000E+00
  0.00000000E+00  0.00000000E+00  0.00000000E+00
  0.00000000E+00  0.00000000E+00  0.00000000E+00
  0.00000000E+00  0.00000000E+00  0.00000000E+00
  0.00000000E+00  0.00000000E+00  0.00000000E+00
  0.00000000E+00  0.00000000E+00  0.00000000E+00
  0.00000000E+00  0.00000000E+00  0.00000000E+00
  0.00000000E+00  0.00000000E+00  0.00000000E+00
  0.00000000E+00  0.00000000E+00  0.00000000E+00
  0.00000000E+00  0.00000000E+00  0.00000000E+00
  0.00000000E+00  0.00000000E+00  0.00000000E+00
  0.00000000E+00  0.00000000E+00  0.00000000E+00
  0.00000000E+00  0.00000000E+00  0.00000000E+00
  0.00000000E+00  0.00000000E+00  0.00000000E+00
  0.00000000E+00  0.00000000E+00  0.00000000E+00
  0.00000000E+00  0.00000000E+00  0.00000000E+00
  0.00000000E+00  0.00000000E+00  0.00000000E+00
  0.00000000E+00  0.00000000E+00  0.00000000E+00
  0.00000000E+00  0.00000000E+00  0.00000000E+00
  0.00000000E+00  0.00000000E+00  0.00000000E+00
  0.00000000E+00  0.00000000E+00  0.00000000E+00
  0.00000000E+00  0.00000000E+00  0.00000000E+00
  0.00000000E+00  0.00000000E+00  0.00000000E+00
  0.00000000E+00  0.00000000E+00  0.00000000E+00
  0.00000000E+00  0.00000000E+00  0.00000000E+00
  0.00000000E+00  0.00000000E+00  0.00000000E+00
  0.00000000E+00  0.00000000E+00  0.00000000E+00
  0.00000000E+00  0.00000000E+00  0.00000000E+00
  0.00000000E+00  0.00000000E+00  0.00000000E+00
  0.00000000E+00  0.00000000E+00  0.00000000E+00
  0.00000000E+00  0.00000000E+00  0.00000000E+00
  0.00000000E+00  0.00000000E+00  0.00000000E+00
  0.00000000E+00  0.00000000E+00  0.00000000E+00
  0.00000000E+00  0.00000000E+00  0.00000000E+00
  0.00000000E+00  0.00000000E+00  0.00000000E+00
  0.00000000E+00  0.00000000E+00  0.00000000E+00
  0.00000000E+00  0.00000000E+00  0.00000000E+00
  0.00000000E+00  0.00000000E+00  0.00000000E+00
  0.00000000E+00  0.00000000E+00  0.00000000E+00
  0.00000000E+00  0.00000000E+00  0.00000000E+00
  0.00000000E+00  0.00000000E+00  0.00000000E+00
  0.00000000E+00  0.00000000E+00  0.00000000E+00
  0.00000000E+00  0.00000000E+00  0.00000000E+00
  0.00000000E+00  0.00000000E+00  0.00000000E+00
  0.00000000E+00  0.00000000E+00  0.00000000E+00
  0.00000000E+00  0.00000000E+00  0.00000000E+00
  0.00000000E+00  0.00000000E+00  0.00000000E+00
  0.00000000E+00  0.00000000E+00  0.00000000E+00
  0.00000000E+00  0.00000000E+00  0.00000000E+00
  0.00000000E+00  0.00000000E+00  0.00000000E+00
  0.00000000E+00  0.00000000E+00  0.00000000E+00
  0.00000000E+00  0.00000000E+00  0.00000000E+00
  0.00000000E+00  0.00000000E+00  0.00000000E+00
  0.00000000E+00  0.00000000E+00  0.00000000E+00
  0.00000000E+00  0.00000000E+00  0.00000000E+00
  0.00000000E+00  0.00000000E+00  0.00000000E+00
  0.00000000E+00  0.00000000E+00  0.00000000E+00
  0.00000000E+00  0.00000000E+00  0.00000000E+00
  0.00000000E+00  0.00000000E+00  0.00000000E+00
  0.00000000E+00  0.00000000E+00  0.00000000E+00
  0.00000000E+00  0.00000000E+00  0.00000000E+00
  0.00000000E+00  0.00000000E+00  0.00000000E+00
  0.00000000E+00  0.00000000E+00  0.00000000E+00
  0.00000000E+00  0.00000000E+00  0.00000000E+00
  0.00000000E+00  0.00000000E+00  0.00000000E+00
  0.00000000E+00  0.00000000E+00  0.00000000E+00
  0.00000000E+00  0.00000000E+00  0.00000000E+00
  0.00000000E+00  0.00000000E+00  0.00000000E+00
  0.00000000E+00  0.00000000E+00  0.00000000E+00
  0.00000000E+00  0.00000000E+00  0.00000000E+00
  0.00000000E+00  0.00000000E+00  0.00000000E+00
  0.00000000E+00  0.00000000E+00  0.00000000E+00
  0.00000000E+00  0.00000000E+00  0.00000000E+00
