CeO2-you-111-you-Tl                     
   1.00000000000000     
     9.8514611536192671   -5.6877441196628178    0.0000000000000000
    -0.0000000008085783   11.3754862360808389    0.0000000000000000
    -0.0000000000000000    0.0000000000000000   20.3524612342697608
   O    Tl   Ce H
    54     1    26 2
Selective dynamics
Direct
 -0.0000065348543345 -0.0004089875038211  0.9887538356685610   T   T   T
  0.1089948751401287  0.2211639375708262  0.1480264863907068   T   T   T
  0.2216254851077487  0.1099179702158925  0.3073752808107640   T   T   T
  0.1071005861297334  0.2202167930657967  0.3915744869039173   T   T   T
 -0.0006476468385148 -0.0002623176057821  0.2312412133123807   T   T   T
  0.2225274119293595  0.1117218238586773  0.0707739045806495   T   T   T
  0.3329305473505543 -0.0004089875037530  0.9887538356685610   T   T   T
  0.4455020624306936  0.2211639375715012  0.1480264863907068   T   T   T
  0.5557535303992079  0.1109134696009716  0.3089392236972971   T   T   T
  0.4464492069360593  0.2202167930666209  0.3915744869039173   T   T   T
  0.3337183292326895 -0.0002623176057110  0.2312412133123807   T   T   T
  0.5557208397851338  0.1109461602153177  0.0705937361001236   T   T   T
  0.6666669999999968  0.0000000000000000  0.9884620410648072   T   T   T
  0.7776034389483434  0.2218728778967095  0.1481816647370775   T   T   T
  0.8884939392017104  0.1109134696009177  0.3089392236972971   T   T   T
  0.7781517933289387  0.2229695866579328  0.3906484920390369   T   T   T
  0.6666669999999968  0.0000000000000000  0.2312216523314126   T   T   T
  0.8885593204300468  0.1109461602151801  0.0705937361001236   T   T   T
 -0.0000065348542498  0.3337354526496430  0.9887538356685610   T   T   T
  0.1113846891757343  0.5552823108237173  0.1483849053759407   T   T   T
  0.2216254851068503  0.4450405148918519  0.3073752808107640   T   T   T
  0.1110290037202067  0.5556379962786023  0.3895942859667923   T   T   T
 -0.0006476468386198  0.3329476707674301  0.2312412133123807   T   T   T
  0.2225274119294461  0.4441385880706784  0.0707739045806495   T   T   T
  0.3333330000000032  0.3333330000000032  0.9883950992612228   T   T   T
  0.4455020624291732  0.5576721248576798  0.1480264863907068   T   T   T
  0.5567490297854085  0.4450405148922510  0.3073752808107640   T   T   T
  0.4464492069342028  0.5595664138675894  0.3915744869039173   T   T   T
  0.3333330000000032  0.3333330000000032  0.2264981512552721   T   T   T
  0.5549451761412020  0.4441385880706398  0.0707739045806495   T   T   T
  0.6670759875038486  0.3337354526496738  0.9887538356685610   T   T   T
  0.7772306216481488  0.5552823108238867  0.1483849053759407   T   T   T
  0.8890812877073970  0.4448285754149729  0.3078282133522849   T   T   T
  0.7779419925587591  0.5556379962789698  0.3895942859667923   T   T   T
  0.6669293176060904  0.3329476707675481  0.2312412133123807   T   T   T
  0.8886223569349551  0.4439107138700193  0.0711792145400844   T   T   T
  0.0000000000000000  0.6666669999999968  0.9893981768878580   T   T   T
  0.1113846891761167  0.8894363783523999  0.1483849053759407   T   T   T
  0.2218374245856111  0.7775857122925998  0.3078282133522849   T   T   T
  0.1110290037210339  0.8887250074424318  0.3895942859667923   T   T   T
  0.0000000000000000  0.6666669999999968  0.2305699717173626   T   T   T
  0.2227552861303370  0.7780446430650417  0.0711792145400844   T   T   T
  0.3329305473504857  0.6666735348541477  0.9887538356685610   T   T   T
  0.4447931221033415  0.8890635610516534  0.1481816647370775   T   T   T
  0.5557535303990857  0.7781730607981104  0.3089392236972971   T   T   T
  0.4436964133422255  0.8885152066710581  0.3906484920390369   T   T   T
  0.3337183292324245  0.6673146468382339  0.2312412133123807   T   T   T
  0.5557208397848238  0.7781076795695026  0.0705937361001236   T   T   T
  0.6670759875036956  0.6666735348541099  0.9887538356685610   T   T   T
  0.7776034389483081  0.8890635610516374  0.1481816647370775   T   T   T
  0.8890812877069918  0.7775857122924197  0.3078282133522849   T   T   T
  0.7781517933288286  0.8885152066710088  0.3906484920390369   T   T   T
  0.6669293176059303  0.6673146468382805  0.2312412133123807   T   T   T
  0.8886223569347079  0.7780446430649325  0.0711792145400844   T   T   T
  0.3333330000000032  0.3333330000000032  0.3538906581681909   T   T   T
 -0.0003640686569276 -0.0004857162687704  0.3490452696233603   T   T   T
  0.2230641197282154  0.1127952394561400  0.1896520896357418   T   T   T
  0.1110526804881402  0.2221928402442860  0.0297121815612399   T   T   T
  0.3332113523880438 -0.0004857162687448  0.3490452696233603   T   T   T
  0.5556884304200401  0.1109785695800816  0.1896638024363455   T   T   T
  0.4444731597561419  0.2221928402444761  0.0297121815612399   T   T   T
  0.6666669999999968  0.0000000000000000  0.3498116217989681   T   T   T
  0.8886241391600060  0.1109785695800453  0.1896638024363455   T   T   T
  0.7776407622058894  0.2219475244118230  0.0297428392423799   T   T   T
 -0.0003640686571903  0.3334546476119036  0.3490452696233603   T   T   T
  0.2230641197288628  0.4436018802720715  0.1896520896357418   T   T   T
  0.1111701246070400  0.5554968753926968  0.0301654942649361   T   T   T
  0.5538717605429289  0.4436018802717842  0.1896520896357418   T   T   T
  0.4444731597557135  0.5556143195112453  0.0297121815612399   T   T   T
  0.6671527162692042  0.3334546476120457  0.3490452696233603   T   T   T
  0.8889033370172046  0.4444726740344544  0.1893672360484009   T   T   T
  0.7776597507857348  0.5554968753927790  0.0301654942649361   T   T   T
  0.0000000000000000  0.6666669999999968  0.3486861028380444   T   T   T
  0.2221933259656947  0.7777636629827922  0.1893672360484009   T   T   T
  0.1111701246072249  0.8890072492145288  0.0301654942649361   T   T   T
  0.3332113523877235  0.6670310686567248  0.3490452696233603   T   T   T
  0.5556884304199584  0.7780428608398733  0.1896638024363455   T   T   T
  0.4447184755882985  0.8890262377941074  0.0297428392423799   T   T   T
  0.6671527162691464  0.6670310686568409  0.3490452696233603   T   T   T
  0.8889033370171004  0.7777636629827456  0.1893672360484009   T   T   T
  0.7776407622058048  0.8890262377940696  0.0297428392423799   T   T   T
0.3333330000000032 0.3333330000000032 0.453891 T T T
0.446598 0.216020 0.433410 T T T 
 
  0.00000000E+00  0.00000000E+00  0.00000000E+00
  0.00000000E+00  0.00000000E+00  0.00000000E+00
  0.00000000E+00  0.00000000E+00  0.00000000E+00
  0.00000000E+00  0.00000000E+00  0.00000000E+00
  0.00000000E+00  0.00000000E+00  0.00000000E+00
  0.00000000E+00  0.00000000E+00  0.00000000E+00
  0.00000000E+00  0.00000000E+00  0.00000000E+00
  0.00000000E+00  0.00000000E+00  0.00000000E+00
  0.00000000E+00  0.00000000E+00  0.00000000E+00
  0.00000000E+00  0.00000000E+00  0.00000000E+00
  0.00000000E+00  0.00000000E+00  0.00000000E+00
  0.00000000E+00  0.00000000E+00  0.00000000E+00
  0.00000000E+00  0.00000000E+00  0.00000000E+00
  0.00000000E+00  0.00000000E+00  0.00000000E+00
  0.00000000E+00  0.00000000E+00  0.00000000E+00
  0.00000000E+00  0.00000000E+00  0.00000000E+00
  0.00000000E+00  0.00000000E+00  0.00000000E+00
  0.00000000E+00  0.00000000E+00  0.00000000E+00
  0.00000000E+00  0.00000000E+00  0.00000000E+00
  0.00000000E+00  0.00000000E+00  0.00000000E+00
  0.00000000E+00  0.00000000E+00  0.00000000E+00
  0.00000000E+00  0.00000000E+00  0.00000000E+00
  0.00000000E+00  0.00000000E+00  0.00000000E+00
  0.00000000E+00  0.00000000E+00  0.00000000E+00
  0.00000000E+00  0.00000000E+00  0.00000000E+00
  0.00000000E+00  0.00000000E+00  0.00000000E+00
  0.00000000E+00  0.00000000E+00  0.00000000E+00
  0.00000000E+00  0.00000000E+00  0.00000000E+00
  0.00000000E+00  0.00000000E+00  0.00000000E+00
  0.00000000E+00  0.00000000E+00  0.00000000E+00
  0.00000000E+00  0.00000000E+00  0.00000000E+00
  0.00000000E+00  0.00000000E+00  0.00000000E+00
  0.00000000E+00  0.00000000E+00  0.00000000E+00
  0.00000000E+00  0.00000000E+00  0.00000000E+00
  0.00000000E+00  0.00000000E+00  0.00000000E+00
  0.00000000E+00  0.00000000E+00  0.00000000E+00
  0.00000000E+00  0.00000000E+00  0.00000000E+00
  0.00000000E+00  0.00000000E+00  0.00000000E+00
  0.00000000E+00  0.00000000E+00  0.00000000E+00
  0.00000000E+00  0.00000000E+00  0.00000000E+00
  0.00000000E+00  0.00000000E+00  0.00000000E+00
  0.00000000E+00  0.00000000E+00  0.00000000E+00
  0.00000000E+00  0.00000000E+00  0.00000000E+00
  0.00000000E+00  0.00000000E+00  0.00000000E+00
  0.00000000E+00  0.00000000E+00  0.00000000E+00
  0.00000000E+00  0.00000000E+00  0.00000000E+00
  0.00000000E+00  0.00000000E+00  0.00000000E+00
  0.00000000E+00  0.00000000E+00  0.00000000E+00
  0.00000000E+00  0.00000000E+00  0.00000000E+00
  0.00000000E+00  0.00000000E+00  0.00000000E+00
  0.00000000E+00  0.00000000E+00  0.00000000E+00
  0.00000000E+00  0.00000000E+00  0.00000000E+00
  0.00000000E+00  0.00000000E+00  0.00000000E+00
  0.00000000E+00  0.00000000E+00  0.00000000E+00
  0.00000000E+00  0.00000000E+00  0.00000000E+00
  0.00000000E+00  0.00000000E+00  0.00000000E+00
  0.00000000E+00  0.00000000E+00  0.00000000E+00
  0.00000000E+00  0.00000000E+00  0.00000000E+00
  0.00000000E+00  0.00000000E+00  0.00000000E+00
  0.00000000E+00  0.00000000E+00  0.00000000E+00
  0.00000000E+00  0.00000000E+00  0.00000000E+00
  0.00000000E+00  0.00000000E+00  0.00000000E+00
  0.00000000E+00  0.00000000E+00  0.00000000E+00
  0.00000000E+00  0.00000000E+00  0.00000000E+00
  0.00000000E+00  0.00000000E+00  0.00000000E+00
  0.00000000E+00  0.00000000E+00  0.00000000E+00
  0.00000000E+00  0.00000000E+00  0.00000000E+00
  0.00000000E+00  0.00000000E+00  0.00000000E+00
  0.00000000E+00  0.00000000E+00  0.00000000E+00
  0.00000000E+00  0.00000000E+00  0.00000000E+00
  0.00000000E+00  0.00000000E+00  0.00000000E+00
  0.00000000E+00  0.00000000E+00  0.00000000E+00
  0.00000000E+00  0.00000000E+00  0.00000000E+00
  0.00000000E+00  0.00000000E+00  0.00000000E+00
  0.00000000E+00  0.00000000E+00  0.00000000E+00
  0.00000000E+00  0.00000000E+00  0.00000000E+00
  0.00000000E+00  0.00000000E+00  0.00000000E+00
  0.00000000E+00  0.00000000E+00  0.00000000E+00
  0.00000000E+00  0.00000000E+00  0.00000000E+00
  0.00000000E+00  0.00000000E+00  0.00000000E+00
  0.00000000E+00  0.00000000E+00  0.00000000E+00
