CeO2-you-111-you-Pd                     
   1.00000000000000     
     9.7930589559308263   -5.6540255964950514    0.0000000000000000
     0.0000000061946111   11.3080492137426738    0.0000000000000000
     0.0000000000000000    0.0000000000000000   21.3318176779854127
   O    Pd   Ce H
    54     1    26 1
Selective dynamics
Direct
  0.0001385643060491  0.0001045473732642  0.9967509413057973   T   T   T
  0.1019941245569964  0.2176635622784314  0.1482337035763317   F   F   F
  0.2363000437030694  0.1392670874029222  0.3032942117719371   T   T   T
  0.1276999517177933  0.2305164758556330  0.3827846152394097   T   T   T
  0.0039818238797239  0.0007903518705474  0.2311282021856961   T   T   T
  0.2225809182373734  0.1118288364743842  0.0757959453022032   F   F   F
  0.3332989830674178  0.0001045473733117  0.9967509413057973   T   T   T
  0.4490024377214312  0.2176635622783708  0.1482337035763317   F   F   F
  0.5535480617772347  0.1131189382221103  0.3047604233585346   T   T   T
  0.4361495241378359  0.2305164758527345  0.3827846152394097   T   T   T
  0.3301415279910511  0.0007903518701130  0.2311282021856961   T   T   T
  0.5574861144178203  0.1091808855814393  0.0756950286250884   F   F   F
  0.6666669999999968  0.0000000000000000  0.9951984720982125   T   T   T
  0.7778868761057476  0.2224397522116667  0.1521385155800622   F   F   F
  0.8929048764450788  0.1131189382223128  0.3047604233585346   T   T   T
  0.7776477605333257  0.2219615210665378  0.3820304340733755   T   T   T
  0.6666669999999968  0.0000000000000000  0.2320161470074354   T   T   T
  0.8850287711638487  0.1091808855816681  0.0756950286250884   F   F   F
  0.0001385643064987  0.3333670169328951  0.9967509413057973   T   T   T
  0.1103805197083271  0.5562864802931318  0.1499209815547161   F   F   F
  0.2363000437103092  0.4303659563001433  0.3032942117719371   T   T   T
  0.1143592686199616  0.5523077313797601  0.3795416680863085   T   T   T
  0.0039818238802296  0.3365244720082011  0.2311282021856961   T   T   T
  0.2225809182381829  0.4440850817629852  0.0757959453022032   F   F   F
  0.3333330000000032  0.3333330000000032  0.9964740805795671   T   T   T
  0.4490024377215678  0.5646728754432049  0.1482337035763317   F   F   F
  0.5273999125866283  0.4303659562969299  0.3032942117719371   T   T   T
  0.4361495241443664  0.5389670482916397  0.3827846152394097   T   T   T
  0.3333330000000032  0.3333330000000032  0.2113415553415251   T   T   T
  0.5548381635244507  0.4440850817626260  0.0757959453022032   F   F   F
  0.6665624526261907  0.3333670169327430  0.9967509413057973   T   T   T
  0.7792389605843533  0.5562864802926846  0.1499209815547161   F   F   F
  0.8889420710453735  0.4445501420908395  0.3041087631702708   T   T   T
  0.7712814627598813  0.5523077313798469  0.3795416680863085   T   T   T
  0.6658766481277406  0.3365244720075423  0.2311282021856961   T   T   T
  0.8881938117381702  0.4430536234765027  0.0763745903982613   F   F   F
 -0.0000000000000000  0.6666669999999968  0.9973718919839929   T   T   T
  0.1103805197073195  0.8874280394141886  0.1499209815547161   F   F   F
  0.2221158579094621  0.7777249289546233  0.3041087631702708   T   T   T
  0.1143592686201572  0.8953855372403982  0.3795416680863085   T   T   T
 -0.0000000000000000  0.6666669999999968  0.2300809711196941   T   T   T
  0.2236123765240267  0.7784731882618265  0.0763745903982613   F   F   F
  0.3332989830677606  0.6665284356939928  0.9967509413057973   T   T   T
  0.4442262477888700  0.8887801238942492  0.1521385155800622   F   F   F
  0.5535480617776910  0.7737621235555768  0.3047604233585346   T   T   T
  0.4447044789330703  0.8890192394666711  0.3820304340733755   T   T   T
  0.3301415279925355  0.6626851761219106  0.2311282021856961   T   T   T
  0.5574861144183357  0.7816382288368925  0.0756950286250884   F   F   F
  0.6665624526260836  0.6665284356937934  0.9967509413057973   T   T   T
  0.7778868761053753  0.8887801238940842  0.1521385155800622   F   F   F
  0.8889420710451643  0.7777249289545303  0.3041087631702708   T   T   T
  0.7776477605335970  0.8890192394667911  0.3820304340733755   T   T   T
  0.6658766481287193  0.6626851761216859  0.2311282021856961   T   T   T
  0.8881938117378030  0.7784731882616637  0.0763745903982613   F   F   F
  0.3333330000000032  0.3333330000000032  0.3454083276349392   T   T   T
  0.0050389647038233  0.0055436236297454  0.3426169337075564   T   T   T
  0.2235209980402151  0.1137089960812256  0.1879392198029143   F   F   F
  0.1102083235254245  0.2217706617631410  0.0359557024537293   F   F   F
  0.3338376589260513  0.0055436236297350  0.3426169337075564   T   T   T
  0.5555208251502252  0.1111461748522829  0.1906029422800115   F   F   F
  0.4448953382377126  0.2217706617635201  0.0359557024537293   F   F   F
  0.6666669999999968  0.0000000000000000  0.3448011619657803   T   T   T
  0.8889593497012884  0.1111461748515131  0.1906029422800115   F   F   F
  0.7773805266926321  0.2214270533850669  0.0362981682964601   F   F   F
  0.0050389647041070  0.3328283410740573  0.3426169337075564   T   T   T
  0.2235209980384157  0.4431450019589857  0.1879392198029143   F   F   F
  0.1109834740913484  0.5556835259070420  0.0369909248345861   F   F   F
  0.5529580039213764  0.4431450019597843  0.1879392198029143   F   F   F
  0.4448953382368583  0.5564586764733461  0.0359557024537293   F   F   F
  0.6611233763698182  0.3328283410739211  0.3426169337075564   T   T   T
  0.8888434735335782  0.4443529470665935  0.1905239228030857   F   F   F
  0.7780330518161859  0.5556835259075383  0.0369909248345861   F   F   F
 -0.0000000000000000  0.6666669999999968  0.3407476454528059   T   T   T
  0.2223130529315765  0.7778235264664186  0.1905239228030857   F   F   F
  0.1109834740924659  0.8886339481854244  0.0369909248345861   F   F   F
  0.3338376589263585  0.6616280352963336  0.3426169337075564   T   T   T
  0.5555208251484910  0.7777076502962040  0.1906029422800115   F   F   F
  0.4452389466142695  0.8892864733073647  0.0362981682964601   F   F   F
  0.6611233763698415  0.6616280352962075  0.3426169337075564   T   T   T
  0.8888434735348455  0.7778235264669807  0.1905239228030857   F   F   F
  0.7773805266930912  0.8892864733075684  0.0362981682964601   F   F   F
0.446598 0.216020 0.433410 T T T 
 
  0.00000000E+00  0.00000000E+00  0.00000000E+00
  0.00000000E+00  0.00000000E+00  0.00000000E+00
  0.00000000E+00  0.00000000E+00  0.00000000E+00
  0.00000000E+00  0.00000000E+00  0.00000000E+00
  0.00000000E+00  0.00000000E+00  0.00000000E+00
  0.00000000E+00  0.00000000E+00  0.00000000E+00
  0.00000000E+00  0.00000000E+00  0.00000000E+00
  0.00000000E+00  0.00000000E+00  0.00000000E+00
  0.00000000E+00  0.00000000E+00  0.00000000E+00
  0.00000000E+00  0.00000000E+00  0.00000000E+00
  0.00000000E+00  0.00000000E+00  0.00000000E+00
  0.00000000E+00  0.00000000E+00  0.00000000E+00
  0.00000000E+00  0.00000000E+00  0.00000000E+00
  0.00000000E+00  0.00000000E+00  0.00000000E+00
  0.00000000E+00  0.00000000E+00  0.00000000E+00
  0.00000000E+00  0.00000000E+00  0.00000000E+00
  0.00000000E+00  0.00000000E+00  0.00000000E+00
  0.00000000E+00  0.00000000E+00  0.00000000E+00
  0.00000000E+00  0.00000000E+00  0.00000000E+00
  0.00000000E+00  0.00000000E+00  0.00000000E+00
  0.00000000E+00  0.00000000E+00  0.00000000E+00
  0.00000000E+00  0.00000000E+00  0.00000000E+00
  0.00000000E+00  0.00000000E+00  0.00000000E+00
  0.00000000E+00  0.00000000E+00  0.00000000E+00
  0.00000000E+00  0.00000000E+00  0.00000000E+00
  0.00000000E+00  0.00000000E+00  0.00000000E+00
  0.00000000E+00  0.00000000E+00  0.00000000E+00
  0.00000000E+00  0.00000000E+00  0.00000000E+00
  0.00000000E+00  0.00000000E+00  0.00000000E+00
  0.00000000E+00  0.00000000E+00  0.00000000E+00
  0.00000000E+00  0.00000000E+00  0.00000000E+00
  0.00000000E+00  0.00000000E+00  0.00000000E+00
  0.00000000E+00  0.00000000E+00  0.00000000E+00
  0.00000000E+00  0.00000000E+00  0.00000000E+00
  0.00000000E+00  0.00000000E+00  0.00000000E+00
  0.00000000E+00  0.00000000E+00  0.00000000E+00
  0.00000000E+00  0.00000000E+00  0.00000000E+00
  0.00000000E+00  0.00000000E+00  0.00000000E+00
  0.00000000E+00  0.00000000E+00  0.00000000E+00
  0.00000000E+00  0.00000000E+00  0.00000000E+00
  0.00000000E+00  0.00000000E+00  0.00000000E+00
  0.00000000E+00  0.00000000E+00  0.00000000E+00
  0.00000000E+00  0.00000000E+00  0.00000000E+00
  0.00000000E+00  0.00000000E+00  0.00000000E+00
  0.00000000E+00  0.00000000E+00  0.00000000E+00
  0.00000000E+00  0.00000000E+00  0.00000000E+00
  0.00000000E+00  0.00000000E+00  0.00000000E+00
  0.00000000E+00  0.00000000E+00  0.00000000E+00
  0.00000000E+00  0.00000000E+00  0.00000000E+00
  0.00000000E+00  0.00000000E+00  0.00000000E+00
  0.00000000E+00  0.00000000E+00  0.00000000E+00
  0.00000000E+00  0.00000000E+00  0.00000000E+00
  0.00000000E+00  0.00000000E+00  0.00000000E+00
  0.00000000E+00  0.00000000E+00  0.00000000E+00
  0.00000000E+00  0.00000000E+00  0.00000000E+00
  0.00000000E+00  0.00000000E+00  0.00000000E+00
  0.00000000E+00  0.00000000E+00  0.00000000E+00
  0.00000000E+00  0.00000000E+00  0.00000000E+00
  0.00000000E+00  0.00000000E+00  0.00000000E+00
  0.00000000E+00  0.00000000E+00  0.00000000E+00
  0.00000000E+00  0.00000000E+00  0.00000000E+00
  0.00000000E+00  0.00000000E+00  0.00000000E+00
  0.00000000E+00  0.00000000E+00  0.00000000E+00
  0.00000000E+00  0.00000000E+00  0.00000000E+00
  0.00000000E+00  0.00000000E+00  0.00000000E+00
  0.00000000E+00  0.00000000E+00  0.00000000E+00
  0.00000000E+00  0.00000000E+00  0.00000000E+00
  0.00000000E+00  0.00000000E+00  0.00000000E+00
  0.00000000E+00  0.00000000E+00  0.00000000E+00
  0.00000000E+00  0.00000000E+00  0.00000000E+00
  0.00000000E+00  0.00000000E+00  0.00000000E+00
  0.00000000E+00  0.00000000E+00  0.00000000E+00
  0.00000000E+00  0.00000000E+00  0.00000000E+00
  0.00000000E+00  0.00000000E+00  0.00000000E+00
  0.00000000E+00  0.00000000E+00  0.00000000E+00
  0.00000000E+00  0.00000000E+00  0.00000000E+00
  0.00000000E+00  0.00000000E+00  0.00000000E+00
  0.00000000E+00  0.00000000E+00  0.00000000E+00
  0.00000000E+00  0.00000000E+00  0.00000000E+00
  0.00000000E+00  0.00000000E+00  0.00000000E+00
  0.00000000E+00  0.00000000E+00  0.00000000E+00
