CeO2-you-111-you-Ca                     
   1.00000000000000     
     9.8461627146616539   -5.6905050017676553   -0.0001294330104482
    -0.0000000001760011   11.3810080003937752    0.0000000000230390
    -0.0006274651646469    0.0000000000866862   20.8933217243320435
   O    Ca   Ce   H 
    53     1    26     2
Selective dynamics
Direct
  0.9991159220916255  0.0005869115752914  0.9950118842865334   T   T   T
  0.1157630329378421  0.2245480164686029  0.1513176125470466   F   F   F
  0.2232424484129231  0.1052082264356405  0.3056330682358387   T   T   T
  0.0969738080758566  0.2141655519387085  0.3877590592090409   T   T   T
  0.0007639488740447  0.0015621403866429  0.2286974999757856   T   T   T
  0.2212461733511191  0.1099684046277645  0.0743477086715103   F   F   F
  0.3324684186173936  0.9993495035574117  0.9934828440084321   T   T   T
  0.4452945947395506  0.2202119560243858  0.1463878220987453   F   F   F
  0.5494899144135887  0.1056996082969242  0.3061190385141875   T   T   T
  0.4412728222762947  0.2237992557919317  0.3983675494539987   T   T   T
  0.3336169636534271 -0.0012491907068268  0.2289981501113136   T   T   T
  0.5552119749772473  0.1093801650747181  0.0731934129962966   F   F   F
  0.6690017434045591  0.0011040094478142  0.9945116685529080   T   T   T
  0.7742276064033007  0.2265253714905597  0.1511409663788612   F   F   F
  0.8872958595901337  0.1085814231757794  0.3036957338098446   T   T   T
  0.7828440948865301  0.2160888976655043  0.3885280805979502   T   T   T
  0.6670436851265255  0.0020800058818342  0.2281100512269189   T   T   T
  0.8881122221019311  0.1107226110509458  0.0771839113715842   F   F   F
  0.9987339629859183  0.3309970670536357  0.9949511300746012   T   T   T
  0.1107083675106040  0.5556356033111669  0.1509633467848346   F   F   F
  0.2175631453380924  0.4463721170527704  0.3042663887528386   T   T   T
  0.1150136887095465  0.5589321215664224  0.3873935966421114   T   T   T
  0.9985665454764896  0.3307610599454532  0.2285852072477025   T   T   T
  0.2212461733509912  0.4446107687233223  0.0743477086715174   F   F   F
  0.3307048903726364  0.3320979972389518  0.9940938879141992   T   T   T
  0.4452945947380016  0.5584166387160607  0.1463878220985464   F   F   F
  0.4598992211880736  0.5585198269888096  0.3774600638989063   T   T   T
  0.3490740723180006  0.3405609592059546  0.2312113261168978   T   T   T
  0.5550562141234394  0.4441941070620175  0.0709648424299161   F   F   F
  0.6676090237248714  0.3328285413692414  0.9938527289966526   T   T   T
  0.7788485776842791  0.5560912888413583  0.1470453133638046   F   F   F
  0.8969060668391683  0.4468486272854965  0.3055409255579453   T   T   T
  0.7717995494321657  0.5618374136387553  0.3815785688982674   T   T   T
  0.6574239950976243  0.3423603317205010  0.2343009574398507   T   T   T
  0.8901155585031972  0.4446549988279358  0.0743958721179112   F   F   F
  0.0002099976887770  0.6668963429588232  0.9942178205831798   T   T   T
  0.1107083675101563  0.8884067641984217  0.1509633467847635   F   F   F
  0.2217306054834943  0.7748399211738027  0.3038572665164451   T   T   T
  0.1128237701115631  0.8842733433928297  0.3866961798107312   T   T   T
  0.9978072516594533  0.6667761666518964  0.2303195221839083   T   T   T
  0.2223866085283035  0.7778603042640810  0.0747014545475153   F   F   F
  0.3325730663541670  0.6664558637066847  0.9935196895181088   T   T   T
  0.4447850646310840  0.8890595323156276  0.1496350837883824   F   F   F
  0.5601968530168073  0.7852694316103029  0.3039023457635974   T   T   T
  0.4410672297201982  0.8845003656759860  0.3857717059248034   T   T   T
  0.3365693277761768  0.6674504188975605  0.2297053886525545   T   T   T
  0.5552119749772970  0.7791648099027881  0.0731934129962468   F   F   F
  0.6676867483955183  0.6683452038515065  0.9940133668570573   T   T   T
  0.7742276064023983  0.8810352349123676  0.1511409663789749   F   F   F
  0.8928883514643612  0.7852350201459941  0.3049478900608195   T   T   T
  0.7792280570781283  0.8936287921282519  0.3884266907970975   T   T   T
  0.6578157157809466  0.6470468485943744  0.2361489982929880   T   T   T
  0.8901155585033962  0.7787935596751865  0.0743958721178117   F   F   F
  0.3152072577633637  0.3272301486580601  0.3469196230466571   T   T   T
  0.0042725365465125  0.0050363861620917  0.3456572838843758   T   T   T
  0.2239796187373955  0.1133418262533539  0.1920492495226185   F   F   F
  0.1111833560791027  0.2222581780394535  0.0355944433043618   F   F   F
  0.3278626854370865 -0.0096432861555185  0.3436131586301689   T   T   T
  0.5552920220921393  0.1113535876708553  0.1897571262827924   F   F   F
  0.4428941624815934  0.2196408256877334  0.0325385150889943   F   F   F
  0.6667678440774389  0.0013523926835714  0.3452807111711207   T   T   T
  0.8887793334090048  0.1110561667053531  0.1904915070032445   F   F   F
  0.7778256194205184  0.2224276632330913  0.0346727367147679   F   F   F
  0.0030197936613328  0.3323693464425820  0.3461420635364875   T   T   T
  0.2239796187373315  0.4439707924831353  0.1920492495225687   F   F   F
  0.1106351522538489  0.5545816056713235  0.0352548772333421   F   F   F
  0.5533831622507037  0.4433575811231805  0.1813779990117794   F   F   F
  0.4428941624815721  0.5565873367935907  0.0325385150890014   F   F   F
  0.6761095843843539  0.3296810283372098  0.3508723606879069   T   T   T
  0.8883887046318861  0.4449172710692011  0.1909928615283008   F   F   F
  0.7800223106143278  0.5566781553070896  0.0329415065313228   F   F   F
  0.0005083009359277  0.6661286945096027  0.3452430972868394   T   T   T
  0.2225151427819512  0.7779245713916083  0.1893468719322513   F   F   F
  0.1106351522538418  0.8893875465830305  0.0352548772333137   F   F   F
  0.3344652392746401  0.6626191009490753  0.3447318107051517   T   T   T
  0.5552920220949318  0.7772714344207117  0.1897571262828066   F   F   F
  0.4447671814508993  0.8890505907252830  0.0341805212624990   F   F   F
  0.6740050115190462  0.6822971261003706  0.3487735491537936   T   T   T
  0.8883887046345080  0.7768044335673636  0.1909928615283008   F   F   F
  0.7778256194208808  0.8887309561875796  0.0346727367148176   F   F   F
  0.3028788613633114  0.3287863710493771  0.4817309048487217   T   T   T
  0.4305634092053243  0.2300952755581852  0.4442630115487748   T   T   T
 
  0.00000000E+00  0.00000000E+00  0.00000000E+00
  0.00000000E+00  0.00000000E+00  0.00000000E+00
  0.00000000E+00  0.00000000E+00  0.00000000E+00
  0.00000000E+00  0.00000000E+00  0.00000000E+00
  0.00000000E+00  0.00000000E+00  0.00000000E+00
  0.00000000E+00  0.00000000E+00  0.00000000E+00
  0.00000000E+00  0.00000000E+00  0.00000000E+00
  0.00000000E+00  0.00000000E+00  0.00000000E+00
  0.00000000E+00  0.00000000E+00  0.00000000E+00
  0.00000000E+00  0.00000000E+00  0.00000000E+00
  0.00000000E+00  0.00000000E+00  0.00000000E+00
  0.00000000E+00  0.00000000E+00  0.00000000E+00
  0.00000000E+00  0.00000000E+00  0.00000000E+00
  0.00000000E+00  0.00000000E+00  0.00000000E+00
  0.00000000E+00  0.00000000E+00  0.00000000E+00
  0.00000000E+00  0.00000000E+00  0.00000000E+00
  0.00000000E+00  0.00000000E+00  0.00000000E+00
  0.00000000E+00  0.00000000E+00  0.00000000E+00
  0.00000000E+00  0.00000000E+00  0.00000000E+00
  0.00000000E+00  0.00000000E+00  0.00000000E+00
  0.00000000E+00  0.00000000E+00  0.00000000E+00
  0.00000000E+00  0.00000000E+00  0.00000000E+00
  0.00000000E+00  0.00000000E+00  0.00000000E+00
  0.00000000E+00  0.00000000E+00  0.00000000E+00
  0.00000000E+00  0.00000000E+00  0.00000000E+00
  0.00000000E+00  0.00000000E+00  0.00000000E+00
  0.00000000E+00  0.00000000E+00  0.00000000E+00
  0.00000000E+00  0.00000000E+00  0.00000000E+00
  0.00000000E+00  0.00000000E+00  0.00000000E+00
  0.00000000E+00  0.00000000E+00  0.00000000E+00
  0.00000000E+00  0.00000000E+00  0.00000000E+00
  0.00000000E+00  0.00000000E+00  0.00000000E+00
  0.00000000E+00  0.00000000E+00  0.00000000E+00
  0.00000000E+00  0.00000000E+00  0.00000000E+00
  0.00000000E+00  0.00000000E+00  0.00000000E+00
  0.00000000E+00  0.00000000E+00  0.00000000E+00
  0.00000000E+00  0.00000000E+00  0.00000000E+00
  0.00000000E+00  0.00000000E+00  0.00000000E+00
  0.00000000E+00  0.00000000E+00  0.00000000E+00
  0.00000000E+00  0.00000000E+00  0.00000000E+00
  0.00000000E+00  0.00000000E+00  0.00000000E+00
  0.00000000E+00  0.00000000E+00  0.00000000E+00
  0.00000000E+00  0.00000000E+00  0.00000000E+00
  0.00000000E+00  0.00000000E+00  0.00000000E+00
  0.00000000E+00  0.00000000E+00  0.00000000E+00
  0.00000000E+00  0.00000000E+00  0.00000000E+00
  0.00000000E+00  0.00000000E+00  0.00000000E+00
  0.00000000E+00  0.00000000E+00  0.00000000E+00
  0.00000000E+00  0.00000000E+00  0.00000000E+00
  0.00000000E+00  0.00000000E+00  0.00000000E+00
  0.00000000E+00  0.00000000E+00  0.00000000E+00
  0.00000000E+00  0.00000000E+00  0.00000000E+00
  0.00000000E+00  0.00000000E+00  0.00000000E+00
  0.00000000E+00  0.00000000E+00  0.00000000E+00
  0.00000000E+00  0.00000000E+00  0.00000000E+00
  0.00000000E+00  0.00000000E+00  0.00000000E+00
  0.00000000E+00  0.00000000E+00  0.00000000E+00
  0.00000000E+00  0.00000000E+00  0.00000000E+00
  0.00000000E+00  0.00000000E+00  0.00000000E+00
  0.00000000E+00  0.00000000E+00  0.00000000E+00
  0.00000000E+00  0.00000000E+00  0.00000000E+00
  0.00000000E+00  0.00000000E+00  0.00000000E+00
  0.00000000E+00  0.00000000E+00  0.00000000E+00
  0.00000000E+00  0.00000000E+00  0.00000000E+00
  0.00000000E+00  0.00000000E+00  0.00000000E+00
  0.00000000E+00  0.00000000E+00  0.00000000E+00
  0.00000000E+00  0.00000000E+00  0.00000000E+00
  0.00000000E+00  0.00000000E+00  0.00000000E+00
  0.00000000E+00  0.00000000E+00  0.00000000E+00
  0.00000000E+00  0.00000000E+00  0.00000000E+00
  0.00000000E+00  0.00000000E+00  0.00000000E+00
  0.00000000E+00  0.00000000E+00  0.00000000E+00
  0.00000000E+00  0.00000000E+00  0.00000000E+00
  0.00000000E+00  0.00000000E+00  0.00000000E+00
  0.00000000E+00  0.00000000E+00  0.00000000E+00
  0.00000000E+00  0.00000000E+00  0.00000000E+00
  0.00000000E+00  0.00000000E+00  0.00000000E+00
  0.00000000E+00  0.00000000E+00  0.00000000E+00
  0.00000000E+00  0.00000000E+00  0.00000000E+00
  0.00000000E+00  0.00000000E+00  0.00000000E+00
  0.00000000E+00  0.00000000E+00  0.00000000E+00
  0.00000000E+00  0.00000000E+00  0.00000000E+00
