CeO2-you-111-you-In                     
   1.00000000000000     
     9.8344068777832554   -5.6778978292182503    0.0000000000000000
     0.0000000010307913   11.3557936618430588    0.0000000000000000
     0.0000000000000000    0.0000000000000000   21.2771477297786440
   O    In   Ce   H 
    54     1    26     1
Selective dynamics
Direct
  0.9998599743950164  0.9999003768393881  0.9975430502646712   T   T   T
  0.1104253738421619  0.2218791869211074  0.1501259939968378   F   F   F
  0.2341940328039105  0.1184310426076846  0.3046529271839188   T   T   T
  0.1146498360597119  0.2236839563810025  0.3803342035699215   T   T   T
  0.0021526068100968  0.0010533062948704  0.2305152045035024   T   T   T
  0.2223413099398499  0.1113496198796966  0.0762129989308988   F   F   F
  0.3333192522594552  0.9999182479451580  0.9970663123680469   T   T   T
  0.4447868130789487  0.2218791869211358  0.1501259939968378   F   F   F
  0.5508514907851652  0.1154782899483615  0.3056262126207483   T   T   T
  0.4402621424687727  0.2258503925448046  0.3971449854409115   T   T   T
  0.3323761985284683 -0.0022650519131004  0.2291874599637301   T   T   T
  0.5555860593898956  0.1110809406100941  0.0763854098083812   F   F   F
  0.6668816513959994 -0.0000048044541679  0.9970352247647073   T   T   T
  0.7778032938339905  0.2222725876679945  0.1503546984326434   F   F   F
  0.8889001895970512  0.1108740523859127  0.3040751955629168   T   T   T
  0.7771175111863675  0.2231672984584909  0.3819381285356966   T   T   T
  0.6656572461341798  0.0012255102550320  0.2304247369986901   T   T   T
  0.8888288812202063  0.1110809406101012  0.0763854098083812   F   F   F
  0.9997675820898378  0.3332134050553024  0.9971363408517778   T   T   T
  0.1110561093001650  0.5556108906998389  0.1501630079912317   F   F   F
  0.2219626524095336  0.4452880048527690  0.3016923613404738   T   T   T
  0.1116777431589824  0.5553647468630269  0.3821753391533694   T   T   T
 -0.0013518290478565  0.3317743156096423  0.2293681086476591   T   T   T
  0.2223413099398641  0.4443246900601565  0.0762129989308988   F   F   F
  0.3332921813885435  0.3332758270741897  0.9970051416793598   T   T   T
  0.4447868130788919  0.5562416261577567  0.1501259939968378   F   F   F
  0.5485826847564641  0.4326520124415525  0.3046744948603360   T   T   T
  0.4429120074817912  0.5514444250248766  0.3803578190360877   T   T   T
  0.3325576047314962  0.3335774992207095  0.2267492388911191   T   T   T
  0.5553173801202931  0.4443246900601494  0.0762129989308988   F   F   F
  0.6666754288975435  0.3333392583372538  0.9972930816270572   T   T   T
  0.7778877813996701  0.5556108906998389  0.1501630079912317   F   F   F
  0.8906913591797376  0.4460384160906191  0.3033535294317600   T   T   T
  0.7770595911770010  0.5538694337777540  0.3819397691226926   T   T   T
  0.6686810337091492  0.3338123003973835  0.2291855563537147   T   T   T
  0.8887879666479606  0.4442419332959489  0.0763501453081759   F   F   F
 -0.0001444470544500  0.6668067341050220  0.9973970933398623   T   T   T
  0.1110561093001650  0.8887792186003267  0.1501630079912317   F   F   F
  0.2213931718743995  0.7762197034490871  0.3034399004044327   T   T   T
  0.1125972416093653  0.8895019648387616  0.3818330810409838   T   T   T
 -0.0003047062250474  0.6671202072825303  0.2293604692666849   T   T   T
  0.2224240667041286  0.7778790333520362  0.0763501453081759   F   F   F
  0.3334123482014077  0.6668854723433044  0.9973070206586069   T   T   T
  0.4443934123320332  0.8888637061660063  0.1503546984326434   F   F   F
  0.5562033533754809  0.7778593056495037  0.3040114797551096   T   T   T
  0.4440775411443654  0.8892984853175890  0.3821013494521422   T   T   T
  0.3349376150438711  0.6682141370037581  0.2293082483388393   T   T   T
  0.5555860593899027  0.7778381187798047  0.0763854098083812   F   F   F
  0.6669864678494068  0.6670999775125382  0.9971279752563832   T   T   T
  0.7778032938339763  0.8888637061659992  0.1503546984326434   F   F   F
  0.8888426375977883  0.7776801887507154  0.3040554656299645   T   T   T
  0.7771977193795965  0.8893237492918759  0.3822974079683908   T   T   T
  0.6655908033702780  0.6641823721609289  0.2304965123162338   T   T   T
  0.8887879666479108  0.7778790333520078  0.0763501453081759   F   F   F
  0.3299235459975394  0.3367850496213587  0.3388936577087598   T   T   T
  0.0026623856722579  0.0031404270214234  0.3428957271792619   T   T   T
  0.2228656326234031  0.1123982652466822  0.1900796847643420   F   F   F
  0.1111656284643914  0.2222493142321937  0.0369044101153122   F   F   F
  0.3292012996403529 -0.0058792844777879  0.3413715629106866   T   T   T
  0.5553841520464289  0.1112828479536603  0.1897518834246128   F   F   F
  0.4444166857677985  0.2222493142321866  0.0369044101153122   F   F   F
  0.6667708086100956 -0.0001098204187831  0.3434114727840794   T   T   T
  0.8892326959072037  0.1112828479536319  0.1897518834246128   F   F   F
  0.7777983836755098  0.2222627673510118  0.0368108183140521   F   F   F
  0.0035370695212065  0.3335306739263876  0.3425920975234609   T   T   T
  0.2228656326236660  0.4438003673767170  0.1900796847643420   F   F   F
  0.1111625290207812  0.5555044709792298  0.0369905817747878   F   F   F
  0.5542687347529380  0.4438003673765962  0.1900796847643420   F   F   F
  0.4444166857678056  0.5555013715356267  0.0369044101153122   F   F   F
  0.6724762366736275  0.3374506792427318  0.3414072003679018   T   T   T
  0.8889342557669622  0.4445345115338739  0.1896246024605759   F   F   F
  0.7776749419584377  0.5555044709792227  0.0369905817747878   F   F   F
  0.0000888380621878  0.6666637932222171  0.3424160306053804   T   T   T
  0.2221314884659691  0.7777327442330346  0.1896246024605759   F   F   F
  0.1111625290207812  0.8889920580415520  0.0369905817747878   F   F   F
  0.3334770001970897  0.6632594790904028  0.3426372896628289   T   T   T
  0.5553841520463720  0.7774343040927079  0.1897518834246128   F   F   F
  0.4444032326489520  0.8888686163244870  0.0368108183140521   F   F   F
  0.6636338056247728  0.6638427360254918  0.3429282536300481   T   T   T
  0.8889342557670759  0.7777327442330844  0.1896246024605759   F   F   F
  0.7777983836755311  0.8888686163245012  0.0368108183140521   F   F   F
  0.4355035749965311  0.2301354864211250  0.4427321542497588   T   T   T
 
  0.00000000E+00  0.00000000E+00  0.00000000E+00
  0.00000000E+00  0.00000000E+00  0.00000000E+00
  0.00000000E+00  0.00000000E+00  0.00000000E+00
  0.00000000E+00  0.00000000E+00  0.00000000E+00
  0.00000000E+00  0.00000000E+00  0.00000000E+00
  0.00000000E+00  0.00000000E+00  0.00000000E+00
  0.00000000E+00  0.00000000E+00  0.00000000E+00
  0.00000000E+00  0.00000000E+00  0.00000000E+00
  0.00000000E+00  0.00000000E+00  0.00000000E+00
  0.00000000E+00  0.00000000E+00  0.00000000E+00
  0.00000000E+00  0.00000000E+00  0.00000000E+00
  0.00000000E+00  0.00000000E+00  0.00000000E+00
  0.00000000E+00  0.00000000E+00  0.00000000E+00
  0.00000000E+00  0.00000000E+00  0.00000000E+00
  0.00000000E+00  0.00000000E+00  0.00000000E+00
  0.00000000E+00  0.00000000E+00  0.00000000E+00
  0.00000000E+00  0.00000000E+00  0.00000000E+00
  0.00000000E+00  0.00000000E+00  0.00000000E+00
  0.00000000E+00  0.00000000E+00  0.00000000E+00
  0.00000000E+00  0.00000000E+00  0.00000000E+00
  0.00000000E+00  0.00000000E+00  0.00000000E+00
  0.00000000E+00  0.00000000E+00  0.00000000E+00
  0.00000000E+00  0.00000000E+00  0.00000000E+00
  0.00000000E+00  0.00000000E+00  0.00000000E+00
  0.00000000E+00  0.00000000E+00  0.00000000E+00
  0.00000000E+00  0.00000000E+00  0.00000000E+00
  0.00000000E+00  0.00000000E+00  0.00000000E+00
  0.00000000E+00  0.00000000E+00  0.00000000E+00
  0.00000000E+00  0.00000000E+00  0.00000000E+00
  0.00000000E+00  0.00000000E+00  0.00000000E+00
  0.00000000E+00  0.00000000E+00  0.00000000E+00
  0.00000000E+00  0.00000000E+00  0.00000000E+00
  0.00000000E+00  0.00000000E+00  0.00000000E+00
  0.00000000E+00  0.00000000E+00  0.00000000E+00
  0.00000000E+00  0.00000000E+00  0.00000000E+00
  0.00000000E+00  0.00000000E+00  0.00000000E+00
  0.00000000E+00  0.00000000E+00  0.00000000E+00
  0.00000000E+00  0.00000000E+00  0.00000000E+00
  0.00000000E+00  0.00000000E+00  0.00000000E+00
  0.00000000E+00  0.00000000E+00  0.00000000E+00
  0.00000000E+00  0.00000000E+00  0.00000000E+00
  0.00000000E+00  0.00000000E+00  0.00000000E+00
  0.00000000E+00  0.00000000E+00  0.00000000E+00
  0.00000000E+00  0.00000000E+00  0.00000000E+00
  0.00000000E+00  0.00000000E+00  0.00000000E+00
  0.00000000E+00  0.00000000E+00  0.00000000E+00
  0.00000000E+00  0.00000000E+00  0.00000000E+00
  0.00000000E+00  0.00000000E+00  0.00000000E+00
  0.00000000E+00  0.00000000E+00  0.00000000E+00
  0.00000000E+00  0.00000000E+00  0.00000000E+00
  0.00000000E+00  0.00000000E+00  0.00000000E+00
  0.00000000E+00  0.00000000E+00  0.00000000E+00
  0.00000000E+00  0.00000000E+00  0.00000000E+00
  0.00000000E+00  0.00000000E+00  0.00000000E+00
  0.00000000E+00  0.00000000E+00  0.00000000E+00
  0.00000000E+00  0.00000000E+00  0.00000000E+00
  0.00000000E+00  0.00000000E+00  0.00000000E+00
  0.00000000E+00  0.00000000E+00  0.00000000E+00
  0.00000000E+00  0.00000000E+00  0.00000000E+00
  0.00000000E+00  0.00000000E+00  0.00000000E+00
  0.00000000E+00  0.00000000E+00  0.00000000E+00
  0.00000000E+00  0.00000000E+00  0.00000000E+00
  0.00000000E+00  0.00000000E+00  0.00000000E+00
  0.00000000E+00  0.00000000E+00  0.00000000E+00
  0.00000000E+00  0.00000000E+00  0.00000000E+00
  0.00000000E+00  0.00000000E+00  0.00000000E+00
  0.00000000E+00  0.00000000E+00  0.00000000E+00
  0.00000000E+00  0.00000000E+00  0.00000000E+00
  0.00000000E+00  0.00000000E+00  0.00000000E+00
  0.00000000E+00  0.00000000E+00  0.00000000E+00
  0.00000000E+00  0.00000000E+00  0.00000000E+00
  0.00000000E+00  0.00000000E+00  0.00000000E+00
  0.00000000E+00  0.00000000E+00  0.00000000E+00
  0.00000000E+00  0.00000000E+00  0.00000000E+00
  0.00000000E+00  0.00000000E+00  0.00000000E+00
  0.00000000E+00  0.00000000E+00  0.00000000E+00
  0.00000000E+00  0.00000000E+00  0.00000000E+00
  0.00000000E+00  0.00000000E+00  0.00000000E+00
  0.00000000E+00  0.00000000E+00  0.00000000E+00
  0.00000000E+00  0.00000000E+00  0.00000000E+00
  0.00000000E+00  0.00000000E+00  0.00000000E+00
  0.00000000E+00  0.00000000E+00  0.00000000E+00
