CeO2-you-111-you-Tl                     
   1.00000000000000     
     9.8738318477186411   -5.7006598447998522   -0.0000000000503731
     0.0054575094357442   11.4107703662215805   -0.0009938312897511
    -0.0010906823132689   -0.0018891168651566   21.2106510094351286
   O    Tl   Ce H
    53     1    26 2
Selective dynamics
Direct
 -0.0001756795891389  0.0000920382712865  0.9974398436860695   T   T   T
  0.1077149351814670  0.2212479468353382  0.1489070974877954   F   F   F
  0.2161508628020629  0.0989687256046710  0.2990313934698994   T   T   T
  0.1029752295040076  0.2167880210099945  0.3842915283477419   T   T   T
 -0.0021070750053240 -0.0006757511714365  0.2273996659591229   T   T   T
  0.2222219551627217  0.1111109103254191  0.0753942997907615   F   F   F
  0.3336007178604074  0.0000920382712537  0.9974398436860699   T   T   T
  0.4468660116535846  0.2212479468351359  0.1489070974877946   F   F   F
  0.5572083968405797  0.1132541094093058  0.3024578258064483   T   T   T
  0.4471457915058180  0.2167880210101543  0.3842915283477218   T   T   T
  0.3347643238338405 -0.0006757511717110  0.2273996659591228   T   T   T
  0.5576684276161405  0.1112045058531458  0.0759500210006118   F   F   F
  0.6662496050739874 -0.0008347898519975  0.9970073975877283   T   T   T
  0.7780220232576981  0.2227100465154070  0.1532285622888967   F   F   F
  0.8893797125689967  0.1132541094097120  0.3024578258064389   T   T   T
  0.7777647213285778  0.2221954426570631  0.3817877191192959   T   T   T
  0.6637381378318459 -0.0058577243364143  0.2311830932931963   T   T   T
  0.8868700782370375  0.1112045058532655  0.0759500210006104   F   F   F
  0.0003019362801275  0.3332033198754804  0.9978653928313992   T   T   T
  0.1100617433907629  0.5547661784171644  0.1494822969503900   F   F   F
  0.2400591864911251  0.4516521504339092  0.3097691631863693   T   T   T
  0.1040536506135458  0.5534229924195796  0.3813831708530567   T   T   T
  0.0080998886629281  0.3381753349839896  0.2312842227965551   T   T   T
  0.2233529612077942  0.4447931711720733  0.0762506571994078   F   F   F
  0.3329963499380448  0.3326596998761430  0.9977441987637484   T   T   T
  0.4458759002820425  0.5584198005642009  0.1504836880426860   F   F   F
  0.5449269639422691  0.4516521504336752  0.3097691631863733   T   T   T
  0.3318090151693399  0.3302850303390374  0.2220155420497383   T   T   T
  0.5547742099642040  0.4447931711720144  0.0762506571994088   F   F   F
  0.6662353835952854  0.3332033198754255  0.9978653928313994   T   T   T
  0.7780374350263697  0.5547661784170778  0.1494822969503923   F   F   F
  0.8877991181104283  0.4422642362207285  0.3021367073270351   T   T   T
  0.7827023418062424  0.5534229924205644  0.3813831708530390   T   T   T
  0.6634094463210369  0.3381753349839561  0.2312842227965568   T   T   T
  0.8879560972578519  0.4425781945157127  0.0760672520040572   F   F   F
  0.0001745273716965  0.6670160547432769  0.9978758898209253   T   T   T
  0.1107681157033329  0.8882032314064436  0.1484763286650282   F   F   F
  0.2196267705979250  0.7809270344854887  0.3018987296812161   T   T   T
  0.1108882364154541  0.8884434728309106  0.3827948146649375   T   T   T
 -0.0000648935929082  0.6665372128139935  0.2281860775455557   T   T   T
  0.2227508377438998  0.7777741960788480  0.0754061281518082   F   F   F
  0.3333316004701368  0.6662742852472383  0.9978358067866081   T   T   T
  0.4460173383038905  0.8895952704017529  0.1494803661176232   F   F   F
  0.5491878058211144  0.7650416116425706  0.3097810993906528   T   T   T
  0.4468993438967581  0.8970478440631888  0.3822675988750663   T   T   T
  0.3317165116414635  0.6686879404798188  0.2278264880018021   T   T   T
  0.5554181699521775  0.7775023399043521  0.0761169176304395   F   F   F
  0.6662756847771453  0.6662742852472310  0.9978358067866075   T   T   T
  0.7769109320980414  0.8895952704019880  0.1494803661176216   F   F   F
  0.8946332638887150  0.7809270344865988  0.3018987296811973   T   T   T
  0.7834815001676619  0.8970478440636487  0.3822675988750651   T   T   T
  0.6703044288385284  0.6686879404800855  0.2278264880018041   T   T   T
  0.8883563583350356  0.7777741960788709  0.0754061281518090   F   F   F
  0.3234387924117790  0.3135445848237979  0.3417636322774281   T   T   T
  0.0016942726462796  0.0016984655019186  0.3426510277625296   T   T   T
  0.2220213782172472  0.1107097564348211  0.1876930262153665   F   F   F
  0.1108433835232395  0.2223277530373287  0.0367820831902328   F   F   F
  0.3333371928559863  0.0016984655032203  0.3426510277625167   T   T   T
  0.5549068640332373  0.1109194234705711  0.1900876015073115   F   F   F
  0.4448173695140729  0.2223277530374062  0.0367820831902349   F   F   F
  0.6672771340353714  0.0012202680720748  0.3432236066822398   T   T   T
  0.8893465594369852  0.1109194234699734  0.1900876015073135   F   F   F
  0.7776626318362397  0.2219912636724581  0.0371614444455796   F   F   F
  0.0003264880951753  0.3328861557743404  0.3429633101949513   T   T   T
  0.2242610088608076  0.4440891713652330  0.1898700827471193   F   F   F
  0.1111112587019419  0.5550256523263128  0.0370759011836091   F   F   F
  0.5531621625051938  0.4440891713656857  0.1898700827471243   F   F   F
  0.4444882586114673  0.5556445172228625  0.0367466280664862   F   F   F
  0.6658936676794653  0.3328861557743245  0.3429633101949515   T   T   T
  0.8895143417925254  0.4456946835850650  0.1902471499201626   F   F   F
  0.7772473936243955  0.5550256523264248  0.0370759011836121   F   F   F
 -0.0002664841472556  0.6661340317062150  0.3422390920261520   T   T   T
  0.2219833998188623  0.7784181771111174  0.1875010935209818   F   F   F
  0.1111861440871335  0.8890392881742872  0.0355964732549122   F   F   F
  0.3253165696459892  0.6752107288691251  0.3396807989937547   T   T   T
  0.5553995327247526  0.7774650654495110  0.1897709204442615   F   F   F
  0.4452663621733937  0.8890724068201303  0.0366541197869378   F   F   F
  0.6832271592234016  0.6752107288682194  0.3396807989937106   T   T   T
  0.8897677772917829  0.7784181771108117  0.1875010935209815   F   F   F
  0.7771390446467549  0.8890724068201289  0.0366541197869385   F   F   F
0.3234387924117790 0.3135445848237979 0.441764 T T T
0.446598 0.216020 0.433410 T T T 
 
  0.00000000E+00  0.00000000E+00  0.00000000E+00
  0.00000000E+00  0.00000000E+00  0.00000000E+00
  0.00000000E+00  0.00000000E+00  0.00000000E+00
  0.00000000E+00  0.00000000E+00  0.00000000E+00
  0.00000000E+00  0.00000000E+00  0.00000000E+00
  0.00000000E+00  0.00000000E+00  0.00000000E+00
  0.00000000E+00  0.00000000E+00  0.00000000E+00
  0.00000000E+00  0.00000000E+00  0.00000000E+00
  0.00000000E+00  0.00000000E+00  0.00000000E+00
  0.00000000E+00  0.00000000E+00  0.00000000E+00
  0.00000000E+00  0.00000000E+00  0.00000000E+00
  0.00000000E+00  0.00000000E+00  0.00000000E+00
  0.00000000E+00  0.00000000E+00  0.00000000E+00
  0.00000000E+00  0.00000000E+00  0.00000000E+00
  0.00000000E+00  0.00000000E+00  0.00000000E+00
  0.00000000E+00  0.00000000E+00  0.00000000E+00
  0.00000000E+00  0.00000000E+00  0.00000000E+00
  0.00000000E+00  0.00000000E+00  0.00000000E+00
  0.00000000E+00  0.00000000E+00  0.00000000E+00
  0.00000000E+00  0.00000000E+00  0.00000000E+00
  0.00000000E+00  0.00000000E+00  0.00000000E+00
  0.00000000E+00  0.00000000E+00  0.00000000E+00
  0.00000000E+00  0.00000000E+00  0.00000000E+00
  0.00000000E+00  0.00000000E+00  0.00000000E+00
  0.00000000E+00  0.00000000E+00  0.00000000E+00
  0.00000000E+00  0.00000000E+00  0.00000000E+00
  0.00000000E+00  0.00000000E+00  0.00000000E+00
  0.00000000E+00  0.00000000E+00  0.00000000E+00
  0.00000000E+00  0.00000000E+00  0.00000000E+00
  0.00000000E+00  0.00000000E+00  0.00000000E+00
  0.00000000E+00  0.00000000E+00  0.00000000E+00
  0.00000000E+00  0.00000000E+00  0.00000000E+00
  0.00000000E+00  0.00000000E+00  0.00000000E+00
  0.00000000E+00  0.00000000E+00  0.00000000E+00
  0.00000000E+00  0.00000000E+00  0.00000000E+00
  0.00000000E+00  0.00000000E+00  0.00000000E+00
  0.00000000E+00  0.00000000E+00  0.00000000E+00
  0.00000000E+00  0.00000000E+00  0.00000000E+00
  0.00000000E+00  0.00000000E+00  0.00000000E+00
  0.00000000E+00  0.00000000E+00  0.00000000E+00
  0.00000000E+00  0.00000000E+00  0.00000000E+00
  0.00000000E+00  0.00000000E+00  0.00000000E+00
  0.00000000E+00  0.00000000E+00  0.00000000E+00
  0.00000000E+00  0.00000000E+00  0.00000000E+00
  0.00000000E+00  0.00000000E+00  0.00000000E+00
  0.00000000E+00  0.00000000E+00  0.00000000E+00
  0.00000000E+00  0.00000000E+00  0.00000000E+00
  0.00000000E+00  0.00000000E+00  0.00000000E+00
  0.00000000E+00  0.00000000E+00  0.00000000E+00
  0.00000000E+00  0.00000000E+00  0.00000000E+00
  0.00000000E+00  0.00000000E+00  0.00000000E+00
  0.00000000E+00  0.00000000E+00  0.00000000E+00
  0.00000000E+00  0.00000000E+00  0.00000000E+00
  0.00000000E+00  0.00000000E+00  0.00000000E+00
  0.00000000E+00  0.00000000E+00  0.00000000E+00
  0.00000000E+00  0.00000000E+00  0.00000000E+00
  0.00000000E+00  0.00000000E+00  0.00000000E+00
  0.00000000E+00  0.00000000E+00  0.00000000E+00
  0.00000000E+00  0.00000000E+00  0.00000000E+00
  0.00000000E+00  0.00000000E+00  0.00000000E+00
  0.00000000E+00  0.00000000E+00  0.00000000E+00
  0.00000000E+00  0.00000000E+00  0.00000000E+00
  0.00000000E+00  0.00000000E+00  0.00000000E+00
  0.00000000E+00  0.00000000E+00  0.00000000E+00
  0.00000000E+00  0.00000000E+00  0.00000000E+00
  0.00000000E+00  0.00000000E+00  0.00000000E+00
  0.00000000E+00  0.00000000E+00  0.00000000E+00
  0.00000000E+00  0.00000000E+00  0.00000000E+00
  0.00000000E+00  0.00000000E+00  0.00000000E+00
  0.00000000E+00  0.00000000E+00  0.00000000E+00
  0.00000000E+00  0.00000000E+00  0.00000000E+00
  0.00000000E+00  0.00000000E+00  0.00000000E+00
  0.00000000E+00  0.00000000E+00  0.00000000E+00
  0.00000000E+00  0.00000000E+00  0.00000000E+00
  0.00000000E+00  0.00000000E+00  0.00000000E+00
  0.00000000E+00  0.00000000E+00  0.00000000E+00
  0.00000000E+00  0.00000000E+00  0.00000000E+00
  0.00000000E+00  0.00000000E+00  0.00000000E+00
  0.00000000E+00  0.00000000E+00  0.00000000E+00
  0.00000000E+00  0.00000000E+00  0.00000000E+00
