CeO2-you-111-you-Ga                     
   1.00000000000000     
     9.8323671652880389   -5.6859258280819702    0.0167539287382873
     0.0000000015928553   11.3718496577703281   -0.0000000019275607
     0.0368993222373947   -0.0000000037104964   20.9837402888364970
   O    Ga   Ce   H 
    53     1    26     1
Selective dynamics
Direct
  0.0002094614263889  0.0001994889641379  0.9951197365565921   T   T   T
  0.1218418674060165  0.2262247321990671  0.1521728304239405   T   T   T
  0.2147082235846613  0.0852737606943366  0.3002230897823924   T   T   T
  0.1346694231564367  0.2323394181106698  0.3755656340872878   T   T   T
  0.9981226333735022  0.0006328021851262  0.2279523152027978   T   T   T
  0.2225660104438892  0.1089306305295418  0.0740003624865460   T   T   T
  0.3343560913752041 -0.0014202596483342  0.9942211891470282   T   T   T
  0.4428020561292130  0.2212811452316257  0.1487974698986937   T   T   T
  0.5477738393474323  0.1054603552862461  0.3089245661790344   T   T   T
  0.4241687875206615  0.2651232629114352  0.3784568132278943   T   T   T
  0.3370145077851593  0.9954063115956875  0.2275801650641441   T   T   T
  0.5548504876662685  0.1096443033925037  0.0749865912965392   T   T   T
  0.6702798782532627  0.0004268435637992  0.9962614015735672   T   T   T
  0.7744975655898126  0.2240175204585113  0.1511239838075549   T   T   T
  0.8919509263836575  0.1116881180374724  0.3048243363388866   T   T   T
  0.7841815618052370  0.2164777464536525  0.3884413433274078   T   T   T
  0.6679046975471239  0.0022773569657981  0.2301821210081764   T   T   T
  0.8910290645400167  0.1105437093488546  0.0780071559128743   T   T   T
  0.9993890618604273  0.3299952246924108  0.9951331323158370   T   T   T
  0.1110693832099681  0.5534936636988538  0.1493734454755810   T   T   T
  0.2149259099859954  0.4459895434477511  0.2993667795536892   T   T   T
  0.1134752893963884  0.5533599544847088  0.3858848779948541   T   T   T
  0.9973463040470614  0.3300664330093390  0.2274919996147337   T   T   T
  0.2224870818295291  0.4441405376910105  0.0731383022337599   T   T   T
  0.3333729074185609  0.3314691682301715  0.9943371963505583   T   T   T
  0.4425772311530979  0.5518501296726710  0.1485304335809192   T   T   T
  0.4321788951124049  0.5275578799836024  0.3712129279923927   T   T   T
  0.3536507283413531  0.3401564323335198  0.2448307268133933   T   T   T
  0.5559438328885271  0.4432080514028299  0.0723961294373844   T   T   T
  0.6684866717284630  0.3314311249727106  0.9945058970447539   T   T   T
  0.7783950520617510  0.5551915909656099  0.1475246942497188   T   T   T
  0.8950981496508369  0.4425293904588894  0.3039898251258325   T   T   T
  0.7861559695574949  0.5583945362123452  0.3858247841366336   T   T   T
  0.6588248452069336  0.3406375455512632  0.2342875550661092   T   T   T
  0.8902928088404769  0.4444578983147247  0.0742528652063991   T   T   T
  0.0017295958561880  0.6666574455200779  0.9939963990111707   T   T   T
  0.1115163596244814  0.8880482515976289  0.1506040123793981   T   T   T
  0.2207854051964125  0.7732453115662062  0.3029263960297905   T   T   T
  0.1140402913005642  0.8841224516008988  0.3881522747397883   T   T   T
  0.9983067458372725  0.6638116361965279  0.2289919018309825   T   T   T
  0.2229797971100411  0.7765393915107572  0.0741361109593231   T   T   T
  0.3347559648156733  0.6665052527700485  0.9939246334187858   T   T   T
  0.4474492507526495  0.8875961079520474  0.1495080770568197   T   T   T
  0.5542194884310452  0.7830474148754534  0.3054254549570706   T   T   T
  0.4371963244160652  0.8814026361792614  0.3869800990658397   T   T   T
  0.3348685506876252  0.6664559473824234  0.2286610832410538   T   T   T
  0.5556953959304944  0.7751808453894495  0.0746393840897609   T   T   T
  0.6687736352042112  0.6671426490017014  0.9943457076704114   T   T   T
  0.7740715316995598  0.8817084634338763  0.1519845987730093   T   T   T
  0.8986394689170899  0.7847081159694130  0.3042170783378018   T   T   T
  0.7850557027670686  0.9018059135683980  0.3882712597112964   T   T   T
  0.6588405418116433  0.6485391734192225  0.2346227306514456   T   T   T
  0.8905595898878927  0.7778444820694744  0.0744867830740987   T   T   T
  0.3134079096498513  0.3469441453216191  0.3368414927387205   T   T   T
  0.0062790411806838  0.0021416178041794  0.3438215719682535   T   T   T
  0.2234204294177239  0.1084151725077955  0.1923182079698249   T   T   T
  0.1127543513554825  0.2212501444020422  0.0355560897019012   T   T   T
  0.3248338047682878  0.9860483682579992  0.3422790849381730   T   T   T
  0.5555069738719540  0.1109303165947010  0.1915389355213237   T   T   T
  0.4443162495988764  0.2193875953607927  0.0336215752090045   T   T   T
  0.6674254989817417 -0.0003890558356026  0.3464604341741069   T   T   T
  0.8892319505842889  0.1105849723275220  0.1908137250991193   T   T   T
  0.7784525748841873  0.2217830594652196  0.0357898697678716   T   T   T
  0.0028808173927658  0.3322513187288304  0.3438980069671869   T   T   T
  0.2221610430441847  0.4443887952720224  0.1898975370498847   T   T   T
  0.1114973182854639  0.5540542258711754  0.0341032502720232   T   T   T
  0.5550777503419506  0.4432706799132115  0.1838268083193015   T   T   T
  0.4448083168675135  0.5554194250956505  0.0332130176685016   T   T   T
  0.6769582818802540  0.3315288355163820  0.3505500556781547   T   T   T
  0.8876543960537432  0.4440509475910809  0.1906469006814515   T   T   T
  0.7802548412242545  0.5558000495061698  0.0334956642843721   T   T   T
 -0.0009375813566101  0.6638389343818104  0.3456381775023268   T   T   T
  0.2222306163068181  0.7753790124747147  0.1879341420732621   T   T   T
  0.1119006838577799  0.8887494630793942  0.0349738732939875   T   T   T
  0.3321057973553999  0.6614406323956414  0.3436169947277666   T   T   T
  0.5556232521075152  0.7755748527321430  0.1918958324505541   T   T   T
  0.4464060962557913  0.8881591694508322  0.0353778858229587   T   T   T
  0.6725735275052585  0.6760257487021870  0.3523557015576588   T   T   T
  0.8882302550243282  0.7752571146789580  0.1917601778603292   T   T   T
  0.7788225894468515  0.8875970244251880  0.0360464088550653   T   T   T
  0.4110843682444535  0.2788755925729471  0.4232659153352812   T   T   T
 
  0.00000000E+00  0.00000000E+00  0.00000000E+00
  0.00000000E+00  0.00000000E+00  0.00000000E+00
  0.00000000E+00  0.00000000E+00  0.00000000E+00
  0.00000000E+00  0.00000000E+00  0.00000000E+00
  0.00000000E+00  0.00000000E+00  0.00000000E+00
  0.00000000E+00  0.00000000E+00  0.00000000E+00
  0.00000000E+00  0.00000000E+00  0.00000000E+00
  0.00000000E+00  0.00000000E+00  0.00000000E+00
  0.00000000E+00  0.00000000E+00  0.00000000E+00
  0.00000000E+00  0.00000000E+00  0.00000000E+00
  0.00000000E+00  0.00000000E+00  0.00000000E+00
  0.00000000E+00  0.00000000E+00  0.00000000E+00
  0.00000000E+00  0.00000000E+00  0.00000000E+00
  0.00000000E+00  0.00000000E+00  0.00000000E+00
  0.00000000E+00  0.00000000E+00  0.00000000E+00
  0.00000000E+00  0.00000000E+00  0.00000000E+00
  0.00000000E+00  0.00000000E+00  0.00000000E+00
  0.00000000E+00  0.00000000E+00  0.00000000E+00
  0.00000000E+00  0.00000000E+00  0.00000000E+00
  0.00000000E+00  0.00000000E+00  0.00000000E+00
  0.00000000E+00  0.00000000E+00  0.00000000E+00
  0.00000000E+00  0.00000000E+00  0.00000000E+00
  0.00000000E+00  0.00000000E+00  0.00000000E+00
  0.00000000E+00  0.00000000E+00  0.00000000E+00
  0.00000000E+00  0.00000000E+00  0.00000000E+00
  0.00000000E+00  0.00000000E+00  0.00000000E+00
  0.00000000E+00  0.00000000E+00  0.00000000E+00
  0.00000000E+00  0.00000000E+00  0.00000000E+00
  0.00000000E+00  0.00000000E+00  0.00000000E+00
  0.00000000E+00  0.00000000E+00  0.00000000E+00
  0.00000000E+00  0.00000000E+00  0.00000000E+00
  0.00000000E+00  0.00000000E+00  0.00000000E+00
  0.00000000E+00  0.00000000E+00  0.00000000E+00
  0.00000000E+00  0.00000000E+00  0.00000000E+00
  0.00000000E+00  0.00000000E+00  0.00000000E+00
  0.00000000E+00  0.00000000E+00  0.00000000E+00
  0.00000000E+00  0.00000000E+00  0.00000000E+00
  0.00000000E+00  0.00000000E+00  0.00000000E+00
  0.00000000E+00  0.00000000E+00  0.00000000E+00
  0.00000000E+00  0.00000000E+00  0.00000000E+00
  0.00000000E+00  0.00000000E+00  0.00000000E+00
  0.00000000E+00  0.00000000E+00  0.00000000E+00
  0.00000000E+00  0.00000000E+00  0.00000000E+00
  0.00000000E+00  0.00000000E+00  0.00000000E+00
  0.00000000E+00  0.00000000E+00  0.00000000E+00
  0.00000000E+00  0.00000000E+00  0.00000000E+00
  0.00000000E+00  0.00000000E+00  0.00000000E+00
  0.00000000E+00  0.00000000E+00  0.00000000E+00
  0.00000000E+00  0.00000000E+00  0.00000000E+00
  0.00000000E+00  0.00000000E+00  0.00000000E+00
  0.00000000E+00  0.00000000E+00  0.00000000E+00
  0.00000000E+00  0.00000000E+00  0.00000000E+00
  0.00000000E+00  0.00000000E+00  0.00000000E+00
  0.00000000E+00  0.00000000E+00  0.00000000E+00
  0.00000000E+00  0.00000000E+00  0.00000000E+00
  0.00000000E+00  0.00000000E+00  0.00000000E+00
  0.00000000E+00  0.00000000E+00  0.00000000E+00
  0.00000000E+00  0.00000000E+00  0.00000000E+00
  0.00000000E+00  0.00000000E+00  0.00000000E+00
  0.00000000E+00  0.00000000E+00  0.00000000E+00
  0.00000000E+00  0.00000000E+00  0.00000000E+00
  0.00000000E+00  0.00000000E+00  0.00000000E+00
  0.00000000E+00  0.00000000E+00  0.00000000E+00
  0.00000000E+00  0.00000000E+00  0.00000000E+00
  0.00000000E+00  0.00000000E+00  0.00000000E+00
  0.00000000E+00  0.00000000E+00  0.00000000E+00
  0.00000000E+00  0.00000000E+00  0.00000000E+00
  0.00000000E+00  0.00000000E+00  0.00000000E+00
  0.00000000E+00  0.00000000E+00  0.00000000E+00
  0.00000000E+00  0.00000000E+00  0.00000000E+00
  0.00000000E+00  0.00000000E+00  0.00000000E+00
  0.00000000E+00  0.00000000E+00  0.00000000E+00
  0.00000000E+00  0.00000000E+00  0.00000000E+00
  0.00000000E+00  0.00000000E+00  0.00000000E+00
  0.00000000E+00  0.00000000E+00  0.00000000E+00
  0.00000000E+00  0.00000000E+00  0.00000000E+00
  0.00000000E+00  0.00000000E+00  0.00000000E+00
  0.00000000E+00  0.00000000E+00  0.00000000E+00
  0.00000000E+00  0.00000000E+00  0.00000000E+00
  0.00000000E+00  0.00000000E+00  0.00000000E+00
  0.00000000E+00  0.00000000E+00  0.00000000E+00
