CeO2-you-111-you-Sn                     
   1.00000000000000     
     9.8567427025389236   -5.6786255167014632   -0.0015081522987052
    -0.0000000010787721   11.3572490328982187    0.0000000001820396
    -0.0032607052526110    0.0000000003423368   21.3221879377239993
   O    Sn   Ce H
    53     1    26 1
Selective dynamics
Direct
 -0.0000741190341126  0.0002643045171044  0.9977028212066505   T   T   T
  0.1155204638782375  0.2244267319388239  0.1514699723206315   T   T   T
  0.2215565248957209  0.1162169933133472  0.3019818222170464   T   T   T
  0.1207918081852781  0.2270624040903790  0.3821705077686823   T   T   T
  0.0007308789886991  0.0010282885838472  0.2286285750676924   T   T   T
  0.2220203431730146  0.1109937900299653  0.0760446102347323   T   T   T
  0.3331109289497722 -0.0001468394522738  0.9974532099952518   T   T   T
  0.4419818525239362  0.2193825367805195  0.1483403649037060   T   T   T
  0.5500627573062851  0.1022707653987845  0.3020710079305671   T   T   T
  0.4316272168306618  0.2416440340515011  0.3745582975705212   T   T   T
  0.3313345993316565  0.0003349387920604  0.2290664147252427   T   T   T
  0.5557249488481419  0.1111323917450344  0.0760696437262338   T   T   T
  0.6674158972802791  0.0003744486400737  0.9978757232299208   T   T   T
  0.7761487189923135  0.2237992704511848  0.1513982675813490   T   T   T
  0.8917841314935765  0.1125585657463926  0.3030400184969054   T   T   T
  0.7844972162277259  0.2163543602546717  0.3839173004346192   T   T   T
  0.6688629925076126  0.0010979962534373  0.2282117568741603   T   T   T
  0.8892237422227537  0.1112783711112515  0.0769469447118551   T   T   T
 -0.0000741190339744  0.3329945764487257  0.9977028212066535   T   T   T
  0.1104436348239313  0.5545754422446807  0.1503500134871341   T   T   T
  0.2215565248964138  0.4386725315836537  0.3019818222171272   T   T   T
  0.1130726242385105  0.5554094569486976  0.3811617259851217   T   T   T
  0.0007308789894384  0.3330355904044592  0.2286285750677015   T   T   T
  0.2220203431727871  0.4443595531428740  0.0760446102347300   T   T   T
  0.3333096241461094  0.3333213120729606  0.9978129045761474   T   T   T
  0.4419818525219505  0.5559333157444908  0.1483403649036820   T   T   T
  0.4316272168333052  0.5233171827843560  0.3745582975707764   T   T   T
  0.3526480827725846  0.3429905413845680  0.2376597352122131   T   T   T
  0.5555502880712558  0.4444411440357786  0.0742608176131136   T   T   T
  0.6667830386162998  0.3335246939089809  0.9978831771394394   T   T   T
  0.7808239249431421  0.5570789624705876  0.1481117442959588   T   T   T
  0.8976681508249471  0.4469648131256968  0.3009601813453253   T   T   T
  0.7798767023139368  0.5566053511570530  0.3785048936248683   T   T   T
  0.6582012814829528  0.3416180959978299  0.2318693867181692   T   T   T
  0.8889950618060676  0.4442480435350014  0.0760552705294947   T   T   T
  0.0001690710597526  0.6667515355298098  0.9975250644050062   T   T   T
  0.1104436348238175  0.8892021925785912  0.1503500134871296   T   T   T
  0.2227905455616941  0.7780622727809081  0.3028430027221464   T   T   T
  0.1130726242378216  0.8909971672892472  0.3811617259851067   T   T   T
 -0.0002373727688261  0.6665483136147086  0.2282786562638606   T   T   T
  0.2224173569612517  0.7778756784805930  0.0759138490142675   T   T   T
  0.3331109289497435  0.6665917684021536  0.9974532099952538   T   T   T
  0.4451306552569658  0.8892323276287855  0.1506292323925134   T   T   T
  0.5500627573019612  0.7811249919072769  0.3020710079304634   T   T   T
  0.4427695399243922  0.8880517699621893  0.3827317080788348   T   T   T
  0.3313345993312875  0.6643336605406850  0.2290664147252467   T   T   T
  0.5557249488479763  0.7779255571034157  0.0760696437262356   T   T   T
  0.6667830386164803  0.6665913447075971  0.9978831771394481   T   T   T
  0.7761487189918335  0.8856824485405483  0.1513982675813604   T   T   T
  0.8976681508231968  0.7840363376925140  0.3009601813452970   T   T   T
  0.7844972162231257  0.9014758559677994  0.3839173004345067   T   T   T
  0.6582012814852126  0.6499161854890088  0.2318693867183404   T   T   T
  0.8889950618060314  0.7780800182706545  0.0760552705294970   T   T   T
  0.3158152280549389  0.3245741140327818  0.3420053037774919   T   T   T
  0.0015363938981466  0.0007973745240936  0.3414848604322651   T   T   T
  0.2229898995819535  0.1117406617262253  0.1907687342126562   T   T   T
  0.1116663805799903  0.2224996902900156  0.0371551879307926   T   T   T
  0.3318438842115749  0.0006917567306632  0.3412381490160659   T   T   T
  0.5551836945560238  0.1123332623586324  0.1908165324547951   T   T   T
  0.4432010961351251  0.2199473616068350  0.0359550121153355   T   T   T
  0.6667851405924112  0.0000590702977377  0.3418737980340500   T   T   T
  0.8894490803410475  0.1113910401712565  0.1902930684508373   T   T   T
  0.7776079506975428  0.2225898131539982  0.0372046324132571   T   T   T
  0.0015363938955141  0.3340720193728006  0.3414848604322233   T   T   T
  0.2229898995831908  0.4445822378539101  0.1907687342126643   T   T   T
  0.1107756145852829  0.5549911501397240  0.0374633122064536   T   T   T
  0.5555876901229831  0.4444598450592807  0.1824497673395375   T   T   T
  0.4432010961347694  0.5565877345280551  0.0359550121153109   T   T   T
  0.6708859335913522  0.3285661338555505  0.3493379054561988   T   T   T
  0.8878583501675520  0.4447359464321727  0.1907353094429592   T   T   T
  0.7800749693081889  0.5567044846537839  0.0359566567923077   T   T   T
 -0.0018039922886272  0.6657650038586123  0.3414019031004403   T   T   T
  0.2216450144166921  0.7774895072087066  0.1892936314268160   T   T   T
  0.1107756145850520  0.8891184644459426  0.0374633122064502   T   T   T
  0.3318438842135311  0.6644861274790773  0.3412381490160973   T   T   T
  0.5551836945604620  0.7761834321975812  0.1908165324548382   T   T   T
  0.4448400825592267  0.8890870412793410  0.0374750744499765   T   T   T
  0.6708859335928966  0.6756527997345123  0.3493379054561012   T   T   T
  0.8878583501703453  0.7764554037419561  0.1907353094429896   T   T   T
  0.7776079506979001  0.8883511375437720  0.0372046324132614   T   T   T
0.446598 0.216020 0.433410 T T T 
 
  0.00000000E+00  0.00000000E+00  0.00000000E+00
  0.00000000E+00  0.00000000E+00  0.00000000E+00
  0.00000000E+00  0.00000000E+00  0.00000000E+00
  0.00000000E+00  0.00000000E+00  0.00000000E+00
  0.00000000E+00  0.00000000E+00  0.00000000E+00
  0.00000000E+00  0.00000000E+00  0.00000000E+00
  0.00000000E+00  0.00000000E+00  0.00000000E+00
  0.00000000E+00  0.00000000E+00  0.00000000E+00
  0.00000000E+00  0.00000000E+00  0.00000000E+00
  0.00000000E+00  0.00000000E+00  0.00000000E+00
  0.00000000E+00  0.00000000E+00  0.00000000E+00
  0.00000000E+00  0.00000000E+00  0.00000000E+00
  0.00000000E+00  0.00000000E+00  0.00000000E+00
  0.00000000E+00  0.00000000E+00  0.00000000E+00
  0.00000000E+00  0.00000000E+00  0.00000000E+00
  0.00000000E+00  0.00000000E+00  0.00000000E+00
  0.00000000E+00  0.00000000E+00  0.00000000E+00
  0.00000000E+00  0.00000000E+00  0.00000000E+00
  0.00000000E+00  0.00000000E+00  0.00000000E+00
  0.00000000E+00  0.00000000E+00  0.00000000E+00
  0.00000000E+00  0.00000000E+00  0.00000000E+00
  0.00000000E+00  0.00000000E+00  0.00000000E+00
  0.00000000E+00  0.00000000E+00  0.00000000E+00
  0.00000000E+00  0.00000000E+00  0.00000000E+00
  0.00000000E+00  0.00000000E+00  0.00000000E+00
  0.00000000E+00  0.00000000E+00  0.00000000E+00
  0.00000000E+00  0.00000000E+00  0.00000000E+00
  0.00000000E+00  0.00000000E+00  0.00000000E+00
  0.00000000E+00  0.00000000E+00  0.00000000E+00
  0.00000000E+00  0.00000000E+00  0.00000000E+00
  0.00000000E+00  0.00000000E+00  0.00000000E+00
  0.00000000E+00  0.00000000E+00  0.00000000E+00
  0.00000000E+00  0.00000000E+00  0.00000000E+00
  0.00000000E+00  0.00000000E+00  0.00000000E+00
  0.00000000E+00  0.00000000E+00  0.00000000E+00
  0.00000000E+00  0.00000000E+00  0.00000000E+00
  0.00000000E+00  0.00000000E+00  0.00000000E+00
  0.00000000E+00  0.00000000E+00  0.00000000E+00
  0.00000000E+00  0.00000000E+00  0.00000000E+00
  0.00000000E+00  0.00000000E+00  0.00000000E+00
  0.00000000E+00  0.00000000E+00  0.00000000E+00
  0.00000000E+00  0.00000000E+00  0.00000000E+00
  0.00000000E+00  0.00000000E+00  0.00000000E+00
  0.00000000E+00  0.00000000E+00  0.00000000E+00
  0.00000000E+00  0.00000000E+00  0.00000000E+00
  0.00000000E+00  0.00000000E+00  0.00000000E+00
  0.00000000E+00  0.00000000E+00  0.00000000E+00
  0.00000000E+00  0.00000000E+00  0.00000000E+00
  0.00000000E+00  0.00000000E+00  0.00000000E+00
  0.00000000E+00  0.00000000E+00  0.00000000E+00
  0.00000000E+00  0.00000000E+00  0.00000000E+00
  0.00000000E+00  0.00000000E+00  0.00000000E+00
  0.00000000E+00  0.00000000E+00  0.00000000E+00
  0.00000000E+00  0.00000000E+00  0.00000000E+00
  0.00000000E+00  0.00000000E+00  0.00000000E+00
  0.00000000E+00  0.00000000E+00  0.00000000E+00
  0.00000000E+00  0.00000000E+00  0.00000000E+00
  0.00000000E+00  0.00000000E+00  0.00000000E+00
  0.00000000E+00  0.00000000E+00  0.00000000E+00
  0.00000000E+00  0.00000000E+00  0.00000000E+00
  0.00000000E+00  0.00000000E+00  0.00000000E+00
  0.00000000E+00  0.00000000E+00  0.00000000E+00
  0.00000000E+00  0.00000000E+00  0.00000000E+00
  0.00000000E+00  0.00000000E+00  0.00000000E+00
  0.00000000E+00  0.00000000E+00  0.00000000E+00
  0.00000000E+00  0.00000000E+00  0.00000000E+00
  0.00000000E+00  0.00000000E+00  0.00000000E+00
  0.00000000E+00  0.00000000E+00  0.00000000E+00
  0.00000000E+00  0.00000000E+00  0.00000000E+00
  0.00000000E+00  0.00000000E+00  0.00000000E+00
  0.00000000E+00  0.00000000E+00  0.00000000E+00
  0.00000000E+00  0.00000000E+00  0.00000000E+00
  0.00000000E+00  0.00000000E+00  0.00000000E+00
  0.00000000E+00  0.00000000E+00  0.00000000E+00
  0.00000000E+00  0.00000000E+00  0.00000000E+00
  0.00000000E+00  0.00000000E+00  0.00000000E+00
  0.00000000E+00  0.00000000E+00  0.00000000E+00
  0.00000000E+00  0.00000000E+00  0.00000000E+00
  0.00000000E+00  0.00000000E+00  0.00000000E+00
  0.00000000E+00  0.00000000E+00  0.00000000E+00
