CeO2-you-111-you-Cr                     
   1.00000000000000     
     9.8497013525862673   -5.6665275056005013   -0.0225323764278075
     0.0174942224103153   11.3633538969158003    0.0225323726626242
    -0.0245842150542845    0.0425811074232776   20.8516120844109558
   O    Cr   Ce   H 
    53     1    26     2
Selective dynamics
Direct
 -0.0004843592135081 -0.0002760760016179  0.9944670711120180   T   T   T
  0.1142116231013688  0.2227863754688499  0.1492685227785344   F   F   F
  0.2392649633034540  0.1232863253998644  0.3067947458266763   T   T   T
  0.1592893578494301  0.2581179819419925  0.3810716384683678   T   T   T
  0.0027348354662740 -0.0005002984824434  0.2303195299616517   T   T   T
  0.2222920376308082  0.1102148741772595  0.0734234298029790   F   F   F
  0.3349941206786193  0.0008281813529617  0.9944842275196708   T   T   T
  0.4402661099570651  0.2263998900419750  0.1520583493880352   F   F   F
  0.5515390370529005  0.1137374620211136  0.3053814639390548   T   T   T
  0.4517252265939574  0.2153230486839652  0.4049392531576641   T   T   T
  0.3339156332242377 -0.0016871493565162  0.2282726026010550   T   T   T
  0.5550023746684900  0.1116646253313007  0.0772064190134500   F   F   F
  0.6658447445359993  0.0006327234830250  0.9957635248773378   T   T   T
  0.7844241640188514  0.2237647871471964  0.1513558533930706   F   F   F
  0.8933798451692886  0.1073962074383795  0.3068004476674671   T   T   T
  0.7691867831377580  0.2162666320270653  0.3890927528795970   T   T   T
  0.6685084627226119  0.0035419854942188  0.2305897993683807   T   T   T
  0.8908430458064487  0.1113470220854964  0.0748737400842430   F   F   F
  0.9983216704682134  0.3325703905274900  0.9938902917963683   T   T   T
  0.1114921163895488  0.5551748836086574  0.1475754649608874   F   F   F
  0.1059221057018652  0.5601056870184771  0.3875190192161246   T   T   T
  0.0166462212920318  0.3414799067015398  0.2349940628280766   T   T   T
  0.2225617563668294  0.4441042436368576  0.0726056503944648   F   F   F
  0.3336000534426088  0.3326520996887997  0.9935117539811492   T   T   T
  0.4438796245411822  0.5524553769021026  0.1492685227782928   F   F   F
  0.5368560262581509  0.4122338869642500  0.3045929772911974   T   T   T
  0.4000945999546668  0.5040148378739059  0.3662900321324932   T   T   T
  0.3208507770047841  0.3414196717369192  0.2388130202173261   T   T   T
  0.5564521258204564  0.4443739623664129  0.0734234298031424   F   F   F
  0.6661491158395311  0.3317989885219144  0.9943440647762746   T   T   T
  0.7776111449094003  0.5547773172494672  0.1499839496125546   F   F   F
  0.8845205460210560  0.4441429911851902  0.3036614094216649   T   T   T
  0.7795519406676110  0.5452757839698499  0.3878523373441063   T   T   T
  0.6693324427826766  0.3322953398956900  0.2276654261110278   T   T   T
  0.8886268047035841  0.4444878454891281  0.0740886490567263   F   F   F
 -0.0004454533078659  0.6672212207474367  0.9938945982439549   T   T   T
  0.1118896827478082  0.8890558550866601  0.1499839496125261   F   F   F
  0.2197544683150354  0.7833210131596668  0.3049136481893259   T   T   T
  0.1095385815166899  0.8912754132991303  0.3870861221850700   T   T   T
  0.0001708106108973  0.6659103978297528  0.2288611734648897   T   T   T
  0.2221781545101464  0.7780401952961356  0.0740886490566908   F   F   F
  0.3337868866941938  0.6681453898799773  0.9938946145134416   T   T   T
  0.4429012128541245  0.8822428359786869  0.1513558533932056   F   F   F
  0.5599445674971015  0.7856464903336930  0.3061041303927159   T   T   T
  0.4495749809547690  0.9013755468142260  0.3898466216766405   T   T   T
  0.3241191611770476  0.6509976787862035  0.2343011024574891   T   T   T
  0.5553199779173070  0.7758239541955874  0.0748737400846835   F   F   F
  0.6670403274371863  0.6674046306251095  0.9939863356256191   T   T   T
  0.7760273166242229  0.8906396833754400  0.1502923473376541   F   F   F
  0.8909484338096724  0.7784488690116472  0.3047730548407310   T   T   T
  0.7880050858323263  0.8985665878007913  0.3897733177760271   T   T   T
  0.6644098462154110  0.6614253368917482  0.2303423960999703   T   T   T
  0.8887787165570700  0.7778882834416052  0.0745187613586538   F   F   F
  0.3465311973517624  0.3327057869859897  0.3288557425916203   T   T   T
 -0.0030118466951132 -0.0087154455738217  0.3445745883235244   T   T   T
  0.2214539484243190  0.1088325076777110  0.1908520034597814   F   F   F
  0.1104288037812964  0.2208329239814546  0.0333009851052140   F   F   F
  0.3318187461551477 -0.0021579501568659  0.3452869222252576   T   T   T
  0.5561078632489114  0.1105591367561090  0.1909112740232288   F   F   F
  0.4441766893934229  0.2224893106063064  0.0348029418577056   F   F   F
  0.6680701639253214 -0.0012103111000506  0.3473444008525449   T   T   T
  0.8904492360848550  0.1121149072791283  0.1923166216741592   F   F   F
  0.7784592193153017  0.2227083145541542  0.0355285833435133   F   F   F
  0.9907043347242169  0.3330976712438314  0.3512638367121920   T   T   T
  0.2227877799167857  0.4438782200754332  0.1845943984800087   F   F   F
  0.1103238593918334  0.5563431406064510  0.0331816526641404   F   F   F
  0.5578344923159761  0.4452120515710334  0.1908520034599235   F   F   F
  0.4458330760186513  0.5562381962180751  0.0333009851052566   F   F   F
  0.6702787813848917  0.3327361748503396  0.3459553453818276   T   T   T
  0.8914138463403205  0.4449332995473299  0.1913743294898183   F   F   F
  0.7772251187740125  0.5549043469585300  0.0343664788724141   F   F   F
 -0.0017521043830567  0.6646536869342269  0.3461810447589827   T   T   T
  0.2217327004581335  0.7752531536756848  0.1913743294899817   F   F   F
  0.1117626530433853  0.8894418812273486  0.0343664788724780   F   F   F
  0.3354064781609102  0.6744671805447449  0.3519636295267843   T   T   T
  0.5545520927112975  0.7762177639143104  0.1923166216740810   F   F   F
  0.4439576854449712  0.8882077806850859  0.0355285833437193   F   F   F
  0.6582161776797952  0.6563203933616318  0.3477965636431058   T   T   T
  0.8892482431325419  0.7774187568723931  0.1885045028717869   F   F   F
  0.7771711861596629  0.8894958138397939  0.0356073311492722   F   F   F
  0.2000970356186554  0.3045294598210495  0.4212692219145279   T   T   T
  0.4470838943172996  0.2200556609938031  0.4513487357200338   T   T   T
 
  0.00000000E+00  0.00000000E+00  0.00000000E+00
  0.00000000E+00  0.00000000E+00  0.00000000E+00
  0.00000000E+00  0.00000000E+00  0.00000000E+00
  0.00000000E+00  0.00000000E+00  0.00000000E+00
  0.00000000E+00  0.00000000E+00  0.00000000E+00
  0.00000000E+00  0.00000000E+00  0.00000000E+00
  0.00000000E+00  0.00000000E+00  0.00000000E+00
  0.00000000E+00  0.00000000E+00  0.00000000E+00
  0.00000000E+00  0.00000000E+00  0.00000000E+00
  0.00000000E+00  0.00000000E+00  0.00000000E+00
  0.00000000E+00  0.00000000E+00  0.00000000E+00
  0.00000000E+00  0.00000000E+00  0.00000000E+00
  0.00000000E+00  0.00000000E+00  0.00000000E+00
  0.00000000E+00  0.00000000E+00  0.00000000E+00
  0.00000000E+00  0.00000000E+00  0.00000000E+00
  0.00000000E+00  0.00000000E+00  0.00000000E+00
  0.00000000E+00  0.00000000E+00  0.00000000E+00
  0.00000000E+00  0.00000000E+00  0.00000000E+00
  0.00000000E+00  0.00000000E+00  0.00000000E+00
  0.00000000E+00  0.00000000E+00  0.00000000E+00
  0.00000000E+00  0.00000000E+00  0.00000000E+00
  0.00000000E+00  0.00000000E+00  0.00000000E+00
  0.00000000E+00  0.00000000E+00  0.00000000E+00
  0.00000000E+00  0.00000000E+00  0.00000000E+00
  0.00000000E+00  0.00000000E+00  0.00000000E+00
  0.00000000E+00  0.00000000E+00  0.00000000E+00
  0.00000000E+00  0.00000000E+00  0.00000000E+00
  0.00000000E+00  0.00000000E+00  0.00000000E+00
  0.00000000E+00  0.00000000E+00  0.00000000E+00
  0.00000000E+00  0.00000000E+00  0.00000000E+00
  0.00000000E+00  0.00000000E+00  0.00000000E+00
  0.00000000E+00  0.00000000E+00  0.00000000E+00
  0.00000000E+00  0.00000000E+00  0.00000000E+00
  0.00000000E+00  0.00000000E+00  0.00000000E+00
  0.00000000E+00  0.00000000E+00  0.00000000E+00
  0.00000000E+00  0.00000000E+00  0.00000000E+00
  0.00000000E+00  0.00000000E+00  0.00000000E+00
  0.00000000E+00  0.00000000E+00  0.00000000E+00
  0.00000000E+00  0.00000000E+00  0.00000000E+00
  0.00000000E+00  0.00000000E+00  0.00000000E+00
  0.00000000E+00  0.00000000E+00  0.00000000E+00
  0.00000000E+00  0.00000000E+00  0.00000000E+00
  0.00000000E+00  0.00000000E+00  0.00000000E+00
  0.00000000E+00  0.00000000E+00  0.00000000E+00
  0.00000000E+00  0.00000000E+00  0.00000000E+00
  0.00000000E+00  0.00000000E+00  0.00000000E+00
  0.00000000E+00  0.00000000E+00  0.00000000E+00
  0.00000000E+00  0.00000000E+00  0.00000000E+00
  0.00000000E+00  0.00000000E+00  0.00000000E+00
  0.00000000E+00  0.00000000E+00  0.00000000E+00
  0.00000000E+00  0.00000000E+00  0.00000000E+00
  0.00000000E+00  0.00000000E+00  0.00000000E+00
  0.00000000E+00  0.00000000E+00  0.00000000E+00
  0.00000000E+00  0.00000000E+00  0.00000000E+00
  0.00000000E+00  0.00000000E+00  0.00000000E+00
  0.00000000E+00  0.00000000E+00  0.00000000E+00
  0.00000000E+00  0.00000000E+00  0.00000000E+00
  0.00000000E+00  0.00000000E+00  0.00000000E+00
  0.00000000E+00  0.00000000E+00  0.00000000E+00
  0.00000000E+00  0.00000000E+00  0.00000000E+00
  0.00000000E+00  0.00000000E+00  0.00000000E+00
  0.00000000E+00  0.00000000E+00  0.00000000E+00
  0.00000000E+00  0.00000000E+00  0.00000000E+00
  0.00000000E+00  0.00000000E+00  0.00000000E+00
  0.00000000E+00  0.00000000E+00  0.00000000E+00
  0.00000000E+00  0.00000000E+00  0.00000000E+00
  0.00000000E+00  0.00000000E+00  0.00000000E+00
  0.00000000E+00  0.00000000E+00  0.00000000E+00
  0.00000000E+00  0.00000000E+00  0.00000000E+00
  0.00000000E+00  0.00000000E+00  0.00000000E+00
  0.00000000E+00  0.00000000E+00  0.00000000E+00
  0.00000000E+00  0.00000000E+00  0.00000000E+00
  0.00000000E+00  0.00000000E+00  0.00000000E+00
  0.00000000E+00  0.00000000E+00  0.00000000E+00
  0.00000000E+00  0.00000000E+00  0.00000000E+00
  0.00000000E+00  0.00000000E+00  0.00000000E+00
  0.00000000E+00  0.00000000E+00  0.00000000E+00
  0.00000000E+00  0.00000000E+00  0.00000000E+00
  0.00000000E+00  0.00000000E+00  0.00000000E+00
  0.00000000E+00  0.00000000E+00  0.00000000E+00
  0.00000000E+00  0.00000000E+00  0.00000000E+00
  0.00000000E+00  0.00000000E+00  0.00000000E+00
