CeO2-you-111-you-Ga                     
   1.00000000000000     
     9.8404143404094793   -5.6680973264900851   -0.0137251564131785
     0.0114912138269834   11.3560960228709593    0.0137251541360635
    -0.0151826219876250    0.0262970713922859   20.9533232829903291
   O    Ga   Ce   H 
    53     1    26     2
Selective dynamics
Direct
  0.9996414287409162  0.9998572991701430  0.9947754247455484   T   T   T
  0.1136103361944549  0.2227584487956804  0.1492814622924712   F   F   F
  0.2190350746563962  0.1062783381545833  0.3009759506956429   T   T   T
  0.1407029141167686  0.2416369197578965  0.3738366610662218   T   T   T
  0.9971230707742293  0.9986303875512974  0.2288120474214203   T   T   T
  0.2214184317066383  0.1100418555665996  0.0743060383462790   F   F   F
  0.3348252778270860  0.0007364914265451  0.9955584566550433   T   T   T
  0.4404948213463982  0.2261711786539990  0.1521225980400729   F   F   F
  0.5575613908329561  0.1188074863171900  0.3082005533624763   T   T   T
  0.4235380205228462  0.2532697712312398  0.3886199038073550   T   T   T
  0.3369015815076026  0.9988654988856377  0.2269527950543366   T   T   T
  0.5553532694259147  0.1113137305735634  0.0775240990693078   F   F   F
  0.6658689610767822  0.0007220247211873  0.9958427835202102   T   T   T
  0.7849533310991887  0.2249533206892664  0.1512229724427101   F   F   F
  0.8843001491685230  0.1045017800649328  0.3066763012581413   T   T   T
  0.7680286731343464  0.2201230333631295  0.3897915356420344   T   T   T
  0.6651884354304016  0.0005301286232469  0.2301106687585188   T   T   T
  0.8906532645695648  0.1119089187080462  0.0746909613324860   F   F   F
  0.9982562795470419  0.3329451797597950  0.9944919716199850   T   T   T
  0.1113731671636913  0.5552938328328310  0.1485887099613237   F   F   F
  0.1250243117410690  0.5633078024596936  0.3833159334016577   T   T   T
  0.0172265638708108  0.3412131377223879  0.2348787879678065   T   T   T
  0.2223775020225247  0.4442884979782136  0.0732937578139996   F   F   F
  0.3336844231366577  0.3324699750769166  0.9946385918200485   T   T   T
  0.4439075512116446  0.5530566638097838  0.1492814622922793   F   F   F
  0.5748818880238696  0.4505686272187220  0.3010568545475922   T   T   T
  0.4015840567248902  0.5168011804305142  0.3626036897590356   T   T   T
  0.3266620541708826  0.3438878269629319  0.2423618122011625   T   T   T
  0.5566251444333403  0.4452475682930839  0.0743060383463074   F   F   F
  0.6657476140627442  0.3314213179594268  0.9956535873283221   T   T   T
  0.7772995969376240  0.5542621159730956  0.1508725953231576   F   F   F
  0.8875824591643182  0.4491972773433378  0.3050167595070155   T   T   T
  0.7796919581794102  0.5591031653750502  0.3873231517341698   T   T   T
  0.6692490563870443  0.3302847034316061  0.2278880567419557   T   T   T
  0.8889164798182705  0.4451782439545156  0.0747420658784392   F   F   F
  0.9991319871977012  0.6672230281686253  0.9946799872224000   T   T   T
  0.1124048840267307  0.8893674030611862  0.1508725953231291   F   F   F
  0.2224218477126148  0.7778110054589766  0.3047227695717381   T   T   T
  0.0964721634629616  0.8819759231393481  0.3876544061668796   T   T   T
  0.0010835423573528  0.6673481865936634  0.2293911112643105   T   T   T
  0.2214877560454696  0.7777505201815273  0.0747420658785174   F   F   F
  0.3333967690019749  0.6678696774340322  0.9943964631490229   T   T   T
  0.4417126793086013  0.8817136688991098  0.1512229724421346   F   F   F
  0.5578172757290994  0.7785457924639946  0.3054626453717941   T   T   T
  0.4534714309152628  0.8831150374991933  0.3906138023633189   T   T   T
  0.3255351170219045  0.6497463681080341  0.2356448409524456   T   T   T
  0.5547580812920430  0.7760137354299061  0.0746909613328697   F   F   F
  0.6672191061142231  0.6676038931928643  0.9946016150863732   T   T   T
  0.7759985238033593  0.8906684761984778  0.1491378380468831   F   F   F
  0.8867025437667067  0.7754241308969075  0.3028988326589614   T   T   T
  0.7764438084725855  0.8826276542940373  0.3856053409037513   T   T   T
  0.6667784790740543  0.6693417733598761  0.2285525311735614   T   T   T
  0.8887652749063619  0.7779017250935567  0.0751854334953634   F   F   F
  0.3201213208786564  0.3240725342280321  0.3369859293608000   T   T   T
  0.0024571987796765  0.0002176123691834  0.3430032749644732   T   T   T
  0.2215431935542398  0.1099469925744430  0.1918224812503908   F   F   F
  0.1106000420081088  0.2209401788938763  0.0338855316264741   F   F   F
  0.3294272481736137 -0.0014424506850865  0.3474833508481722   T   T   T
  0.5560521832812952  0.1106148167197958  0.1908226675740039   F   F   F
  0.4441652170785062  0.2225007829208465  0.0360143496877399   F   F   F
  0.6668660265292320 -0.0001303073676064  0.3472957308593514   T   T   T
  0.8896960232042659  0.1116394877029663  0.1911520183825033   F   F   F
  0.7784743684341322  0.2228726358766124  0.0357482722418325   F   F   F
  0.9942894833344537  0.3292378725131949  0.3531758941769266   T   T   T
  0.2235354085325909  0.4431305914629959  0.1848669882059326   F   F   F
  0.1102365437725012  0.5564304562273179  0.0340216123905961   F   F   F
  0.5567200074201892  0.4451228064420079  0.1918224812505613   F   F   F
  0.4457258211082404  0.5560669579932949  0.0338855316265168   F   F   F
  0.6747079979796136  0.3399725205493351  0.3431076231631485   T   T   T
  0.8908606144351552  0.4451194015618753  0.1913588315025905   F   F   F
  0.7772013330500798  0.5551414753856960  0.0352662212694170   F   F   F
  0.0017985189062332  0.6695073102408581  0.3452284232610923   T   T   T
  0.2215465984427425  0.7758063855724018  0.1913588315026757   F   F   F
  0.1115255246142581  0.8894656669494765  0.0352662212693815   F   F   F
  0.3386988053450076  0.6753634766296078  0.3481951263841677   T   T   T
  0.5550275122926749  0.7769709767962709  0.1911520183824749   F   F   F
  0.4437933641230956  0.8881926315661914  0.0357482722419320   F   F   F
  0.6677151193346312  0.6634595675852460  0.3421134827348740   T   T   T
  0.8886369952125719  0.7780300047889313  0.1889090626477312   F   F   F
  0.7772695068577846  0.8893974931429653  0.0353007856015921   F   F   F
  0.2773221542814222  0.3394474470175809  0.4659070294987321   T   T   T
  0.4097740654999329  0.2731311783948939  0.4324819020885449   T   T   T
 
  0.00000000E+00  0.00000000E+00  0.00000000E+00
  0.00000000E+00  0.00000000E+00  0.00000000E+00
  0.00000000E+00  0.00000000E+00  0.00000000E+00
  0.00000000E+00  0.00000000E+00  0.00000000E+00
  0.00000000E+00  0.00000000E+00  0.00000000E+00
  0.00000000E+00  0.00000000E+00  0.00000000E+00
  0.00000000E+00  0.00000000E+00  0.00000000E+00
  0.00000000E+00  0.00000000E+00  0.00000000E+00
  0.00000000E+00  0.00000000E+00  0.00000000E+00
  0.00000000E+00  0.00000000E+00  0.00000000E+00
  0.00000000E+00  0.00000000E+00  0.00000000E+00
  0.00000000E+00  0.00000000E+00  0.00000000E+00
  0.00000000E+00  0.00000000E+00  0.00000000E+00
  0.00000000E+00  0.00000000E+00  0.00000000E+00
  0.00000000E+00  0.00000000E+00  0.00000000E+00
  0.00000000E+00  0.00000000E+00  0.00000000E+00
  0.00000000E+00  0.00000000E+00  0.00000000E+00
  0.00000000E+00  0.00000000E+00  0.00000000E+00
  0.00000000E+00  0.00000000E+00  0.00000000E+00
  0.00000000E+00  0.00000000E+00  0.00000000E+00
  0.00000000E+00  0.00000000E+00  0.00000000E+00
  0.00000000E+00  0.00000000E+00  0.00000000E+00
  0.00000000E+00  0.00000000E+00  0.00000000E+00
  0.00000000E+00  0.00000000E+00  0.00000000E+00
  0.00000000E+00  0.00000000E+00  0.00000000E+00
  0.00000000E+00  0.00000000E+00  0.00000000E+00
  0.00000000E+00  0.00000000E+00  0.00000000E+00
  0.00000000E+00  0.00000000E+00  0.00000000E+00
  0.00000000E+00  0.00000000E+00  0.00000000E+00
  0.00000000E+00  0.00000000E+00  0.00000000E+00
  0.00000000E+00  0.00000000E+00  0.00000000E+00
  0.00000000E+00  0.00000000E+00  0.00000000E+00
  0.00000000E+00  0.00000000E+00  0.00000000E+00
  0.00000000E+00  0.00000000E+00  0.00000000E+00
  0.00000000E+00  0.00000000E+00  0.00000000E+00
  0.00000000E+00  0.00000000E+00  0.00000000E+00
  0.00000000E+00  0.00000000E+00  0.00000000E+00
  0.00000000E+00  0.00000000E+00  0.00000000E+00
  0.00000000E+00  0.00000000E+00  0.00000000E+00
  0.00000000E+00  0.00000000E+00  0.00000000E+00
  0.00000000E+00  0.00000000E+00  0.00000000E+00
  0.00000000E+00  0.00000000E+00  0.00000000E+00
  0.00000000E+00  0.00000000E+00  0.00000000E+00
  0.00000000E+00  0.00000000E+00  0.00000000E+00
  0.00000000E+00  0.00000000E+00  0.00000000E+00
  0.00000000E+00  0.00000000E+00  0.00000000E+00
  0.00000000E+00  0.00000000E+00  0.00000000E+00
  0.00000000E+00  0.00000000E+00  0.00000000E+00
  0.00000000E+00  0.00000000E+00  0.00000000E+00
  0.00000000E+00  0.00000000E+00  0.00000000E+00
  0.00000000E+00  0.00000000E+00  0.00000000E+00
  0.00000000E+00  0.00000000E+00  0.00000000E+00
  0.00000000E+00  0.00000000E+00  0.00000000E+00
  0.00000000E+00  0.00000000E+00  0.00000000E+00
  0.00000000E+00  0.00000000E+00  0.00000000E+00
  0.00000000E+00  0.00000000E+00  0.00000000E+00
  0.00000000E+00  0.00000000E+00  0.00000000E+00
  0.00000000E+00  0.00000000E+00  0.00000000E+00
  0.00000000E+00  0.00000000E+00  0.00000000E+00
  0.00000000E+00  0.00000000E+00  0.00000000E+00
  0.00000000E+00  0.00000000E+00  0.00000000E+00
  0.00000000E+00  0.00000000E+00  0.00000000E+00
  0.00000000E+00  0.00000000E+00  0.00000000E+00
  0.00000000E+00  0.00000000E+00  0.00000000E+00
  0.00000000E+00  0.00000000E+00  0.00000000E+00
  0.00000000E+00  0.00000000E+00  0.00000000E+00
  0.00000000E+00  0.00000000E+00  0.00000000E+00
  0.00000000E+00  0.00000000E+00  0.00000000E+00
  0.00000000E+00  0.00000000E+00  0.00000000E+00
  0.00000000E+00  0.00000000E+00  0.00000000E+00
  0.00000000E+00  0.00000000E+00  0.00000000E+00
  0.00000000E+00  0.00000000E+00  0.00000000E+00
  0.00000000E+00  0.00000000E+00  0.00000000E+00
  0.00000000E+00  0.00000000E+00  0.00000000E+00
  0.00000000E+00  0.00000000E+00  0.00000000E+00
  0.00000000E+00  0.00000000E+00  0.00000000E+00
  0.00000000E+00  0.00000000E+00  0.00000000E+00
  0.00000000E+00  0.00000000E+00  0.00000000E+00
  0.00000000E+00  0.00000000E+00  0.00000000E+00
  0.00000000E+00  0.00000000E+00  0.00000000E+00
  0.00000000E+00  0.00000000E+00  0.00000000E+00
  0.00000000E+00  0.00000000E+00  0.00000000E+00
