CeO2-you-111-you-Sr                     
   1.00000000000000     
     9.8570750309948068   -5.7065757559629651   -0.0000258787013511
    -0.0000000013145642   11.4131495011354520    0.0000000000265582
    -0.0007488406642343    0.0000000001301565   21.1093633191882972
   O    Sr   Ce   H 
    53     1    26     2
Selective dynamics
Direct
  0.9992400056755286  0.0005326795924829  0.9971162496653406   T   T   T
  0.1155097615312428  0.2244213807653495  0.1518394323836674   F   F   F
  0.2230110703515062  0.1031004646549571  0.3051603610896444   T   T   T
  0.0887243530716378  0.2102573230646969  0.3876766759958969   T   T   T
  0.0012910307967648  0.0019275572806320  0.2283477380505707   T   T   T
  0.2220427514491732  0.1103446621541480  0.0757942265796032   F   F   F
  0.3324850294907025  0.9996310368715107  0.9956923384121480   T   T   T
  0.4454589220685037  0.2206445272119737  0.1465806615802734   F   F   F
  0.5496597612883980  0.1056454736945308  0.3042526743288114   T   T   T
  0.4461792960686584  0.2105942637801708  0.4028082355527371   T   T   T
  0.3338442594153158 -0.0010525588138658  0.2281958886636277   T   T   T
  0.5554608474308793  0.1096368096560880  0.0741936465411968   F   F   F
  0.6687842051221320  0.0008556788177981  0.9961471608572476   T   T   T
  0.7751822654427656  0.2272490525458082  0.1512143836666411   F   F   F
  0.8863443883932264  0.1087018848145489  0.3017170183538133   T   T   T
  0.7827136443993123  0.2163472732766660  0.3861696283081434   T   T   T
  0.6668241312961896  0.0026774118143514  0.2267069684113846   T   T   T
  0.8878816856195044  0.1106073428097218  0.0780145886599612   F   F   F
  0.9992762925069846  0.3314032297727280  0.9972471110406211   T   T   T
  0.1110370470706101  0.5558145992920771  0.1514645509567814   F   F   F
  0.2177312997694334  0.4486882294006724  0.3040904408954571   T   T   T
  0.1129333583599142  0.5603795665682446  0.3852960827296438   T   T   T
  0.9989205029409729  0.3310633199395121  0.2281121192181795   T   T   T
  0.2220427514491945  0.4450310892952345  0.0757942265796032   F   F   F
  0.3304239273836453  0.3319959547500185  0.9958535270116989   T   T   T
  0.4454589220664715  0.5581483948575396  0.1465806615801029   F   F   F
  0.4641088747030246  0.5733432323348127  0.3802356764851917   T   T   T
  0.3491915463289839  0.3407529800861581  0.2303836316294156   T   T   T
  0.5547193205118504  0.4440256602562869  0.0717168354345716   F   F   F
  0.6679423982913389  0.3322591462782977  0.9957876809895372   T   T   T
  0.7783217700454017  0.5558278850217349  0.1475410563431083   F   F   F
  0.8965444504044539  0.4460537730472350  0.3041338545123242   T   T   T
  0.7678586775409255  0.5604839162907195  0.3780106942526887   T   T   T
  0.6569017491585545  0.3424215884212493  0.2336242756604643   T   T   T
  0.8899776831754238  0.4454579789248214  0.0753974705048179   F   F   F
  0.0001474347083484  0.6669370642918185  0.9959686034181577   T   T   T
  0.1110370470700985  0.8885564477771197  0.1514645509567742   F   F   F
  0.2206912770312723  0.7742689978658516  0.3020117969324164   T   T   T
  0.1122143422303541  0.8829456235027209  0.3847729629271598   T   T   T
  0.9971937788982862  0.6664502629230377  0.2296164798386835   T   T   T
  0.2220387963517609  0.7776863981757458  0.0753844664723360   F   F   F
  0.3320029002662223  0.6659677020163746  0.9956005014987791   T   T   T
  0.4443616905541603  0.8888478452771764  0.1494048586398975   F   F   F
  0.5609130385789753  0.7873865708066330  0.3013932584472278   T   T   T
  0.4405961976432225  0.8848187580340372  0.3833188465051953   T   T   T
  0.3369364651299614  0.6675189763184038  0.2286823283224029   T   T   T
  0.5554608474307798  0.7791570377749508  0.0741936465410973   F   F   F
  0.6678347043657898  0.6686652861313214  0.9957681077283751   T   T   T
  0.7751822654417921  0.8812662128965627  0.1512143836668471   F   F   F
  0.8932633783423538  0.7859264997654202  0.3038576598687576   T   T   T
  0.7794903606904943  0.8947835541611273  0.3860703981651936   T   T   T
  0.6574414860239446  0.6477197023980571  0.2353120609442293   T   T   T
  0.8899776831751254  0.7778527042500940  0.0753974705047824   F   F   F
  0.3228525651282494  0.3298374864875942  0.3538856481168187   T   T   T
  0.0031001503940924  0.0045459101318463  0.3438355784577360   T   T   T
  0.2243932641327433  0.1135794811991246  0.1924417442406039   F   F   F
  0.1116964782377678  0.2225147391188287  0.0375894361365425   F   F   F
  0.3274264433682127 -0.0114181531180299  0.3418819576935284   T   T   T
  0.5553410157587848  0.1115299255953204  0.1888658788166495   F   F   F
  0.4426630709943282  0.2197845733066828  0.0340021457828499   F   F   F
  0.6667688634310850  0.0021789536547211  0.3425834720898190   T   T   T
  0.8892205735245184  0.1112767867633337  0.1900382767271367   F   F   F
  0.7778521838545913  0.2225498337157319  0.0362103925885009   F   F   F
  0.0021577354003747  0.3326519548139221  0.3441346994139968   T   T   T
  0.2243932641319759  0.4441467829326271  0.1924417442405542   F   F   F
  0.1108393294850529  0.5548000337194736  0.0370358810214810   F   F   F
  0.5532915825322320  0.4433117912628646  0.1811845119897626   F   F   F
  0.4426630709945485  0.5562124976870564  0.0340021457828925   F   F   F
  0.6765610002599658  0.3286566178885700  0.3487327201060160   T   T   T
  0.8883966182455154  0.4452283990375392  0.1906527821990096   F   F   F
  0.7800904047314248  0.5567122023657305  0.0342527581370291   F   F   F
 -0.0001442933725435  0.6658548811432607  0.3434921457360051   T   T   T
  0.2225217424048012  0.7779278712032962  0.1890212215666125   F   F   F
  0.1108393294849819  0.8893732957663758  0.0370358810214739   F   F   F
  0.3345400181829741  0.6651580003392807  0.3430055207062565   T   T   T
  0.5553410157618970  0.7771440901623947  0.1888658788167490   F   F   F
  0.4448568845315748  0.8890954422655213  0.0354725679505776   F   F   F
  0.6750032267252130  0.6856064647395530  0.3467279098239561   T   T   T
  0.8883966182486489  0.7765012192138130  0.1906527821990807   F   F   F
  0.7778521838552592  0.8886353501391042  0.0362103925885293   F   F   F
  0.3176904349284424  0.3296705648343851  0.4958422025283988   T   T   T
  0.4405814310522603  0.2076874361932149  0.4488366587098950   T   T   T
 
  0.00000000E+00  0.00000000E+00  0.00000000E+00
  0.00000000E+00  0.00000000E+00  0.00000000E+00
  0.00000000E+00  0.00000000E+00  0.00000000E+00
  0.00000000E+00  0.00000000E+00  0.00000000E+00
  0.00000000E+00  0.00000000E+00  0.00000000E+00
  0.00000000E+00  0.00000000E+00  0.00000000E+00
  0.00000000E+00  0.00000000E+00  0.00000000E+00
  0.00000000E+00  0.00000000E+00  0.00000000E+00
  0.00000000E+00  0.00000000E+00  0.00000000E+00
  0.00000000E+00  0.00000000E+00  0.00000000E+00
  0.00000000E+00  0.00000000E+00  0.00000000E+00
  0.00000000E+00  0.00000000E+00  0.00000000E+00
  0.00000000E+00  0.00000000E+00  0.00000000E+00
  0.00000000E+00  0.00000000E+00  0.00000000E+00
  0.00000000E+00  0.00000000E+00  0.00000000E+00
  0.00000000E+00  0.00000000E+00  0.00000000E+00
  0.00000000E+00  0.00000000E+00  0.00000000E+00
  0.00000000E+00  0.00000000E+00  0.00000000E+00
  0.00000000E+00  0.00000000E+00  0.00000000E+00
  0.00000000E+00  0.00000000E+00  0.00000000E+00
  0.00000000E+00  0.00000000E+00  0.00000000E+00
  0.00000000E+00  0.00000000E+00  0.00000000E+00
  0.00000000E+00  0.00000000E+00  0.00000000E+00
  0.00000000E+00  0.00000000E+00  0.00000000E+00
  0.00000000E+00  0.00000000E+00  0.00000000E+00
  0.00000000E+00  0.00000000E+00  0.00000000E+00
  0.00000000E+00  0.00000000E+00  0.00000000E+00
  0.00000000E+00  0.00000000E+00  0.00000000E+00
  0.00000000E+00  0.00000000E+00  0.00000000E+00
  0.00000000E+00  0.00000000E+00  0.00000000E+00
  0.00000000E+00  0.00000000E+00  0.00000000E+00
  0.00000000E+00  0.00000000E+00  0.00000000E+00
  0.00000000E+00  0.00000000E+00  0.00000000E+00
  0.00000000E+00  0.00000000E+00  0.00000000E+00
  0.00000000E+00  0.00000000E+00  0.00000000E+00
  0.00000000E+00  0.00000000E+00  0.00000000E+00
  0.00000000E+00  0.00000000E+00  0.00000000E+00
  0.00000000E+00  0.00000000E+00  0.00000000E+00
  0.00000000E+00  0.00000000E+00  0.00000000E+00
  0.00000000E+00  0.00000000E+00  0.00000000E+00
  0.00000000E+00  0.00000000E+00  0.00000000E+00
  0.00000000E+00  0.00000000E+00  0.00000000E+00
  0.00000000E+00  0.00000000E+00  0.00000000E+00
  0.00000000E+00  0.00000000E+00  0.00000000E+00
  0.00000000E+00  0.00000000E+00  0.00000000E+00
  0.00000000E+00  0.00000000E+00  0.00000000E+00
  0.00000000E+00  0.00000000E+00  0.00000000E+00
  0.00000000E+00  0.00000000E+00  0.00000000E+00
  0.00000000E+00  0.00000000E+00  0.00000000E+00
  0.00000000E+00  0.00000000E+00  0.00000000E+00
  0.00000000E+00  0.00000000E+00  0.00000000E+00
  0.00000000E+00  0.00000000E+00  0.00000000E+00
  0.00000000E+00  0.00000000E+00  0.00000000E+00
  0.00000000E+00  0.00000000E+00  0.00000000E+00
  0.00000000E+00  0.00000000E+00  0.00000000E+00
  0.00000000E+00  0.00000000E+00  0.00000000E+00
  0.00000000E+00  0.00000000E+00  0.00000000E+00
  0.00000000E+00  0.00000000E+00  0.00000000E+00
  0.00000000E+00  0.00000000E+00  0.00000000E+00
  0.00000000E+00  0.00000000E+00  0.00000000E+00
  0.00000000E+00  0.00000000E+00  0.00000000E+00
  0.00000000E+00  0.00000000E+00  0.00000000E+00
  0.00000000E+00  0.00000000E+00  0.00000000E+00
  0.00000000E+00  0.00000000E+00  0.00000000E+00
  0.00000000E+00  0.00000000E+00  0.00000000E+00
  0.00000000E+00  0.00000000E+00  0.00000000E+00
  0.00000000E+00  0.00000000E+00  0.00000000E+00
  0.00000000E+00  0.00000000E+00  0.00000000E+00
  0.00000000E+00  0.00000000E+00  0.00000000E+00
  0.00000000E+00  0.00000000E+00  0.00000000E+00
  0.00000000E+00  0.00000000E+00  0.00000000E+00
  0.00000000E+00  0.00000000E+00  0.00000000E+00
  0.00000000E+00  0.00000000E+00  0.00000000E+00
  0.00000000E+00  0.00000000E+00  0.00000000E+00
  0.00000000E+00  0.00000000E+00  0.00000000E+00
  0.00000000E+00  0.00000000E+00  0.00000000E+00
  0.00000000E+00  0.00000000E+00  0.00000000E+00
  0.00000000E+00  0.00000000E+00  0.00000000E+00
  0.00000000E+00  0.00000000E+00  0.00000000E+00
  0.00000000E+00  0.00000000E+00  0.00000000E+00
  0.00000000E+00  0.00000000E+00  0.00000000E+00
  0.00000000E+00  0.00000000E+00  0.00000000E+00
