CeO2-you-111-you-Fe                     
   1.00000000000000     
     9.8263711040876043   -5.6806859574253643    0.0151894043577219
     0.0000000023822585   11.3613699196264193   -0.0000000017699212
     0.0329185190073629   -0.0000000033407485   20.9768263626342488
   O    Fe   Ce   H 
    53     1    26     1
Selective dynamics
Direct
 -0.0006949359377587  0.0021224430901278  0.9948505969488008   T   T   T
  0.1116733649494014  0.2245952239874291  0.1489066611595946   T   T   T
  0.2402897412995824  0.1280440481183885  0.3071369949169874   T   T   T
  0.1192076520833325  0.2305308810001574  0.3781814343139239   T   T   T
  0.0060694041721418  0.0051113946000636  0.2303957608694332   T   T   T
  0.2227784863671588  0.1135026805773506  0.0734615812366766   T   T   T
  0.3345461563876301  0.0025239650868733  0.9940244071452069   T   T   T
  0.4442495114821711  0.2226352322669589  0.1476655360752983   T   T   T
  0.5490924341614329  0.1076046201118943  0.3054375465905218   T   T   T
  0.4564285312850189  0.1768808682768621  0.4165945998353267   T   T   T
  0.3289263285674148  0.0001513290234049  0.2283670402794550   T   T   T
  0.5570527712723639  0.1140478668784859  0.0744587761961763   T   T   T
  0.6676725625028340  0.0022955254903240  0.9944448902431550   T   T   T
  0.7750965184470211  0.2249013271431817  0.1540097220468749   T   T   T
  0.8891454049809775  0.1127618019771728  0.3030119982771674   T   T   T
  0.7841057698327765  0.2166519946306947  0.3870046677403118   T   T   T
  0.6635682600820922 -0.0031903794486047  0.2317935043033058   T   T   T
  0.8866401050096145  0.1124537408172537  0.0761983929420233   T   T   T
 -0.0002239856339326  0.3338932442772794  0.9946441051114128   T   T   T
  0.1081313237998725  0.5566062596679335  0.1486832373018263   T   T   T
  0.2380997527138468  0.4540022052922399  0.3064326416829957   T   T   T
  0.1128449260145500  0.5582250246761641  0.3851260218195612   T   T   T
  0.0052669247836823  0.3371688330692654  0.2303079432667836   T   T   T
  0.2218927167030479  0.4470056890932625  0.0738000297121616   T   T   T
  0.3325934170248478  0.3357959117816258  0.9936201180152023   T   T   T
  0.4437937350720343  0.5596778831583125  0.1477539946409965   T   T   T
  0.4867584608150445  0.4289146877540769  0.3469176962125495   T   T   T
  0.3361829537291738  0.3384098268946499  0.2277139363876184   T   T   T
  0.5546609638338708  0.4466145199283898  0.0729791536253550   T   T   T
  0.6668006777408979  0.3351067235795224  0.9937544127340020   T   T   T
  0.7784729805144353  0.5576571222218302  0.1474415562804745   T   T   T
  0.8925919649456866  0.4454291348081587  0.3042118559907752   T   T   T
  0.7930307498665212  0.5644538382960788  0.3890195072617989   T   T   T
  0.6568243337362865  0.3435280409462149  0.2333935489259608   T   T   T
  0.8874931326504543  0.4441670107669051  0.0740159157468865   T   T   T
 -0.0002643309975011  0.6685385422432318  0.9943484195374109   T   T   T
  0.1091577522995793  0.8906543006361364  0.1476714998903647   T   T   T
  0.2182266307032896  0.7795001210518214  0.3032275165627772   T   T   T
  0.1120318022254259  0.8944733748555025  0.3848312369728748   T   T   T
  0.9980957969698355  0.6685567663868252  0.2288190051904296   T   T   T
  0.2226198169606461  0.7800467853141708  0.0735900359510108   T   T   T
  0.3340377004913064  0.6689775214251721  0.9940470203995232   T   T   T
  0.4454320594208593  0.8920410188637478  0.1500510988470624   T   T   T
  0.5436441975323999  0.7684086756584019  0.3096961643241466   T   T   T
  0.4351506748302224  0.8830276401330855  0.3860982196198269   T   T   T
  0.3294784230718120  0.6700288106718482  0.2281468329335438   T   T   T
  0.5561871259570998  0.7809706008270214  0.0749841310753469   T   T   T
  0.6669558997603745  0.6696964378257708  0.9940662753147851   T   T   T
  0.7765333692920353  0.8880051532904946  0.1526347144437122   T   T   T
  0.8925725717187889  0.7842840621164371  0.3039730555879944   T   T   T
  0.7839918902500216  0.9041163099700075  0.3871509854636606   T   T   T
  0.6603280259977012  0.6550394072957012  0.2318882111238803   T   T   T
  0.8879042452468269  0.7799689618107100  0.0739016347263360   T   T   T
  0.3038355109114926  0.3240861712692505  0.3246406775586196   T   T   T
  0.0041835245808078  0.0073792942963476  0.3449044732498016   T   T   T
  0.2234243749128095  0.1137252554056560  0.1890435140153123   T   T   T
  0.1110205998921415  0.2242673374433339  0.0345064864904105   T   T   T
  0.3300355904337821 -0.0019228243997035  0.3465043771990731   T   T   T
  0.5535646279307496  0.1131360996577198  0.1928066591676451   T   T   T
  0.4444239825812979  0.2231753086553424  0.0329743965426091   T   T   T
  0.6672162223837839  0.0013880152512775  0.3469731707500523   T   T   T
  0.8890379429808831  0.1128619070244104  0.1910842876645367   T   T   T
  0.7772901628540868  0.2240004023580972  0.0354413533430816   T   T   T
  0.0010184327212695  0.3341287664968502  0.3448362635993788   T   T   T
  0.2219505201842004  0.4474571668430646  0.1883490366441485   T   T   T
  0.1100040945025870  0.5565019169455295  0.0343880916684973   T   T   T
  0.5541458552433242  0.4458142508705139  0.1839676266581111   T   T   T
  0.4441105319003009  0.5590257097914895  0.0328380827187644   T   T   T
  0.6635229898359137  0.3326418816428470  0.3543993547333907   T   T   T
  0.8861066540977279  0.4460448454908094  0.1922978837478929   T   T   T
  0.7787743809518458  0.5578428500562049  0.0335783744351340   T   T   T
 -0.0038709578172305  0.6667659737903778  0.3452846031043277   T   T   T
  0.2200301815464367  0.7805832507394042  0.1869855411117294   T   T   T
  0.1106339271583009  0.8913553094865366  0.0339858420336450   T   T   T
  0.3230517043442920  0.6739398316423374  0.3404974072488081   T   T   T
  0.5541703017463412  0.7779568528747836  0.1917505601133583   T   T   T
  0.4462492423459396  0.8921696094491307  0.0350103747539492   T   T   T
  0.6738864731936354  0.6701320681625433  0.3487643810218792   T   T   T
  0.8876545595602987  0.7783987199171238  0.1907091359456321   T   T   T
  0.7773600111644254  0.8906414620586680  0.0353026035704273   T   T   T
  0.4150638108723058  0.2214635565640143  0.4396235971086461   T   T   T
 
  0.00000000E+00  0.00000000E+00  0.00000000E+00
  0.00000000E+00  0.00000000E+00  0.00000000E+00
  0.00000000E+00  0.00000000E+00  0.00000000E+00
  0.00000000E+00  0.00000000E+00  0.00000000E+00
  0.00000000E+00  0.00000000E+00  0.00000000E+00
  0.00000000E+00  0.00000000E+00  0.00000000E+00
  0.00000000E+00  0.00000000E+00  0.00000000E+00
  0.00000000E+00  0.00000000E+00  0.00000000E+00
  0.00000000E+00  0.00000000E+00  0.00000000E+00
  0.00000000E+00  0.00000000E+00  0.00000000E+00
  0.00000000E+00  0.00000000E+00  0.00000000E+00
  0.00000000E+00  0.00000000E+00  0.00000000E+00
  0.00000000E+00  0.00000000E+00  0.00000000E+00
  0.00000000E+00  0.00000000E+00  0.00000000E+00
  0.00000000E+00  0.00000000E+00  0.00000000E+00
  0.00000000E+00  0.00000000E+00  0.00000000E+00
  0.00000000E+00  0.00000000E+00  0.00000000E+00
  0.00000000E+00  0.00000000E+00  0.00000000E+00
  0.00000000E+00  0.00000000E+00  0.00000000E+00
  0.00000000E+00  0.00000000E+00  0.00000000E+00
  0.00000000E+00  0.00000000E+00  0.00000000E+00
  0.00000000E+00  0.00000000E+00  0.00000000E+00
  0.00000000E+00  0.00000000E+00  0.00000000E+00
  0.00000000E+00  0.00000000E+00  0.00000000E+00
  0.00000000E+00  0.00000000E+00  0.00000000E+00
  0.00000000E+00  0.00000000E+00  0.00000000E+00
  0.00000000E+00  0.00000000E+00  0.00000000E+00
  0.00000000E+00  0.00000000E+00  0.00000000E+00
  0.00000000E+00  0.00000000E+00  0.00000000E+00
  0.00000000E+00  0.00000000E+00  0.00000000E+00
  0.00000000E+00  0.00000000E+00  0.00000000E+00
  0.00000000E+00  0.00000000E+00  0.00000000E+00
  0.00000000E+00  0.00000000E+00  0.00000000E+00
  0.00000000E+00  0.00000000E+00  0.00000000E+00
  0.00000000E+00  0.00000000E+00  0.00000000E+00
  0.00000000E+00  0.00000000E+00  0.00000000E+00
  0.00000000E+00  0.00000000E+00  0.00000000E+00
  0.00000000E+00  0.00000000E+00  0.00000000E+00
  0.00000000E+00  0.00000000E+00  0.00000000E+00
  0.00000000E+00  0.00000000E+00  0.00000000E+00
  0.00000000E+00  0.00000000E+00  0.00000000E+00
  0.00000000E+00  0.00000000E+00  0.00000000E+00
  0.00000000E+00  0.00000000E+00  0.00000000E+00
  0.00000000E+00  0.00000000E+00  0.00000000E+00
  0.00000000E+00  0.00000000E+00  0.00000000E+00
  0.00000000E+00  0.00000000E+00  0.00000000E+00
  0.00000000E+00  0.00000000E+00  0.00000000E+00
  0.00000000E+00  0.00000000E+00  0.00000000E+00
  0.00000000E+00  0.00000000E+00  0.00000000E+00
  0.00000000E+00  0.00000000E+00  0.00000000E+00
  0.00000000E+00  0.00000000E+00  0.00000000E+00
  0.00000000E+00  0.00000000E+00  0.00000000E+00
  0.00000000E+00  0.00000000E+00  0.00000000E+00
  0.00000000E+00  0.00000000E+00  0.00000000E+00
  0.00000000E+00  0.00000000E+00  0.00000000E+00
  0.00000000E+00  0.00000000E+00  0.00000000E+00
  0.00000000E+00  0.00000000E+00  0.00000000E+00
  0.00000000E+00  0.00000000E+00  0.00000000E+00
  0.00000000E+00  0.00000000E+00  0.00000000E+00
  0.00000000E+00  0.00000000E+00  0.00000000E+00
  0.00000000E+00  0.00000000E+00  0.00000000E+00
  0.00000000E+00  0.00000000E+00  0.00000000E+00
  0.00000000E+00  0.00000000E+00  0.00000000E+00
  0.00000000E+00  0.00000000E+00  0.00000000E+00
  0.00000000E+00  0.00000000E+00  0.00000000E+00
  0.00000000E+00  0.00000000E+00  0.00000000E+00
  0.00000000E+00  0.00000000E+00  0.00000000E+00
  0.00000000E+00  0.00000000E+00  0.00000000E+00
  0.00000000E+00  0.00000000E+00  0.00000000E+00
  0.00000000E+00  0.00000000E+00  0.00000000E+00
  0.00000000E+00  0.00000000E+00  0.00000000E+00
  0.00000000E+00  0.00000000E+00  0.00000000E+00
  0.00000000E+00  0.00000000E+00  0.00000000E+00
  0.00000000E+00  0.00000000E+00  0.00000000E+00
  0.00000000E+00  0.00000000E+00  0.00000000E+00
  0.00000000E+00  0.00000000E+00  0.00000000E+00
  0.00000000E+00  0.00000000E+00  0.00000000E+00
  0.00000000E+00  0.00000000E+00  0.00000000E+00
  0.00000000E+00  0.00000000E+00  0.00000000E+00
  0.00000000E+00  0.00000000E+00  0.00000000E+00
  0.00000000E+00  0.00000000E+00  0.00000000E+00
