CeO2-you-111-you-Fe                     
   1.00000000000000     
     9.8343708279750661   -5.6725500315919355   -0.0147213378880048
     0.0046133042493599   11.3530885434695090    0.0147213354059205
    -0.0159893593243474    0.0276943812637338   20.9933984491606758
   O    Fe   Ce   H 
    53     1    26     1
Selective dynamics
Direct
 -0.0000110452571962 -0.0002629253609047  0.9945126063602431   T   T   T
  0.1117188998336171  0.2205622045969272  0.1469631463972765   T   T   T
  0.2326390547060742  0.1121996655880541  0.3043041395508328   T   T   T
  0.1391817924697347  0.2535386670135273  0.3647924143642499   T   T   T
  0.0021363943269648  0.0021656600877724  0.2303229204704439   T   T   T
  0.2229905552138395  0.1105578553901025  0.0742275100610393   T   T   T
  0.3351985920053274  0.0008319129631643  0.9953573957175801   T   T   T
  0.4404092760939572  0.2248203562956687  0.1527602270993992   T   T   T
  0.5524267766795974  0.1160042162390652  0.3063038419017271   T   T   T
  0.4349258930631265  0.2275066523907067  0.3967000692555433   T   T   T
  0.3347272154208906 -0.0029708658703272  0.2286176531442682   T   T   T
  0.5560750189590364  0.1122214251654357  0.0774138425443358   T   T   T
  0.6655430217146757  0.0004194623649159  0.9954430011106982   T   T   T
  0.7859640582497882  0.2248008029910520  0.1500041996116827   T   T   T
  0.8885294636066067  0.1124833763848790  0.3036234474114804   T   T   T
  0.7797142351954672  0.2221934653999931  0.3865103951514341   T   T   T
  0.6672898769317599  0.0032576237101612  0.2297345277791428   T   T   T
  0.8890708639074094  0.1095614138295424  0.0740511116260399   T   T   T
  0.9981370048648778  0.3322580290541315  0.9936584022639123   T   T   T
  0.1113662302401864  0.5561894836755137  0.1458657692205133   T   T   T
  0.1023200554283138  0.5415621077123387  0.3816439728366862   T   T   T
  0.0201553121856510  0.3437770689261447  0.2338702764959289   T   T   T
  0.2228260029591465  0.4445789635164189  0.0710762273790607   T   T   T
  0.3340276554580788  0.3321715237158722  0.9937473721983741   T   T   T
  0.4467103832184891  0.5550535200489315  0.1477162966848473   T   T   T
  0.5514108915697048  0.4237279151886453  0.3029628170740526   T   T   T
  0.4037692265944225  0.5074681540943028  0.3673739515225464   T   T   T
  0.3223197135774040  0.3427157820220071  0.2373013505008305   T   T   T
  0.5560547105435039  0.4438663159263576  0.0739322936893560   T   T   T
  0.6658236082074748  0.3317868632172562  0.9945541655542683   T   T   T
  0.7778332107564725  0.5554611154742523  0.1499090350087472   T   T   T
  0.8867132332319122  0.4410241731879223  0.3017941768960627   T   T   T
  0.7845480661954624  0.5469503169054811  0.3865444354878677   T   T   T
  0.6708640765333094  0.3315432304414248  0.2263289663137733   T   T   T
  0.8885371718775906  0.4450150521447403  0.0730756952029722   T   T   T
 -0.0000553040700069  0.6685490413467530  0.9943975011582828   T   T   T
  0.1113246179692435  0.8889122447082407  0.1509612989258960   T   T   T
  0.2189044562372054  0.7800625238807877  0.3049224833429471   T   T   T
  0.1106115793105085  0.8901279509944489  0.3864829608677576   T   T   T
  0.0001158884354352  0.6641369957653822  0.2289443257248825   T   T   T
  0.2225298093435110  0.7787186956074794  0.0742626707428845   T   T   T
  0.3340166319701077  0.6685440009799142  0.9937764143609547   T   T   T
  0.4430118245047372  0.8831851466503255  0.1516500966540429   T   T   T
  0.5600794464638693  0.7857310802694040  0.3061712389780877   T   T   T
  0.4488598370851843  0.9015585097447711  0.3890903341632885   T   T   T
  0.3245975805366901  0.6497669156723926  0.2332532535099252   T   T   T
  0.5559490838937706  0.7772529859696155  0.0748856305235129   T   T   T
  0.6671577678340981  0.6674042203290957  0.9942234556437125   T   T   T
  0.7772738516323054  0.8892100581533677  0.1519351909421911   T   T   T
  0.8933675771388556  0.7795919822200997  0.3043290843477868   T   T   T
  0.7926607653374882  0.9064585959587220  0.3872052829062623   T   T   T
  0.6642655305080777  0.6628923993520000  0.2301884764143491   T   T   T
  0.8885191300197259  0.7784392131857740  0.0752884617463518   T   T   T
  0.3330409935117441  0.3311853805821188  0.3350852053981719   T   T   T
  0.0038796077614260  0.0021071232439426  0.3432915030497031   T   T   T
  0.2228579144700726  0.1114291430354793  0.1921068673321689   T   T   T
  0.1107759235910462  0.2200147196231914  0.0328031403970724   T   T   T
  0.3295509569190428 -0.0042099279517566  0.3443789347615110   T   T   T
  0.5560870092022463  0.1107284350127522  0.1905972275022268   T   T   T
  0.4442988836777516  0.2223852987447652  0.0352772619121536   T   T   T
  0.6687194441699280 -0.0000179682290556  0.3462356040350272   T   T   T
  0.8911413704110509  0.1120992285127638  0.1901692307119663   T   T   T
  0.7780962111301668  0.2222973427864886  0.0346253061200946   T   T   T
  0.9925244434793895  0.3287884969517447  0.3456955740055159   T   T   T
  0.2245053030550989  0.4450791642862525  0.1814247829998860   T   T   T
  0.1107289612377877  0.5571655911449132  0.0321170921677252   T   T   T
  0.5551256198493159  0.4433505288584729  0.1923377970416699   T   T   T
  0.4466752325118613  0.5564467210146398  0.0332706325145233   T   T   T
  0.6712986671339070  0.3357782979435912  0.3428750070543434   T   T   T
  0.8914468997428694  0.4451990647607588  0.1884741505094896   T   T   T
  0.7770288321303569  0.5553719735670282  0.0351054354370271   T   T   T
  0.9983536366085227  0.6647546129366130  0.3441847091786809   T   T   T
  0.2219376674492342  0.7756875615192482  0.1906391357795262   T   T   T
  0.1118558622735637  0.8898160798075272  0.0356734021854547   T   T   T
  0.3370395944187055  0.6736592346285635  0.3512974280875214   T   T   T
  0.5548213073466450  0.7760592136726239  0.1931119322453558   T   T   T
  0.4443730525313683  0.8886076502582791  0.0357535408252795   T   T   T
  0.6622560312637656  0.6583137833341350  0.3463669079059246   T   T   T
  0.8884888852114529  0.7766408866755227  0.1905432389310187   T   T   T
  0.7771165078252271  0.8888116513146828  0.0358934217322684   T   T   T
  0.4252146103729717  0.2384435667446502  0.4420337153385173   T   T   T
 
  0.00000000E+00  0.00000000E+00  0.00000000E+00
  0.00000000E+00  0.00000000E+00  0.00000000E+00
  0.00000000E+00  0.00000000E+00  0.00000000E+00
  0.00000000E+00  0.00000000E+00  0.00000000E+00
  0.00000000E+00  0.00000000E+00  0.00000000E+00
  0.00000000E+00  0.00000000E+00  0.00000000E+00
  0.00000000E+00  0.00000000E+00  0.00000000E+00
  0.00000000E+00  0.00000000E+00  0.00000000E+00
  0.00000000E+00  0.00000000E+00  0.00000000E+00
  0.00000000E+00  0.00000000E+00  0.00000000E+00
  0.00000000E+00  0.00000000E+00  0.00000000E+00
  0.00000000E+00  0.00000000E+00  0.00000000E+00
  0.00000000E+00  0.00000000E+00  0.00000000E+00
  0.00000000E+00  0.00000000E+00  0.00000000E+00
  0.00000000E+00  0.00000000E+00  0.00000000E+00
  0.00000000E+00  0.00000000E+00  0.00000000E+00
  0.00000000E+00  0.00000000E+00  0.00000000E+00
  0.00000000E+00  0.00000000E+00  0.00000000E+00
  0.00000000E+00  0.00000000E+00  0.00000000E+00
  0.00000000E+00  0.00000000E+00  0.00000000E+00
  0.00000000E+00  0.00000000E+00  0.00000000E+00
  0.00000000E+00  0.00000000E+00  0.00000000E+00
  0.00000000E+00  0.00000000E+00  0.00000000E+00
  0.00000000E+00  0.00000000E+00  0.00000000E+00
  0.00000000E+00  0.00000000E+00  0.00000000E+00
  0.00000000E+00  0.00000000E+00  0.00000000E+00
  0.00000000E+00  0.00000000E+00  0.00000000E+00
  0.00000000E+00  0.00000000E+00  0.00000000E+00
  0.00000000E+00  0.00000000E+00  0.00000000E+00
  0.00000000E+00  0.00000000E+00  0.00000000E+00
  0.00000000E+00  0.00000000E+00  0.00000000E+00
  0.00000000E+00  0.00000000E+00  0.00000000E+00
  0.00000000E+00  0.00000000E+00  0.00000000E+00
  0.00000000E+00  0.00000000E+00  0.00000000E+00
  0.00000000E+00  0.00000000E+00  0.00000000E+00
  0.00000000E+00  0.00000000E+00  0.00000000E+00
  0.00000000E+00  0.00000000E+00  0.00000000E+00
  0.00000000E+00  0.00000000E+00  0.00000000E+00
  0.00000000E+00  0.00000000E+00  0.00000000E+00
  0.00000000E+00  0.00000000E+00  0.00000000E+00
  0.00000000E+00  0.00000000E+00  0.00000000E+00
  0.00000000E+00  0.00000000E+00  0.00000000E+00
  0.00000000E+00  0.00000000E+00  0.00000000E+00
  0.00000000E+00  0.00000000E+00  0.00000000E+00
  0.00000000E+00  0.00000000E+00  0.00000000E+00
  0.00000000E+00  0.00000000E+00  0.00000000E+00
  0.00000000E+00  0.00000000E+00  0.00000000E+00
  0.00000000E+00  0.00000000E+00  0.00000000E+00
  0.00000000E+00  0.00000000E+00  0.00000000E+00
  0.00000000E+00  0.00000000E+00  0.00000000E+00
  0.00000000E+00  0.00000000E+00  0.00000000E+00
  0.00000000E+00  0.00000000E+00  0.00000000E+00
  0.00000000E+00  0.00000000E+00  0.00000000E+00
  0.00000000E+00  0.00000000E+00  0.00000000E+00
  0.00000000E+00  0.00000000E+00  0.00000000E+00
  0.00000000E+00  0.00000000E+00  0.00000000E+00
  0.00000000E+00  0.00000000E+00  0.00000000E+00
  0.00000000E+00  0.00000000E+00  0.00000000E+00
  0.00000000E+00  0.00000000E+00  0.00000000E+00
  0.00000000E+00  0.00000000E+00  0.00000000E+00
  0.00000000E+00  0.00000000E+00  0.00000000E+00
  0.00000000E+00  0.00000000E+00  0.00000000E+00
  0.00000000E+00  0.00000000E+00  0.00000000E+00
  0.00000000E+00  0.00000000E+00  0.00000000E+00
  0.00000000E+00  0.00000000E+00  0.00000000E+00
  0.00000000E+00  0.00000000E+00  0.00000000E+00
  0.00000000E+00  0.00000000E+00  0.00000000E+00
  0.00000000E+00  0.00000000E+00  0.00000000E+00
  0.00000000E+00  0.00000000E+00  0.00000000E+00
  0.00000000E+00  0.00000000E+00  0.00000000E+00
  0.00000000E+00  0.00000000E+00  0.00000000E+00
  0.00000000E+00  0.00000000E+00  0.00000000E+00
  0.00000000E+00  0.00000000E+00  0.00000000E+00
  0.00000000E+00  0.00000000E+00  0.00000000E+00
  0.00000000E+00  0.00000000E+00  0.00000000E+00
  0.00000000E+00  0.00000000E+00  0.00000000E+00
  0.00000000E+00  0.00000000E+00  0.00000000E+00
  0.00000000E+00  0.00000000E+00  0.00000000E+00
  0.00000000E+00  0.00000000E+00  0.00000000E+00
  0.00000000E+00  0.00000000E+00  0.00000000E+00
  0.00000000E+00  0.00000000E+00  0.00000000E+00
