CeO2-you-111-you-Hg                     
   1.00000000000000     
     9.8473991398808440   -5.6663496674554708   -0.0113280449897092
     0.0164971283772079   11.3612712033253196    0.0113280430811782
    -0.0119521546181674    0.0207017380785078   21.1052204750493431
   O    Hg   Ce H
    53     1    26 1
Selective dynamics
Direct
  0.0001136476095108 -0.0001402071240841  0.9949608281109498   T   T   T
  0.1050508538888048  0.2188214134794376  0.1461319533683546   T   T   T
  0.2149904448762495  0.0983684775429419  0.3018010114801861   T   T   T
  0.1064960757362163  0.2304852371131697  0.3801940257371543   T   T   T
 -0.0026960717190496  0.0004177103964048  0.2285431823353336   T   T   T
  0.2210962139903639  0.1106452849368483  0.0751827621295285   T   T   T
  0.3344818862403621  0.0013787618032420  0.9968633896511248   T   T   T
  0.4441448565101321  0.2225211434893903  0.1506163984529325   T   T   T
  0.5544675196737204  0.1121994803254139  0.3045809499601116   T   T   T
  0.4499233873044306  0.2167426126979937  0.3895186956551880   T   T   T
  0.3355191289989614 -0.0003863345012931  0.2283762866002592   T   T   T
  0.5570038045750249  0.1096631954248381  0.0775629211489467   T   T   T
  0.6655154133085293  0.0011515866928835  0.9946386780090620   T   T   T
  0.7851326682834414  0.2259801131742967  0.1513383149131356   T   T   T
  0.8849468536057977  0.1096833425770812  0.3032231317472426   T   T   T
  0.7765271952501042  0.2204717133135896  0.3848190748863882   T   T   T
  0.6660302776548285  0.0006367223454734  0.2287960505918726   T   T   T
  0.8865553681488718  0.1094806308900250  0.0734325143365976   T   T   T
 -0.0017774438688625  0.3331160662703098  0.9950149936393800   T   T   T
  0.1109573202326427  0.5557096797645004  0.1470938110643560   T   T   T
  0.1209280295274339  0.5457389704749975  0.3745736277920926   T   T   T
  0.0193901488218680  0.3430511474457895  0.2351179643299748   T   T   T
  0.2227286029040053  0.4439373970977401  0.0714841692203204   T   T   T
  0.3345342409047495  0.3321317590942789  0.9953127620093037   T   T   T
  0.4478445865245608  0.5616161461125980  0.1461319533679677   T   T   T
  0.5682985224592507  0.4516755551206094  0.3018010114810257   T   T   T
  0.4361807628871539  0.5601709242626517  0.3801940257374631   T   T   T
  0.3277216647144826  0.3389443352873645  0.2227535693794753   T   T   T
  0.5560217150630097  0.4455697860090982  0.0751827621296062   T   T   T
  0.6652882381958662  0.3321841137596004  0.9968633896510388   T   T   T
  0.7789138385458050  0.5558316749158543  0.1508301152456878   T   T   T
  0.8850067963929077  0.4430965545315179  0.3044258181867320   T   T   T
  0.7819130955009249  0.5597223024382200  0.3842723118330018   T   T   T
  0.6670533344999550  0.3311468710014684  0.2283762866003664   T   T   T
  0.8886385752566258  0.4449567788325285  0.0749624389375604   T   T   T
 -0.0006268556307621  0.6672938556295257  0.9955062400011937   T   T   T
  0.1108353250819521  0.8877531614520594  0.1508301152456689   T   T   T
  0.2235694454650601  0.7816602036028865  0.3044258181864760   T   T   T
  0.1069446975613917  0.8847539044975956  0.3842723118330904   T   T   T
  0.0016620179993880  0.6650049819989522  0.2296922603554836   T   T   T
  0.2217092211673587  0.7780284247432225  0.0749624389374466   T   T   T
  0.3335499337304254  0.6684444438698466  0.9950149936392124   T   T   T
  0.4406858868265989  0.8815343317159769  0.1513383149134858   T   T   T
  0.5569836574269459  0.7817201463960221  0.3032231317468774   T   T   T
  0.4461942866854088  0.8901398047489565  0.3848190748855407   T   T   T
  0.3236148525554480  0.6472768511818640  0.2351179643296602   T   T   T
  0.5571863691110036  0.7801116318520559  0.0734325143364688   T   T   T
  0.6668072071241535  0.6665533523898494  0.9949608281108595   T   T   T
  0.7767489830699897  0.8899180169303568  0.1492479796937881   T   T   T
  0.8900488047572206  0.7766181952415732  0.3020189074724255   T   T   T
  0.7786218367550144  0.8880451632449768  0.3810314837232346   T   T   T
  0.6662492896030302  0.6693630717195422  0.2285431823351472   T   T   T
  0.8883512591971687  0.7783157408020701  0.0751709762983218   T   T   T
  0.3369907604463681  0.3296752395513068  0.3802096975965897   T   T   T
  0.0021692470508899  0.0003582911964925  0.3416211219622983   T   T   T
  0.2230259737605469  0.1140542383393108  0.1916401758847957   T   T   T
  0.1097637815145583  0.2199737720567747  0.0333082965756168   T   T   T
  0.3312286371138779  0.0037405457876632  0.3434371667373603   T   T   T
  0.5554480872232507  0.1112189127790376  0.1903754413466033   T   T   T
  0.4441270225700281  0.2225389774299390  0.0370121744743441   T   T   T
  0.6664302410144058  0.0002367589863701  0.3434260705282348   T   T   T
  0.8893612982630855  0.1111516499236619  0.1891920470616289   T   T   T
  0.7775989924289194  0.2222864667962614  0.0354264723370271   T   T   T
 -0.0122103548095341  0.3250426428631372  0.3455909730133430   T   T   T
  0.2241168054633601  0.4425491945279796  0.1807027101062673   T   T   T
  0.1098310481409830  0.5568359518585945  0.0336928982750682   T   T   T
  0.5526127616604284  0.4436400262389381  0.1916401758846976   T   T   T
  0.4466922279416203  0.5569032184846378  0.0333082965756864   T   T   T
  0.6629264542198136  0.3354373628911538  0.3434371667369364   T   T   T
  0.8903821751778240  0.4449718340360161  0.1902175379679600   T   T   T
  0.7769994000342710  0.5551589947222544  0.0363766872984921   T   T   T
 -0.0005362505448363  0.6672032505524920  0.3423202934693326   T   T   T
  0.2216941659672890  0.7762848248294528  0.1902175379680026   T   T   T
  0.1115080052795583  0.8896675999673253  0.0363766872984428   T   T   T
  0.3416233571327472  0.6788773548016707  0.3455909730148291   T   T   T
  0.5555153500706622  0.7773057017355742  0.1891920470616009   T   T   T
  0.4443795332025019  0.8890680075710744  0.0354264723370774   T   T   T
  0.6663087088021508  0.6644977529471052  0.3416211219617091   T   T   T
  0.8887029791960888  0.7779640208061553  0.1884914816002280   T   T   T
  0.7770098206936623  0.8896571793055130  0.0344925591618361   T   T   T
0.446598 0.216020 0.433410 T T T 
 
  0.00000000E+00  0.00000000E+00  0.00000000E+00
  0.00000000E+00  0.00000000E+00  0.00000000E+00
  0.00000000E+00  0.00000000E+00  0.00000000E+00
  0.00000000E+00  0.00000000E+00  0.00000000E+00
  0.00000000E+00  0.00000000E+00  0.00000000E+00
  0.00000000E+00  0.00000000E+00  0.00000000E+00
  0.00000000E+00  0.00000000E+00  0.00000000E+00
  0.00000000E+00  0.00000000E+00  0.00000000E+00
  0.00000000E+00  0.00000000E+00  0.00000000E+00
  0.00000000E+00  0.00000000E+00  0.00000000E+00
  0.00000000E+00  0.00000000E+00  0.00000000E+00
  0.00000000E+00  0.00000000E+00  0.00000000E+00
  0.00000000E+00  0.00000000E+00  0.00000000E+00
  0.00000000E+00  0.00000000E+00  0.00000000E+00
  0.00000000E+00  0.00000000E+00  0.00000000E+00
  0.00000000E+00  0.00000000E+00  0.00000000E+00
  0.00000000E+00  0.00000000E+00  0.00000000E+00
  0.00000000E+00  0.00000000E+00  0.00000000E+00
  0.00000000E+00  0.00000000E+00  0.00000000E+00
  0.00000000E+00  0.00000000E+00  0.00000000E+00
  0.00000000E+00  0.00000000E+00  0.00000000E+00
  0.00000000E+00  0.00000000E+00  0.00000000E+00
  0.00000000E+00  0.00000000E+00  0.00000000E+00
  0.00000000E+00  0.00000000E+00  0.00000000E+00
  0.00000000E+00  0.00000000E+00  0.00000000E+00
  0.00000000E+00  0.00000000E+00  0.00000000E+00
  0.00000000E+00  0.00000000E+00  0.00000000E+00
  0.00000000E+00  0.00000000E+00  0.00000000E+00
  0.00000000E+00  0.00000000E+00  0.00000000E+00
  0.00000000E+00  0.00000000E+00  0.00000000E+00
  0.00000000E+00  0.00000000E+00  0.00000000E+00
  0.00000000E+00  0.00000000E+00  0.00000000E+00
  0.00000000E+00  0.00000000E+00  0.00000000E+00
  0.00000000E+00  0.00000000E+00  0.00000000E+00
  0.00000000E+00  0.00000000E+00  0.00000000E+00
  0.00000000E+00  0.00000000E+00  0.00000000E+00
  0.00000000E+00  0.00000000E+00  0.00000000E+00
  0.00000000E+00  0.00000000E+00  0.00000000E+00
  0.00000000E+00  0.00000000E+00  0.00000000E+00
  0.00000000E+00  0.00000000E+00  0.00000000E+00
  0.00000000E+00  0.00000000E+00  0.00000000E+00
  0.00000000E+00  0.00000000E+00  0.00000000E+00
  0.00000000E+00  0.00000000E+00  0.00000000E+00
  0.00000000E+00  0.00000000E+00  0.00000000E+00
  0.00000000E+00  0.00000000E+00  0.00000000E+00
  0.00000000E+00  0.00000000E+00  0.00000000E+00
  0.00000000E+00  0.00000000E+00  0.00000000E+00
  0.00000000E+00  0.00000000E+00  0.00000000E+00
  0.00000000E+00  0.00000000E+00  0.00000000E+00
  0.00000000E+00  0.00000000E+00  0.00000000E+00
  0.00000000E+00  0.00000000E+00  0.00000000E+00
  0.00000000E+00  0.00000000E+00  0.00000000E+00
  0.00000000E+00  0.00000000E+00  0.00000000E+00
  0.00000000E+00  0.00000000E+00  0.00000000E+00
  0.00000000E+00  0.00000000E+00  0.00000000E+00
  0.00000000E+00  0.00000000E+00  0.00000000E+00
  0.00000000E+00  0.00000000E+00  0.00000000E+00
  0.00000000E+00  0.00000000E+00  0.00000000E+00
  0.00000000E+00  0.00000000E+00  0.00000000E+00
  0.00000000E+00  0.00000000E+00  0.00000000E+00
  0.00000000E+00  0.00000000E+00  0.00000000E+00
  0.00000000E+00  0.00000000E+00  0.00000000E+00
  0.00000000E+00  0.00000000E+00  0.00000000E+00
  0.00000000E+00  0.00000000E+00  0.00000000E+00
  0.00000000E+00  0.00000000E+00  0.00000000E+00
  0.00000000E+00  0.00000000E+00  0.00000000E+00
  0.00000000E+00  0.00000000E+00  0.00000000E+00
  0.00000000E+00  0.00000000E+00  0.00000000E+00
  0.00000000E+00  0.00000000E+00  0.00000000E+00
  0.00000000E+00  0.00000000E+00  0.00000000E+00
  0.00000000E+00  0.00000000E+00  0.00000000E+00
  0.00000000E+00  0.00000000E+00  0.00000000E+00
  0.00000000E+00  0.00000000E+00  0.00000000E+00
  0.00000000E+00  0.00000000E+00  0.00000000E+00
  0.00000000E+00  0.00000000E+00  0.00000000E+00
  0.00000000E+00  0.00000000E+00  0.00000000E+00
  0.00000000E+00  0.00000000E+00  0.00000000E+00
  0.00000000E+00  0.00000000E+00  0.00000000E+00
  0.00000000E+00  0.00000000E+00  0.00000000E+00
  0.00000000E+00  0.00000000E+00  0.00000000E+00
