CeO2-you-111-you-Au                     
   1.00000000000000     
     9.8369955734897623   -5.7030992167702079    0.0032575686463099
    -0.0205306882040197   11.3706362335589866   -0.0032575680932753
     0.0037086816359108   -0.0064236246406124   21.2355728781112241
   O    Au   Ce
    53     1    26
Selective dynamics
Direct
 -0.0001230175203155 -0.0002417584220992  0.9962451952431424   T   T   T
  0.1032286937166736  0.2181832088186703  0.1459789290031457   T   T   T
  0.2351721546523934  0.1299844233983204  0.3067755531996472   T   T   T
  0.1137346810591499  0.2403382179513038  0.3768404630322211   T   T   T
  0.0051762569559749  0.0030133607412367  0.2306176189801329   T   T   T
  0.2217063018345749  0.1111939078571097  0.0761048271691602   T   T   T
  0.3348399164552677  0.0015468213867997  0.9978242278456455   T   T   T
  0.4463704799367910  0.2202955200626083  0.1496065913688007   T   T   T
  0.5581374243076308  0.1085295756936440  0.3003162672216733   T   T   T
  0.4706029800573781  0.1960630199584085  0.3949954403084448   T   T   T
  0.3314115587881412  0.0014806735370602  0.2294188956696472   T   T   T
  0.5581535538892917  0.1085134461106567  0.0777351044466788   T   T   T
  0.6659797601000507  0.0006872399009657  0.9952916632144436   T   T   T
  0.7841339147507629  0.2256156715607524  0.1533539938760027   T   T   T
  0.8867390214627189  0.1089557563568186  0.3031018112210577   T   T   T
  0.7772177774760896  0.2187748614865274  0.3844426317691641   T   T   T
  0.6682535000597599 -0.0015865000589930  0.2281023273451115   T   T   T
  0.8846704387656094  0.1087706923480560  0.0749002858676941   T   T   T
 -0.0017207031133384  0.3325507813322194  0.9961187163299251   T   T   T
  0.1103978120196301  0.5562691879790218  0.1480409648985386   T   T   T
  0.1164520704957857  0.5502149295129626  0.3756007815438117   T   T   T
  0.0188301669353290  0.3426990532705440  0.2349995023812755   T   T   T
  0.2222521497219776  0.4444138502798878  0.0722487857032104   T   T   T
  0.3341752291257336  0.3324907708734866  0.9962917740345996   T   T   T
  0.4484827911840692  0.5634383062846724  0.1459789290028224   T   T   T
  0.5366825766022815  0.4314938453441330  0.3067755532002485   T   T   T
  0.4263277820443868  0.5529323189380331  0.3768404630322345   T   T   T
  0.3285125518320083  0.3381534481659135  0.2159850907310006   T   T   T
  0.5554730921420734  0.4449596981645464  0.0761048271691871   T   T   T
  0.6651201786126203  0.3318260835442584  0.9978242278456665   T   T   T
  0.7799690891898768  0.5562216725604929  0.1507298420538731   T   T   T
  0.8844338186469080  0.4424950777764942  0.3040249952705960   T   T   T
  0.7759164419738851  0.5587348697670953  0.3804111911023215   T   T   T
  0.6651863264601312  0.3352544412107102  0.2294188956697068   T   T   T
  0.8882867246682351  0.4437503411005420  0.0758399081643363   T   T   T
 -0.0005289650550784  0.6671959650539889  0.9970863752124095   T   T   T
  0.1104453274376935  0.8866979108078191  0.1507298420538689   T   T   T
  0.2241709222217532  0.7822331813505636  0.3040249952703810   T   T   T
  0.1079321302311641  0.8907505580234452  0.3804111911022733   T   T   T
  0.0009753470117850  0.6656916529855046  0.2302215961139892   T   T   T
  0.2229156588990612  0.7783802753309765  0.0758399081642830   T   T   T
  0.3341152186688864  0.6683877031146280  0.9961187163298481   T   T   T
  0.4410503284410819  0.8825330852488065  0.1533539938762297   T   T   T
  0.5577112436454567  0.7799279785382766  0.3031018112208707   T   T   T
  0.4478911385145590  0.8894492225255727  0.3844426317687237   T   T   T
  0.3239669467347198  0.6478368330718464  0.2349995023812571   T   T   T
  0.5578963076531489  0.7819965612358691  0.0749002858675437   T   T   T
  0.6669087584220339  0.6667900175199377  0.9962451952431214   T   T   T
  0.7789934647544264  0.8876735352458103  0.1516407211724544   T   T   T
  0.8885647602754014  0.7781022397228148  0.3018431181045981   T   T   T
  0.7790929979666987  0.8875740020330548  0.3814202624725237   T   T   T
  0.6636536392586910  0.6614907430440201  0.2306176189802011   T   T   T
  0.8884749176783746  0.7781920823205636  0.0760966303688714   T   T   T
  0.3251122076968127  0.3415537922932351  0.3461577562981027   T   T   T
  0.0043557088029973  0.0040416757147743  0.3418657064879550   T   T   T
  0.2245837201980840  0.1145954559123057  0.1902358633479126   T   T   T
  0.1094723624957706  0.2198566421473266  0.0340970785101300   T   T   T
  0.3382167391027210  0.0088419496274152  0.3452618699184034   T   T   T
  0.5559931525458333  0.1106738474566878  0.1908156362605700   T   T   T
  0.4447224037440112  0.2219435962562811  0.0371991387490973   T   T   T
  0.6675800469454514 -0.0009130469434839  0.3433773960673348   T   T   T
  0.8903536308195081  0.1111108772044040  0.1903601212234314   T   T   T
  0.7775452538693961  0.2214891683920363  0.0364459625134583   T   T   T
 -0.0116096239581220  0.3279934794481145  0.3453169024901608   T   T   T
  0.2229343611696852  0.4437316388217932  0.1802776446620670   T   T   T
  0.1098683728247224  0.5567986271742081  0.0349362957585808   T   T   T
  0.5520715440870271  0.4420822798007235  0.1902358633477978   T   T   T
  0.4468093578514322  0.5571946375036188  0.0340970785101186   T   T   T
  0.6578250503730033  0.3284492608980092  0.3452618699181214   T   T   T
  0.8890154520224174  0.4442822989698216  0.1913605087502068   T   T   T
  0.7775682725926599  0.5550170791481094  0.0377095429075796   T   T   T
 -0.0015615012369914  0.6682285012462648  0.3410313698575307   T   T   T
  0.2223837010341127  0.7776515479861813  0.1913605087502930   T   T   T
  0.1116499208533649  0.8890987274090973  0.0377095429075606   T   T   T
  0.3386725205451470  0.6782766239487771  0.3453169024908666   T   T   T
  0.5555561227898734  0.7763133691787014  0.1903601212235284   T   T   T
  0.4451768316069533  0.8891217461308449  0.0364459625134965   T   T   T
  0.6626253242841856  0.6623112911966424  0.3418657064877665   T   T   T
  0.8891493991304192  0.7775176008725292  0.1898324573634696   T   T   T
  0.7772940297601277  0.8893729702392252  0.0360085220659542   T   T   T
 
  0.00000000E+00  0.00000000E+00  0.00000000E+00
  0.00000000E+00  0.00000000E+00  0.00000000E+00
  0.00000000E+00  0.00000000E+00  0.00000000E+00
  0.00000000E+00  0.00000000E+00  0.00000000E+00
  0.00000000E+00  0.00000000E+00  0.00000000E+00
  0.00000000E+00  0.00000000E+00  0.00000000E+00
  0.00000000E+00  0.00000000E+00  0.00000000E+00
  0.00000000E+00  0.00000000E+00  0.00000000E+00
  0.00000000E+00  0.00000000E+00  0.00000000E+00
  0.00000000E+00  0.00000000E+00  0.00000000E+00
  0.00000000E+00  0.00000000E+00  0.00000000E+00
  0.00000000E+00  0.00000000E+00  0.00000000E+00
  0.00000000E+00  0.00000000E+00  0.00000000E+00
  0.00000000E+00  0.00000000E+00  0.00000000E+00
  0.00000000E+00  0.00000000E+00  0.00000000E+00
  0.00000000E+00  0.00000000E+00  0.00000000E+00
  0.00000000E+00  0.00000000E+00  0.00000000E+00
  0.00000000E+00  0.00000000E+00  0.00000000E+00
  0.00000000E+00  0.00000000E+00  0.00000000E+00
  0.00000000E+00  0.00000000E+00  0.00000000E+00
  0.00000000E+00  0.00000000E+00  0.00000000E+00
  0.00000000E+00  0.00000000E+00  0.00000000E+00
  0.00000000E+00  0.00000000E+00  0.00000000E+00
  0.00000000E+00  0.00000000E+00  0.00000000E+00
  0.00000000E+00  0.00000000E+00  0.00000000E+00
  0.00000000E+00  0.00000000E+00  0.00000000E+00
  0.00000000E+00  0.00000000E+00  0.00000000E+00
  0.00000000E+00  0.00000000E+00  0.00000000E+00
  0.00000000E+00  0.00000000E+00  0.00000000E+00
  0.00000000E+00  0.00000000E+00  0.00000000E+00
  0.00000000E+00  0.00000000E+00  0.00000000E+00
  0.00000000E+00  0.00000000E+00  0.00000000E+00
  0.00000000E+00  0.00000000E+00  0.00000000E+00
  0.00000000E+00  0.00000000E+00  0.00000000E+00
  0.00000000E+00  0.00000000E+00  0.00000000E+00
  0.00000000E+00  0.00000000E+00  0.00000000E+00
  0.00000000E+00  0.00000000E+00  0.00000000E+00
  0.00000000E+00  0.00000000E+00  0.00000000E+00
  0.00000000E+00  0.00000000E+00  0.00000000E+00
  0.00000000E+00  0.00000000E+00  0.00000000E+00
  0.00000000E+00  0.00000000E+00  0.00000000E+00
  0.00000000E+00  0.00000000E+00  0.00000000E+00
  0.00000000E+00  0.00000000E+00  0.00000000E+00
  0.00000000E+00  0.00000000E+00  0.00000000E+00
  0.00000000E+00  0.00000000E+00  0.00000000E+00
  0.00000000E+00  0.00000000E+00  0.00000000E+00
  0.00000000E+00  0.00000000E+00  0.00000000E+00
  0.00000000E+00  0.00000000E+00  0.00000000E+00
  0.00000000E+00  0.00000000E+00  0.00000000E+00
  0.00000000E+00  0.00000000E+00  0.00000000E+00
  0.00000000E+00  0.00000000E+00  0.00000000E+00
  0.00000000E+00  0.00000000E+00  0.00000000E+00
  0.00000000E+00  0.00000000E+00  0.00000000E+00
  0.00000000E+00  0.00000000E+00  0.00000000E+00
  0.00000000E+00  0.00000000E+00  0.00000000E+00
  0.00000000E+00  0.00000000E+00  0.00000000E+00
  0.00000000E+00  0.00000000E+00  0.00000000E+00
  0.00000000E+00  0.00000000E+00  0.00000000E+00
  0.00000000E+00  0.00000000E+00  0.00000000E+00
  0.00000000E+00  0.00000000E+00  0.00000000E+00
  0.00000000E+00  0.00000000E+00  0.00000000E+00
  0.00000000E+00  0.00000000E+00  0.00000000E+00
  0.00000000E+00  0.00000000E+00  0.00000000E+00
  0.00000000E+00  0.00000000E+00  0.00000000E+00
  0.00000000E+00  0.00000000E+00  0.00000000E+00
  0.00000000E+00  0.00000000E+00  0.00000000E+00
  0.00000000E+00  0.00000000E+00  0.00000000E+00
  0.00000000E+00  0.00000000E+00  0.00000000E+00
  0.00000000E+00  0.00000000E+00  0.00000000E+00
  0.00000000E+00  0.00000000E+00  0.00000000E+00
  0.00000000E+00  0.00000000E+00  0.00000000E+00
  0.00000000E+00  0.00000000E+00  0.00000000E+00
  0.00000000E+00  0.00000000E+00  0.00000000E+00
  0.00000000E+00  0.00000000E+00  0.00000000E+00
  0.00000000E+00  0.00000000E+00  0.00000000E+00
  0.00000000E+00  0.00000000E+00  0.00000000E+00
  0.00000000E+00  0.00000000E+00  0.00000000E+00
  0.00000000E+00  0.00000000E+00  0.00000000E+00
  0.00000000E+00  0.00000000E+00  0.00000000E+00
  0.00000000E+00  0.00000000E+00  0.00000000E+00
