CeO2-you-111-you-Mo                     
   1.00000000000000     
     9.8576934438011410   -5.6913423301845665    0.0000000007277666
     0.0341483531642275   11.4418293361607475    0.0139620145910378
     0.0149927818224245    0.0259682555406755   20.8085138977089983
   O    Mo   Ce   H 
    53     1    26     1
Selective dynamics
Direct
  0.9992861757718148  0.0011931818438129  0.9920187601887308   T   T   T
  0.1188686290588318  0.2265996498517698  0.1471802014190393   T   T   T
  0.2495865938132915  0.1423425462692970  0.3085288275687141   T   T   T
  0.1533335925745906  0.2525081288225618  0.3864630924696517   T   T   T
  0.0106977081253513  0.0054270225557519  0.2277666467755241   T   T   T
  0.2210438594951609  0.1088441528307796  0.0707634386168920   T   T   T
  0.3349430525022210  0.0001645396269930  0.9917559114913648   T   T   T
  0.4421277040516698  0.2222817441309673  0.1453780351100590   T   T   T
  0.5610948252956515  0.1095574960602817  0.3038288071378715   T   T   T
  0.4626376555176885  0.1951352104804634  0.4166117305983542   T   T   T
  0.3290516083306736  0.0013523676222732  0.2278870392267963   T   T   T
  0.5558420072776558  0.1118476089267283  0.0730642660235336   T   T   T
  0.6686556963646925  0.0010609502195875  0.9944186261984999   T   T   T
  0.7755199449427047  0.2251262138675513  0.1521077212451057   T   T   T
  0.8982184126983356  0.1207555129109577  0.3045815113340713   T   T   T
  0.7894449589589323  0.2209677874566557  0.3895961569630694   T   T   T
  0.6711963204035766 -0.0008837837103151  0.2286903110805865   T   T   T
  0.8895619098019680  0.1114336359933865  0.0754090570789484   T   T   T
 -0.0016143530660778  0.3312001893846268  0.9925943334166727   T   T   T
  0.1090236491219577  0.5565408728380922  0.1455165603675871   T   T   T
  0.2292590611062757  0.4371650166255467  0.3020503642090340   T   T   T
  0.0996744012037471  0.5425847164946198  0.3853248765196242   T   T   T
  0.0063106148288260  0.3381050822911670  0.2263600657394142   T   T   T
  0.2215660948175773  0.4458021826876389  0.0697682307208821   T   T   T
  0.3320275770119812  0.3321967748221604  0.9915378644635339   T   T   T
  0.4433661072975110  0.5536359622275452  0.1438190324028553   T   T   T
  0.4561230410860568  0.4303315948556199  0.3624011370427913   T   T   T
  0.3411470106172033  0.3405747612678538  0.2331718681380812   T   T   T
  0.5569232811856791  0.4443410799013168  0.0683024939404714   T   T   T
  0.6668642312378077  0.3316784436951255  0.9909352252389245   T   T   T
  0.7796121502871405  0.5567058992941464  0.1441322875272540   T   T   T
  0.8895410420745139  0.4407238860511450  0.3012275084878387   T   T   T
  0.7869669581950802  0.5584506395951897  0.3857828705384826   T   T   T
  0.6546995881460668  0.3441679516984394  0.2323095254450636   T   T   T
  0.8877288172714353  0.4436409825800007  0.0709256700308964   T   T   T
  0.0007133366784023  0.6669138774441072  0.9904596034487992   T   T   T
  0.1103362074880592  0.8879949588607525  0.1462064647926704   T   T   T
  0.2202070859640758  0.7725159534658975  0.3020734158930612   T   T   T
  0.1044088298704196  0.8727994681603476  0.3882053992732874   T   T   T
  0.9985838025167715  0.6653178714275854  0.2267190568857458   T   T   T
  0.2229864591497900  0.7786544637915793  0.0715586865771114   T   T   T
  0.3346802799747681  0.6680568783801313  0.9919580094154921   T   T   T
  0.4463585054785572  0.8907059407866382  0.1503109922731905   T   T   T
  0.5557599270223736  0.7734963986068109  0.3032235167711884   T   T   T
  0.4594633520964192  0.8878828964276694  0.3902577320665062   T   T   T
  0.3306648483968946  0.6610506805198777  0.2248464435263062   T   T   T
  0.5568468123101364  0.7783090569979658  0.0728609802464513   T   T   T
  0.6668964205834971  0.6682830419111390  0.9909026508240302   T   T   T
  0.7787203946381979  0.8852903969294301  0.1512083361500885   T   T   T
  0.8906921330020239  0.7793505176027695  0.3010678415708666   T   T   T
  0.7763987142019991  0.8941422614377649  0.3893472674366160   T   T   T
  0.6584702602241992  0.6466801900855923  0.2300318405561686   T   T   T
  0.8892840625224654  0.7780794263778673  0.0706520166183936   T   T   T
  0.2936422498687681  0.3197266609426231  0.3272554581588142   T   T   T
  0.0007186865899911  0.9940875856783473  0.3493449910093972   T   T   T
  0.2228872014688549  0.1076909602609250  0.1845757611930059   T   T   T
  0.1103548644389656  0.2217848723601128  0.0314303090514181   T   T   T
  0.3368211515076758  0.9921866925767387  0.3533940602623681   T   T   T
  0.5546041227958713  0.1117187739709279  0.1930812304010810   T   T   T
  0.4447164082151917  0.2202668080966431  0.0299719653382302   T   T   T
  0.6685325395209827 -0.0025906883718372  0.3461911655223057   T   T   T
  0.8919406799968723  0.1123732423577010  0.1909334433490091   T   T   T
  0.7773300452609908  0.2222060769341937  0.0342387544961135   T   T   T
  0.9923821370343664  0.3359215423130812  0.3439009817539007   T   T   T
  0.2216778315572834  0.4483595455328071  0.1822412256142630   T   T   T
  0.1104266159950062  0.5563604030011804  0.0311562750778046   T   T   T
  0.5584701966865208  0.4455648455983907  0.1788551389045818   T   T   T
  0.4451703935106039  0.5579806444419246  0.0293907312733480   T   T   T
  0.6699696421237483  0.3277262605469154  0.3550517579749927   T   T   T
  0.8868377449270914  0.4450710775864650  0.1890026347467959   T   T   T
  0.7796872840922751  0.5564943438225096  0.0294895504272816   T   T   T
  0.9986183731980691  0.6649447289594477  0.3448189706991686   T   T   T
  0.2227366015250339  0.7787194452532323  0.1885593635021610   T   T   T
  0.1110721128455461  0.8887160589599664  0.0313672359426407   T   T   T
  0.3308453043030574  0.6735973830733915  0.3443459638101997   T   T   T
  0.5560700045992527  0.7758922376173998  0.1909589738906675   T   T   T
  0.4462548724602531  0.8903685375183428  0.0344675569095088   T   T   T
  0.6802440987770156  0.6762481855471427  0.3481810242717944   T   T   T
  0.8895535480161864  0.7768326339685880  0.1890310549289288   T   T   T
  0.7784071629483686  0.8895184400500458  0.0339083521182381   T   T   T
  0.4303807662095178  0.2336124201191493  0.4488427602899258   T   T   T
 
  0.00000000E+00  0.00000000E+00  0.00000000E+00
  0.00000000E+00  0.00000000E+00  0.00000000E+00
  0.00000000E+00  0.00000000E+00  0.00000000E+00
  0.00000000E+00  0.00000000E+00  0.00000000E+00
  0.00000000E+00  0.00000000E+00  0.00000000E+00
  0.00000000E+00  0.00000000E+00  0.00000000E+00
  0.00000000E+00  0.00000000E+00  0.00000000E+00
  0.00000000E+00  0.00000000E+00  0.00000000E+00
  0.00000000E+00  0.00000000E+00  0.00000000E+00
  0.00000000E+00  0.00000000E+00  0.00000000E+00
  0.00000000E+00  0.00000000E+00  0.00000000E+00
  0.00000000E+00  0.00000000E+00  0.00000000E+00
  0.00000000E+00  0.00000000E+00  0.00000000E+00
  0.00000000E+00  0.00000000E+00  0.00000000E+00
  0.00000000E+00  0.00000000E+00  0.00000000E+00
  0.00000000E+00  0.00000000E+00  0.00000000E+00
  0.00000000E+00  0.00000000E+00  0.00000000E+00
  0.00000000E+00  0.00000000E+00  0.00000000E+00
  0.00000000E+00  0.00000000E+00  0.00000000E+00
  0.00000000E+00  0.00000000E+00  0.00000000E+00
  0.00000000E+00  0.00000000E+00  0.00000000E+00
  0.00000000E+00  0.00000000E+00  0.00000000E+00
  0.00000000E+00  0.00000000E+00  0.00000000E+00
  0.00000000E+00  0.00000000E+00  0.00000000E+00
  0.00000000E+00  0.00000000E+00  0.00000000E+00
  0.00000000E+00  0.00000000E+00  0.00000000E+00
  0.00000000E+00  0.00000000E+00  0.00000000E+00
  0.00000000E+00  0.00000000E+00  0.00000000E+00
  0.00000000E+00  0.00000000E+00  0.00000000E+00
  0.00000000E+00  0.00000000E+00  0.00000000E+00
  0.00000000E+00  0.00000000E+00  0.00000000E+00
  0.00000000E+00  0.00000000E+00  0.00000000E+00
  0.00000000E+00  0.00000000E+00  0.00000000E+00
  0.00000000E+00  0.00000000E+00  0.00000000E+00
  0.00000000E+00  0.00000000E+00  0.00000000E+00
  0.00000000E+00  0.00000000E+00  0.00000000E+00
  0.00000000E+00  0.00000000E+00  0.00000000E+00
  0.00000000E+00  0.00000000E+00  0.00000000E+00
  0.00000000E+00  0.00000000E+00  0.00000000E+00
  0.00000000E+00  0.00000000E+00  0.00000000E+00
  0.00000000E+00  0.00000000E+00  0.00000000E+00
  0.00000000E+00  0.00000000E+00  0.00000000E+00
  0.00000000E+00  0.00000000E+00  0.00000000E+00
  0.00000000E+00  0.00000000E+00  0.00000000E+00
  0.00000000E+00  0.00000000E+00  0.00000000E+00
  0.00000000E+00  0.00000000E+00  0.00000000E+00
  0.00000000E+00  0.00000000E+00  0.00000000E+00
  0.00000000E+00  0.00000000E+00  0.00000000E+00
  0.00000000E+00  0.00000000E+00  0.00000000E+00
  0.00000000E+00  0.00000000E+00  0.00000000E+00
  0.00000000E+00  0.00000000E+00  0.00000000E+00
  0.00000000E+00  0.00000000E+00  0.00000000E+00
  0.00000000E+00  0.00000000E+00  0.00000000E+00
  0.00000000E+00  0.00000000E+00  0.00000000E+00
  0.00000000E+00  0.00000000E+00  0.00000000E+00
  0.00000000E+00  0.00000000E+00  0.00000000E+00
  0.00000000E+00  0.00000000E+00  0.00000000E+00
  0.00000000E+00  0.00000000E+00  0.00000000E+00
  0.00000000E+00  0.00000000E+00  0.00000000E+00
  0.00000000E+00  0.00000000E+00  0.00000000E+00
  0.00000000E+00  0.00000000E+00  0.00000000E+00
  0.00000000E+00  0.00000000E+00  0.00000000E+00
  0.00000000E+00  0.00000000E+00  0.00000000E+00
  0.00000000E+00  0.00000000E+00  0.00000000E+00
  0.00000000E+00  0.00000000E+00  0.00000000E+00
  0.00000000E+00  0.00000000E+00  0.00000000E+00
  0.00000000E+00  0.00000000E+00  0.00000000E+00
  0.00000000E+00  0.00000000E+00  0.00000000E+00
  0.00000000E+00  0.00000000E+00  0.00000000E+00
  0.00000000E+00  0.00000000E+00  0.00000000E+00
  0.00000000E+00  0.00000000E+00  0.00000000E+00
  0.00000000E+00  0.00000000E+00  0.00000000E+00
  0.00000000E+00  0.00000000E+00  0.00000000E+00
  0.00000000E+00  0.00000000E+00  0.00000000E+00
  0.00000000E+00  0.00000000E+00  0.00000000E+00
  0.00000000E+00  0.00000000E+00  0.00000000E+00
  0.00000000E+00  0.00000000E+00  0.00000000E+00
  0.00000000E+00  0.00000000E+00  0.00000000E+00
  0.00000000E+00  0.00000000E+00  0.00000000E+00
  0.00000000E+00  0.00000000E+00  0.00000000E+00
  0.00000000E+00  0.00000000E+00  0.00000000E+00
