CeO2-you-111-you-Zn                     
   1.00000000000000     
     9.8946253629782284   -5.7126649919462684   -0.0000000014522119
    -0.0440879618334332   11.3489653883517274   -0.0277069836478195
    -0.0299847830364404   -0.0519351588506735   20.9451833422218172
   O    Zn   Ce   H 
    53     1    26     1
Selective dynamics
Direct
 -0.0001002082776699 -0.0000213564174377  0.9932567673574220   T   T   T
  0.1078353033860521  0.2202682621001573  0.1466657634340232   T   T   T
  0.2388372562832805  0.1338542300035521  0.3104039808421504   T   T   T
  0.0671068946807098  0.2019366939916131  0.3950380723035135   T   T   T
  0.0087605936563118  0.0046823653127956  0.2289681009972374   T   T   T
  0.2230675547464341  0.1112885573135837  0.0726033660583489   T   T   T
  0.3341462138122214 -0.0001987165826513  0.9930925658231747   T   T   T
  0.4471686270410359  0.2203972412489628  0.1478999475491320   T   T   T
  0.5481781116346648  0.1079055527140182  0.3046878573270208   T   T   T
  0.4598646323585046  0.1893387988124468  0.4132271615947186   T   T   T
  0.3282953547274149  0.0000257646441655  0.2284869895144041   T   T   T
  0.5575344374065621  0.1102385419490481  0.0740406660053623   T   T   T
  0.6663677970578314  0.9993400757339328  0.9927409601712085   T   T   T
  0.7776425197179023  0.2209196270762410  0.1532931280220756   T   T   T
  0.8871788493344648  0.1091624937644776  0.3001062778788468   T   T   T
  0.7800551612785207  0.2109005618666704  0.3855226189452896   T   T   T
  0.6601572923307504  0.9915503716961234  0.2319851763236166   T   T   T
  0.8865586179998990  0.1101154132044635  0.0733811230186424   T   T   T
  0.0002482496152993  0.3325688221757561  0.9938988471674410   T   T   T
  0.1099598187578464  0.5556154346578813  0.1478435941662898   T   T   T
  0.2415509755591071  0.4457746583428219  0.3158431629464689   T   T   T
  0.1135977608641904  0.5616390463907220  0.3855916124901627   T   T   T
  0.0106073185035701  0.3388424215225006  0.2306373067557302   T   T   T
  0.2228553891389362  0.4450912269576416  0.0734676106308303   T   T   T
  0.3337423696428571  0.3333865905538163  0.9937230297063135   T   T   T
  0.4480946757844834  0.5607535451301118  0.1473018824596810   T   T   T
  0.5347156131605637  0.4507183062603690  0.3202508022942386   T   T   T
  0.3354694353330036  0.3368189222415566  0.2183966534912661   T   T   T
  0.5557541516266934  0.4442870695620793  0.0739525344867632   T   T   T
  0.6659169629476565  0.3320013325838184  0.9937751698991515   T   T   T
  0.7794407229768939  0.5565341637253884  0.1480282468613784   T   T   T
  0.8944359564902590  0.4467264478314997  0.3051561008359918   T   T   T
  0.7915574157618824  0.5752703739030001  0.3870691490473244   T   T   T
  0.6640157557623783  0.3394497661510920  0.2305740241066624   T   T   T
  0.8871395308061718  0.4415592743349055  0.0741809376693480   T   T   T
  0.9980744235464166  0.6638965076535980  0.9934491310866482   T   T   T
  0.1106349636140955  0.8884595684319220  0.1462770482622279   T   T   T
  0.2206848438502845  0.7779909718000585  0.3019007406935094   T   T   T
  0.1166860427417759  0.8936214277265520  0.3834213514645972   T   T   T
  0.0005316516348222  0.6686564546324703  0.2280112233990142   T   T   T
  0.2216893106975757  0.7774993769527982  0.0721415344774751   T   T   T
  0.3334435838067116  0.6660134135647248  0.9935576347748141   T   T   T
  0.4435917315338032  0.8881683736453423  0.1493505929597192   T   T   T
  0.5444217867994791  0.7559885905460815  0.3122092026656478   T   T   T
  0.4391598828849168  0.8839549581606614  0.3834410273459984   T   T   T
  0.3306251094714708  0.6650728089379142  0.2286960736449929   T   T   T
  0.5571093068100825  0.7803078949825072  0.0736847659293900   T   T   T
  0.6650592422850717  0.6656176860508375  0.9933511972401559   T   T   T
  0.7783562456841168  0.8891353831221239  0.1498002745839409   T   T   T
  0.8950133856657608  0.7836467393120643  0.3020865980603861   T   T   T
  0.7799395972975465  0.8905763370297861  0.3832730258246082   T   T   T
  0.6699314717130364  0.6664551110738616  0.2291945509349696   T   T   T
  0.8886205652313416  0.7782885103597391  0.0720888526814861   T   T   T
  0.3342278408985451  0.3364043649563943  0.3174785966099768   T   T   T
  0.0071946604784818  0.0117212875881584  0.3460253343534276   T   T   T
  0.2235770492650437  0.1124369404993712  0.1873860748553008   T   T   T
  0.1105974260258682  0.2213601260270313  0.0332254073118316   T   T   T
  0.3315279273414455  0.0009890163727925  0.3449104753814786   T   T   T
  0.5544326259069304  0.1113161157084010  0.1916826832281625   T   T   T
  0.4448972438300869  0.2210238132301986  0.0335555557083103   T   T   T
  0.6659867478686936  0.9994506476925340  0.3458831790986733   T   T   T
  0.8903371182588101  0.1113878723733989  0.1900684796280270   T   T   T
  0.7769851304482560  0.2207327624603718  0.0346740869449492   T   T   T
  0.0003971913151044  0.3287375090612853  0.3476512428662116   T   T   T
  0.2224935334994359  0.4447644467103457  0.1867358771009644   T   T   T
  0.1095216347258959  0.5538252859968955  0.0334358452112470   T   T   T
  0.5573193813822069  0.4454396025855405  0.1871115890141186   T   T   T
  0.4446982775063682  0.5557902997988826  0.0328091810550868   T   T   T
  0.6676465588963367  0.3365319485556074  0.3507537446434694   T   T   T
  0.8890255897154217  0.4444839964566498  0.1918895649602451   T   T   T
  0.7776258893776928  0.5540694811486774  0.0337854574934475   T   T   T
  0.0016703995179099  0.6688361236517493  0.3441077618269622   T   T   T
  0.2210249640850857  0.7783561010012987  0.1866845088546764   T   T   T
  0.1106668586314466  0.8882594131419173  0.0322816561597669   T   T   T
  0.3218683563582322  0.6689835706138054  0.3408534645319495   T   T   T
  0.5549310688033855  0.7767507957748784  0.1892612401596929   T   T   T
  0.4449184032437381  0.8886155685770009  0.0334882586404195   T   T   T
  0.6849701352777520  0.6749246027298804  0.3411036452797879   T   T   T
  0.8920049775348197  0.7801976185245226  0.1875818712838458   T   T   T
  0.7769587519061865  0.8885442086761148  0.0333611806741189   T   T   T
  0.4233180007258250  0.2144384853461458  0.4492750229131339   T   T   T
 
  0.00000000E+00  0.00000000E+00  0.00000000E+00
  0.00000000E+00  0.00000000E+00  0.00000000E+00
  0.00000000E+00  0.00000000E+00  0.00000000E+00
  0.00000000E+00  0.00000000E+00  0.00000000E+00
  0.00000000E+00  0.00000000E+00  0.00000000E+00
  0.00000000E+00  0.00000000E+00  0.00000000E+00
  0.00000000E+00  0.00000000E+00  0.00000000E+00
  0.00000000E+00  0.00000000E+00  0.00000000E+00
  0.00000000E+00  0.00000000E+00  0.00000000E+00
  0.00000000E+00  0.00000000E+00  0.00000000E+00
  0.00000000E+00  0.00000000E+00  0.00000000E+00
  0.00000000E+00  0.00000000E+00  0.00000000E+00
  0.00000000E+00  0.00000000E+00  0.00000000E+00
  0.00000000E+00  0.00000000E+00  0.00000000E+00
  0.00000000E+00  0.00000000E+00  0.00000000E+00
  0.00000000E+00  0.00000000E+00  0.00000000E+00
  0.00000000E+00  0.00000000E+00  0.00000000E+00
  0.00000000E+00  0.00000000E+00  0.00000000E+00
  0.00000000E+00  0.00000000E+00  0.00000000E+00
  0.00000000E+00  0.00000000E+00  0.00000000E+00
  0.00000000E+00  0.00000000E+00  0.00000000E+00
  0.00000000E+00  0.00000000E+00  0.00000000E+00
  0.00000000E+00  0.00000000E+00  0.00000000E+00
  0.00000000E+00  0.00000000E+00  0.00000000E+00
  0.00000000E+00  0.00000000E+00  0.00000000E+00
  0.00000000E+00  0.00000000E+00  0.00000000E+00
  0.00000000E+00  0.00000000E+00  0.00000000E+00
  0.00000000E+00  0.00000000E+00  0.00000000E+00
  0.00000000E+00  0.00000000E+00  0.00000000E+00
  0.00000000E+00  0.00000000E+00  0.00000000E+00
  0.00000000E+00  0.00000000E+00  0.00000000E+00
  0.00000000E+00  0.00000000E+00  0.00000000E+00
  0.00000000E+00  0.00000000E+00  0.00000000E+00
  0.00000000E+00  0.00000000E+00  0.00000000E+00
  0.00000000E+00  0.00000000E+00  0.00000000E+00
  0.00000000E+00  0.00000000E+00  0.00000000E+00
  0.00000000E+00  0.00000000E+00  0.00000000E+00
  0.00000000E+00  0.00000000E+00  0.00000000E+00
  0.00000000E+00  0.00000000E+00  0.00000000E+00
  0.00000000E+00  0.00000000E+00  0.00000000E+00
  0.00000000E+00  0.00000000E+00  0.00000000E+00
  0.00000000E+00  0.00000000E+00  0.00000000E+00
  0.00000000E+00  0.00000000E+00  0.00000000E+00
  0.00000000E+00  0.00000000E+00  0.00000000E+00
  0.00000000E+00  0.00000000E+00  0.00000000E+00
  0.00000000E+00  0.00000000E+00  0.00000000E+00
  0.00000000E+00  0.00000000E+00  0.00000000E+00
  0.00000000E+00  0.00000000E+00  0.00000000E+00
  0.00000000E+00  0.00000000E+00  0.00000000E+00
  0.00000000E+00  0.00000000E+00  0.00000000E+00
  0.00000000E+00  0.00000000E+00  0.00000000E+00
  0.00000000E+00  0.00000000E+00  0.00000000E+00
  0.00000000E+00  0.00000000E+00  0.00000000E+00
  0.00000000E+00  0.00000000E+00  0.00000000E+00
  0.00000000E+00  0.00000000E+00  0.00000000E+00
  0.00000000E+00  0.00000000E+00  0.00000000E+00
  0.00000000E+00  0.00000000E+00  0.00000000E+00
  0.00000000E+00  0.00000000E+00  0.00000000E+00
  0.00000000E+00  0.00000000E+00  0.00000000E+00
  0.00000000E+00  0.00000000E+00  0.00000000E+00
  0.00000000E+00  0.00000000E+00  0.00000000E+00
  0.00000000E+00  0.00000000E+00  0.00000000E+00
  0.00000000E+00  0.00000000E+00  0.00000000E+00
  0.00000000E+00  0.00000000E+00  0.00000000E+00
  0.00000000E+00  0.00000000E+00  0.00000000E+00
  0.00000000E+00  0.00000000E+00  0.00000000E+00
  0.00000000E+00  0.00000000E+00  0.00000000E+00
  0.00000000E+00  0.00000000E+00  0.00000000E+00
  0.00000000E+00  0.00000000E+00  0.00000000E+00
  0.00000000E+00  0.00000000E+00  0.00000000E+00
  0.00000000E+00  0.00000000E+00  0.00000000E+00
  0.00000000E+00  0.00000000E+00  0.00000000E+00
  0.00000000E+00  0.00000000E+00  0.00000000E+00
  0.00000000E+00  0.00000000E+00  0.00000000E+00
  0.00000000E+00  0.00000000E+00  0.00000000E+00
  0.00000000E+00  0.00000000E+00  0.00000000E+00
  0.00000000E+00  0.00000000E+00  0.00000000E+00
  0.00000000E+00  0.00000000E+00  0.00000000E+00
  0.00000000E+00  0.00000000E+00  0.00000000E+00
  0.00000000E+00  0.00000000E+00  0.00000000E+00
  0.00000000E+00  0.00000000E+00  0.00000000E+00
