CeO2-you-111-you-Pt                     
   1.00000000000000     
     9.8194997738855925   -5.6692912080755651    0.0000000008101934
     0.0104111215151144   11.3566130111161350    0.0149700759784374
     0.0153316939422782    0.0265552683133540   21.2692258314980762
   O    Pt   Ce   H 
    53     1    26     2
Selective dynamics
Direct
 -0.0001076872898401  0.0006207407198243  0.9971242457744829   T   T   T
  0.1036883149297694  0.2195504282559213  0.1485430608377598   F   F   F
  0.2334909975812880  0.1236216604903351  0.3018254238978997   T   T   T
  0.1176251441965825  0.2169578372737622  0.3876843002903105   T   T   T
  0.0011780506084089 -0.0002649889340287  0.2283245502903822   T   T   T
  0.2224463999556932  0.1115597999114755  0.0754423098381594   F   F   F
  0.3339270039742013  0.0008154568074196  0.9966699244866183   T   T   T
  0.4491951133260557  0.2195504282559710  0.1485430608377456   F   F   F
  0.5473657499480729  0.1109170564042690  0.3054830410971469   T   T   T
  0.4060722965764175  0.2199419338834097  0.4018854997056714   T   T   T
  0.3308496894305709  0.9963695944629284  0.2278259765469614   T   T   T
  0.5589073125192954  0.1106479598187207  0.0759464221109099   F   F   F
  0.6670279180424504  0.0004192629096771  0.9953865686297810   T   T   T
  0.7786704771946447  0.2240069543894592  0.1546062875499246   F   F   F
  0.8924819450052324  0.1111718308529512  0.3041060340411044   T   T   T
  0.7817592960640450  0.2147223861090986  0.3848935828996394   T   T   T
  0.6639038374996307  0.9966364998257871  0.2326546170562010   T   T   T
  0.8850746472994402  0.1106479598189409  0.0759464221109170   F   F   F
  0.0007008401167688  0.3335967329883133  0.9966813547718988   T   T   T
  0.1094318659411471  0.5540534269035930  0.1499798642685022   F   F   F
  0.2373924161208169  0.4270990090097913  0.3108515180127461   T   T   T
  0.0995919296190044  0.5463552268003619  0.3836221249217849   T   T   T
  0.0072918457745735  0.3370683637210604  0.2325497103699339   T   T   T
  0.2233616295106629  0.4446134386443958  0.0763873392392327   F   F   F
  0.3331977739935082  0.3336015814617964  0.9965872327726120   T   T   T
  0.4481181865914721  0.5629043731826258  0.1493026163244551   F   F   F
  0.5181207690461692  0.4447600215957562  0.3219411775916762   T   T   T
  0.3336655295569325  0.3318606104903000  0.2146339774876452   T   T   T
  0.5545858091335703  0.4446134386442111  0.0763873392392114   F   F   F
  0.6663257554941756  0.3342345741166001  0.9969004361975654   T   T   T
  0.7779545609629608  0.5540534269034865  0.1499798642684880   F   F   F
  0.8893273800964602  0.4437559528169875  0.3035887114342046   T   T   T
  0.7865055142423496  0.5708156946947975  0.3838003385264412   T   T   T
  0.6609332787239478  0.3389686131267332  0.2318883753356687   T   T   T
  0.8877557359599422  0.4421774719200684  0.0765618276414912   F   F   F
  0.0002225490326750  0.6670602695950038  0.9974163998861413   T   T   T
  0.1102553836085178  0.8871777672172527  0.1485703680675527   F   F   F
  0.2198907635439836  0.7774763859485142  0.3026214495886481   T   T   T
  0.1139584614897549  0.8909964455886189  0.3815961583718604   T   T   T
  0.0002680290021606  0.6673495762436225  0.2286566822596095   T   T   T
  0.2235215740980436  0.7780169008810915  0.0757763938321290   F   F   F
  0.3324507261456232  0.6661618570363286  0.9966469089494721   T   T   T
  0.4475188521217177  0.8884308184626519  0.1496399293744162   F   F   F
  0.5580635286398885  0.7689226678956803  0.3099450108542116   T   T   T
  0.4470475622741537  0.8982432430792845  0.3845993210017847   T   T   T
  0.3315330512179511  0.6636379618229531  0.2290855329805397   T   T   T
  0.5561054950177180  0.7788769900356058  0.0746051327673101   F   F   F
  0.6669265406009454  0.6664458511306607  0.9963472998085641   T   T   T
  0.7742449663410937  0.8884308184629930  0.1496399293744020   F   F   F
  0.8939835447861870  0.7815528515238414  0.3012960044067484   T   T   T
  0.7850595709981976  0.8906011964296452  0.3836881597058716   T   T   T
  0.6683325164688432  0.6626707198578987  0.2303676753723182   T   T   T
  0.8878283267831151  0.7780169008811058  0.0757763938321574   F   F   F
  0.3174705033610554  0.3256608301377171  0.3567520968911996   T   T   T
  0.0080609915733122  0.0048296355522176  0.3420336131646555   T   T   T
  0.2216545885329850  0.1099761770630252  0.1883476693212245   F   F   F
  0.1106180815931452  0.2224540144738612  0.0366868401729832   F   F   F
  0.3287446672323133 -0.0059306480792443  0.3400221752758021   T   T   T
  0.5551976893466133  0.1106850751998536  0.1907703721353329   F   F   F
  0.4451689328807191  0.2224540144740601  0.0366868401730258   F   F   F
  0.6663113922836360  0.0000510584631287  0.3454491130760440   T   T   T
  0.8888213858529781  0.1106850751989370  0.1907703721353400   F   F   F
  0.7779091298390171  0.2224842596778700  0.0366500581814933   F   F   F
 -0.0004114362991980  0.3303978462139874  0.3442695699488532   T   T   T
  0.2251208381694596  0.4428520651099106  0.1888328212710562   F   F   F
  0.1109282638803109  0.5551773179465940  0.0371246811537773   F   F   F
  0.5510652269388743  0.4428520651095269  0.1888328212715322   F   F   F
  0.4447332451377406  0.5561344902754968  0.0355979213859783   F   F   F
  0.6657743627121453  0.3372008618536363  0.3465908008992733   T   T   T
  0.8892806700737026  0.4452273401478379  0.1920154233533964   F   F   F
  0.7775820540664924  0.5551773179468711  0.0371246811537773   F   F   F
  0.0002584307076169  0.6643384889121682  0.3422299319667631   T   T   T
  0.2222991016024025  0.7776560440484275  0.1877942211984376   F   F   F
  0.1113720685490378  0.8894111370980227  0.0360032455164898   F   F   F
  0.3268445800701364  0.6654518609218799  0.3432537963182845   T   T   T
  0.5555629189765270  0.7777918379528046  0.1896403991507043   F   F   F
  0.4459635726693136  0.8895807205551804  0.0359039799640470   F   F   F
  0.6828258031656429  0.6754100338451871  0.3402544086906999   T   T   T
  0.8886899424454739  0.7776560440479159  0.1877942211983807   F   F   F
  0.7769501478860050  0.8895807205551520  0.0359039799639902   F   F   F
  0.3613990603085370  0.4360379778164751  0.4082838393732982   T   T   T
  0.3873735161939265  0.2169184612837798  0.4466809733887986   T   T   T
 
  0.00000000E+00  0.00000000E+00  0.00000000E+00
  0.00000000E+00  0.00000000E+00  0.00000000E+00
  0.00000000E+00  0.00000000E+00  0.00000000E+00
  0.00000000E+00  0.00000000E+00  0.00000000E+00
  0.00000000E+00  0.00000000E+00  0.00000000E+00
  0.00000000E+00  0.00000000E+00  0.00000000E+00
  0.00000000E+00  0.00000000E+00  0.00000000E+00
  0.00000000E+00  0.00000000E+00  0.00000000E+00
  0.00000000E+00  0.00000000E+00  0.00000000E+00
  0.00000000E+00  0.00000000E+00  0.00000000E+00
  0.00000000E+00  0.00000000E+00  0.00000000E+00
  0.00000000E+00  0.00000000E+00  0.00000000E+00
  0.00000000E+00  0.00000000E+00  0.00000000E+00
  0.00000000E+00  0.00000000E+00  0.00000000E+00
  0.00000000E+00  0.00000000E+00  0.00000000E+00
  0.00000000E+00  0.00000000E+00  0.00000000E+00
  0.00000000E+00  0.00000000E+00  0.00000000E+00
  0.00000000E+00  0.00000000E+00  0.00000000E+00
  0.00000000E+00  0.00000000E+00  0.00000000E+00
  0.00000000E+00  0.00000000E+00  0.00000000E+00
  0.00000000E+00  0.00000000E+00  0.00000000E+00
  0.00000000E+00  0.00000000E+00  0.00000000E+00
  0.00000000E+00  0.00000000E+00  0.00000000E+00
  0.00000000E+00  0.00000000E+00  0.00000000E+00
  0.00000000E+00  0.00000000E+00  0.00000000E+00
  0.00000000E+00  0.00000000E+00  0.00000000E+00
  0.00000000E+00  0.00000000E+00  0.00000000E+00
  0.00000000E+00  0.00000000E+00  0.00000000E+00
  0.00000000E+00  0.00000000E+00  0.00000000E+00
  0.00000000E+00  0.00000000E+00  0.00000000E+00
  0.00000000E+00  0.00000000E+00  0.00000000E+00
  0.00000000E+00  0.00000000E+00  0.00000000E+00
  0.00000000E+00  0.00000000E+00  0.00000000E+00
  0.00000000E+00  0.00000000E+00  0.00000000E+00
  0.00000000E+00  0.00000000E+00  0.00000000E+00
  0.00000000E+00  0.00000000E+00  0.00000000E+00
  0.00000000E+00  0.00000000E+00  0.00000000E+00
  0.00000000E+00  0.00000000E+00  0.00000000E+00
  0.00000000E+00  0.00000000E+00  0.00000000E+00
  0.00000000E+00  0.00000000E+00  0.00000000E+00
  0.00000000E+00  0.00000000E+00  0.00000000E+00
  0.00000000E+00  0.00000000E+00  0.00000000E+00
  0.00000000E+00  0.00000000E+00  0.00000000E+00
  0.00000000E+00  0.00000000E+00  0.00000000E+00
  0.00000000E+00  0.00000000E+00  0.00000000E+00
  0.00000000E+00  0.00000000E+00  0.00000000E+00
  0.00000000E+00  0.00000000E+00  0.00000000E+00
  0.00000000E+00  0.00000000E+00  0.00000000E+00
  0.00000000E+00  0.00000000E+00  0.00000000E+00
  0.00000000E+00  0.00000000E+00  0.00000000E+00
  0.00000000E+00  0.00000000E+00  0.00000000E+00
  0.00000000E+00  0.00000000E+00  0.00000000E+00
  0.00000000E+00  0.00000000E+00  0.00000000E+00
  0.00000000E+00  0.00000000E+00  0.00000000E+00
  0.00000000E+00  0.00000000E+00  0.00000000E+00
  0.00000000E+00  0.00000000E+00  0.00000000E+00
  0.00000000E+00  0.00000000E+00  0.00000000E+00
  0.00000000E+00  0.00000000E+00  0.00000000E+00
  0.00000000E+00  0.00000000E+00  0.00000000E+00
  0.00000000E+00  0.00000000E+00  0.00000000E+00
  0.00000000E+00  0.00000000E+00  0.00000000E+00
  0.00000000E+00  0.00000000E+00  0.00000000E+00
  0.00000000E+00  0.00000000E+00  0.00000000E+00
  0.00000000E+00  0.00000000E+00  0.00000000E+00
  0.00000000E+00  0.00000000E+00  0.00000000E+00
  0.00000000E+00  0.00000000E+00  0.00000000E+00
  0.00000000E+00  0.00000000E+00  0.00000000E+00
  0.00000000E+00  0.00000000E+00  0.00000000E+00
  0.00000000E+00  0.00000000E+00  0.00000000E+00
  0.00000000E+00  0.00000000E+00  0.00000000E+00
  0.00000000E+00  0.00000000E+00  0.00000000E+00
  0.00000000E+00  0.00000000E+00  0.00000000E+00
  0.00000000E+00  0.00000000E+00  0.00000000E+00
  0.00000000E+00  0.00000000E+00  0.00000000E+00
  0.00000000E+00  0.00000000E+00  0.00000000E+00
  0.00000000E+00  0.00000000E+00  0.00000000E+00
  0.00000000E+00  0.00000000E+00  0.00000000E+00
  0.00000000E+00  0.00000000E+00  0.00000000E+00
  0.00000000E+00  0.00000000E+00  0.00000000E+00
  0.00000000E+00  0.00000000E+00  0.00000000E+00
  0.00000000E+00  0.00000000E+00  0.00000000E+00
  0.00000000E+00  0.00000000E+00  0.00000000E+00
