CeO2-you-111-you-Sr                     
   1.00000000000000     
     9.8570750309948068   -5.7065757559629651   -0.0000258787013511
    -0.0000000013145642   11.4131495011354520    0.0000000000265582
    -0.0007488406642343    0.0000000001301565   21.1093633191882972
   O    Sr   Ce H
    53     1    26 1
Selective dynamics
Direct
 -0.0007898560748089  0.0008510441555980  0.9975726772988861   T   T   T
  0.1155097615312418  0.2244213807653467  0.1518394323836659   T   T   T
  0.2179357810052827  0.1029258213279517  0.3042002576790273   T   T   T
  0.0867026318829391  0.2100178159411728  0.3879764033812627   T   T   T
 -0.0007766298913810  0.0002405062769098  0.2284304023567026   T   T   T
  0.2220427514491736  0.1103446621541499  0.0757942265796010   T   T   T
  0.3320860030378865 -0.0005590859663834  0.9958363659353496   T   T   T
  0.4454589220685068  0.2206445272119706  0.1465806615802706   T   T   T
  0.5611625024498013  0.1079834769266114  0.3006563763807813   T   T   T
  0.4623853382367294  0.2202079989705359  0.3804328703221866   T   T   T
  0.3361593837273631  0.0020725408963814  0.2288649965908543   T   T   T
  0.5554608474308773  0.1096368096560905  0.0741936465411972   T   T   T
  0.6688408538426378  0.0010869269213997  0.9962017803859522   T   T   T
  0.7751822654427688  0.2272490525458112  0.1512143836666440   T   T   T
  0.8866612782616817  0.1099971391302696  0.3019816434902706   T   T   T
  0.7788743974087109  0.2194343314821272  0.3852409415501215   T   T   T
  0.6679839569394131  0.0006584784696903  0.2254679481441411   T   T   T
  0.8878816856195066  0.1106073428097210  0.0780145886599646   T   T   T
 -0.0007898560747235  0.3316920997694846  0.9975726772989086   T   T   T
  0.1110370470706112  0.5558145992920737  0.1514645509567835   T   T   T
  0.2179357810041362  0.4483429596755057  0.3042002576796970   T   T   T
  0.1110511868687966  0.5615717094737225  0.3836940331910645   T   T   T
 -0.0007766298898489  0.3323158638313249  0.2284304023567457   T   T   T
  0.2220427514491962  0.4450310892952313  0.0757942265796021   T   T   T
  0.3303588498681311  0.3318459249341791  0.9958622869073763   T   T   T
  0.4454589220664726  0.5581483948575384  0.1465806615801004   T   T   T
  0.4623853382351404  0.5755113392685082  0.3804328703224309   T   T   T
  0.3484178523244506  0.3408754261637248  0.2297413958378496   T   T   T
  0.5547193205118495  0.4440256602562885  0.0717168354345684   T   T   T
  0.6678061488225366  0.3324752429009857  0.9958240214272147   T   T   T
  0.7783217700453994  0.5558278850217365  0.1475410563431096   T   T   T
  0.8908108943448109  0.4424101439891993  0.3042969119349214   T   T   T
  0.7530441343128399  0.5431890671565650  0.3733339179576917   T   T   T
  0.6566335029449608  0.3427383581464417  0.2350121378480542   T   T   T
  0.8899776831754249  0.4454579789248204  0.0753974705048205   T   T   T
  0.0000776512499166  0.6667058256247508  0.9959619931733703   T   T   T
  0.1110370470700976  0.8885564477771229  0.1514645509567746   T   T   T
  0.2211987993511579  0.7772663996750603  0.3014842732257131   T   T   T
  0.1110511868674265  0.8828134773932268  0.3836940331911505   T   T   T
 -0.0028670563090992  0.6652334718446812  0.2296583218722579   T   T   T
  0.2220387963517587  0.7776863981757490  0.0753844664723362   T   T   T
  0.3320860030378182  0.6659790890042925  0.9958363659353292   T   T   T
  0.4443616905541585  0.8888478452771752  0.1494048586398952   T   T   T
  0.5611625024475645  0.7865120255235430  0.3006563763804633   T   T   T
  0.4438647378138684  0.8885993689072472  0.3811026767620759   T   T   T
  0.3361593837277243  0.6674208428318198  0.2288649965908911   T   T   T
  0.5554608474307817  0.7791570377749544  0.0741936465411007   T   T   T
  0.6678061488225239  0.6686639059217309  0.9958240214271203   T   T   T
  0.7751822654417934  0.8812662128965622  0.1512143836668493   T   T   T
  0.8908108943434424  0.7817337503518208  0.3042969119347514   T   T   T
  0.7788743974073897  0.8927730659243507  0.3852409415496385   T   T   T
  0.6566335029458875  0.6472281447998351  0.2350121378478639   T   T   T
  0.8899776831751283  0.7778527042500933  0.0753974705047801   T   T   T
  0.3248079210284702  0.3290704605133214  0.3562897323027616   T   T   T
  0.0026965756412294  0.0033060816992632  0.3440359559629927   T   T   T
  0.2243932641327404  0.1135794811991216  0.1924417442406045   T   T   T
  0.1116964782377681  0.2225147391188291  0.0375894361365400   T   T   T
  0.3341761832730273  0.0002459408802907  0.3420961758784120   T   T   T
  0.5553410157587865  0.1115299255953171  0.1888658788166525   T   T   T
  0.4426630709943275  0.2197845733066828  0.0340021457828529   T   T   T
  0.6680615357639487  0.0006972678822273  0.3421240067671127   T   T   T
  0.8892205735245182  0.1112767867633361  0.1900382767271373   T   T   T
  0.7778521838545903  0.2225498337157321  0.0362103925885007   T   T   T
  0.0026965756379396  0.3327234939468008  0.3440359559627074   T   T   T
  0.2243932641319737  0.4441467829326297  0.1924417442405572   T   T   T
  0.1108393294850552  0.5548000337194711  0.0370358810214828   T   T   T
  0.5532915825322312  0.4433117912628627  0.1811845119897603   T   T   T
  0.4426630709945488  0.5562124976870572  0.0340021457828921   T   T   T
  0.6715893603251470  0.3225759730975602  0.3459502803446534   T   T   T
  0.8883966182455165  0.4452283990375427  0.1906527821990109   T   T   T
  0.7800904047314272  0.5567122023657286  0.0342527581370258   T   T   T
  0.0018886206461238  0.6676113103260541  0.3422812709916597   T   T   T
  0.2225217424048034  0.7779278712032951  0.1890212215666127   T   T   T
  0.1108393294849827  0.8893732957663779  0.0370358810214715   T   T   T
  0.3341761832709059  0.6672642423893886  0.3420961758779180   T   T   T
  0.5553410157618952  0.7771440901623970  0.1888658788167455   T   T   T
  0.4448568845315763  0.8890954422655235  0.0354725679505765   T   T   T
  0.6715893603246963  0.6823463872235712  0.3459502803456819   T   T   T
  0.8883966182486522  0.7765012192138157  0.1906527821990781   T   T   T
  0.7778521838552609  0.8886353501391036  0.0362103925885311   T   T   T
0.446598 0.216020 0.433410 T T T 
 
  0.00000000E+00  0.00000000E+00  0.00000000E+00
  0.00000000E+00  0.00000000E+00  0.00000000E+00
  0.00000000E+00  0.00000000E+00  0.00000000E+00
  0.00000000E+00  0.00000000E+00  0.00000000E+00
  0.00000000E+00  0.00000000E+00  0.00000000E+00
  0.00000000E+00  0.00000000E+00  0.00000000E+00
  0.00000000E+00  0.00000000E+00  0.00000000E+00
  0.00000000E+00  0.00000000E+00  0.00000000E+00
  0.00000000E+00  0.00000000E+00  0.00000000E+00
  0.00000000E+00  0.00000000E+00  0.00000000E+00
  0.00000000E+00  0.00000000E+00  0.00000000E+00
  0.00000000E+00  0.00000000E+00  0.00000000E+00
  0.00000000E+00  0.00000000E+00  0.00000000E+00
  0.00000000E+00  0.00000000E+00  0.00000000E+00
  0.00000000E+00  0.00000000E+00  0.00000000E+00
  0.00000000E+00  0.00000000E+00  0.00000000E+00
  0.00000000E+00  0.00000000E+00  0.00000000E+00
  0.00000000E+00  0.00000000E+00  0.00000000E+00
  0.00000000E+00  0.00000000E+00  0.00000000E+00
  0.00000000E+00  0.00000000E+00  0.00000000E+00
  0.00000000E+00  0.00000000E+00  0.00000000E+00
  0.00000000E+00  0.00000000E+00  0.00000000E+00
  0.00000000E+00  0.00000000E+00  0.00000000E+00
  0.00000000E+00  0.00000000E+00  0.00000000E+00
  0.00000000E+00  0.00000000E+00  0.00000000E+00
  0.00000000E+00  0.00000000E+00  0.00000000E+00
  0.00000000E+00  0.00000000E+00  0.00000000E+00
  0.00000000E+00  0.00000000E+00  0.00000000E+00
  0.00000000E+00  0.00000000E+00  0.00000000E+00
  0.00000000E+00  0.00000000E+00  0.00000000E+00
  0.00000000E+00  0.00000000E+00  0.00000000E+00
  0.00000000E+00  0.00000000E+00  0.00000000E+00
  0.00000000E+00  0.00000000E+00  0.00000000E+00
  0.00000000E+00  0.00000000E+00  0.00000000E+00
  0.00000000E+00  0.00000000E+00  0.00000000E+00
  0.00000000E+00  0.00000000E+00  0.00000000E+00
  0.00000000E+00  0.00000000E+00  0.00000000E+00
  0.00000000E+00  0.00000000E+00  0.00000000E+00
  0.00000000E+00  0.00000000E+00  0.00000000E+00
  0.00000000E+00  0.00000000E+00  0.00000000E+00
  0.00000000E+00  0.00000000E+00  0.00000000E+00
  0.00000000E+00  0.00000000E+00  0.00000000E+00
  0.00000000E+00  0.00000000E+00  0.00000000E+00
  0.00000000E+00  0.00000000E+00  0.00000000E+00
  0.00000000E+00  0.00000000E+00  0.00000000E+00
  0.00000000E+00  0.00000000E+00  0.00000000E+00
  0.00000000E+00  0.00000000E+00  0.00000000E+00
  0.00000000E+00  0.00000000E+00  0.00000000E+00
  0.00000000E+00  0.00000000E+00  0.00000000E+00
  0.00000000E+00  0.00000000E+00  0.00000000E+00
  0.00000000E+00  0.00000000E+00  0.00000000E+00
  0.00000000E+00  0.00000000E+00  0.00000000E+00
  0.00000000E+00  0.00000000E+00  0.00000000E+00
  0.00000000E+00  0.00000000E+00  0.00000000E+00
  0.00000000E+00  0.00000000E+00  0.00000000E+00
  0.00000000E+00  0.00000000E+00  0.00000000E+00
  0.00000000E+00  0.00000000E+00  0.00000000E+00
  0.00000000E+00  0.00000000E+00  0.00000000E+00
  0.00000000E+00  0.00000000E+00  0.00000000E+00
  0.00000000E+00  0.00000000E+00  0.00000000E+00
  0.00000000E+00  0.00000000E+00  0.00000000E+00
  0.00000000E+00  0.00000000E+00  0.00000000E+00
  0.00000000E+00  0.00000000E+00  0.00000000E+00
  0.00000000E+00  0.00000000E+00  0.00000000E+00
  0.00000000E+00  0.00000000E+00  0.00000000E+00
  0.00000000E+00  0.00000000E+00  0.00000000E+00
  0.00000000E+00  0.00000000E+00  0.00000000E+00
  0.00000000E+00  0.00000000E+00  0.00000000E+00
  0.00000000E+00  0.00000000E+00  0.00000000E+00
  0.00000000E+00  0.00000000E+00  0.00000000E+00
  0.00000000E+00  0.00000000E+00  0.00000000E+00
  0.00000000E+00  0.00000000E+00  0.00000000E+00
  0.00000000E+00  0.00000000E+00  0.00000000E+00
  0.00000000E+00  0.00000000E+00  0.00000000E+00
  0.00000000E+00  0.00000000E+00  0.00000000E+00
  0.00000000E+00  0.00000000E+00  0.00000000E+00
  0.00000000E+00  0.00000000E+00  0.00000000E+00
  0.00000000E+00  0.00000000E+00  0.00000000E+00
  0.00000000E+00  0.00000000E+00  0.00000000E+00
  0.00000000E+00  0.00000000E+00  0.00000000E+00
