CeO2-you-111-you-Hg                     
   1.00000000000000     
     9.8402607806631082   -5.6812775815487750    0.0000000000000000
     0.0000000004581029   11.3625531643226552    0.0000000000000000
     0.0000000000000000    0.0000000000000000   21.2525489196966006
   O    Hg   Ce   H 
    54     1    26     2
Selective dynamics
Direct
 -0.0016055984338894 -0.0023007243776861 -0.0042883409377175   T   T   T
  0.1047867458782325  0.2175105349011640  0.1481479463187886   T   T   T
  0.2209389993773287  0.0947293182359843  0.3006257046304074   T   T   T
  0.1125266426228276  0.2206057352477421  0.3804579199351041   T   T   T
 -0.0018493890024552 -0.0025621157557358  0.2281312836420423   T   T   T
  0.2204814512625699  0.1090279973731391  0.0748117828915758   T   T   T
  0.3307444981059315 -0.0026132025225463  0.9957117099213918   T   T   T
  0.4451188514555768  0.2173074505072563  0.1484793171044580   T   T   T
  0.5518373286830967  0.1124730212547928  0.3028957183684588   T   T   T
  0.4633194915893281  0.1940263104860699  0.4048713467898734   T   T   T
  0.3334774692840291 -0.0062758891750203  0.2262086613469771   T   T   T
  0.5548941145424072  0.1087497402641313  0.0738645447052571   T   T   T
  0.6649776282116464 -0.0026738482259669  0.9947775304579553   T   T   T
  0.7746978548274597  0.2194445843903125  0.1497998225790332   T   T   T
  0.8891304353261702  0.1090820973868987  0.3029068019221648   T   T   T
  0.7770759450463475  0.2194510438494122  0.3800982759423372   T   T   T
  0.6635339524483334 -0.0036059284847951  0.2299437583396669   T   T   T
  0.8843883670288512  0.1068424528818804  0.0745998328547108   T   T   T
 -0.0018091018925326  0.3302314665434842  0.9957200289360411   T   T   T
  0.1079992853938011  0.5517285565954524  0.1483266257982041   T   T   T
  0.2223314164153992  0.4555670434699757  0.3010140794997454   T   T   T
  0.1090037482226018  0.5546637013971780  0.3831003174765114   T   T   T
 -0.0019188977960191  0.3301071732507945  0.2284038121158322   T   T   T
  0.2209254909738959  0.4418695618536300  0.0743524549046303   T   T   T
  0.3316207012832194  0.3302695090643504  0.9956783583241289   T   T   T
  0.4446794629279829  0.5567007248460087  0.1482142496189260   T   T   T
  0.5355645092802492  0.4323997782059227  0.3136148426551180   T   T   T
  0.4655121337942587  0.6002204084062048  0.4051303910941306   T   T   T
  0.3301898165739658  0.3296601010977986  0.2196304455804067   T   T   T
  0.5526397499900603  0.4408919111776831  0.0751849740883975   T   T   T
  0.6646857941067789  0.3313361111313457  0.9952440100856803   T   T   T
  0.7755491833912043  0.5523146859793947  0.1482565586998549   T   T   T
  0.8884123879157202  0.4418835781395175  0.3029911640148600   T   T   T
  0.7760971264675375  0.5527822399624704  0.3810551329741371   T   T   T
  0.6641538930356196  0.3357040234490952  0.2304775741939187   T   T   T
  0.8866901469169216  0.4408460117656740  0.0744734851663974   T   T   T
 -0.0016791592114056  0.6641333236577092  0.9956209554002843   T   T   T
  0.1081236473909459  0.8853809664290684  0.1482891047985401   T   T   T
  0.2168705124723436  0.7727310521584344  0.3014970262826384   T   T   T
  0.1087399501025725  0.8825885402899677  0.3831504910975145   T   T   T
 -0.0032317183725458  0.6627615697783202  0.2278122232946550   T   T   T
  0.2207154785426440  0.7748313051970842  0.0742180109785439   T   T   T
  0.3317001151163441  0.6637442315953536  0.9954704153018427   T   T   T
  0.4456815759801093  0.8873762297215976  0.1473233561468041   T   T   T
  0.5517595639338168  0.7683497501750625  0.3027810842464784   T   T   T
  0.4413023083961600  0.8853976319762940  0.3787038218210849   T   T   T
  0.3335064143301240  0.6688200182342245  0.2262872776579826   T   T   T
  0.5552281990531628  0.7756946544715936  0.0735731784319038   T   T   T
  0.6650614151096735  0.6626095382860435  0.9952288887560544   T   T   T
  0.7749030157515910  0.8843480352582838  0.1497939265331062   T   T   T
  0.8887115121795608  0.7757972106503349  0.3026743933221431   T   T   T
  0.7769729894736602  0.8869013442438447  0.3800259254677787   T   T   T
  0.6642575682534815  0.6582858173271726  0.2302061967555652   T   T   T
  0.8864603019665042  0.7752195806104810  0.0743396706658684   T   T   T
  0.3262811976888012  0.3272872739379488  0.3491519302526652   T   T   T
  0.0029097976720444 -0.0009781485274799  0.3405203713600662   T   T   T
  0.2212440182491553  0.1089523578222141  0.1886084296059824   T   T   T
  0.1089877114265936  0.2193995239401926  0.0356367573973873   T   T   T
  0.3271273612323454 -0.0092812970114881  0.3403039584882523   T   T   T
  0.5535346481973668  0.1083263013756866  0.1884612200245213   T   T   T
  0.4425201246815237  0.2193534197327062  0.0350940323944574   T   T   T
  0.6656702439880453 -0.0026636338059583  0.3411407305501067   T   T   T
  0.8873169263104577  0.1081915099498980  0.1885783034927467   T   T   T
  0.7754996459925567  0.2191895791703066  0.0349714254374438   T   T   T
  0.0030654353125725  0.3329686330330649  0.3406618991708094   T   T   T
  0.2213197303691048  0.4416276799518750  0.1886424520130179   T   T   T
  0.1093316396397556  0.5524568926420581  0.0349621165119157   T   T   T
  0.5495100039256384  0.4394129118062492  0.1884028807921756   T   T   T
  0.4427468528303441  0.5526715780213879  0.0348936671825633   T   T   T
  0.6692505460185277  0.3316521999080952  0.3421254067264655   T   T   T
  0.8867200846990202  0.4420855938026075  0.1882597807538738   T   T   T
  0.7756803808080016  0.5524921783824033  0.0352165127363934   T   T   T
 -0.0016094229247828  0.6636670784061535  0.3419648590247521   T   T   T
  0.2205269770081029  0.7747369850037473  0.1865230683014638   T   T   T
  0.1091498298082694  0.8864571742058791  0.0350428337195459   T   T   T
  0.3275045721035577  0.6652805981792708  0.3404760790433504   T   T   T
  0.5534875564485736  0.7744241384672277  0.1883455233432182   T   T   T
  0.4434907992280889  0.8864198493314722  0.0346469443179925   T   T   T
  0.6694866444767001  0.6668329722970460  0.3419713815943101   T   T   T
  0.8867902235411222  0.7736853596809994  0.1881438287189249   T   T   T
  0.7756446227839717  0.8858648587440271  0.0348842689467877   T   T   T
  0.4513888105418570  0.5702503229915711  0.4487020568598291   T   T   T
  0.4494687122195002  0.2052231439269577  0.4490452122409359   T   T   T
 
  0.00000000E+00  0.00000000E+00  0.00000000E+00
  0.00000000E+00  0.00000000E+00  0.00000000E+00
  0.00000000E+00  0.00000000E+00  0.00000000E+00
  0.00000000E+00  0.00000000E+00  0.00000000E+00
  0.00000000E+00  0.00000000E+00  0.00000000E+00
  0.00000000E+00  0.00000000E+00  0.00000000E+00
  0.00000000E+00  0.00000000E+00  0.00000000E+00
  0.00000000E+00  0.00000000E+00  0.00000000E+00
  0.00000000E+00  0.00000000E+00  0.00000000E+00
  0.00000000E+00  0.00000000E+00  0.00000000E+00
  0.00000000E+00  0.00000000E+00  0.00000000E+00
  0.00000000E+00  0.00000000E+00  0.00000000E+00
  0.00000000E+00  0.00000000E+00  0.00000000E+00
  0.00000000E+00  0.00000000E+00  0.00000000E+00
  0.00000000E+00  0.00000000E+00  0.00000000E+00
  0.00000000E+00  0.00000000E+00  0.00000000E+00
  0.00000000E+00  0.00000000E+00  0.00000000E+00
  0.00000000E+00  0.00000000E+00  0.00000000E+00
  0.00000000E+00  0.00000000E+00  0.00000000E+00
  0.00000000E+00  0.00000000E+00  0.00000000E+00
  0.00000000E+00  0.00000000E+00  0.00000000E+00
  0.00000000E+00  0.00000000E+00  0.00000000E+00
  0.00000000E+00  0.00000000E+00  0.00000000E+00
  0.00000000E+00  0.00000000E+00  0.00000000E+00
  0.00000000E+00  0.00000000E+00  0.00000000E+00
  0.00000000E+00  0.00000000E+00  0.00000000E+00
  0.00000000E+00  0.00000000E+00  0.00000000E+00
  0.00000000E+00  0.00000000E+00  0.00000000E+00
  0.00000000E+00  0.00000000E+00  0.00000000E+00
  0.00000000E+00  0.00000000E+00  0.00000000E+00
  0.00000000E+00  0.00000000E+00  0.00000000E+00
  0.00000000E+00  0.00000000E+00  0.00000000E+00
  0.00000000E+00  0.00000000E+00  0.00000000E+00
  0.00000000E+00  0.00000000E+00  0.00000000E+00
  0.00000000E+00  0.00000000E+00  0.00000000E+00
  0.00000000E+00  0.00000000E+00  0.00000000E+00
  0.00000000E+00  0.00000000E+00  0.00000000E+00
  0.00000000E+00  0.00000000E+00  0.00000000E+00
  0.00000000E+00  0.00000000E+00  0.00000000E+00
  0.00000000E+00  0.00000000E+00  0.00000000E+00
  0.00000000E+00  0.00000000E+00  0.00000000E+00
  0.00000000E+00  0.00000000E+00  0.00000000E+00
  0.00000000E+00  0.00000000E+00  0.00000000E+00
  0.00000000E+00  0.00000000E+00  0.00000000E+00
  0.00000000E+00  0.00000000E+00  0.00000000E+00
  0.00000000E+00  0.00000000E+00  0.00000000E+00
  0.00000000E+00  0.00000000E+00  0.00000000E+00
  0.00000000E+00  0.00000000E+00  0.00000000E+00
  0.00000000E+00  0.00000000E+00  0.00000000E+00
  0.00000000E+00  0.00000000E+00  0.00000000E+00
  0.00000000E+00  0.00000000E+00  0.00000000E+00
  0.00000000E+00  0.00000000E+00  0.00000000E+00
  0.00000000E+00  0.00000000E+00  0.00000000E+00
  0.00000000E+00  0.00000000E+00  0.00000000E+00
  0.00000000E+00  0.00000000E+00  0.00000000E+00
  0.00000000E+00  0.00000000E+00  0.00000000E+00
  0.00000000E+00  0.00000000E+00  0.00000000E+00
  0.00000000E+00  0.00000000E+00  0.00000000E+00
  0.00000000E+00  0.00000000E+00  0.00000000E+00
  0.00000000E+00  0.00000000E+00  0.00000000E+00
  0.00000000E+00  0.00000000E+00  0.00000000E+00
  0.00000000E+00  0.00000000E+00  0.00000000E+00
  0.00000000E+00  0.00000000E+00  0.00000000E+00
  0.00000000E+00  0.00000000E+00  0.00000000E+00
  0.00000000E+00  0.00000000E+00  0.00000000E+00
  0.00000000E+00  0.00000000E+00  0.00000000E+00
  0.00000000E+00  0.00000000E+00  0.00000000E+00
  0.00000000E+00  0.00000000E+00  0.00000000E+00
  0.00000000E+00  0.00000000E+00  0.00000000E+00
  0.00000000E+00  0.00000000E+00  0.00000000E+00
  0.00000000E+00  0.00000000E+00  0.00000000E+00
  0.00000000E+00  0.00000000E+00  0.00000000E+00
  0.00000000E+00  0.00000000E+00  0.00000000E+00
  0.00000000E+00  0.00000000E+00  0.00000000E+00
  0.00000000E+00  0.00000000E+00  0.00000000E+00
  0.00000000E+00  0.00000000E+00  0.00000000E+00
  0.00000000E+00  0.00000000E+00  0.00000000E+00
  0.00000000E+00  0.00000000E+00  0.00000000E+00
  0.00000000E+00  0.00000000E+00  0.00000000E+00
  0.00000000E+00  0.00000000E+00  0.00000000E+00
  0.00000000E+00  0.00000000E+00  0.00000000E+00
  0.00000000E+00  0.00000000E+00  0.00000000E+00
  0.00000000E+00  0.00000000E+00  0.00000000E+00
