CeO2-you-111-you-Os                     
   1.00000000000000     
     9.8402736906427624   -5.6812850295671273    0.0000000005243610
     0.0492327294573756   11.4478416428374423    0.0088661076860054
     0.0089796619856284    0.0155532279995833   21.1807470509145581
   O    Os   Ce H
    53     1    26 1
Selective dynamics
Direct
 -0.0021097043301439 -0.0007260029436650  0.9963761421916061   T   T   T
  0.1096089549209427  0.2160127061706460  0.1484363455237593   T   T   T
  0.2216865229549684  0.1100400459075770  0.2979911006468645   T   T   T
  0.1501654806186712  0.2274311370982717  0.3756325796468786   T   T   T
 -0.0014087238280576 -0.0028668694484731  0.2291550253315316   T   T   T
  0.2203482280120793  0.1073634560240681  0.0727793576569603   T   T   T
  0.3347167013864673 -0.0007260029437666  0.9963761421916303   T   T   T
  0.4397367512500314  0.2160127061704729  0.1484363455238236   T   T   T
  0.5524077231091362  0.1163795440032990  0.3068217126174605   T   T   T
  0.4105986564870628  0.2274311371030397  0.3756325796485117   T   T   T
  0.3318748543789469 -0.0028668694485250  0.2291550253315018   T   T   T
  0.5578659526975791  0.1118078840079297  0.0767108194753665   T   T   T
  0.6673798760380040  0.0014257520761174  0.9963645910790744   T   T   T
  0.7790224236311095  0.2247108472623628  0.1530523803163840   T   T   T
  0.8973058208940268  0.1163795440036011  0.3068217126175728   T   T   T
  0.7799762082032988  0.2266184164064904  0.3819436949380713   T   T   T
  0.6685166629529301  0.0036993259055199  0.2324283303428563   T   T   T
  0.8872759313104185  0.1118078840082144  0.0767108194753808   T   T   T
 -0.0013439657609232  0.3315012273571867  0.9961658171474922   T   T   T
  0.1071229535535657  0.5580950089479347  0.1486403121955059   T   T   T
  0.2649350466964152  0.4404619164057689  0.3189768791014748   T   T   T
  0.0987527355072304  0.5438142295801635  0.3805148555273876   T   T   T
  0.0048267365532672  0.3356473912272986  0.2341718947088182   T   T   T
  0.2204549920726647  0.4431060352075894  0.0732763224422192   T   T   T
  0.3323457717035743  0.3313585434071313  0.9970845044150478   T   T   T
  0.4488685115033050  0.5644050230075456  0.1475366397121923   T   T   T
  0.5088608697074161  0.4404619164128666  0.3189768791032837   T   T   T
  0.3265294609285607  0.3197259218561239  0.2344718647257398   T   T   T
  0.5559850431348446  0.4431060352075239  0.0732763224422188   T   T   T
  0.6661791931179878  0.3315012273570509  0.9961658171474914   T   T   T
  0.7843050553939676  0.5580950089474479  0.1486403121956052   T   T   T
  0.8875492039884910  0.4417644079763264  0.3020618004988309   T   T   T
  0.7783944940725639  0.5438142295806885  0.3805148555271541   T   T   T
  0.6641546546738307  0.3356473912272654  0.2341718947086426   T   T   T
  0.8875724373681888  0.4418108747363609  0.0747476628952657   T   T   T
 -0.0001265328345907  0.6664139343307066  0.9963267509738760   T   T   T
  0.1096771309082857  0.8860212618162641  0.1481982354675977   T   T   T
  0.2183447782010199  0.7800604878300995  0.3044864082307845   T   T   T
  0.1127796743507889  0.8922263487021523  0.3826358955513778   T   T   T
 -0.0003256670997796  0.6660156657998877  0.2297261766822094   T   T   T
  0.2232879720813669  0.7786020759440087  0.0751335911300471   T   T   T
  0.3342386405595288  0.6676719373438310  0.9975688501659030   T   T   T
  0.4469860970545733  0.8914564772018675  0.1510119183105366   T   T   T
  0.5576539439286998  0.7819738878586379  0.3083149679559045   T   T   T
  0.4481041671343832  0.9033190340125183  0.3856628546595520   T   T   T
  0.3328329671507017  0.6710891882022754  0.2301517392281582   T   T   T
  0.5576029116862574  0.7818718233725049  0.0757181005138525   T   T   T
  0.6667662967843988  0.6676719373438428  0.9975688501659085   T   T   T
  0.7778033801475487  0.8914564772021246  0.1510119183104840   T   T   T
  0.8950487096306993  0.7800604878313930  0.3044864082308765   T   T   T
  0.7885478668800797  0.9033190340131504  0.3856628546597205   T   T   T
  0.6715892210512434  0.6710891882024603  0.2301517392281723   T   T   T
  0.8886471038627062  0.7786020759441121  0.0751335911300764   T   T   T
  0.3161334844257046  0.2989339688577001  0.3256378850441874   T   T   T
 -0.0012845833327304 -0.0047224751187833  0.3426652565389779   T   T   T
  0.2180133428289025  0.1026936856565305  0.1831045682095126   T   T   T
  0.1102031998654527  0.2222489933789571  0.0352444902843480   T   T   T
  0.3298951082143920 -0.0047224751178923  0.3426652565389414   T   T   T
  0.5545550528517968  0.1120914683832482  0.1901135011282612   T   T   T
  0.4453787935133104  0.2222489933791121  0.0352444902844072   T   T   T
  0.6677982816642140  0.0022625633322283  0.3442320499665664   T   T   T
  0.8908704155307110  0.1120914683826052  0.1901135011283990   T   T   T
  0.7778428452980052  0.2223516905959798  0.0361492543700716   T   T   T
  0.0000671182880277  0.3347514120047435  0.3419463498034631   T   T   T
  0.2246768452257339  0.4469427306171461  0.1879841111945408   T   T   T
  0.1112414289522799  0.5551466027564598  0.0361854794821939   T   T   T
  0.5555998853921382  0.4469427306178165  0.1879841111948291   T   T   T
  0.4451508023361676  0.5569696046720815  0.0365961211191115   T   T   T
  0.6680182937174257  0.3347514120039628  0.3419463498034194   T   T   T
  0.8894485781719901  0.4455631563439549  0.1891488419697291   T   T   T
  0.7772381738044505  0.5551466027565748  0.0361854794821565   T   T   T
 -0.0019716428101550  0.6627237143809316  0.3413274895674435   T   T   T
  0.2224852581478967  0.7764516642292947  0.1882800329663332   T   T   T
  0.1101731223902467  0.8870132447804573  0.0342367419895841   T   T   T
  0.3310479333445613  0.6742403644890427  0.3429903736120215   T   T   T
  0.5558633400855084  0.7783926801711212  0.1910276393179524   T   T   T
  0.4459395208739800  0.8900329084883113  0.0366135143910875   T   T   T
  0.6765254311446538  0.6742403644837942  0.3429903736104058   T   T   T
  0.8872994060807994  0.7764516642291348  0.1882800329664990   T   T   T
  0.7774263876142097  0.8900329084881928  0.0366135143910212   T   T   T
0.446598 0.216020 0.433410 T T T 
 
  0.00000000E+00  0.00000000E+00  0.00000000E+00
  0.00000000E+00  0.00000000E+00  0.00000000E+00
  0.00000000E+00  0.00000000E+00  0.00000000E+00
  0.00000000E+00  0.00000000E+00  0.00000000E+00
  0.00000000E+00  0.00000000E+00  0.00000000E+00
  0.00000000E+00  0.00000000E+00  0.00000000E+00
  0.00000000E+00  0.00000000E+00  0.00000000E+00
  0.00000000E+00  0.00000000E+00  0.00000000E+00
  0.00000000E+00  0.00000000E+00  0.00000000E+00
  0.00000000E+00  0.00000000E+00  0.00000000E+00
  0.00000000E+00  0.00000000E+00  0.00000000E+00
  0.00000000E+00  0.00000000E+00  0.00000000E+00
  0.00000000E+00  0.00000000E+00  0.00000000E+00
  0.00000000E+00  0.00000000E+00  0.00000000E+00
  0.00000000E+00  0.00000000E+00  0.00000000E+00
  0.00000000E+00  0.00000000E+00  0.00000000E+00
  0.00000000E+00  0.00000000E+00  0.00000000E+00
  0.00000000E+00  0.00000000E+00  0.00000000E+00
  0.00000000E+00  0.00000000E+00  0.00000000E+00
  0.00000000E+00  0.00000000E+00  0.00000000E+00
  0.00000000E+00  0.00000000E+00  0.00000000E+00
  0.00000000E+00  0.00000000E+00  0.00000000E+00
  0.00000000E+00  0.00000000E+00  0.00000000E+00
  0.00000000E+00  0.00000000E+00  0.00000000E+00
  0.00000000E+00  0.00000000E+00  0.00000000E+00
  0.00000000E+00  0.00000000E+00  0.00000000E+00
  0.00000000E+00  0.00000000E+00  0.00000000E+00
  0.00000000E+00  0.00000000E+00  0.00000000E+00
  0.00000000E+00  0.00000000E+00  0.00000000E+00
  0.00000000E+00  0.00000000E+00  0.00000000E+00
  0.00000000E+00  0.00000000E+00  0.00000000E+00
  0.00000000E+00  0.00000000E+00  0.00000000E+00
  0.00000000E+00  0.00000000E+00  0.00000000E+00
  0.00000000E+00  0.00000000E+00  0.00000000E+00
  0.00000000E+00  0.00000000E+00  0.00000000E+00
  0.00000000E+00  0.00000000E+00  0.00000000E+00
  0.00000000E+00  0.00000000E+00  0.00000000E+00
  0.00000000E+00  0.00000000E+00  0.00000000E+00
  0.00000000E+00  0.00000000E+00  0.00000000E+00
  0.00000000E+00  0.00000000E+00  0.00000000E+00
  0.00000000E+00  0.00000000E+00  0.00000000E+00
  0.00000000E+00  0.00000000E+00  0.00000000E+00
  0.00000000E+00  0.00000000E+00  0.00000000E+00
  0.00000000E+00  0.00000000E+00  0.00000000E+00
  0.00000000E+00  0.00000000E+00  0.00000000E+00
  0.00000000E+00  0.00000000E+00  0.00000000E+00
  0.00000000E+00  0.00000000E+00  0.00000000E+00
  0.00000000E+00  0.00000000E+00  0.00000000E+00
  0.00000000E+00  0.00000000E+00  0.00000000E+00
  0.00000000E+00  0.00000000E+00  0.00000000E+00
  0.00000000E+00  0.00000000E+00  0.00000000E+00
  0.00000000E+00  0.00000000E+00  0.00000000E+00
  0.00000000E+00  0.00000000E+00  0.00000000E+00
  0.00000000E+00  0.00000000E+00  0.00000000E+00
  0.00000000E+00  0.00000000E+00  0.00000000E+00
  0.00000000E+00  0.00000000E+00  0.00000000E+00
  0.00000000E+00  0.00000000E+00  0.00000000E+00
  0.00000000E+00  0.00000000E+00  0.00000000E+00
  0.00000000E+00  0.00000000E+00  0.00000000E+00
  0.00000000E+00  0.00000000E+00  0.00000000E+00
  0.00000000E+00  0.00000000E+00  0.00000000E+00
  0.00000000E+00  0.00000000E+00  0.00000000E+00
  0.00000000E+00  0.00000000E+00  0.00000000E+00
  0.00000000E+00  0.00000000E+00  0.00000000E+00
  0.00000000E+00  0.00000000E+00  0.00000000E+00
  0.00000000E+00  0.00000000E+00  0.00000000E+00
  0.00000000E+00  0.00000000E+00  0.00000000E+00
  0.00000000E+00  0.00000000E+00  0.00000000E+00
  0.00000000E+00  0.00000000E+00  0.00000000E+00
  0.00000000E+00  0.00000000E+00  0.00000000E+00
  0.00000000E+00  0.00000000E+00  0.00000000E+00
  0.00000000E+00  0.00000000E+00  0.00000000E+00
  0.00000000E+00  0.00000000E+00  0.00000000E+00
  0.00000000E+00  0.00000000E+00  0.00000000E+00
  0.00000000E+00  0.00000000E+00  0.00000000E+00
  0.00000000E+00  0.00000000E+00  0.00000000E+00
  0.00000000E+00  0.00000000E+00  0.00000000E+00
  0.00000000E+00  0.00000000E+00  0.00000000E+00
  0.00000000E+00  0.00000000E+00  0.00000000E+00
  0.00000000E+00  0.00000000E+00  0.00000000E+00
