CeO2-you-111-you-Ta                     
   1.00000000000000     
     9.8393223069295956   -5.6807357535649050    0.0000000000000000
     0.0000000006808483   11.3614695089314210    0.0000000000000000
     0.0000000000000000    0.0000000000000000   21.0734325691210280
   O    Ta   Ce   H 
    54     1    26     2
Selective dynamics
Direct
  0.0000200856785727 -0.0001430650170504  0.9952560151089552   T   T   T
  0.1128047857565663  0.2226953683088747  0.1483627783857603   T   T   T
  0.2409164763542413  0.1376464646728781  0.3043740221998423   T   T   T
  0.1434184310901145  0.2435122645754517  0.3791465720593211   T   T   T
  0.0059606161412528  0.0016473586544090  0.2300435362220110   T   T   T
  0.2231911981395242  0.1107612748883003  0.0742228087556486   T   T   T
  0.3341377295331625 -0.0000755572424807  0.9950596096844176   T   T   T
  0.4438611261734671  0.2229341981547150  0.1508311867724318   T   T   T
  0.5590516744988211  0.1077569836193788  0.3054129631057667   T   T   T
  0.4330743770091934  0.2328696779486422  0.3981131275850155   T   T   T
  0.3309272873107387  0.9986111642362905  0.2287799524414873   T   T   T
  0.5553579351432143  0.1109625099679827  0.0758375969307273   T   T   T
  0.6674020577734971 -0.0000917283036072  0.9958396393373682   T   T   T
  0.7777452296692146  0.2204972397099984  0.1507046822773795   T   T   T
  0.8968489685518802  0.1118305107481813  0.3050344884322956   T   T   T
  0.7900188288401954  0.2158723801636151  0.3869554361956439   T   T   T
  0.6699859036074904 -0.0023675189262121  0.2304489003112415   T   T   T
  0.8895177863209207  0.1099150663362678  0.0753000090583947   T   T   T
  0.9989015082306860  0.3316817364743139  0.9951432956153826   T   T   T
  0.1106294815024727  0.5564255121105955  0.1483384240544858   T   T   T
  0.2268292636319074  0.4384289576031161  0.2999110497279436   T   T   T
  0.1146281115484319  0.5520299852599563  0.3841312370523959   T   T   T
  0.0012261452835880  0.3330880743379116  0.2289120765949774   T   T   T
  0.2219933324658264  0.4451614346698311  0.0730532911944353   T   T   T
  0.3332590786030125  0.3329959384007432  0.9950039337101687   T   T   T
  0.4439197848072770  0.5541443643300179  0.1485340710518553   T   T   T
  0.5285374198327130  0.4250476601738401  0.3047020764495300   T   T   T
  0.4233330661574876  0.5247420359215638  0.3786326730175428   T   T   T
  0.3298769777142410  0.3375965168975356  0.2311564596608440   T   T   T
  0.5559103318514513  0.4439039084270477  0.0742891191764202   T   T   T
  0.6666757963600147  0.3321130801201485  0.9951596625551680   T   T   T
  0.7782289455198002  0.5553130695439036  0.1488738966956918   T   T   T
  0.8954923751106857  0.4466521667675130  0.3047221012789170   T   T   T
  0.7798754549613048  0.5679035366112939  0.3833846801037738   T   T   T
  0.6681010186595833  0.3356180165477620  0.2289040334656445   T   T   T
  0.8886335344429290  0.4431857842950007  0.0746041216497752   T   T   T
  0.0004434273631640  0.6661202948983140  0.9948912473720610   T   T   T
  0.1110638505532818  0.8885097530519851  0.1487905490603802   T   T   T
  0.2198768987577538  0.7708405172578555  0.3047465940489555   T   T   T
  0.0990833911315629  0.8865775871141097  0.3834583309806559   T   T   T
  0.0002788507577253  0.6669643354032535  0.2288153370844555   T   T   T
  0.2235876007987342  0.7783948713876016  0.0747136104008468   T   T   T
  0.3344383733296848  0.6677313957333608  0.9948919342417555   T   T   T
  0.4462990554457704  0.8889748227093198  0.1509382050497966   T   T   T
  0.5547600126182435  0.7700030674518781  0.3045842487754920   T   T   T
  0.4512140914880445  0.8766017978500499  0.3869893463185439   T   T   T
  0.3328340614559492  0.6649451681845817  0.2289035846013646   T   T   T
  0.5560800340116444  0.7773605527729912  0.0751805038970443   T   T   T
  0.6667866858722361  0.6666155127833623  0.9950277565115759   T   T   T
  0.7787941283119029  0.8873200873857151  0.1504553144060436   T   T   T
  0.8883935821517004  0.7784203925746034  0.3013664117369906   T   T   T
  0.7803501071636032  0.8857152088771246  0.3824187175947985   T   T   T
  0.6653669023978579  0.6604462634348549  0.2301168203740877   T   T   T
  0.8892020775647259  0.7770900127355599  0.0740417309630777   T   T   T
  0.3233577685528179  0.3431974907158741  0.3295745597748310   T   T   T
  0.0040313533382904  0.0000462389958346  0.3425577388283802   T   T   T
  0.2239789309864382  0.1109063568087763  0.1896646405267613   T   T   T
  0.1109717030562289  0.2212616515864387  0.0342820983653924   T   T   T
  0.3336819312974427  0.9975320277524836  0.3474836137403839   T   T   T
  0.5563223505155398  0.1105134686360717  0.1924695120239421   T   T   T
  0.4449105590275777  0.2217357129466991  0.0351188058648299   T   T   T
  0.6691675052709430 -0.0025163663817091  0.3454057170276265   T   T   T
  0.8904707718269792  0.1109232285328395  0.1897171562588830   T   T   T
  0.7775863551026700  0.2213602954421723  0.0358612212549454   T   T   T
  0.0009097550571225  0.3332795138254070  0.3444762354785043   T   T   T
  0.2206497880469916  0.4460278847004588  0.1854718035598796   T   T   T
  0.1108319795380026  0.5559189865502709  0.0340223861407031   T   T   T
  0.5558360962500135  0.4427104537936675  0.1897408808217465   T   T   T
  0.4452427482870161  0.5557293507361438  0.0342415432793914   T   T   T
  0.6690283607229732  0.3330061104865778  0.3476156251063415   T   T   T
  0.8882704261881317  0.4435640984860592  0.1899842932084596   T   T   T
  0.7776903671853979  0.5545328854586951  0.0349135992069018   T   T   T
 -0.0003124632809422  0.6669324210451482  0.3427602081444633   T   T   T
  0.2231717349054601  0.7785226625155749  0.1899469060597396   T   T   T
  0.1120139093354832  0.8888837759075148  0.0349599679719436   T   T   T
  0.3332909029520653  0.6656656483926325  0.3443422006771800   T   T   T
  0.5556731362128489  0.7761626880967823  0.1897828644500625   T   T   T
  0.4450925712004893  0.8892359884050487  0.0357892937192586   T   T   T
  0.6662464107163464  0.6625594928971252  0.3425805793208426   T   T   T
  0.8898921796017712  0.7767353409665342  0.1887877010758144   T   T   T
  0.7781177452117541  0.8883847485686874  0.0352320560294765   T   T   T
  0.3185618808878036  0.3474657632093417  0.4410621781397067   T   T   T
  0.4160989865572745  0.2495770683286276  0.4415738426071073   T   T   T
 
  0.00000000E+00  0.00000000E+00  0.00000000E+00
  0.00000000E+00  0.00000000E+00  0.00000000E+00
  0.00000000E+00  0.00000000E+00  0.00000000E+00
  0.00000000E+00  0.00000000E+00  0.00000000E+00
  0.00000000E+00  0.00000000E+00  0.00000000E+00
  0.00000000E+00  0.00000000E+00  0.00000000E+00
  0.00000000E+00  0.00000000E+00  0.00000000E+00
  0.00000000E+00  0.00000000E+00  0.00000000E+00
  0.00000000E+00  0.00000000E+00  0.00000000E+00
  0.00000000E+00  0.00000000E+00  0.00000000E+00
  0.00000000E+00  0.00000000E+00  0.00000000E+00
  0.00000000E+00  0.00000000E+00  0.00000000E+00
  0.00000000E+00  0.00000000E+00  0.00000000E+00
  0.00000000E+00  0.00000000E+00  0.00000000E+00
  0.00000000E+00  0.00000000E+00  0.00000000E+00
  0.00000000E+00  0.00000000E+00  0.00000000E+00
  0.00000000E+00  0.00000000E+00  0.00000000E+00
  0.00000000E+00  0.00000000E+00  0.00000000E+00
  0.00000000E+00  0.00000000E+00  0.00000000E+00
  0.00000000E+00  0.00000000E+00  0.00000000E+00
  0.00000000E+00  0.00000000E+00  0.00000000E+00
  0.00000000E+00  0.00000000E+00  0.00000000E+00
  0.00000000E+00  0.00000000E+00  0.00000000E+00
  0.00000000E+00  0.00000000E+00  0.00000000E+00
  0.00000000E+00  0.00000000E+00  0.00000000E+00
  0.00000000E+00  0.00000000E+00  0.00000000E+00
  0.00000000E+00  0.00000000E+00  0.00000000E+00
  0.00000000E+00  0.00000000E+00  0.00000000E+00
  0.00000000E+00  0.00000000E+00  0.00000000E+00
  0.00000000E+00  0.00000000E+00  0.00000000E+00
  0.00000000E+00  0.00000000E+00  0.00000000E+00
  0.00000000E+00  0.00000000E+00  0.00000000E+00
  0.00000000E+00  0.00000000E+00  0.00000000E+00
  0.00000000E+00  0.00000000E+00  0.00000000E+00
  0.00000000E+00  0.00000000E+00  0.00000000E+00
  0.00000000E+00  0.00000000E+00  0.00000000E+00
  0.00000000E+00  0.00000000E+00  0.00000000E+00
  0.00000000E+00  0.00000000E+00  0.00000000E+00
  0.00000000E+00  0.00000000E+00  0.00000000E+00
  0.00000000E+00  0.00000000E+00  0.00000000E+00
  0.00000000E+00  0.00000000E+00  0.00000000E+00
  0.00000000E+00  0.00000000E+00  0.00000000E+00
  0.00000000E+00  0.00000000E+00  0.00000000E+00
  0.00000000E+00  0.00000000E+00  0.00000000E+00
  0.00000000E+00  0.00000000E+00  0.00000000E+00
  0.00000000E+00  0.00000000E+00  0.00000000E+00
  0.00000000E+00  0.00000000E+00  0.00000000E+00
  0.00000000E+00  0.00000000E+00  0.00000000E+00
  0.00000000E+00  0.00000000E+00  0.00000000E+00
  0.00000000E+00  0.00000000E+00  0.00000000E+00
  0.00000000E+00  0.00000000E+00  0.00000000E+00
  0.00000000E+00  0.00000000E+00  0.00000000E+00
  0.00000000E+00  0.00000000E+00  0.00000000E+00
  0.00000000E+00  0.00000000E+00  0.00000000E+00
  0.00000000E+00  0.00000000E+00  0.00000000E+00
  0.00000000E+00  0.00000000E+00  0.00000000E+00
  0.00000000E+00  0.00000000E+00  0.00000000E+00
  0.00000000E+00  0.00000000E+00  0.00000000E+00
  0.00000000E+00  0.00000000E+00  0.00000000E+00
  0.00000000E+00  0.00000000E+00  0.00000000E+00
  0.00000000E+00  0.00000000E+00  0.00000000E+00
  0.00000000E+00  0.00000000E+00  0.00000000E+00
  0.00000000E+00  0.00000000E+00  0.00000000E+00
  0.00000000E+00  0.00000000E+00  0.00000000E+00
  0.00000000E+00  0.00000000E+00  0.00000000E+00
  0.00000000E+00  0.00000000E+00  0.00000000E+00
  0.00000000E+00  0.00000000E+00  0.00000000E+00
  0.00000000E+00  0.00000000E+00  0.00000000E+00
  0.00000000E+00  0.00000000E+00  0.00000000E+00
  0.00000000E+00  0.00000000E+00  0.00000000E+00
  0.00000000E+00  0.00000000E+00  0.00000000E+00
  0.00000000E+00  0.00000000E+00  0.00000000E+00
  0.00000000E+00  0.00000000E+00  0.00000000E+00
  0.00000000E+00  0.00000000E+00  0.00000000E+00
  0.00000000E+00  0.00000000E+00  0.00000000E+00
  0.00000000E+00  0.00000000E+00  0.00000000E+00
  0.00000000E+00  0.00000000E+00  0.00000000E+00
  0.00000000E+00  0.00000000E+00  0.00000000E+00
  0.00000000E+00  0.00000000E+00  0.00000000E+00
  0.00000000E+00  0.00000000E+00  0.00000000E+00
  0.00000000E+00  0.00000000E+00  0.00000000E+00
  0.00000000E+00  0.00000000E+00  0.00000000E+00
  0.00000000E+00  0.00000000E+00  0.00000000E+00
