CeO2-you-111-you-Zr                     
   1.00000000000000     
     9.8343272895089822   -5.6778518748011262    0.0000000007797193
     0.0358503602915950   11.4177963927247941    0.0149206925471127
     0.0161792043387333    0.0280231992128634   20.7576393233337235
   O    Zr   Ce   H 
    53     1    26     1
Selective dynamics
Direct
  0.9995307067743665  0.0001826474604523  0.9917557344841180   T   T   T
  0.1120863734835246  0.2225299039084571  0.1468010682919929   T   T   T
  0.2310732446806039  0.1137539125703370  0.3016142256845679   T   T   T
  0.1244900055168080  0.2205240428997228  0.3833890311057406   T   T   T
  0.0034512098129913  0.0019111481713372  0.2281115249953347   T   T   T
  0.2215560107461729  0.1098947921614344  0.0707118205016274   T   T   T
  0.3352471268391038 -0.0000077345414915  0.9918757333418488   T   T   T
  0.4440448055670615  0.2216361598156761  0.1469766088844599   T   T   T
  0.5497383945883215  0.1121624125162309  0.3062052471976011   T   T   T
  0.4121086614744711  0.2113952914722991  0.4017642760297896   T   T   T
  0.3320515768620896  0.9968854162426830  0.2270403704870693   T   T   T
  0.5575783543297292  0.1117953222315384  0.0732531775631535   T   T   T
  0.6667211396333258 -0.0004342015882558  0.9925716343023772   T   T   T
  0.7787019486041825  0.2247430727762970  0.1517489337395568   T   T   T
  0.8938774597854983  0.1141396330426782  0.3039165050790525   T   T   T
  0.7858027697074520  0.2169241935037086  0.3886755219732379   T   T   T
  0.6676250006684618  0.0012873948102970  0.2306838990301999   T   T   T
  0.8877084755385101  0.1111192436460355  0.0730437180973991   T   T   T
 -0.0001601621025258  0.3330726167445511  0.9923885969135727   T   T   T
  0.1110800664399755  0.5545454838826729  0.1476511931272136   T   T   T
  0.2427793662889723  0.4425487912723863  0.3119449739134075   T   T   T
  0.1007431073767271  0.5455656466127611  0.3872064200943215   T   T   T
  0.0106057278344289  0.3376188856556361  0.2308122832866031   T   T   T
  0.2228010453280121  0.4439644260895442  0.0724329287599350   T   T   T
  0.3343962962732702  0.3336195271491494  0.9921185614340524   T   T   T
  0.4447883399630986  0.5556581417416860  0.1486001439141026   T   T   T
  0.5169837545007478  0.4419521754764885  0.3301016397841126   T   T   T
  0.3322252454609410  0.3287540160249583  0.2288099204886993   T   T   T
  0.5561481892184774  0.4440509638488565  0.0726767731388381   T   T   T
  0.6665383261360995  0.3328004985465494  0.9918330117504585   T   T   T
  0.7791537877317598  0.5563112126809378  0.1469241882967802   T   T   T
  0.8913269913367071  0.4412759871487822  0.3034070686848509   T   T   T
  0.7974863931473314  0.5648996706960198  0.3897958774120847   T   T   T
  0.6603958375575928  0.3409472364532494  0.2311515778597788   T   T   T
  0.8882301203434761  0.4431410238692198  0.0725600833206007   T   T   T
  0.0003766963486914  0.6656091855786552  0.9917752110179714   T   T   T
  0.1105006428496274  0.8880666153215818  0.1461691655680516   T   T   T
  0.2204992808747964  0.7788341523901539  0.3040896740649674   T   T   T
  0.1159029771111656  0.8923101589658327  0.3865168173150292   T   T   T
  0.0004700869617802  0.6656224294632650  0.2276344802588639   T   T   T
  0.2229449109319517  0.7779016210195189  0.0721385973765072   T   T   T
  0.3340004374613751  0.6662799249768837  0.9928259341473880   T   T   T
  0.4474189538407438  0.8898912696290721  0.1492585558738392   T   T   T
  0.5577325911821731  0.7793402932286690  0.3083846462518959   T   T   T
  0.4483521038240417  0.9012932609502140  0.3899973781964564   T   T   T
  0.3315256496527133  0.6647431265439850  0.2276796548233005   T   T   T
  0.5565765625224370  0.7773660722366809  0.0732772798046029   T   T   T
  0.6660967299717647  0.6658249495522783  0.9920338744841296   T   T   T
  0.7777390886636063  0.8886508891189303  0.1500652386867248   T   T   T
  0.8983041495279804  0.7840548113443522  0.3031786696464120   T   T   T
  0.7921053464181694  0.9059682504136172  0.3890711385382473   T   T   T
  0.6666012572250630  0.6597527667354340  0.2291909323402396   T   T   T
  0.8890740726771326  0.7782678829982682  0.0714115524960661   T   T   T
  0.3135925343743990  0.3109644963589676  0.3306586269343348   T   T   T
  0.0036270866971162  0.0015342091758935  0.3459785890184309   T   T   T
  0.2213018512115965  0.1074025075782740  0.1853557002230022   T   T   T
  0.1109857637497481  0.2222566179661126  0.0319507340058082   T   T   T
  0.3312533033526723  0.9919211813809712  0.3451170968799682   T   T   T
  0.5554153769407244  0.1122745209138896  0.1911246038349731   T   T   T
  0.4454153528262530  0.2217795795608995  0.0315366839247389   T   T   T
  0.6704089131041077  0.0034270700433729  0.3472775216389749   T   T   T
  0.8909240157781098  0.1119765027020477  0.1898875138485082   T   T   T
  0.7778615878231998  0.2224566052035278  0.0334754323928322   T   T   T
  0.0023902636115092  0.3324770385493573  0.3466716461770351   T   T   T
  0.2238360724405441  0.4454266595829030  0.1880996204954155   T   T   T
  0.1111495727647131  0.5548975165139052  0.0326506787933849   T   T   T
  0.5561813471391924  0.4450870923235572  0.1859956282563622   T   T   T
  0.4452004960486395  0.5563758609590188  0.0321140505472314   T   T   T
  0.6703466024708117  0.3381102408509472  0.3515522584729794   T   T   T
  0.8890142889231323  0.4450903050865604  0.1905449138263564   T   T   T
  0.7785834346315774  0.5556563825489365  0.0320641502633190   T   T   T
  0.9998222984900607  0.6633849910883437  0.3458794709863589   T   T   T
  0.2225922239887671  0.7768873411140281  0.1871927359106958   T   T   T
  0.1111911915299516  0.8885619466174267  0.0309742407329509   T   T   T
  0.3295189480358877  0.6728499488834697  0.3453637425349833   T   T   T
  0.5567879104900475  0.7781355417102838  0.1919108505873041   T   T   T
  0.4463630994527890  0.8893398287024231  0.0334674621810112   T   T   T
  0.6834813800299836  0.6767322924193954  0.3470058628262792   T   T   T
  0.8897092506926755  0.7774570022239781  0.1884323596036189   T   T   T
  0.7774868946940948  0.8888762198993908  0.0329910606526238   T   T   T
  0.3925757032147193  0.2081778845818308  0.4475606905913788   T   T   T
 
  0.00000000E+00  0.00000000E+00  0.00000000E+00
  0.00000000E+00  0.00000000E+00  0.00000000E+00
  0.00000000E+00  0.00000000E+00  0.00000000E+00
  0.00000000E+00  0.00000000E+00  0.00000000E+00
  0.00000000E+00  0.00000000E+00  0.00000000E+00
  0.00000000E+00  0.00000000E+00  0.00000000E+00
  0.00000000E+00  0.00000000E+00  0.00000000E+00
  0.00000000E+00  0.00000000E+00  0.00000000E+00
  0.00000000E+00  0.00000000E+00  0.00000000E+00
  0.00000000E+00  0.00000000E+00  0.00000000E+00
  0.00000000E+00  0.00000000E+00  0.00000000E+00
  0.00000000E+00  0.00000000E+00  0.00000000E+00
  0.00000000E+00  0.00000000E+00  0.00000000E+00
  0.00000000E+00  0.00000000E+00  0.00000000E+00
  0.00000000E+00  0.00000000E+00  0.00000000E+00
  0.00000000E+00  0.00000000E+00  0.00000000E+00
  0.00000000E+00  0.00000000E+00  0.00000000E+00
  0.00000000E+00  0.00000000E+00  0.00000000E+00
  0.00000000E+00  0.00000000E+00  0.00000000E+00
  0.00000000E+00  0.00000000E+00  0.00000000E+00
  0.00000000E+00  0.00000000E+00  0.00000000E+00
  0.00000000E+00  0.00000000E+00  0.00000000E+00
  0.00000000E+00  0.00000000E+00  0.00000000E+00
  0.00000000E+00  0.00000000E+00  0.00000000E+00
  0.00000000E+00  0.00000000E+00  0.00000000E+00
  0.00000000E+00  0.00000000E+00  0.00000000E+00
  0.00000000E+00  0.00000000E+00  0.00000000E+00
  0.00000000E+00  0.00000000E+00  0.00000000E+00
  0.00000000E+00  0.00000000E+00  0.00000000E+00
  0.00000000E+00  0.00000000E+00  0.00000000E+00
  0.00000000E+00  0.00000000E+00  0.00000000E+00
  0.00000000E+00  0.00000000E+00  0.00000000E+00
  0.00000000E+00  0.00000000E+00  0.00000000E+00
  0.00000000E+00  0.00000000E+00  0.00000000E+00
  0.00000000E+00  0.00000000E+00  0.00000000E+00
  0.00000000E+00  0.00000000E+00  0.00000000E+00
  0.00000000E+00  0.00000000E+00  0.00000000E+00
  0.00000000E+00  0.00000000E+00  0.00000000E+00
  0.00000000E+00  0.00000000E+00  0.00000000E+00
  0.00000000E+00  0.00000000E+00  0.00000000E+00
  0.00000000E+00  0.00000000E+00  0.00000000E+00
  0.00000000E+00  0.00000000E+00  0.00000000E+00
  0.00000000E+00  0.00000000E+00  0.00000000E+00
  0.00000000E+00  0.00000000E+00  0.00000000E+00
  0.00000000E+00  0.00000000E+00  0.00000000E+00
  0.00000000E+00  0.00000000E+00  0.00000000E+00
  0.00000000E+00  0.00000000E+00  0.00000000E+00
  0.00000000E+00  0.00000000E+00  0.00000000E+00
  0.00000000E+00  0.00000000E+00  0.00000000E+00
  0.00000000E+00  0.00000000E+00  0.00000000E+00
  0.00000000E+00  0.00000000E+00  0.00000000E+00
  0.00000000E+00  0.00000000E+00  0.00000000E+00
  0.00000000E+00  0.00000000E+00  0.00000000E+00
  0.00000000E+00  0.00000000E+00  0.00000000E+00
  0.00000000E+00  0.00000000E+00  0.00000000E+00
  0.00000000E+00  0.00000000E+00  0.00000000E+00
  0.00000000E+00  0.00000000E+00  0.00000000E+00
  0.00000000E+00  0.00000000E+00  0.00000000E+00
  0.00000000E+00  0.00000000E+00  0.00000000E+00
  0.00000000E+00  0.00000000E+00  0.00000000E+00
  0.00000000E+00  0.00000000E+00  0.00000000E+00
  0.00000000E+00  0.00000000E+00  0.00000000E+00
  0.00000000E+00  0.00000000E+00  0.00000000E+00
  0.00000000E+00  0.00000000E+00  0.00000000E+00
  0.00000000E+00  0.00000000E+00  0.00000000E+00
  0.00000000E+00  0.00000000E+00  0.00000000E+00
  0.00000000E+00  0.00000000E+00  0.00000000E+00
  0.00000000E+00  0.00000000E+00  0.00000000E+00
  0.00000000E+00  0.00000000E+00  0.00000000E+00
  0.00000000E+00  0.00000000E+00  0.00000000E+00
  0.00000000E+00  0.00000000E+00  0.00000000E+00
  0.00000000E+00  0.00000000E+00  0.00000000E+00
  0.00000000E+00  0.00000000E+00  0.00000000E+00
  0.00000000E+00  0.00000000E+00  0.00000000E+00
  0.00000000E+00  0.00000000E+00  0.00000000E+00
  0.00000000E+00  0.00000000E+00  0.00000000E+00
  0.00000000E+00  0.00000000E+00  0.00000000E+00
  0.00000000E+00  0.00000000E+00  0.00000000E+00
  0.00000000E+00  0.00000000E+00  0.00000000E+00
  0.00000000E+00  0.00000000E+00  0.00000000E+00
  0.00000000E+00  0.00000000E+00  0.00000000E+00
