CeO2-you-111-you-Hg                     
   1.00000000000000     
     9.8473991398808440   -5.6663496674554708   -0.0113280449897092
     0.0164971283772079   11.3612712033253196    0.0113280430811782
    -0.0119521546181674    0.0207017380785078   21.1052204750493431
   O    Hg   Ce   H 
    53     1    26     1
Selective dynamics
Direct
 -0.0000570448467203 -0.0003211332174957  0.9944150096668127   T   T   T
  0.1058722839390085  0.2184946692898750  0.1459701755158929   T   T   T
  0.2273036910727426  0.1293870326679539  0.3089558097280933   T   T   T
  0.0774046537958703  0.2128838142400413  0.3880890196960644   T   T   T
  0.0029903016628147  0.0014433173852686  0.2305667598629116   T   T   T
  0.2219941328001461  0.1106690093336209  0.0747591665394567   T   T   T
  0.3347218573324432  0.0010069073494098  0.9958261349358047   T   T   T
  0.4444433749665733  0.2228475123432979  0.1502367928696672   T   T   T
  0.5587224105149421  0.1169497508777283  0.3046657592681217   T   T   T
  0.4735980098051771  0.2224204789046378  0.4077427291893055   T   T   T
  0.3308271807402178  0.0011515581645051  0.2287393327431516   T   T   T
  0.5565351666659124  0.1100326842630893  0.0770222109304052   T   T   T
  0.6656732275953694  0.0015158665973246  0.9944069680908414   T   T   T
  0.7854486975006888  0.2243927337418918  0.1512439573069542   T   T   T
  0.8797583790713852  0.1060782495046514  0.3015129709500690   T   T   T
  0.7763922637347120  0.2214051575194701  0.3856168915993170   T   T   T
  0.6626750547376317 -0.0023438527297656  0.2280810995890437   T   T   T
  0.8867467727740689  0.1090284194621296  0.0731763048443210   T   T   T
  0.9983908884440064  0.3328439497524739  0.9943490973097233   T   T   T
  0.1108803297469606  0.5569109227994856  0.1466167577173922   T   T   T
  0.1210834778333806  0.5453676405296690  0.3768692534473670   T   T   T
  0.0207301508338465  0.3422432809487146  0.2348965398825817   T   T   T
  0.2220675934960767  0.4438002704139454  0.0709563974674125   T   T   T
  0.3339032480546549  0.3319460313695017  0.9947387364386971   T   T   T
  0.4478877685310521  0.5610143843651187  0.1449234842493878   T   T   T
  0.5698899237198343  0.4466234644115714  0.3011106130269008   T   T   T
  0.4257205209450205  0.5431367094544962  0.3745777270652477   T   T   T
  0.3300766539487768  0.3419854213638231  0.2217429403915238   T   T   T
  0.5562579702392236  0.4444192359554587  0.0741094369232824   T   T   T
  0.6655629262275278  0.3314766278059476  0.9955454024627278   T   T   T
  0.7801183485556731  0.5564297450482122  0.1494052495860938   T   T   T
  0.8877716666397433  0.4436516624841117  0.3037099005019884   T   T   T
  0.7818728639365589  0.5579951541726548  0.3844074604592244   T   T   T
  0.6703624546514991  0.3324473182861076  0.2261654947710539   T   T   T
  0.8885930784204663  0.4442099160278646  0.0742360818831690   T   T   T
  0.9995842494077954  0.6672519895313855  0.9951525951271155   T   T   T
  0.1106662603306248  0.8885335223373219  0.1500149860989814   T   T   T
  0.2218403331810826  0.7768415312462643  0.3045385780242964   T   T   T
  0.0941152650946687  0.8802637136328446  0.3842141716580174   T   T   T
  0.0012571497897767  0.6660377550346193  0.2291754368506386   T   T   T
  0.2221647896940734  0.7786430792030294  0.0742969846521635   T   T   T
  0.3340861652079403  0.6684057704929096  0.9944440471133462   T   T   T
  0.4395780684347252  0.8823392275839076  0.1516936493476788   T   T   T
  0.5571702124497038  0.7783827712392039  0.3031832470815482   T   T   T
  0.4511353362418647  0.8824150673168820  0.3873979272562463   T   T   T
  0.3239484987203402  0.6470904679918792  0.2344801903660859   T   T   T
  0.5577464639796234  0.7810773960411794  0.0736478357338892   T   T   T
  0.6670709258755182  0.6668799442297757  0.9946346898273934   T   T   T
  0.7789228879826946  0.8904660243407779  0.1500217393427194   T   T   T
  0.8849718595157845  0.7736200747948274  0.3012779550254541   T   T   T
  0.7749714475719752  0.8841703410205325  0.3824891637141269   T   T   T
  0.6647298327715871  0.6668280029411752  0.2276103338740352   T   T   T
  0.8886749420541965  0.7787265348411935  0.0745464014757942   T   T   T
  0.3238611616885338  0.3335208927458826  0.3486911155125108   T   T   T
 -0.0042464251238928 -0.0003585774659328  0.3443942924032053   T   T   T
  0.2239946113219111  0.1151433530895026  0.1911335864434594   T   T   T
  0.1095347836462130  0.2195043593399082  0.0328330866143684   T   T   T
  0.3308618406956972  0.0023458484016648  0.3487658760590699   T   T   T
  0.5544542505188301  0.1104963438419658  0.1909393330638272   T   T   T
  0.4442912593388701  0.2218935668733369  0.0358408837505631   T   T   T
  0.6636911564724175 -0.0023993693564555  0.3437097277922099   T   T   T
  0.8896978304251981  0.1106765545042896  0.1896896167065296   T   T   T
  0.7775003336540488  0.2217171793243547  0.0350342647356914   T   T   T
  0.9866329689492360  0.3222284062373962  0.3475211966535033   T   T   T
  0.2233770605383301  0.4434502686142763  0.1797004828081741   T   T   T
  0.1101598561465333  0.5570002864052384  0.0330599315483091   T   T   T
  0.5548900138820823  0.4441794159857840  0.1894440879940051   T   T   T
  0.4467832190900463  0.5569935755426971  0.0327308749263081   T   T   T
  0.6719656305134210  0.3378307650033775  0.3420789594876952   T   T   T
  0.8913492557900554  0.4445658937434167  0.1892763046357152   T   T   T
  0.7775331011942832  0.5551432252783534  0.0354641107943114   T   T   T
  0.0001610197084280  0.6680790025671097  0.3423451683764482   T   T   T
  0.2214415072721654  0.7779018343452053  0.1908543171843162   T   T   T
  0.1117993394030204  0.8897755160769131  0.0360426663651953   T   T   T
  0.3390234925289430  0.6765987231647359  0.3452819525523596   T   T   T
  0.5547064975102223  0.7766044919013098  0.1891838425889348   T   T   T
  0.4443979344934652  0.8894068917425207  0.0353149924632315   T   T   T
  0.6666668099331494  0.6626320507977614  0.3404804624751607   T   T   T
  0.8895047804295078  0.7783828019304033  0.1884651234089061   T   T   T
  0.7774722460877093  0.8898644396927858  0.0345506294727083   T   T   T
  0.4680154975003057  0.2468811349657000  0.4512995137038729   T   T   T
 
  0.00000000E+00  0.00000000E+00  0.00000000E+00
  0.00000000E+00  0.00000000E+00  0.00000000E+00
  0.00000000E+00  0.00000000E+00  0.00000000E+00
  0.00000000E+00  0.00000000E+00  0.00000000E+00
  0.00000000E+00  0.00000000E+00  0.00000000E+00
  0.00000000E+00  0.00000000E+00  0.00000000E+00
  0.00000000E+00  0.00000000E+00  0.00000000E+00
  0.00000000E+00  0.00000000E+00  0.00000000E+00
  0.00000000E+00  0.00000000E+00  0.00000000E+00
  0.00000000E+00  0.00000000E+00  0.00000000E+00
  0.00000000E+00  0.00000000E+00  0.00000000E+00
  0.00000000E+00  0.00000000E+00  0.00000000E+00
  0.00000000E+00  0.00000000E+00  0.00000000E+00
  0.00000000E+00  0.00000000E+00  0.00000000E+00
  0.00000000E+00  0.00000000E+00  0.00000000E+00
  0.00000000E+00  0.00000000E+00  0.00000000E+00
  0.00000000E+00  0.00000000E+00  0.00000000E+00
  0.00000000E+00  0.00000000E+00  0.00000000E+00
  0.00000000E+00  0.00000000E+00  0.00000000E+00
  0.00000000E+00  0.00000000E+00  0.00000000E+00
  0.00000000E+00  0.00000000E+00  0.00000000E+00
  0.00000000E+00  0.00000000E+00  0.00000000E+00
  0.00000000E+00  0.00000000E+00  0.00000000E+00
  0.00000000E+00  0.00000000E+00  0.00000000E+00
  0.00000000E+00  0.00000000E+00  0.00000000E+00
  0.00000000E+00  0.00000000E+00  0.00000000E+00
  0.00000000E+00  0.00000000E+00  0.00000000E+00
  0.00000000E+00  0.00000000E+00  0.00000000E+00
  0.00000000E+00  0.00000000E+00  0.00000000E+00
  0.00000000E+00  0.00000000E+00  0.00000000E+00
  0.00000000E+00  0.00000000E+00  0.00000000E+00
  0.00000000E+00  0.00000000E+00  0.00000000E+00
  0.00000000E+00  0.00000000E+00  0.00000000E+00
  0.00000000E+00  0.00000000E+00  0.00000000E+00
  0.00000000E+00  0.00000000E+00  0.00000000E+00
  0.00000000E+00  0.00000000E+00  0.00000000E+00
  0.00000000E+00  0.00000000E+00  0.00000000E+00
  0.00000000E+00  0.00000000E+00  0.00000000E+00
  0.00000000E+00  0.00000000E+00  0.00000000E+00
  0.00000000E+00  0.00000000E+00  0.00000000E+00
  0.00000000E+00  0.00000000E+00  0.00000000E+00
  0.00000000E+00  0.00000000E+00  0.00000000E+00
  0.00000000E+00  0.00000000E+00  0.00000000E+00
  0.00000000E+00  0.00000000E+00  0.00000000E+00
  0.00000000E+00  0.00000000E+00  0.00000000E+00
  0.00000000E+00  0.00000000E+00  0.00000000E+00
  0.00000000E+00  0.00000000E+00  0.00000000E+00
  0.00000000E+00  0.00000000E+00  0.00000000E+00
  0.00000000E+00  0.00000000E+00  0.00000000E+00
  0.00000000E+00  0.00000000E+00  0.00000000E+00
  0.00000000E+00  0.00000000E+00  0.00000000E+00
  0.00000000E+00  0.00000000E+00  0.00000000E+00
  0.00000000E+00  0.00000000E+00  0.00000000E+00
  0.00000000E+00  0.00000000E+00  0.00000000E+00
  0.00000000E+00  0.00000000E+00  0.00000000E+00
  0.00000000E+00  0.00000000E+00  0.00000000E+00
  0.00000000E+00  0.00000000E+00  0.00000000E+00
  0.00000000E+00  0.00000000E+00  0.00000000E+00
  0.00000000E+00  0.00000000E+00  0.00000000E+00
  0.00000000E+00  0.00000000E+00  0.00000000E+00
  0.00000000E+00  0.00000000E+00  0.00000000E+00
  0.00000000E+00  0.00000000E+00  0.00000000E+00
  0.00000000E+00  0.00000000E+00  0.00000000E+00
  0.00000000E+00  0.00000000E+00  0.00000000E+00
  0.00000000E+00  0.00000000E+00  0.00000000E+00
  0.00000000E+00  0.00000000E+00  0.00000000E+00
  0.00000000E+00  0.00000000E+00  0.00000000E+00
  0.00000000E+00  0.00000000E+00  0.00000000E+00
  0.00000000E+00  0.00000000E+00  0.00000000E+00
  0.00000000E+00  0.00000000E+00  0.00000000E+00
  0.00000000E+00  0.00000000E+00  0.00000000E+00
  0.00000000E+00  0.00000000E+00  0.00000000E+00
  0.00000000E+00  0.00000000E+00  0.00000000E+00
  0.00000000E+00  0.00000000E+00  0.00000000E+00
  0.00000000E+00  0.00000000E+00  0.00000000E+00
  0.00000000E+00  0.00000000E+00  0.00000000E+00
  0.00000000E+00  0.00000000E+00  0.00000000E+00
  0.00000000E+00  0.00000000E+00  0.00000000E+00
  0.00000000E+00  0.00000000E+00  0.00000000E+00
  0.00000000E+00  0.00000000E+00  0.00000000E+00
  0.00000000E+00  0.00000000E+00  0.00000000E+00
