CeO2-you-111-you-Sn                     
   1.00000000000000     
     9.9160831069937903   -5.7250536254581439   -0.0000000008476533
    -0.0417723931599708   11.3777533333409284   -0.0161704452927646
    -0.0175662126666772   -0.0304255676615943   21.1450815087385777
   O    Sn   Ce H
    53     1    26 1
Selective dynamics
Direct
  0.0004805512274982  0.0002401204906750  0.9967027536240434   T   T   T
  0.1106845331950922  0.2227347640672458  0.1503646288152716   T   T   T
  0.2269445927425964  0.1205561854857016  0.3053781587451779   T   T   T
  0.0911114729610844  0.2146099052913249  0.3834403765537450   T   T   T
  0.0030963604677919  0.0020538671475070  0.2290765046880672   T   T   T
  0.2229577457558974  0.1125824915118411  0.0757218234961777   T   T   T
  0.3330925692631569  0.0002401204906095  0.9967027536240364   T   T   T
  0.4453832308720558  0.2227347640670262  0.1503646288152574   T   T   T
  0.5582616797866822  0.1082796903085198  0.3011852062005930   T   T   T
  0.4568314323311427  0.2146099052920562  0.3834403765540813   T   T   T
  0.3322905066794252  0.0020538671470980  0.2290765046880285   T   T   T
  0.5559166428726491  0.1118812187479748  0.0753517054648595   T   T   T
  0.6664299488907256 -0.0004741022185326  0.9965289602350625   T   T   T
  0.7756077023006285  0.2178814046011575  0.1512459290201651   T   T   T
  0.8833520105223365  0.1082796903089777  0.3011852062006103   T   T   T
  0.7751083511337665  0.2168827022670681  0.3820368572847602   T   T   T
  0.6602457284353227 -0.0128425431301045  0.2309038719177009   T   T   T
  0.8892985758753271  0.1118812187480785  0.0753517054648662   T   T   T
  0.0006206358157945  0.3338929035800412  0.9971254270077978   T   T   T
  0.1107772181816949  0.5549153897341040  0.1501275182565917   T   T   T
  0.2217692887645072  0.4537024601995086  0.3048361526248790   T   T   T
  0.1102327182811219  0.5617937857078253  0.3840028093692882   T   T   T
 -0.0000233581271784  0.3327558455439024  0.2292221165905758   T   T   T
  0.2232038751422902  0.4448347017416170  0.0760876785654345   T   T   T
  0.3336023608968227  0.3338717217936141  0.9966765742763450   T   T   T
  0.4442882585081694  0.5552445170163781  0.1508423343354665   T   T   T
  0.5652671714338779  0.4537024602000762  0.3048361526250299   T   T   T
  0.3345700127884591  0.3358070255771197  0.2295300869736040   T   T   T
  0.5549648265992732  0.4448347017416346  0.0760876785654365   T   T   T
  0.6666062677642721  0.3338929035799936  0.9971254270077959   T   T   T
  0.7774711715525848  0.5549153897340695  0.1501275182565907   T   T   T
  0.8891490827070808  0.4449641654140193  0.3037860957406361   T   T   T
  0.7848940674265737  0.5617937857082552  0.3840028093693219   T   T   T
  0.6661132036710145  0.3327558455437631  0.2292221165905164   T   T   T
  0.8880736569417346  0.4428133138834749  0.0765972064229972   T   T   T
 -0.0006211886026375  0.6654246227947422  0.9971320717328918   T   T   T
  0.1116732791101289  0.8900135582201857  0.1483966773449886   T   T   T
  0.2197617066608864  0.7793640095113661  0.3014315844268748   T   T   T
  0.1123758237955688  0.8914186475912014  0.3808677720407579   T   T   T
  0.0005130258923093  0.6676930517846953  0.2278385352310426   T   T   T
  0.2217838710264493  0.7779200352344618  0.0749683514567919   T   T   T
  0.3336998625508144  0.6669220106889725  0.9971590040581637   T   T   T
  0.4435115189215907  0.8893637777020788  0.1487789698908497   T   T   T
  0.5420439963337530  0.7507539926648731  0.3137744303811040   T   T   T
  0.4415939743308039  0.8886124921981969  0.3805192019447526   T   T   T
  0.3345040858104126  0.6723093271624466  0.2281988057416233   T   T   T
  0.5556332041798933  0.7779324083598406  0.0762610206641632   T   T   T
  0.6665551481381046  0.6669220106890117  0.9971590040581815   T   T   T
  0.7791852587805812  0.8893637777022868  0.1487789698908399   T   T   T
  0.8929353028507477  0.7793640095120286  0.3014315844270617   T   T   T
  0.7803515178679318  0.8886124921986132  0.3805192019448008   T   T   T
  0.6711382413515795  0.6723093271628827  0.2281988057416998   T   T   T
  0.8894691642079835  0.7779200352344853  0.0749683514567828   T   T   T
  0.3277161161643191  0.3220992323272289  0.3467602901932420   T   T   T
  0.0023817363649806  0.0053027802576803  0.3427652432455502   T   T   T
  0.2241219086196494  0.1149108172391572  0.1901270880726293   T   T   T
  0.1117023084057272  0.2227067662382202  0.0367265314255150   T   T   T
  0.3362540438931454  0.0053027802585259  0.3427652432455714   T   T   T
  0.5544320319395974  0.1098445328311237  0.1896282102822022   T   T   T
  0.4443374578325559  0.2227067662382965  0.0367265314255184   T   T   T
  0.6650418094180067 -0.0032503811634847  0.3428517123087195   T   T   T
  0.8887465008914982  0.1098445328308048  0.1896282102822435   T   T   T
  0.7774360887272220  0.2215381774543876  0.0366823708287161   T   T   T
 -0.0016962011958464  0.3313346797259065  0.3428619645987915   T   T   T
  0.2225160846527034  0.4441503979272096  0.1914755017393835   T   T   T
  0.1108376895890253  0.5545435461096770  0.0367152497105634   T   T   T
  0.5549683132746378  0.4441503979270681  0.1914755017393467   T   T   T
  0.4440628879686245  0.5547937759371787  0.0366541843437095   T   T   T
  0.6663648809210759  0.3313346797245758  0.3428619645986820   T   T   T
  0.8887596352076952  0.4441852704157217  0.1899059141621767   T   T   T
  0.7770388565207176  0.5545435461096897  0.0367152497105479   T   T   T
  0.0008889463771633  0.6684448927546499  0.3433213920138987   T   T   T
  0.2210475047214028  0.7792205669250428  0.1873378595039114   T   T   T
  0.1112959982202953  0.8892589964406550  0.0353672675806001   T   T   T
  0.3200231113095333  0.6711486640649058  0.3387402624766395   T   T   T
  0.5543783367395120  0.7754226734789450  0.1882579608289633   T   T   T
  0.4442563158563374  0.8888204516103718  0.0357855886489784   T   T   T
  0.6844585527549654  0.6711486640652586  0.3387402624768684   T   T   T
  0.8915060622032192  0.7792205669248664  0.1873378595039957   T   T   T
  0.7778971357540674  0.8888204516103425  0.0357855886489592   T   T   T
0.446598 0.216020 0.433410 T T T 
 
  0.00000000E+00  0.00000000E+00  0.00000000E+00
  0.00000000E+00  0.00000000E+00  0.00000000E+00
  0.00000000E+00  0.00000000E+00  0.00000000E+00
  0.00000000E+00  0.00000000E+00  0.00000000E+00
  0.00000000E+00  0.00000000E+00  0.00000000E+00
  0.00000000E+00  0.00000000E+00  0.00000000E+00
  0.00000000E+00  0.00000000E+00  0.00000000E+00
  0.00000000E+00  0.00000000E+00  0.00000000E+00
  0.00000000E+00  0.00000000E+00  0.00000000E+00
  0.00000000E+00  0.00000000E+00  0.00000000E+00
  0.00000000E+00  0.00000000E+00  0.00000000E+00
  0.00000000E+00  0.00000000E+00  0.00000000E+00
  0.00000000E+00  0.00000000E+00  0.00000000E+00
  0.00000000E+00  0.00000000E+00  0.00000000E+00
  0.00000000E+00  0.00000000E+00  0.00000000E+00
  0.00000000E+00  0.00000000E+00  0.00000000E+00
  0.00000000E+00  0.00000000E+00  0.00000000E+00
  0.00000000E+00  0.00000000E+00  0.00000000E+00
  0.00000000E+00  0.00000000E+00  0.00000000E+00
  0.00000000E+00  0.00000000E+00  0.00000000E+00
  0.00000000E+00  0.00000000E+00  0.00000000E+00
  0.00000000E+00  0.00000000E+00  0.00000000E+00
  0.00000000E+00  0.00000000E+00  0.00000000E+00
  0.00000000E+00  0.00000000E+00  0.00000000E+00
  0.00000000E+00  0.00000000E+00  0.00000000E+00
  0.00000000E+00  0.00000000E+00  0.00000000E+00
  0.00000000E+00  0.00000000E+00  0.00000000E+00
  0.00000000E+00  0.00000000E+00  0.00000000E+00
  0.00000000E+00  0.00000000E+00  0.00000000E+00
  0.00000000E+00  0.00000000E+00  0.00000000E+00
  0.00000000E+00  0.00000000E+00  0.00000000E+00
  0.00000000E+00  0.00000000E+00  0.00000000E+00
  0.00000000E+00  0.00000000E+00  0.00000000E+00
  0.00000000E+00  0.00000000E+00  0.00000000E+00
  0.00000000E+00  0.00000000E+00  0.00000000E+00
  0.00000000E+00  0.00000000E+00  0.00000000E+00
  0.00000000E+00  0.00000000E+00  0.00000000E+00
  0.00000000E+00  0.00000000E+00  0.00000000E+00
  0.00000000E+00  0.00000000E+00  0.00000000E+00
  0.00000000E+00  0.00000000E+00  0.00000000E+00
  0.00000000E+00  0.00000000E+00  0.00000000E+00
  0.00000000E+00  0.00000000E+00  0.00000000E+00
  0.00000000E+00  0.00000000E+00  0.00000000E+00
  0.00000000E+00  0.00000000E+00  0.00000000E+00
  0.00000000E+00  0.00000000E+00  0.00000000E+00
  0.00000000E+00  0.00000000E+00  0.00000000E+00
  0.00000000E+00  0.00000000E+00  0.00000000E+00
  0.00000000E+00  0.00000000E+00  0.00000000E+00
  0.00000000E+00  0.00000000E+00  0.00000000E+00
  0.00000000E+00  0.00000000E+00  0.00000000E+00
  0.00000000E+00  0.00000000E+00  0.00000000E+00
  0.00000000E+00  0.00000000E+00  0.00000000E+00
  0.00000000E+00  0.00000000E+00  0.00000000E+00
  0.00000000E+00  0.00000000E+00  0.00000000E+00
  0.00000000E+00  0.00000000E+00  0.00000000E+00
  0.00000000E+00  0.00000000E+00  0.00000000E+00
  0.00000000E+00  0.00000000E+00  0.00000000E+00
  0.00000000E+00  0.00000000E+00  0.00000000E+00
  0.00000000E+00  0.00000000E+00  0.00000000E+00
  0.00000000E+00  0.00000000E+00  0.00000000E+00
  0.00000000E+00  0.00000000E+00  0.00000000E+00
  0.00000000E+00  0.00000000E+00  0.00000000E+00
  0.00000000E+00  0.00000000E+00  0.00000000E+00
  0.00000000E+00  0.00000000E+00  0.00000000E+00
  0.00000000E+00  0.00000000E+00  0.00000000E+00
  0.00000000E+00  0.00000000E+00  0.00000000E+00
  0.00000000E+00  0.00000000E+00  0.00000000E+00
  0.00000000E+00  0.00000000E+00  0.00000000E+00
  0.00000000E+00  0.00000000E+00  0.00000000E+00
  0.00000000E+00  0.00000000E+00  0.00000000E+00
  0.00000000E+00  0.00000000E+00  0.00000000E+00
  0.00000000E+00  0.00000000E+00  0.00000000E+00
  0.00000000E+00  0.00000000E+00  0.00000000E+00
  0.00000000E+00  0.00000000E+00  0.00000000E+00
  0.00000000E+00  0.00000000E+00  0.00000000E+00
  0.00000000E+00  0.00000000E+00  0.00000000E+00
  0.00000000E+00  0.00000000E+00  0.00000000E+00
  0.00000000E+00  0.00000000E+00  0.00000000E+00
  0.00000000E+00  0.00000000E+00  0.00000000E+00
  0.00000000E+00  0.00000000E+00  0.00000000E+00
