CeO2-you-111-you-Cd                     
   1.00000000000000     
     9.8429070363730968   -5.6719636456314451   -0.0052352207223810
     0.0093892309493896   11.3601879190010813    0.0052352198435961
    -0.0053754749647738    0.0093105953355276   21.1931759225737828
   O    Cd   Ce H
    53     1    26 1
Selective dynamics
Direct
 -0.0002070534754848 -0.0004894257684158  0.9962019454675360   T   T   T
  0.1078124171511754  0.2198493011455701  0.1468656951737603   T   T   T
  0.2187470746892880  0.1044632161089902  0.3021191295303124   T   T   T
  0.1100656498903304  0.2344945870274974  0.3749035754382409   T   T   T
 -0.0014024118648080  0.0009909199773565  0.2289595444106264   T   T   T
  0.2219066724493908  0.1106527457673554  0.0757352155497043   T   T   T
  0.3351870234438290  0.0011894920054268  0.9977290323376176   T   T   T
  0.4427923233267650  0.2238736766721892  0.1513268156030453   T   T   T
  0.5562469812217304  0.1104200187773041  0.3033667407398708   T   T   T
  0.4513840825942693  0.2152819174069797  0.3861279150604812   T   T   T
  0.3351063803839319  0.0003388253826017  0.2285093518831632   T   T   T
  0.5568405332548558  0.1098264667451267  0.0784871946988277   T   T   T
  0.6656666971122801  0.0010003028883594  0.9961873861927808   T   T   T
  0.7850561110647362  0.2263050740075531  0.1520987447914094   T   T   T
  0.8831239809628358  0.1082610615665329  0.3025000172299694   T   T   T
  0.7757265161159406  0.2196563715342931  0.3850735124425803   T   T   T
  0.6664936845443281  0.0001733154557182  0.2276398779490219   T   T   T
  0.8869518222993187  0.1098624732580329  0.0748313879046904   T   T   T
 -0.0017327268341510  0.3327759220531928  0.9962802290828290   T   T   T
  0.1107808366017821  0.5558861633963560  0.1482413588146312   T   T   T
  0.1193643478667415  0.5473026521356782  0.3746243274954738   T   T   T
  0.0189204351816519  0.3424694672917311  0.2352700324341958   T   T   T
  0.2226342268561193  0.4440317731447356  0.0725254348822294   T   T   T
  0.3342793779823945  0.3323866220173337  0.9961650803011621   T   T   T
  0.4468166988578823  0.5588545828499092  0.1468656951735955   T   T   T
  0.5622037838925991  0.4479189253096942  0.3021191295306943   T   T   T
  0.4321714129720289  0.5566013501098650  0.3749035754383018   T   T   T
  0.3261525955536732  0.3405134044470590  0.2283072053183425   T   T   T
  0.5560142542326171  0.4447593275504308  0.0757352155497310   T   T   T
  0.6654775079942884  0.3314789765558020  0.9977290323376076   T   T   T
  0.7786141510504766  0.5556048509161194  0.1514535584938420   T   T   T
  0.8840561185401914  0.4425267164058830  0.3041012257382640   T   T   T
  0.7807255111901948  0.5602350731382216  0.3830012266439290   T   T   T
  0.6663281746154769  0.3315596196156263  0.2285093518832072   T   T   T
  0.8887202100929007  0.4446714462174824  0.0757706998191614   T   T   T
 -0.0003731612225598  0.6670401612218742  0.9967233297987848   T   T   T
  0.1110621490826710  0.8880528489479971  0.1514535584938153   T   T   T
  0.2241392835918477  0.7826108814558080  0.3041012257381730   T   T   T
  0.1064319268612334  0.8859414888079564  0.3830012266438743   T   T   T
  0.0012314346533065  0.6654355653450185  0.2301200650558993   T   T   T
  0.2219945537822795  0.7779467899065986  0.0757706998191092   T   T   T
  0.3338900779471783  0.6683997268345729  0.9962802290827626   T   T   T
  0.4403609259930142  0.8816108889352241  0.1520987447915239   T   T   T
  0.5584059384364156  0.7835430190375302  0.3025000172298342   T   T   T
  0.4470096284652513  0.8909404838816941  0.3850735124421393   T   T   T
  0.3241965327086853  0.6477465648223600  0.2352700324338190   T   T   T
  0.5568045267425915  0.7797151777009987  0.0748313879046422   T   T   T
  0.6671564257685874  0.6668740534752592  0.9962019454675062   T   T   T
  0.7777200463856446  0.8889469536147572  0.1500422365010616   T   T   T
  0.8892843307249989  0.7773826692740577  0.3019139093029342   T   T   T
  0.7787364554532203  0.8879305445473118  0.3815783231935467   T   T   T
  0.6656760800232293  0.6680694118652827  0.2289595444106166   T   T   T
  0.8890079120485730  0.7776590879510175  0.0760951563401397   T   T   T
  0.3383485486582787  0.3283174513414676  0.3509138726638117   T   T   T
  0.0018911369659486  0.0015480738816349  0.3415235784727979   T   T   T
  0.2228160109790993  0.1136210008880460  0.1918388681182964   T   T   T
  0.1100717513723758  0.2201744201912794  0.0343116912473231   T   T   T
  0.3337517949119799  0.0049392155241591  0.3438023004752749   T   T   T
  0.5556340746969514  0.1110329253053125  0.1906456506284862   T   T   T
  0.4443221284447766  0.2223438715551375  0.0375543471129646   T   T   T
  0.6665787532451909  0.0000882467562523  0.3433942399302327   T   T   T
  0.8895683715935149  0.1112971344139330  0.1898344232101949   T   T   T
  0.7777113748222293  0.2222252244709518  0.0365726760688020   T   T   T
 -0.0120096763311480  0.3251624853340196  0.3456837179120250   T   T   T
  0.2237479143641039  0.4429180856296101  0.1816323432526118   T   T   T
  0.1100197016956034  0.5566472983041754  0.0348967841234626   T   T   T
  0.5530459991106895  0.4438499890196849  0.1918388681182314   T   T   T
  0.4464915798081768  0.5565952486270900  0.0343116912473806   T   T   T
  0.6617277844818300  0.3329142050913840  0.3438023004749626   T   T   T
  0.8899718793640315  0.4448712411565212  0.1910109379091262   T   T   T
  0.7772946511062541  0.5548594795878360  0.0375130798640640   T   T   T
 -0.0010024537897952  0.6676694537967269  0.3421252613738295   T   T   T
  0.2217947588465071  0.7766951206427366  0.1910109379091320   T   T   T
  0.1118075204131379  0.8893723488944700  0.0375130798640531   T   T   T
  0.3415035146628555  0.6786766763265946  0.3456837179130319   T   T   T
  0.5553698655814024  0.7770986284055909  0.1898344232102293   T   T   T
  0.4444407755285249  0.8889556251779515  0.0365726760688129   T   T   T
  0.6651189261156633  0.6647758630314246  0.3415235784723863   T   T   T
  0.8887626002639183  0.7779043997378301  0.1892097585584238   T   T   T
  0.7772382438301483  0.8894287561692698  0.0360885898091453   T   T   T
0.446598 0.216020 0.433410 T T T 
 
  0.00000000E+00  0.00000000E+00  0.00000000E+00
  0.00000000E+00  0.00000000E+00  0.00000000E+00
  0.00000000E+00  0.00000000E+00  0.00000000E+00
  0.00000000E+00  0.00000000E+00  0.00000000E+00
  0.00000000E+00  0.00000000E+00  0.00000000E+00
  0.00000000E+00  0.00000000E+00  0.00000000E+00
  0.00000000E+00  0.00000000E+00  0.00000000E+00
  0.00000000E+00  0.00000000E+00  0.00000000E+00
  0.00000000E+00  0.00000000E+00  0.00000000E+00
  0.00000000E+00  0.00000000E+00  0.00000000E+00
  0.00000000E+00  0.00000000E+00  0.00000000E+00
  0.00000000E+00  0.00000000E+00  0.00000000E+00
  0.00000000E+00  0.00000000E+00  0.00000000E+00
  0.00000000E+00  0.00000000E+00  0.00000000E+00
  0.00000000E+00  0.00000000E+00  0.00000000E+00
  0.00000000E+00  0.00000000E+00  0.00000000E+00
  0.00000000E+00  0.00000000E+00  0.00000000E+00
  0.00000000E+00  0.00000000E+00  0.00000000E+00
  0.00000000E+00  0.00000000E+00  0.00000000E+00
  0.00000000E+00  0.00000000E+00  0.00000000E+00
  0.00000000E+00  0.00000000E+00  0.00000000E+00
  0.00000000E+00  0.00000000E+00  0.00000000E+00
  0.00000000E+00  0.00000000E+00  0.00000000E+00
  0.00000000E+00  0.00000000E+00  0.00000000E+00
  0.00000000E+00  0.00000000E+00  0.00000000E+00
  0.00000000E+00  0.00000000E+00  0.00000000E+00
  0.00000000E+00  0.00000000E+00  0.00000000E+00
  0.00000000E+00  0.00000000E+00  0.00000000E+00
  0.00000000E+00  0.00000000E+00  0.00000000E+00
  0.00000000E+00  0.00000000E+00  0.00000000E+00
  0.00000000E+00  0.00000000E+00  0.00000000E+00
  0.00000000E+00  0.00000000E+00  0.00000000E+00
  0.00000000E+00  0.00000000E+00  0.00000000E+00
  0.00000000E+00  0.00000000E+00  0.00000000E+00
  0.00000000E+00  0.00000000E+00  0.00000000E+00
  0.00000000E+00  0.00000000E+00  0.00000000E+00
  0.00000000E+00  0.00000000E+00  0.00000000E+00
  0.00000000E+00  0.00000000E+00  0.00000000E+00
  0.00000000E+00  0.00000000E+00  0.00000000E+00
  0.00000000E+00  0.00000000E+00  0.00000000E+00
  0.00000000E+00  0.00000000E+00  0.00000000E+00
  0.00000000E+00  0.00000000E+00  0.00000000E+00
  0.00000000E+00  0.00000000E+00  0.00000000E+00
  0.00000000E+00  0.00000000E+00  0.00000000E+00
  0.00000000E+00  0.00000000E+00  0.00000000E+00
  0.00000000E+00  0.00000000E+00  0.00000000E+00
  0.00000000E+00  0.00000000E+00  0.00000000E+00
  0.00000000E+00  0.00000000E+00  0.00000000E+00
  0.00000000E+00  0.00000000E+00  0.00000000E+00
  0.00000000E+00  0.00000000E+00  0.00000000E+00
  0.00000000E+00  0.00000000E+00  0.00000000E+00
  0.00000000E+00  0.00000000E+00  0.00000000E+00
  0.00000000E+00  0.00000000E+00  0.00000000E+00
  0.00000000E+00  0.00000000E+00  0.00000000E+00
  0.00000000E+00  0.00000000E+00  0.00000000E+00
  0.00000000E+00  0.00000000E+00  0.00000000E+00
  0.00000000E+00  0.00000000E+00  0.00000000E+00
  0.00000000E+00  0.00000000E+00  0.00000000E+00
  0.00000000E+00  0.00000000E+00  0.00000000E+00
  0.00000000E+00  0.00000000E+00  0.00000000E+00
  0.00000000E+00  0.00000000E+00  0.00000000E+00
  0.00000000E+00  0.00000000E+00  0.00000000E+00
  0.00000000E+00  0.00000000E+00  0.00000000E+00
  0.00000000E+00  0.00000000E+00  0.00000000E+00
  0.00000000E+00  0.00000000E+00  0.00000000E+00
  0.00000000E+00  0.00000000E+00  0.00000000E+00
  0.00000000E+00  0.00000000E+00  0.00000000E+00
  0.00000000E+00  0.00000000E+00  0.00000000E+00
  0.00000000E+00  0.00000000E+00  0.00000000E+00
  0.00000000E+00  0.00000000E+00  0.00000000E+00
  0.00000000E+00  0.00000000E+00  0.00000000E+00
  0.00000000E+00  0.00000000E+00  0.00000000E+00
  0.00000000E+00  0.00000000E+00  0.00000000E+00
  0.00000000E+00  0.00000000E+00  0.00000000E+00
  0.00000000E+00  0.00000000E+00  0.00000000E+00
  0.00000000E+00  0.00000000E+00  0.00000000E+00
  0.00000000E+00  0.00000000E+00  0.00000000E+00
  0.00000000E+00  0.00000000E+00  0.00000000E+00
  0.00000000E+00  0.00000000E+00  0.00000000E+00
  0.00000000E+00  0.00000000E+00  0.00000000E+00
