CeO2-you-111-you-Ga                     
   1.00000000000000     
     9.8380330969217145   -5.6799914279421699    0.0000000000000000
     0.0000000010143697   11.3599808585255975    0.0000000000000000
     0.0000000000000000    0.0000000000000000   20.8258270750177843
   O    Ga   Ce   H 
    54     1    26     2
Selective dynamics
Direct
  0.0003991643249572  0.9995611546572731  0.9922846106781475   T   T   T
  0.1149077450038430  0.2236909268875705  0.1501867071937890   T   T   T
  0.2274417360785350  0.1061785455959766  0.3067468958381188   T   T   T
  0.1244214401335088  0.2343413242698586  0.3780436446044377   T   T   T
  0.0008650182454176  0.0005803817962357  0.2304129795819693   T   T   T
  0.2228419825837480  0.1108597208209014  0.0735970131242403   T   T   T
  0.3337163990011233  0.9994660973014636  0.9930011643733746   T   T   T
  0.4415962178395935  0.2243862156417606  0.1525469891880354   T   T   T
  0.5547591380679552  0.1125382514792327  0.3061368294235067   T   T   T
  0.4692840607799475  0.1971776886049976  0.4084054408312142   T   T   T
  0.3344497400640064  0.9969257645324658  0.2289621531585498   T   T   T
  0.5542917422656083  0.1121783156878979  0.0741417689449816   T   T   T
  0.6667588492136683 -0.0003575941228921  0.9939854861322248   T   T   T
  0.7775906181384543  0.2198779077633460  0.1477313816823030   T   T   T
  0.8906040780476708  0.1116269164926255  0.3062567024675504   T   T   T
  0.7805530476237070  0.2223711739576334  0.3861703108152559   T   T   T
  0.6672731886738458 -0.0006390496623320  0.2304657028845684   T   T   T
  0.8907446329820977  0.1099290644666863  0.0737824402527413   T   T   T
  0.9994058557377746  0.3326107060928503  0.9931877887534569   T   T   T
  0.1114493451039065  0.5556473371610758  0.1478387569850436   T   T   T
  0.2130572457459392  0.4522498594290393  0.3016142998075538   T   T   T
  0.1096766431571682  0.5586947245995797  0.3874056997549019   T   T   T
  0.9960222863127430  0.3318066529330464  0.2285891778699009   T   T   T
  0.2224951523003616  0.4440832346282183  0.0725405167371501   T   T   T
  0.3339036211258123  0.3329770057212703  0.9928852862117089   T   T   T
  0.4433707847661202  0.5519246503100589  0.1503340421386735   T   T   T
  0.5624572962994255  0.4386695813396976  0.3065833476451122   T   T   T
  0.4324919623749035  0.5422296474419773  0.3765831389538936   T   T   T
  0.3300839177611740  0.3374510021138322  0.2393969872428443   T   T   T
  0.5557579922533959  0.4433305919006402  0.0739319235812123   T   T   T
  0.6665696331729948  0.3325232196233128  0.9929929030245429   T   T   T
  0.7762545745036687  0.5550824832425609  0.1498588206152867   T   T   T
  0.8893696350609783  0.4464065726456542  0.3057283137344780   T   T   T
  0.7797240009815092  0.5583498236821557  0.3876985011166699   T   T   T
  0.6699148039651103  0.3307450090463469  0.2289054770780406   T   T   T
  0.8883768031800465  0.4443236577941217  0.0733550963404628   T   T   T
  0.0000542161477645  0.6659747494084248  0.9926323776718069   T   T   T
  0.1108631382661427  0.8901566810795392  0.1495257935298575   T   T   T
  0.2205062877548075  0.7777568738076741  0.3052523194969308   T   T   T
  0.1103226583581853  0.8886273818983068  0.3874947148999542   T   T   T
  0.0003688234373756  0.6661983818434007  0.2290654467017826   T   T   T
  0.2218831343861218  0.7777210960786978  0.0731093778483267   T   T   T
  0.3341245591715018  0.6670865756835956  0.9932581359411489   T   T   T
  0.4460025536260726  0.8887041582732562  0.1481429326211455   T   T   T
  0.5558410784704407  0.7767660030976548  0.3066563693522936   T   T   T
  0.4436437233641159  0.8865982276872132  0.3856487949751642   T   T   T
  0.3346954018673518  0.6697241757756621  0.2288092475629013   T   T   T
  0.5562440671137672  0.7759652983875033  0.0740049678012010   T   T   T
  0.6667482985904470  0.6658269003816801  0.9930032386816309   T   T   T
  0.7780876949505356  0.8875308415587982  0.1496547001366068   T   T   T
  0.8898083741517386  0.7781806738835947  0.3051194063540162   T   T   T
  0.7796397208222906  0.8891806345289663  0.3862166608183669   T   T   T
  0.6660351539744710  0.6652604792182234  0.2313498991703891   T   T   T
  0.8893249828921307  0.7769598143411490  0.0732374853216675   T   T   T
  0.3080794898784797  0.3576528631056692  0.3318803389272953   T   T   T
  0.0047985551106335  0.0015797387270840  0.3449337562546373   T   T   T
  0.2231203256277153  0.1110550662572287  0.1929783683354621   T   T   T
  0.1118861424572531  0.2212767928612220  0.0334308503420393   T   T   T
  0.3314813942935394  0.9968507376565072  0.3456499068170920   T   T   T
  0.5558597089945411  0.1103110754971261  0.1898250651766639   T   T   T
  0.4441127520492359  0.2222601161812257  0.0339422419994286   T   T   T
  0.6680591204777818 -0.0010877100139116  0.3462559308384717   T   T   T
  0.8893897197437350  0.1109359609991957  0.1894768834003278   T   T   T
  0.7776931988216733  0.2216855202749749  0.0333721099460615   T   T   T
 -0.0020338498652194  0.3356579790592085  0.3450479657075929   T   T   T
  0.2207593045992592  0.4457398761983597  0.1880646383738181   T   T   T
  0.1110048465080374  0.5554024770611502  0.0321891265301306   T   T   T
  0.5556141640461424  0.4429447019580600  0.1932598675308748   T   T   T
  0.4452456437773811  0.5545798960209278  0.0337609223435810   T   T   T
  0.6704914496512775  0.3352000168430305  0.3458594273151095   T   T   T
  0.8884738059932695  0.4441887652244243  0.1884459544978466   T   T   T
  0.7769978907105631  0.5543879757704483  0.0333717205683401   T   T   T
 -0.0002559175153738  0.6678240711837529  0.3466878832998143   T   T   T
  0.2220294383944011  0.7780911490233851  0.1883712844008372   T   T   T
  0.1117082097988708  0.8893035358042398  0.0330708785809051   T   T   T
  0.3310035367846973  0.6689086156180227  0.3447199297210818   T   T   T
  0.5555976098937098  0.7769218684137423  0.1897439408434466   T   T   T
  0.4445614455742435  0.8885032965792983  0.0334222223167767   T   T   T
  0.6658636566956226  0.6621581407593499  0.3449714371266273   T   T   T
  0.8896179194333161  0.7769194455966458  0.1895344234653094   T   T   T
  0.7783310891197565  0.8879774654248347  0.0335397029918708   T   T   T
  0.3377773230607348  0.3272652914174086  0.4084226215114467   T   T   T
  0.4255888056687680  0.2408407576879268  0.4308984331860161   T   T   T
 
  0.00000000E+00  0.00000000E+00  0.00000000E+00
  0.00000000E+00  0.00000000E+00  0.00000000E+00
  0.00000000E+00  0.00000000E+00  0.00000000E+00
  0.00000000E+00  0.00000000E+00  0.00000000E+00
  0.00000000E+00  0.00000000E+00  0.00000000E+00
  0.00000000E+00  0.00000000E+00  0.00000000E+00
  0.00000000E+00  0.00000000E+00  0.00000000E+00
  0.00000000E+00  0.00000000E+00  0.00000000E+00
  0.00000000E+00  0.00000000E+00  0.00000000E+00
  0.00000000E+00  0.00000000E+00  0.00000000E+00
  0.00000000E+00  0.00000000E+00  0.00000000E+00
  0.00000000E+00  0.00000000E+00  0.00000000E+00
  0.00000000E+00  0.00000000E+00  0.00000000E+00
  0.00000000E+00  0.00000000E+00  0.00000000E+00
  0.00000000E+00  0.00000000E+00  0.00000000E+00
  0.00000000E+00  0.00000000E+00  0.00000000E+00
  0.00000000E+00  0.00000000E+00  0.00000000E+00
  0.00000000E+00  0.00000000E+00  0.00000000E+00
  0.00000000E+00  0.00000000E+00  0.00000000E+00
  0.00000000E+00  0.00000000E+00  0.00000000E+00
  0.00000000E+00  0.00000000E+00  0.00000000E+00
  0.00000000E+00  0.00000000E+00  0.00000000E+00
  0.00000000E+00  0.00000000E+00  0.00000000E+00
  0.00000000E+00  0.00000000E+00  0.00000000E+00
  0.00000000E+00  0.00000000E+00  0.00000000E+00
  0.00000000E+00  0.00000000E+00  0.00000000E+00
  0.00000000E+00  0.00000000E+00  0.00000000E+00
  0.00000000E+00  0.00000000E+00  0.00000000E+00
  0.00000000E+00  0.00000000E+00  0.00000000E+00
  0.00000000E+00  0.00000000E+00  0.00000000E+00
  0.00000000E+00  0.00000000E+00  0.00000000E+00
  0.00000000E+00  0.00000000E+00  0.00000000E+00
  0.00000000E+00  0.00000000E+00  0.00000000E+00
  0.00000000E+00  0.00000000E+00  0.00000000E+00
  0.00000000E+00  0.00000000E+00  0.00000000E+00
  0.00000000E+00  0.00000000E+00  0.00000000E+00
  0.00000000E+00  0.00000000E+00  0.00000000E+00
  0.00000000E+00  0.00000000E+00  0.00000000E+00
  0.00000000E+00  0.00000000E+00  0.00000000E+00
  0.00000000E+00  0.00000000E+00  0.00000000E+00
  0.00000000E+00  0.00000000E+00  0.00000000E+00
  0.00000000E+00  0.00000000E+00  0.00000000E+00
  0.00000000E+00  0.00000000E+00  0.00000000E+00
  0.00000000E+00  0.00000000E+00  0.00000000E+00
  0.00000000E+00  0.00000000E+00  0.00000000E+00
  0.00000000E+00  0.00000000E+00  0.00000000E+00
  0.00000000E+00  0.00000000E+00  0.00000000E+00
  0.00000000E+00  0.00000000E+00  0.00000000E+00
  0.00000000E+00  0.00000000E+00  0.00000000E+00
  0.00000000E+00  0.00000000E+00  0.00000000E+00
  0.00000000E+00  0.00000000E+00  0.00000000E+00
  0.00000000E+00  0.00000000E+00  0.00000000E+00
  0.00000000E+00  0.00000000E+00  0.00000000E+00
  0.00000000E+00  0.00000000E+00  0.00000000E+00
  0.00000000E+00  0.00000000E+00  0.00000000E+00
  0.00000000E+00  0.00000000E+00  0.00000000E+00
  0.00000000E+00  0.00000000E+00  0.00000000E+00
  0.00000000E+00  0.00000000E+00  0.00000000E+00
  0.00000000E+00  0.00000000E+00  0.00000000E+00
  0.00000000E+00  0.00000000E+00  0.00000000E+00
  0.00000000E+00  0.00000000E+00  0.00000000E+00
  0.00000000E+00  0.00000000E+00  0.00000000E+00
  0.00000000E+00  0.00000000E+00  0.00000000E+00
  0.00000000E+00  0.00000000E+00  0.00000000E+00
  0.00000000E+00  0.00000000E+00  0.00000000E+00
  0.00000000E+00  0.00000000E+00  0.00000000E+00
  0.00000000E+00  0.00000000E+00  0.00000000E+00
  0.00000000E+00  0.00000000E+00  0.00000000E+00
  0.00000000E+00  0.00000000E+00  0.00000000E+00
  0.00000000E+00  0.00000000E+00  0.00000000E+00
  0.00000000E+00  0.00000000E+00  0.00000000E+00
  0.00000000E+00  0.00000000E+00  0.00000000E+00
  0.00000000E+00  0.00000000E+00  0.00000000E+00
  0.00000000E+00  0.00000000E+00  0.00000000E+00
  0.00000000E+00  0.00000000E+00  0.00000000E+00
  0.00000000E+00  0.00000000E+00  0.00000000E+00
  0.00000000E+00  0.00000000E+00  0.00000000E+00
  0.00000000E+00  0.00000000E+00  0.00000000E+00
  0.00000000E+00  0.00000000E+00  0.00000000E+00
  0.00000000E+00  0.00000000E+00  0.00000000E+00
  0.00000000E+00  0.00000000E+00  0.00000000E+00
  0.00000000E+00  0.00000000E+00  0.00000000E+00
  0.00000000E+00  0.00000000E+00  0.00000000E+00
