CeO2-you-111-you-Sc                     
   1.00000000000000     
     9.8326612454525169   -5.6768899859489554    0.0000000004031465
     0.0178040868460068   11.3846155548790637    0.0077267615615353
     0.0086789877598365    0.0150324452169290   20.3092517152260790
   O    Sc   Ce   H 
    53     1    26     2
Selective dynamics
Direct
  0.9995797008320009  0.0000170655818650  0.9891247105591613   T   T   T
  0.1098711678834192  0.2223242135855301  0.1478115716474804   F   F   F
  0.2317131202549364  0.1180159728971718  0.3075090103248193   T   T   T
  0.1168097291784759  0.2211543312090695  0.3869027859925603   T   T   T
  0.0008694608854611 -0.0000992689204466  0.2307054819719990   T   T   T
  0.2221645121738973  0.1109960243478696  0.0700494637871572   F   F   F
  0.3340793488112969  0.0004638977605839  0.9883852388088789   T   T   T
  0.4457860457019862  0.2223242135853170  0.1478115716475088   F   F   F
  0.5515740525239384  0.1190499133319310  0.3094124912574736   T   T   T
  0.4383323062281713  0.2237197135598275  0.4036854776326108   T   T   T
  0.3323365014741089  0.9984401865866580  0.2294531815835072   T   T   T
  0.5571786586173175  0.1116887202117880  0.0713361595898192   F   F   F
  0.6667643796334474  0.9993419204041127  0.9885839407357901   T   T   T
  0.7780660716390599  0.2227981432782187  0.1520454781805540   F   F   F
  0.8888076883714717  0.1115220402286864  0.3088999421941242   T   T   T
  0.7770870591055965  0.2241681299990506  0.3903472326914881   T   T   T
  0.6641222258479232  0.9993200157884335  0.2332985715152171   T   T   T
  0.8878440615946062  0.1116887202120509  0.0713361595898689   F   F   F
  0.0003471479398581  0.3332798370135179  0.9888624301227426   T   T   T
  0.1104409966178110  0.5547083036766836  0.1486407638122600   F   F   F
  0.2337005974517017  0.4390749144582222  0.3106121945688862   T   T   T
  0.0977804466488984  0.5475048154791078  0.3918662018994954   T   T   T
  0.0036858117754772  0.3349224699635178  0.2332961574217836   T   T   T
  0.2231648752640538  0.4445969505196885  0.0719916273710552   F   F   F
  0.3329793358402761  0.3331040946798587  0.9885963166218120   T   T   T
  0.4444665958162943  0.5556011916328529  0.1505985521970032   F   F   F
  0.5393964941180796  0.4386463206276251  0.3128777521136774   T   T   T
  0.3298419038929451  0.3281067052788116  0.2299266418063059   T   T   T
  0.5547660752554791  0.4445969505196317  0.0719916273710552   F   F   F
  0.6667349379025878  0.3337554668786613  0.9887842201522317   T   T   T
  0.7776003070589326  0.5547083036765628  0.1486407638122529   F   F   F
  0.8875816217545848  0.4451579547193960  0.3076127179400467   T   T   T
  0.7762239190770143  0.5543673191128375  0.3901282525038284   T   T   T
  0.6654994185090612  0.3371346445889568  0.2325427906849351   T   T   T
  0.8880283379645704  0.4427226759291898  0.0720246507418594   F   F   F
  0.9995639607750454  0.6657502777952912  0.9886780414758385   T   T   T
  0.1108877844760769  0.8884425689517386  0.1462814760764886   F   F   F
  0.2187500176999778  0.7808465301003999  0.3085240513398454   T   T   T
  0.1126242733325336  0.8918426372070237  0.3917314515741893   T   T   T
  0.0000024149222979  0.6682333483240317  0.2303456054366542   T   T   T
  0.2225292042327141  0.7779815450838043  0.0702905666625782   F   F   F
  0.3336233729214704  0.6661864815822017  0.9887572860923061   T   T   T
  0.4459200939080290  0.8895326201168601  0.1480313944472442   F   F   F
  0.5602614880841160  0.7747093730295307  0.3110663011776213   T   T   T
  0.4517696873713164  0.9042040696224737  0.3918790628935394   T   T   T
  0.3332431561706295  0.6681981513431139  0.2299257960388350   T   T   T
  0.5548742864091167  0.7764145728181617  0.0716421617881764   F   F   F
  0.6665683745893383  0.6663677393077156  0.9887060853330387   T   T   T
  0.7769455262091540  0.8895326201171301  0.1480313944472584   F   F   F
  0.8908073144345908  0.7787350385716526  0.3087242804009527   T   T   T
  0.7810707619953626  0.8905217508516829  0.3913617424227081   T   T   T
  0.6689448722710891  0.6654449552392130  0.2312861758753036   T   T   T
  0.8887853408512072  0.7779815450838115  0.0702905666625782   F   F   F
  0.3177322703934168  0.3208079411937500  0.3338643450194559   T   T   T
  0.0042122249445833  0.0043046603841220  0.3501403991529276   T   T   T
  0.2210725826252826  0.1088121652511305  0.1872026654716237   F   F   F
  0.1110515829071517  0.2229383875821327  0.0300861678857274   F   F   F
  0.3295393941597531 -0.0043708546627230  0.3484289012626767   T   T   T
  0.5546911604982654  0.1107587013213021  0.1907654218643131   F   F   F
  0.4452198046751974  0.2229383875822961  0.0300861678857345   F   F   F
  0.6671482390568358  0.0012966411628070  0.3510339590483242   T   T   T
  0.8894015408226110  0.1107587013208899  0.1907654218642705   F   F   F
  0.7779199275125137  0.2225058550248633  0.0308268889646754   F   F   F
  0.0046586658420937  0.3329941053598209  0.3503691366692912   T   T   T
  0.2241125147136742  0.4444201899755313  0.1917148165372353   F   F   F
  0.1110316396583002  0.5549596782117590  0.0305871676041747   F   F   F
  0.5536416752627318  0.4444201899762632  0.1917148165372566   F   F   F
  0.4443654747567720  0.5553989495135170  0.0302203008862989   F   F   F
  0.6698864305500981  0.3379893358796802  0.3484461716174777   T   T   T
  0.8894427490004304  0.4455514980007393  0.1916363691154856   F   F   F
  0.7772610385534193  0.5549596782117945  0.0305871676041676   F   F   F
  0.0006471584114175  0.6666105674539144  0.3493375793401307   T   T   T
  0.2218366575885398  0.7781822681604496  0.1880551372008910   F   F   F
  0.1110517467375942  0.8887704934752279  0.0280958734312904   F   F   F
  0.3310619784186258  0.6666989705366080  0.3523688816345811   T   T   T
  0.5554907019261890  0.7776474038522991  0.1906850893910317   F   F   F
  0.4450322777611504  0.8888681977261825  0.0299253158025508   F   F   F
  0.6726169537182182  0.6695153116464136  0.3480359058083775   T   T   T
  0.8896786105716430  0.7781822681601724  0.1880551372008483   F   F   F
  0.7771689199650140  0.8888681977261399  0.0299253158025650   F   F   F
  0.4552218823114411  0.5556202002259076  0.3987901785254613   T   T   T
  0.4320722362385500  0.2328976723697999  0.4510178586418304   T   T   T
 
  0.00000000E+00  0.00000000E+00  0.00000000E+00
  0.00000000E+00  0.00000000E+00  0.00000000E+00
  0.00000000E+00  0.00000000E+00  0.00000000E+00
  0.00000000E+00  0.00000000E+00  0.00000000E+00
  0.00000000E+00  0.00000000E+00  0.00000000E+00
  0.00000000E+00  0.00000000E+00  0.00000000E+00
  0.00000000E+00  0.00000000E+00  0.00000000E+00
  0.00000000E+00  0.00000000E+00  0.00000000E+00
  0.00000000E+00  0.00000000E+00  0.00000000E+00
  0.00000000E+00  0.00000000E+00  0.00000000E+00
  0.00000000E+00  0.00000000E+00  0.00000000E+00
  0.00000000E+00  0.00000000E+00  0.00000000E+00
  0.00000000E+00  0.00000000E+00  0.00000000E+00
  0.00000000E+00  0.00000000E+00  0.00000000E+00
  0.00000000E+00  0.00000000E+00  0.00000000E+00
  0.00000000E+00  0.00000000E+00  0.00000000E+00
  0.00000000E+00  0.00000000E+00  0.00000000E+00
  0.00000000E+00  0.00000000E+00  0.00000000E+00
  0.00000000E+00  0.00000000E+00  0.00000000E+00
  0.00000000E+00  0.00000000E+00  0.00000000E+00
  0.00000000E+00  0.00000000E+00  0.00000000E+00
  0.00000000E+00  0.00000000E+00  0.00000000E+00
  0.00000000E+00  0.00000000E+00  0.00000000E+00
  0.00000000E+00  0.00000000E+00  0.00000000E+00
  0.00000000E+00  0.00000000E+00  0.00000000E+00
  0.00000000E+00  0.00000000E+00  0.00000000E+00
  0.00000000E+00  0.00000000E+00  0.00000000E+00
  0.00000000E+00  0.00000000E+00  0.00000000E+00
  0.00000000E+00  0.00000000E+00  0.00000000E+00
  0.00000000E+00  0.00000000E+00  0.00000000E+00
  0.00000000E+00  0.00000000E+00  0.00000000E+00
  0.00000000E+00  0.00000000E+00  0.00000000E+00
  0.00000000E+00  0.00000000E+00  0.00000000E+00
  0.00000000E+00  0.00000000E+00  0.00000000E+00
  0.00000000E+00  0.00000000E+00  0.00000000E+00
  0.00000000E+00  0.00000000E+00  0.00000000E+00
  0.00000000E+00  0.00000000E+00  0.00000000E+00
  0.00000000E+00  0.00000000E+00  0.00000000E+00
  0.00000000E+00  0.00000000E+00  0.00000000E+00
  0.00000000E+00  0.00000000E+00  0.00000000E+00
  0.00000000E+00  0.00000000E+00  0.00000000E+00
  0.00000000E+00  0.00000000E+00  0.00000000E+00
  0.00000000E+00  0.00000000E+00  0.00000000E+00
  0.00000000E+00  0.00000000E+00  0.00000000E+00
  0.00000000E+00  0.00000000E+00  0.00000000E+00
  0.00000000E+00  0.00000000E+00  0.00000000E+00
  0.00000000E+00  0.00000000E+00  0.00000000E+00
  0.00000000E+00  0.00000000E+00  0.00000000E+00
  0.00000000E+00  0.00000000E+00  0.00000000E+00
  0.00000000E+00  0.00000000E+00  0.00000000E+00
  0.00000000E+00  0.00000000E+00  0.00000000E+00
  0.00000000E+00  0.00000000E+00  0.00000000E+00
  0.00000000E+00  0.00000000E+00  0.00000000E+00
  0.00000000E+00  0.00000000E+00  0.00000000E+00
  0.00000000E+00  0.00000000E+00  0.00000000E+00
  0.00000000E+00  0.00000000E+00  0.00000000E+00
  0.00000000E+00  0.00000000E+00  0.00000000E+00
  0.00000000E+00  0.00000000E+00  0.00000000E+00
  0.00000000E+00  0.00000000E+00  0.00000000E+00
  0.00000000E+00  0.00000000E+00  0.00000000E+00
  0.00000000E+00  0.00000000E+00  0.00000000E+00
  0.00000000E+00  0.00000000E+00  0.00000000E+00
  0.00000000E+00  0.00000000E+00  0.00000000E+00
  0.00000000E+00  0.00000000E+00  0.00000000E+00
  0.00000000E+00  0.00000000E+00  0.00000000E+00
  0.00000000E+00  0.00000000E+00  0.00000000E+00
  0.00000000E+00  0.00000000E+00  0.00000000E+00
  0.00000000E+00  0.00000000E+00  0.00000000E+00
  0.00000000E+00  0.00000000E+00  0.00000000E+00
  0.00000000E+00  0.00000000E+00  0.00000000E+00
  0.00000000E+00  0.00000000E+00  0.00000000E+00
  0.00000000E+00  0.00000000E+00  0.00000000E+00
  0.00000000E+00  0.00000000E+00  0.00000000E+00
  0.00000000E+00  0.00000000E+00  0.00000000E+00
  0.00000000E+00  0.00000000E+00  0.00000000E+00
  0.00000000E+00  0.00000000E+00  0.00000000E+00
  0.00000000E+00  0.00000000E+00  0.00000000E+00
  0.00000000E+00  0.00000000E+00  0.00000000E+00
  0.00000000E+00  0.00000000E+00  0.00000000E+00
  0.00000000E+00  0.00000000E+00  0.00000000E+00
  0.00000000E+00  0.00000000E+00  0.00000000E+00
  0.00000000E+00  0.00000000E+00  0.00000000E+00
