CeO2-you-111-you-Ca                     
   1.00000000000000     
     9.8910193092532470   -5.7105830328077083   -0.0000000006558130
    -0.0187166544351973   11.3887458614058747   -0.0125729081577887
    -0.0133531437879638   -0.0231283195685642   21.2000506380323905
   O    Ca   Ce H
    53     1    26 1
Selective dynamics
Direct
  0.0001154911518938  0.0000206916338477  0.9972942247212291   T   T   T
  0.1090735198072917  0.2224636961475902  0.1498078498754747   T   T   T
  0.2181342189411152  0.1029354378818928  0.3010509266394817   T   T   T
  0.0957967917733515  0.2156445250866907  0.3818864787524055   T   T   T
 -0.0012257142456784  0.0001877272850890  0.2274689818798945   T   T   T
  0.2225354268937033  0.1117378537873300  0.0758386379103590   T   T   T
  0.3332382004820047  0.0000206916338162  0.9972942247212285   T   T   T
  0.4467231763400777  0.2224636961473231  0.1498078498754788   T   T   T
  0.5584822307595797  0.1100885691500827  0.3014221999175918   T   T   T
  0.4531807333135486  0.2156445250873476  0.3818864787525540   T   T   T
  0.3347464415309931  0.0001877272846710  0.2274689818798951   T   T   T
  0.5570427979757192  0.1113545060657677  0.0758161019484718   T   T   T
  0.6664173407724782 -0.0004993184550323  0.9967823643768144   T   T   T
  0.7774919056235534  0.2216498112471760  0.1530860716181776   T   T   T
  0.8849403383911149  0.1100885691507428  0.3014221999176133   T   T   T
  0.7762998700405646  0.2192657400808581  0.3819919970298813   T   T   T
  0.6615911941054926 -0.0101516117892453  0.2309765882619688   T   T   T
  0.8876457080901227  0.1113545060658909  0.0758161019484757   T   T   T
  0.0002058067355705  0.3331394140990715  0.9980611625926551   T   T   T
  0.1100502386710965  0.5540702207878606  0.1499857556700525   T   T   T
  0.2371128039861001  0.4575881253333248  0.3095171090749494   T   T   T
  0.1108415852956239  0.5611184809117339  0.3827615523547890   T   T   T
  0.0064298499569838  0.3364936527834201  0.2313121000843462   T   T   T
  0.2232798335473093  0.4446040910411984  0.0767745131849484   T   T   T
  0.3331773978472647  0.3330217956945843  0.9978650647168351   T   T   T
  0.4454926577762671  0.5576533155529085  0.1510135798114593   T   T   T
  0.5538093213458798  0.4575881253329483  0.3095171090748942   T   T   T
  0.3328836191951376  0.3324342383906849  0.2251132283745655   T   T   T
  0.5546582574937391  0.4446040910410746  0.0767745131849499   T   T   T
  0.6662676073634073  0.3331394140990023  0.9980611625926561   T   T   T
  0.7773529821165082  0.5540702207876471  0.1499857556700376   T   T   T
  0.8884601304119685  0.4435862608241360  0.3038882309752176   T   T   T
  0.7836098956159802  0.5611184809124024  0.3827615523547364   T   T   T
  0.6633978028261738  0.3364936527830182  0.2313121000843502   T   T   T
  0.8880748320421232  0.4428156640842766  0.0766017828646499   T   T   T
 -0.0001970661902676  0.6662728676193800  0.9978033036988156   T   T   T
  0.1112677628920067  0.8892025257836298  0.1483868541517132   T   T   T
  0.2191002142259260  0.7804177022768517  0.3012907388879061   T   T   T
  0.1110096647803840  0.8886863295602523  0.3835373546250125   T   T   T
  0.0000623961581047  0.6667917923161759  0.2280264927779628   T   T   T
  0.2222321462248749  0.7776056054245892  0.0753858736648953   T   T   T
  0.3331039595805433  0.6660447752467334  0.9977822827464798   T   T   T
  0.4455248664892840  0.8895570420949022  0.1487795062626718   T   T   T
  0.5441453925126083  0.7549567850249866  0.3116856890570652   T   T   T
  0.4423522512767932  0.8892019660102293  0.3803549610889822   T   T   T
  0.3327801005125456  0.6711966101099378  0.2278327481476396   T   T   T
  0.5554143527458987  0.7774947054917832  0.0759864675245462   T   T   T
  0.6662738156661959  0.6660447752467068  0.9977822827464795   T   T   T
  0.7773651756058833  0.8895570420951050  0.1487795062626737   T   T   T
  0.8946504880522652  0.7804177022781009  0.3012907388879010   T   T   T
  0.7801827147346144  0.8892019660106795  0.3803549610889441   T   T   T
  0.6717495095974169  0.6711966101102835  0.2278327481476221   T   T   T
  0.8887064591998044  0.7776056054245896  0.0753858736648906   T   T   T
  0.3247909377729427  0.3162488755448719  0.3373675517037256   T   T   T
  0.0039981996484933  0.0050239258931130  0.3425314101876163   T   T   T
  0.2227570005201336  0.1121810010410703  0.1892995543315515   T   T   T
  0.1112045139211598  0.2223904954628526  0.0373037141853717   T   T   T
  0.3343587262436857  0.0050239258946518  0.3425314101875880   T   T   T
  0.5548017566529619  0.1106009921897982  0.1900438557947890   T   T   T
  0.4445189815417480  0.2223904954629653  0.0373037141853658   T   T   T
  0.6664893419945114 -0.0003553160089405  0.3428130615169280   T   T   T
  0.8891332355360785  0.1106009921889755  0.1900438557947783   T   T   T
  0.7776293427150940  0.2219246854301282  0.0372565953888467   T   T   T
  0.0015252280618901  0.3319050263662085  0.3434811903359458   T   T   T
  0.2238013107396019  0.4443645643676457  0.1910732534039265   T   T   T
  0.1106971586039961  0.5544245083080183  0.0373118579885370   T   T   T
  0.5538972536294383  0.4443645643681579  0.1910732534038783   T   T   T
  0.4441082108541245  0.5548844217081517  0.0368700239171412   T   T   T
  0.6637137983052179  0.3319050263663253  0.3434811903358325   T   T   T
  0.8892084711133010  0.4450829422262855  0.1911552142553241   T   T   T
  0.7770603497040538  0.5544245083081006  0.0373118579885307   T   T   T
  0.0007491761939024  0.6681653523881101  0.3434036325208714   T   T   T
  0.2214492137796991  0.7790279931402678  0.1870486367370119   T   T   T
  0.1112530414044354  0.8891730828090475  0.0354902677588099   T   T   T
  0.3217782958814086  0.6736724796859661  0.3377969559288746   T   T   T
  0.5551559139042349  0.7769778278084816  0.1886349572429473   T   T   T
  0.4448408513358535  0.8889460800739850  0.0362507380571961   T   T   T
  0.6852271838051244  0.6736724796858015  0.3377969559292189   T   T   T
  0.8909117793599085  0.7790279931399477  0.1870486367370133   T   T   T
  0.7774382287380612  0.8889460800739634  0.0362507380571967   T   T   T
0.446598 0.216020 0.433410 T T T 
 
  0.00000000E+00  0.00000000E+00  0.00000000E+00
  0.00000000E+00  0.00000000E+00  0.00000000E+00
  0.00000000E+00  0.00000000E+00  0.00000000E+00
  0.00000000E+00  0.00000000E+00  0.00000000E+00
  0.00000000E+00  0.00000000E+00  0.00000000E+00
  0.00000000E+00  0.00000000E+00  0.00000000E+00
  0.00000000E+00  0.00000000E+00  0.00000000E+00
  0.00000000E+00  0.00000000E+00  0.00000000E+00
  0.00000000E+00  0.00000000E+00  0.00000000E+00
  0.00000000E+00  0.00000000E+00  0.00000000E+00
  0.00000000E+00  0.00000000E+00  0.00000000E+00
  0.00000000E+00  0.00000000E+00  0.00000000E+00
  0.00000000E+00  0.00000000E+00  0.00000000E+00
  0.00000000E+00  0.00000000E+00  0.00000000E+00
  0.00000000E+00  0.00000000E+00  0.00000000E+00
  0.00000000E+00  0.00000000E+00  0.00000000E+00
  0.00000000E+00  0.00000000E+00  0.00000000E+00
  0.00000000E+00  0.00000000E+00  0.00000000E+00
  0.00000000E+00  0.00000000E+00  0.00000000E+00
  0.00000000E+00  0.00000000E+00  0.00000000E+00
  0.00000000E+00  0.00000000E+00  0.00000000E+00
  0.00000000E+00  0.00000000E+00  0.00000000E+00
  0.00000000E+00  0.00000000E+00  0.00000000E+00
  0.00000000E+00  0.00000000E+00  0.00000000E+00
  0.00000000E+00  0.00000000E+00  0.00000000E+00
  0.00000000E+00  0.00000000E+00  0.00000000E+00
  0.00000000E+00  0.00000000E+00  0.00000000E+00
  0.00000000E+00  0.00000000E+00  0.00000000E+00
  0.00000000E+00  0.00000000E+00  0.00000000E+00
  0.00000000E+00  0.00000000E+00  0.00000000E+00
  0.00000000E+00  0.00000000E+00  0.00000000E+00
  0.00000000E+00  0.00000000E+00  0.00000000E+00
  0.00000000E+00  0.00000000E+00  0.00000000E+00
  0.00000000E+00  0.00000000E+00  0.00000000E+00
  0.00000000E+00  0.00000000E+00  0.00000000E+00
  0.00000000E+00  0.00000000E+00  0.00000000E+00
  0.00000000E+00  0.00000000E+00  0.00000000E+00
  0.00000000E+00  0.00000000E+00  0.00000000E+00
  0.00000000E+00  0.00000000E+00  0.00000000E+00
  0.00000000E+00  0.00000000E+00  0.00000000E+00
  0.00000000E+00  0.00000000E+00  0.00000000E+00
  0.00000000E+00  0.00000000E+00  0.00000000E+00
  0.00000000E+00  0.00000000E+00  0.00000000E+00
  0.00000000E+00  0.00000000E+00  0.00000000E+00
  0.00000000E+00  0.00000000E+00  0.00000000E+00
  0.00000000E+00  0.00000000E+00  0.00000000E+00
  0.00000000E+00  0.00000000E+00  0.00000000E+00
  0.00000000E+00  0.00000000E+00  0.00000000E+00
  0.00000000E+00  0.00000000E+00  0.00000000E+00
  0.00000000E+00  0.00000000E+00  0.00000000E+00
  0.00000000E+00  0.00000000E+00  0.00000000E+00
  0.00000000E+00  0.00000000E+00  0.00000000E+00
  0.00000000E+00  0.00000000E+00  0.00000000E+00
  0.00000000E+00  0.00000000E+00  0.00000000E+00
  0.00000000E+00  0.00000000E+00  0.00000000E+00
  0.00000000E+00  0.00000000E+00  0.00000000E+00
  0.00000000E+00  0.00000000E+00  0.00000000E+00
  0.00000000E+00  0.00000000E+00  0.00000000E+00
  0.00000000E+00  0.00000000E+00  0.00000000E+00
  0.00000000E+00  0.00000000E+00  0.00000000E+00
  0.00000000E+00  0.00000000E+00  0.00000000E+00
  0.00000000E+00  0.00000000E+00  0.00000000E+00
  0.00000000E+00  0.00000000E+00  0.00000000E+00
  0.00000000E+00  0.00000000E+00  0.00000000E+00
  0.00000000E+00  0.00000000E+00  0.00000000E+00
  0.00000000E+00  0.00000000E+00  0.00000000E+00
  0.00000000E+00  0.00000000E+00  0.00000000E+00
  0.00000000E+00  0.00000000E+00  0.00000000E+00
  0.00000000E+00  0.00000000E+00  0.00000000E+00
  0.00000000E+00  0.00000000E+00  0.00000000E+00
  0.00000000E+00  0.00000000E+00  0.00000000E+00
  0.00000000E+00  0.00000000E+00  0.00000000E+00
  0.00000000E+00  0.00000000E+00  0.00000000E+00
  0.00000000E+00  0.00000000E+00  0.00000000E+00
  0.00000000E+00  0.00000000E+00  0.00000000E+00
  0.00000000E+00  0.00000000E+00  0.00000000E+00
  0.00000000E+00  0.00000000E+00  0.00000000E+00
  0.00000000E+00  0.00000000E+00  0.00000000E+00
  0.00000000E+00  0.00000000E+00  0.00000000E+00
  0.00000000E+00  0.00000000E+00  0.00000000E+00
