CeO2-you-111-you-Ir                     
   1.00000000000000     
     9.8507512437236411   -5.6719206299868103   -0.0021654055961505
    -0.0000000004961807   11.3438392628842966    0.0000000003772081
    -0.0035056149597278    0.0000000005414563   21.0795775007116006
   O    Ir   Ce   H 
    53     1    26     1
Selective dynamics
Direct
  0.9996230721663895  0.0008419155953519  0.9952480805443359   T   T   T
  0.1218805774787789  0.2271668009699197  0.1520291544032788   T   T   T
  0.2191139112246195  0.1175378570380096  0.3019558474972831   T   T   T
  0.1358071969441840  0.2284301356605853  0.3900816291009757   T   T   T
 -0.0000760385283086  0.0005934129446553  0.2280976016917233   T   T   T
  0.2212904266281687  0.1098934288867594  0.0740812115965908   T   T   T
  0.3338726491656325  0.9998946632828303  0.9949406323860560   T   T   T
  0.4427159064674573  0.2202874352735386  0.1469055136796550   T   T   T
  0.5482405372383152  0.1081776632187121  0.3049927955250351   T   T   T
  0.4198282762526181  0.2398855532796334  0.3834996305762696   T   T   T
  0.3307069856674067 -0.0012553533080694  0.2298276339970641   T   T   T
  0.5552297426020285  0.1097114482078544  0.0749928480845165   T   T   T
  0.6697965588466331  0.0013341309125340  0.9961537258295136   T   T   T
  0.7741141968339211  0.2236571784372114  0.1509395956954855   T   T   T
  0.8960709005858334  0.1148522843689583  0.3053539799538158   T   T   T
  0.7813553961102780  0.2178837763166756  0.3874286417043221   T   T   T
  0.6698182063728445  0.0045472210089412  0.2305130091285031   T   T   T
  0.8917125593312321  0.1119901401185905  0.0781398826560005   T   T   T
  0.9990913190209970  0.3307792413184324  0.9953624789593264   T   T   T
  0.1119223124676246  0.5552905194403461  0.1493219863825447   T   T   T
  0.2120693138495582  0.4201859530661435  0.3005868096609083   T   T   T
  0.1011857540183226  0.5443832134285573  0.3855515852495071   T   T   T
  0.9988310367976685  0.3329831302411626  0.2265674626699482   T   T   T
  0.2222365772291904  0.4451149613006540  0.0734032016510648   T   T   T
  0.3323934961558019  0.3324823165785809  0.9945717618291997   T   T   T
  0.4435067406444556  0.5553053397131403  0.1472129267371136   T   T   T
  0.4348013204513215  0.5030346793576373  0.3632824693610407   T   T   T
  0.3683301780638551  0.3476097094343407  0.2402926825098008   T   T   T
  0.5565377834410696  0.4443143380369234  0.0711453417096482   T   T   T
  0.6683536889406653  0.3319814191406811  0.9948411727898617   T   T   T
  0.7806342244416886  0.5575763470256347  0.1460968791035984   T   T   T
  0.8931896231981999  0.4415362508147648  0.3027103935638451   T   T   T
  0.7870688579491227  0.5585571281596875  0.3845853274323166   T   T   T
  0.6607057750838234  0.3420579351105703  0.2324056742228078   T   T   T
  0.8905373560817820  0.4448857929148539  0.0741390589492441   T   T   T
  0.0008859209821393  0.6676387728417307  0.9947042928047636   T   T   T
  0.1117639293552120  0.8889213904108829  0.1503550324053879   T   T   T
  0.2196874487265829  0.7747990317886957  0.3033208498065537   T   T   T
  0.1172711361616213  0.8913293577596858  0.3843352613670170   T   T   T
  0.9977702452314132  0.6644609305407668  0.2289088450469533   T   T   T
  0.2232935704022100  0.7783713985795648  0.0750240816640488   T   T   T
  0.3342742190261082  0.6678948507778479  0.9945682195491852   T   T   T
  0.4454145119373373  0.8884405906339448  0.1521881408650351   T   T   T
  0.5599798658048094  0.7857338378743506  0.3054139578608053   T   T   T
  0.4450045202503379  0.8981414790926476  0.3875039089128914   T   T   T
  0.3318620779894071  0.6612823526486041  0.2295890722403470   T   T   T
  0.5554403996589552  0.7785516140813173  0.0750847137244159   T   T   T
  0.6684656365008107  0.6694465907460515  0.9950389060890489   T   T   T
  0.7737912175803816  0.8843615425019143  0.1522140996388791   T   T   T
  0.8975121687109878  0.7850102673029898  0.3041921146402962   T   T   T
  0.7867718991011886  0.9025850757951344  0.3882747275255180   T   T   T
  0.6620747351345772  0.6518105144218376  0.2329682391445462   T   T   T
  0.8905304333116655  0.7803608782055359  0.0748837681192831   T   T   T
  0.3015013385778180  0.3179196509630752  0.3351406945421861   T   T   T
  0.0029344736388174  0.0011448103923766  0.3450400573072502   T   T   T
  0.2238680311422893  0.1109165111541800  0.1900282279531327   T   T   T
  0.1119234145969359  0.2221905822202196  0.0349530429925864   T   T   T
  0.3289157728791633 -0.0111195354001199  0.3424467440320892   T   T   T
  0.5551024925781943  0.1121917390829751  0.1914908927024470   T   T   T
  0.4439905075692737  0.2200393797171615  0.0333359472401222   T   T   T
  0.6664406046087840  0.0004717885703155  0.3459085208926954   T   T   T
  0.8899981744374315  0.1120354449903725  0.1909358754456290   T   T   T
  0.7781991758601647  0.2221973861699066  0.0359893676546171   T   T   T
 -0.0009814261374448  0.3323632303399925  0.3450351592535107   T   T   T
  0.2240357252145110  0.4454088805996585  0.1890437973180934   T   T   T
  0.1113602332934355  0.5553605790551290  0.0349230249544330   T   T   T
  0.5589457050627571  0.4462116101083115  0.1815325432848878   T   T   T
  0.4444575194671083  0.5573156412473029  0.0334740791450750   T   T   T
  0.6751110656077619  0.3326076325284181  0.3485636167475263   T   T   T
  0.8883599908624886  0.4442643137532241  0.1899033086272101   T   T   T
  0.7803573126752589  0.5570789569810314  0.0332507737191946   T   T   T
 -0.0007629655275577  0.6632353401018086  0.3441818292034521   T   T   T
  0.2215030505119119  0.7756574059306427  0.1895340906267442   T   T   T
  0.1111658949806965  0.8895709427631641  0.0355128316271708   T   T   T
  0.3324343917313261  0.6588987569329886  0.3460335720067784   T   T   T
  0.5555943453547765  0.7764523072185542  0.1931310182200019   T   T   T
  0.4457509095275017  0.8892363321422994  0.0363402557860937   T   T   T
  0.6746214918243216  0.6759264883115003  0.3496041788714411   T   T   T
  0.8889653696017337  0.7775562010219972  0.1910526403211096   T   T   T
  0.7781805875496877  0.8892505582755830  0.0364769840772022   T   T   T
  0.4047784574219357  0.2545446215296125  0.4276440672102706   T   T   T
 
  0.00000000E+00  0.00000000E+00  0.00000000E+00
  0.00000000E+00  0.00000000E+00  0.00000000E+00
  0.00000000E+00  0.00000000E+00  0.00000000E+00
  0.00000000E+00  0.00000000E+00  0.00000000E+00
  0.00000000E+00  0.00000000E+00  0.00000000E+00
  0.00000000E+00  0.00000000E+00  0.00000000E+00
  0.00000000E+00  0.00000000E+00  0.00000000E+00
  0.00000000E+00  0.00000000E+00  0.00000000E+00
  0.00000000E+00  0.00000000E+00  0.00000000E+00
  0.00000000E+00  0.00000000E+00  0.00000000E+00
  0.00000000E+00  0.00000000E+00  0.00000000E+00
  0.00000000E+00  0.00000000E+00  0.00000000E+00
  0.00000000E+00  0.00000000E+00  0.00000000E+00
  0.00000000E+00  0.00000000E+00  0.00000000E+00
  0.00000000E+00  0.00000000E+00  0.00000000E+00
  0.00000000E+00  0.00000000E+00  0.00000000E+00
  0.00000000E+00  0.00000000E+00  0.00000000E+00
  0.00000000E+00  0.00000000E+00  0.00000000E+00
  0.00000000E+00  0.00000000E+00  0.00000000E+00
  0.00000000E+00  0.00000000E+00  0.00000000E+00
  0.00000000E+00  0.00000000E+00  0.00000000E+00
  0.00000000E+00  0.00000000E+00  0.00000000E+00
  0.00000000E+00  0.00000000E+00  0.00000000E+00
  0.00000000E+00  0.00000000E+00  0.00000000E+00
  0.00000000E+00  0.00000000E+00  0.00000000E+00
  0.00000000E+00  0.00000000E+00  0.00000000E+00
  0.00000000E+00  0.00000000E+00  0.00000000E+00
  0.00000000E+00  0.00000000E+00  0.00000000E+00
  0.00000000E+00  0.00000000E+00  0.00000000E+00
  0.00000000E+00  0.00000000E+00  0.00000000E+00
  0.00000000E+00  0.00000000E+00  0.00000000E+00
  0.00000000E+00  0.00000000E+00  0.00000000E+00
  0.00000000E+00  0.00000000E+00  0.00000000E+00
  0.00000000E+00  0.00000000E+00  0.00000000E+00
  0.00000000E+00  0.00000000E+00  0.00000000E+00
  0.00000000E+00  0.00000000E+00  0.00000000E+00
  0.00000000E+00  0.00000000E+00  0.00000000E+00
  0.00000000E+00  0.00000000E+00  0.00000000E+00
  0.00000000E+00  0.00000000E+00  0.00000000E+00
  0.00000000E+00  0.00000000E+00  0.00000000E+00
  0.00000000E+00  0.00000000E+00  0.00000000E+00
  0.00000000E+00  0.00000000E+00  0.00000000E+00
  0.00000000E+00  0.00000000E+00  0.00000000E+00
  0.00000000E+00  0.00000000E+00  0.00000000E+00
  0.00000000E+00  0.00000000E+00  0.00000000E+00
  0.00000000E+00  0.00000000E+00  0.00000000E+00
  0.00000000E+00  0.00000000E+00  0.00000000E+00
  0.00000000E+00  0.00000000E+00  0.00000000E+00
  0.00000000E+00  0.00000000E+00  0.00000000E+00
  0.00000000E+00  0.00000000E+00  0.00000000E+00
  0.00000000E+00  0.00000000E+00  0.00000000E+00
  0.00000000E+00  0.00000000E+00  0.00000000E+00
  0.00000000E+00  0.00000000E+00  0.00000000E+00
  0.00000000E+00  0.00000000E+00  0.00000000E+00
  0.00000000E+00  0.00000000E+00  0.00000000E+00
  0.00000000E+00  0.00000000E+00  0.00000000E+00
  0.00000000E+00  0.00000000E+00  0.00000000E+00
  0.00000000E+00  0.00000000E+00  0.00000000E+00
  0.00000000E+00  0.00000000E+00  0.00000000E+00
  0.00000000E+00  0.00000000E+00  0.00000000E+00
  0.00000000E+00  0.00000000E+00  0.00000000E+00
  0.00000000E+00  0.00000000E+00  0.00000000E+00
  0.00000000E+00  0.00000000E+00  0.00000000E+00
  0.00000000E+00  0.00000000E+00  0.00000000E+00
  0.00000000E+00  0.00000000E+00  0.00000000E+00
  0.00000000E+00  0.00000000E+00  0.00000000E+00
  0.00000000E+00  0.00000000E+00  0.00000000E+00
  0.00000000E+00  0.00000000E+00  0.00000000E+00
  0.00000000E+00  0.00000000E+00  0.00000000E+00
  0.00000000E+00  0.00000000E+00  0.00000000E+00
  0.00000000E+00  0.00000000E+00  0.00000000E+00
  0.00000000E+00  0.00000000E+00  0.00000000E+00
  0.00000000E+00  0.00000000E+00  0.00000000E+00
  0.00000000E+00  0.00000000E+00  0.00000000E+00
  0.00000000E+00  0.00000000E+00  0.00000000E+00
  0.00000000E+00  0.00000000E+00  0.00000000E+00
  0.00000000E+00  0.00000000E+00  0.00000000E+00
  0.00000000E+00  0.00000000E+00  0.00000000E+00
  0.00000000E+00  0.00000000E+00  0.00000000E+00
  0.00000000E+00  0.00000000E+00  0.00000000E+00
  0.00000000E+00  0.00000000E+00  0.00000000E+00
