CeO2-you-111-you-Mg                     
   1.00000000000000     
     9.8828738044470139   -5.7058802256271139   -0.0000000010014606
    -0.0350296041297741   11.3510853928573763   -0.0192147653297935
    -0.0214788428026893   -0.0372024407191492   20.4152170502013242
   O    Mg   Ce   H 
    53     1    26     2
Selective dynamics
Direct
  0.9999488314452351  0.0002436743122794  0.9893411721336165   T   T   T
  0.1081243296647898  0.2211839707816665  0.1477857871320865   F   F   F
  0.2357252176837252  0.1261573552182820  0.3119106916186526   T   T   T
  0.0818429378077345  0.2079589736577571  0.3947065989607563   T   T   T
  0.0046917553125997  0.0021142306962179  0.2310592783579366   T   T   T
  0.2223100716004112  0.1112871432006983  0.0708063441193048   F   F   F
  0.3340998777055073  0.0004164765061020  0.9888940312368616   T   T   T
  0.4463926411167378  0.2211839707814391  0.1477857871320793   F   F   F
  0.5509784807117774  0.1151142658026096  0.3082476975679929   T   T   T
  0.4668677969535312  0.2019344394273938  0.4129645695792407   T   T   T
  0.3303497903844419 -0.0004339156593055  0.2301956156175154   T   T   T
  0.5573343829565189  0.1110500602142679  0.0715900712745992   F   F   F
  0.6668218050950726  0.9991527355219006  0.9887561495479820   T   T   T
  0.7774975355163321  0.2216610710330187  0.1526399396708484   F   F   F
  0.8848687102473011  0.1079736362750215  0.3053923667770394   T   T   T
  0.7766048608310900  0.2217661333880113  0.3880527392515745   T   T   T
  0.6617430680800381  0.9963401077099973  0.2323432257117839   T   T   T
  0.8870496772574867  0.1110500602141897  0.0715900712745778   F   F   F
  0.0001066483714813  0.3328278989416116  0.9895797652088453   T   T   T
  0.1097790377766685  0.5551503848508048  0.1483827698725406   F   F   F
  0.2370026550968067  0.4445096913277140  0.3128912411994891   T   T   T
  0.1126696599802912  0.5583050268713258  0.3890387339514855   T   T   T
  0.0052573466290967  0.3362723947043962  0.2329275124687381   T   T   T
  0.2222702025906571  0.4441701273576086  0.0722812763389484   F   F   F
  0.3331430016057534  0.3332744768709923  0.9896957539812911   T   T   T
  0.4458096282990383  0.5582872565987813  0.1481120649957859   F   F   F
  0.5378019604912422  0.4372860721622941  0.3171265721422911   T   T   T
  0.3336443315776467  0.3339783461752575  0.2235859287258019   T   T   T
  0.5552339247670588  0.4441701273574168  0.0722812763389342   F   F   F
  0.6663442324407618  0.3328231962034911  0.9895683299071616   T   T   T
  0.7787043470738553  0.5551503848504424  0.1483827698725548   F   F   F
  0.8897681056684601  0.4462240199996481  0.3081667469413101   T   T   T
  0.7793220068421908  0.5566374225037206  0.3896727282862933   T   T   T
  0.6658653405147018  0.3379407609681704  0.2327050928614995   T   T   T
  0.8876968063995463  0.4420596127987082  0.0722283329055671   F   F   F
  0.9989406482084231  0.6648071279428887  0.9895976396484962   T   T   T
  0.1110697995233139  0.8888065990457363  0.1464888073435731   F   F   F
  0.2201668210486960  0.7779557301468738  0.3063800094829726   T   T   T
  0.1136974167684149  0.8909388694123307  0.3899232900034367   T   T   T
  0.0003498040179436  0.6687998553683688  0.2301602422848816   T   T   T
  0.2224849179359225  0.7784603632271612  0.0703708013320181   F   F   F
  0.3333382313466703  0.6658891587104221  0.9897278029670036   T   T   T
  0.4437659763857127  0.8883159532236178  0.1483589546741939   F   F   F
  0.5517519840736494  0.7687588316817849  0.3083623885708381   T   T   T
  0.4425694931590127  0.8876014564662890  0.3871526939033792   T   T   T
  0.3312980489238573  0.6663496208761268  0.2299536541891261   T   T   T
  0.5559877436120786  0.7786414872239931  0.0717671404471218   F   F   F
  0.6659713480738408  0.6655659783115989  0.9896961476714836   T   T   T
  0.7778829768379012  0.8883159532233975  0.1483589546742223   F   F   F
  0.8901668421436171  0.7789940695194699  0.3076228910723925   T   T   T
  0.7753668178378247  0.8882438766260109  0.3889537283883408   T   T   T
  0.6676950789302244  0.6640863889001246  0.2309967928992071   T   T   T
  0.8893084452913911  0.7784603632269054  0.0703708013319684   F   F   F
  0.3291590640793239  0.3326102755863035  0.3231412982782021   T   T   T
  0.0031683515719687  0.0065389926534312  0.3500754069827358   T   T   T
  0.2226739923865608  0.1120149847741416  0.1894036118576850   F   F   F
  0.1105185702145235  0.2217607895418823  0.0305419587735756   F   F   F
  0.3292060928105811 -0.0015862746733489  0.3481956076786942   T   T   T
  0.5545532054690341  0.1105437405606438  0.1907916370435032   F   F   F
  0.4445752193274686  0.2217607895418183  0.0305419587735543   F   F   F
  0.6652282704100828 -0.0007854115408872  0.3489132989498779   T   T   T
  0.8893245350910348  0.1105437405596916  0.1907916370434677   F   F   F
  0.7773990611783361  0.2214641223562310  0.0311567000458552   F   F   F
  0.0037845884617949  0.3311691909850342  0.3505485417329978   T   T   T
  0.2227133116582536  0.4442994318670301  0.1893276189924933   F   F   F
  0.1100041877042202  0.5543017155721017  0.0310231225199686   F   F   F
  0.5549201202098502  0.4442994318676767  0.1893276189925643   F   F   F
  0.4442156853835684  0.5550993707674081  0.0304487102906279   F   F   F
  0.6700143976715078  0.3373706594260961  0.3494438478806404   T   T   T
  0.8890041208208288  0.4446742416410601  0.1922536799791459   F   F   F
  0.7776305278678777  0.5543017155722509  0.0310231225200042   F   F   F
  0.0011555020823570  0.6684627765356573  0.3481954240390404   T   T   T
  0.2216566196251861  0.7793063512229352  0.1877464443441426   F   F   F
  0.1111512444254288  0.8889694888509752  0.0292167568554262   F   F   F
  0.3290460814009100  0.6664944347464264  0.3465501054077076   T   T   T
  0.5548357973101758  0.7763375946204434  0.1893335210096510   F   F   F
  0.4446998573282102  0.8886475358890209  0.0302142321151493   F   F   F
  0.6715072154118271  0.6685786480376590  0.3472549285688722   T   T   T
  0.8909827315969778  0.7793063512227576  0.1877464443441852   F   F   F
  0.7772806785608140  0.8886475358890635  0.0302142321151138   F   F   F
  0.4637922188362940  0.5942563698409148  0.4006446644098770   T   T   T
  0.4374264939149936  0.2300384918027066  0.4516636827083521   T   T   T
 
  0.00000000E+00  0.00000000E+00  0.00000000E+00
  0.00000000E+00  0.00000000E+00  0.00000000E+00
  0.00000000E+00  0.00000000E+00  0.00000000E+00
  0.00000000E+00  0.00000000E+00  0.00000000E+00
  0.00000000E+00  0.00000000E+00  0.00000000E+00
  0.00000000E+00  0.00000000E+00  0.00000000E+00
  0.00000000E+00  0.00000000E+00  0.00000000E+00
  0.00000000E+00  0.00000000E+00  0.00000000E+00
  0.00000000E+00  0.00000000E+00  0.00000000E+00
  0.00000000E+00  0.00000000E+00  0.00000000E+00
  0.00000000E+00  0.00000000E+00  0.00000000E+00
  0.00000000E+00  0.00000000E+00  0.00000000E+00
  0.00000000E+00  0.00000000E+00  0.00000000E+00
  0.00000000E+00  0.00000000E+00  0.00000000E+00
  0.00000000E+00  0.00000000E+00  0.00000000E+00
  0.00000000E+00  0.00000000E+00  0.00000000E+00
  0.00000000E+00  0.00000000E+00  0.00000000E+00
  0.00000000E+00  0.00000000E+00  0.00000000E+00
  0.00000000E+00  0.00000000E+00  0.00000000E+00
  0.00000000E+00  0.00000000E+00  0.00000000E+00
  0.00000000E+00  0.00000000E+00  0.00000000E+00
  0.00000000E+00  0.00000000E+00  0.00000000E+00
  0.00000000E+00  0.00000000E+00  0.00000000E+00
  0.00000000E+00  0.00000000E+00  0.00000000E+00
  0.00000000E+00  0.00000000E+00  0.00000000E+00
  0.00000000E+00  0.00000000E+00  0.00000000E+00
  0.00000000E+00  0.00000000E+00  0.00000000E+00
  0.00000000E+00  0.00000000E+00  0.00000000E+00
  0.00000000E+00  0.00000000E+00  0.00000000E+00
  0.00000000E+00  0.00000000E+00  0.00000000E+00
  0.00000000E+00  0.00000000E+00  0.00000000E+00
  0.00000000E+00  0.00000000E+00  0.00000000E+00
  0.00000000E+00  0.00000000E+00  0.00000000E+00
  0.00000000E+00  0.00000000E+00  0.00000000E+00
  0.00000000E+00  0.00000000E+00  0.00000000E+00
  0.00000000E+00  0.00000000E+00  0.00000000E+00
  0.00000000E+00  0.00000000E+00  0.00000000E+00
  0.00000000E+00  0.00000000E+00  0.00000000E+00
  0.00000000E+00  0.00000000E+00  0.00000000E+00
  0.00000000E+00  0.00000000E+00  0.00000000E+00
  0.00000000E+00  0.00000000E+00  0.00000000E+00
  0.00000000E+00  0.00000000E+00  0.00000000E+00
  0.00000000E+00  0.00000000E+00  0.00000000E+00
  0.00000000E+00  0.00000000E+00  0.00000000E+00
  0.00000000E+00  0.00000000E+00  0.00000000E+00
  0.00000000E+00  0.00000000E+00  0.00000000E+00
  0.00000000E+00  0.00000000E+00  0.00000000E+00
  0.00000000E+00  0.00000000E+00  0.00000000E+00
  0.00000000E+00  0.00000000E+00  0.00000000E+00
  0.00000000E+00  0.00000000E+00  0.00000000E+00
  0.00000000E+00  0.00000000E+00  0.00000000E+00
  0.00000000E+00  0.00000000E+00  0.00000000E+00
  0.00000000E+00  0.00000000E+00  0.00000000E+00
  0.00000000E+00  0.00000000E+00  0.00000000E+00
  0.00000000E+00  0.00000000E+00  0.00000000E+00
  0.00000000E+00  0.00000000E+00  0.00000000E+00
  0.00000000E+00  0.00000000E+00  0.00000000E+00
  0.00000000E+00  0.00000000E+00  0.00000000E+00
  0.00000000E+00  0.00000000E+00  0.00000000E+00
  0.00000000E+00  0.00000000E+00  0.00000000E+00
  0.00000000E+00  0.00000000E+00  0.00000000E+00
  0.00000000E+00  0.00000000E+00  0.00000000E+00
  0.00000000E+00  0.00000000E+00  0.00000000E+00
  0.00000000E+00  0.00000000E+00  0.00000000E+00
  0.00000000E+00  0.00000000E+00  0.00000000E+00
  0.00000000E+00  0.00000000E+00  0.00000000E+00
  0.00000000E+00  0.00000000E+00  0.00000000E+00
  0.00000000E+00  0.00000000E+00  0.00000000E+00
  0.00000000E+00  0.00000000E+00  0.00000000E+00
  0.00000000E+00  0.00000000E+00  0.00000000E+00
  0.00000000E+00  0.00000000E+00  0.00000000E+00
  0.00000000E+00  0.00000000E+00  0.00000000E+00
  0.00000000E+00  0.00000000E+00  0.00000000E+00
  0.00000000E+00  0.00000000E+00  0.00000000E+00
  0.00000000E+00  0.00000000E+00  0.00000000E+00
  0.00000000E+00  0.00000000E+00  0.00000000E+00
  0.00000000E+00  0.00000000E+00  0.00000000E+00
  0.00000000E+00  0.00000000E+00  0.00000000E+00
  0.00000000E+00  0.00000000E+00  0.00000000E+00
  0.00000000E+00  0.00000000E+00  0.00000000E+00
  0.00000000E+00  0.00000000E+00  0.00000000E+00
  0.00000000E+00  0.00000000E+00  0.00000000E+00
