CeO2-you-111-you-In                     
   1.00000000000000     
     9.8344068777832554   -5.6778978292182503   -0.0000000000000000
     0.0000000010307913   11.3557936618430588    0.0000000000000000
    -0.0000000000000000    0.0000000000000000   21.2771477297786440
   O    In   Ce H
    54     1    26 2
Selective dynamics
Direct
 -0.0001181139997736 -0.0000242706071594  0.9973677344019163   T   T   T
  0.1104253738421598  0.2218791869211109  0.1501259939968386   T   T   T
  0.2236683009660048  0.1140036019317791  0.3029130241078622   T   T   T
  0.1178086996813175  0.2255708498401472  0.3798746571186498   T   T   T
  0.0004991727056863  0.0000672724284957  0.2295516222260233   T   T   T
  0.2223413099398515  0.1113496198796944  0.0762129989308988   T   T   T
  0.3334268433926222 -0.0000242706071521  0.9973677344019163   T   T   T
  0.4447868130789472  0.2218791869211370  0.1501259939968386   T   T   T
  0.5550359864713155  0.1116310135284755  0.3036325202144051   T   T   T
  0.4410951501588258  0.2255708498396916  0.3798746571186498   T   T   T
  0.3329010997228014  0.0000672724284506  0.2295516222260233   T   T   T
  0.5555860593898962  0.1110809406100954  0.0763854098083781   T   T   T
  0.6666669999999968 -0.0000000000000000  0.9974267925414443   T   T   T
  0.7778032938339899  0.2222725876679941  0.1503546984326450   T   T   T
  0.8899290270572261  0.1116310135285409  0.3036325202144051   T   T   T
  0.7777379086777181  0.2221418173554405  0.3817243728590096   T   T   T
  0.6666669999999968  0.0000000000000000  0.2294604491526268   T   T   T
  0.8888288812202036  0.1110809406100991  0.0763854098083781   T   T   T
 -0.0001181139997627  0.3332391566074056  0.9973677344019163   T   T   T
  0.1110561093001665  0.5556108906998409  0.1501630079912327   T   T   T
  0.2236683009665165  0.4429976990342217  0.3029130241078622   T   T   T
  0.1114465374885347  0.5552204625114640  0.3811465708706391   T   T   T
  0.0004991727056608  0.3337649002770922  0.2295516222260233   T   T   T
  0.2223413099398638  0.4443246900601532  0.0762129989308988   T   T   T
  0.3333330000000032  0.3333330000000032  0.9973213428881739   T   T   T
  0.4447868130788885  0.5562416261577593  0.1501259939968386   T   T   T
  0.5526633980674858  0.4429976990339946  0.3029130241078622   T   T   T
  0.4410951501598522  0.5488583003201684  0.3798746571186498   T   T   T
  0.3333330000000032  0.3333330000000032  0.2279493003718212   T   T   T
  0.5553173801202916  0.4443246900601477  0.0762129989308988   T   T   T
  0.6666912706071569  0.3332391566074080  0.9973677344019163   T   T   T
  0.7778877813996693  0.5556108906998399  0.1501630079912327   T   T   T
  0.8889282433912663  0.4445224867825163  0.3030081140995156   T   T   T
  0.7771069250229267  0.5552204625114654  0.3811465708706391   T   T   T
  0.6665997275714360  0.3337649002770584  0.2295516222260233   T   T   T
  0.8887879666479636  0.4442419332959515  0.0763501453081770   T   T   T
 -0.0000000000000000  0.6666669999999968  0.9976879525230113   T   T   T
  0.1110561093001640  0.8887792186003237  0.1501630079912327   T   T   T
  0.2221435132174314  0.7777387566087305  0.3030081140995156   T   T   T
  0.1114465374885385  0.8895600749770753  0.3811465708706391   T   T   T
 -0.0000000000000000  0.6666669999999968  0.2291416302518905   T   T   T
  0.2224240667041287  0.7778790333520332  0.0763501453081770   T   T   T
  0.3334268433926166  0.6667851139997514  0.9973677344019163   T   T   T
  0.4443934123320299  0.8888637061660069  0.1503546984326450   T   T   T
  0.5550359864714628  0.7767379729429836  0.3036325202144051   T   T   T
  0.4445241826445536  0.8889290913222787  0.3817243728590096   T   T   T
  0.3329010997228775  0.6661678272944460  0.2295516222260233   T   T   T
  0.5555860593899046  0.7778381187798055  0.0763854098083781   T   T   T
  0.6666912706071404  0.6667851139997464  0.9973677344019163   T   T   T
  0.7778032938339730  0.8888637061659991  0.1503546984326450   T   T   T
  0.8889282433913023  0.7777387566087460  0.3030081140995156   T   T   T
  0.7777379086777214  0.8889290913222804  0.3817243728590096   T   T   T
  0.6665997275715377  0.6661678272944574  0.2295516222260233   T   T   T
  0.8887879666479076  0.7778790333520083  0.0763501453081770   T   T   T
  0.3333330000000032  0.3333330000000032  0.3404502042623607   T   T   T
  0.0014030594382311  0.0010046502275032  0.3423019122418973   T   T   T
  0.2228656326234021  0.1123982652466836  0.1900796847643426   T   T   T
  0.1111656284643909  0.2222493142321929  0.0369044101153138   T   T   T
  0.3329345907892897  0.0010046502274355  0.3423019122418973   T   T   T
  0.5553841520464273  0.1112828479536583  0.1897518834246146   T   T   T
  0.4444166857677981  0.2222493142321893  0.0369044101153138   T   T   T
  0.6666669999999968  0.0000000000000000  0.3426607197068530   T   T   T
  0.8892326959072065  0.1112828479536332  0.1897518834246146   T   T   T
  0.7777983836755092  0.2222627673510145  0.0368108183140516   T   T   T
  0.0014030594382634  0.3337314092105786  0.3423019122418973   T   T   T
  0.2228656326236667  0.4438003673767145  0.1900796847643426   T   T   T
  0.1111625290207818  0.5555044709792274  0.0369905817747860   T   T   T
  0.5542687347529383  0.4438003673765972  0.1900796847643426   T   T   T
  0.4444166857678065  0.5555013715356248  0.0369044101153138   T   T   T
  0.6656623497722944  0.3337314092104967  0.3423019122418973   T   T   T
  0.8889342557669615  0.4445345115338732  0.1896246024605773   T   T   T
  0.7776749419584401  0.5555044709792257  0.0369905817747860   T   T   T
 -0.0000000000000000  0.6666669999999968  0.3417995113070948   T   T   T
  0.2221314884659659  0.7777327442330353  0.1896246024605773   T   T   T
  0.1111625290207782  0.8889920580415515  0.0369905817747860   T   T   T
  0.3329345907894746  0.6652639405620004  0.3423019122418973   T   T   T
  0.5553841520463707  0.7774343040927085  0.1897518834246146   T   T   T
  0.4444032326489527  0.8888686163244875  0.0368108183140516   T   T   T
  0.6656623497724468  0.6652639405619859  0.3423019122418973   T   T   T
  0.8889342557670724  0.7777327442330847  0.1896246024605773   T   T   T
  0.7777983836755312  0.8888686163244977  0.0368108183140516   T   T   T
0.3333330000000032 0.3333330000000032 0.44045 T T T
0.446598 0.216020 0.433410 T T T 
 
  0.00000000E+00  0.00000000E+00  0.00000000E+00
  0.00000000E+00  0.00000000E+00  0.00000000E+00
  0.00000000E+00  0.00000000E+00  0.00000000E+00
  0.00000000E+00  0.00000000E+00  0.00000000E+00
  0.00000000E+00  0.00000000E+00  0.00000000E+00
  0.00000000E+00  0.00000000E+00  0.00000000E+00
  0.00000000E+00  0.00000000E+00  0.00000000E+00
  0.00000000E+00  0.00000000E+00  0.00000000E+00
  0.00000000E+00  0.00000000E+00  0.00000000E+00
  0.00000000E+00  0.00000000E+00  0.00000000E+00
  0.00000000E+00  0.00000000E+00  0.00000000E+00
  0.00000000E+00  0.00000000E+00  0.00000000E+00
  0.00000000E+00  0.00000000E+00  0.00000000E+00
  0.00000000E+00  0.00000000E+00  0.00000000E+00
  0.00000000E+00  0.00000000E+00  0.00000000E+00
  0.00000000E+00  0.00000000E+00  0.00000000E+00
  0.00000000E+00  0.00000000E+00  0.00000000E+00
  0.00000000E+00  0.00000000E+00  0.00000000E+00
  0.00000000E+00  0.00000000E+00  0.00000000E+00
  0.00000000E+00  0.00000000E+00  0.00000000E+00
  0.00000000E+00  0.00000000E+00  0.00000000E+00
  0.00000000E+00  0.00000000E+00  0.00000000E+00
  0.00000000E+00  0.00000000E+00  0.00000000E+00
  0.00000000E+00  0.00000000E+00  0.00000000E+00
  0.00000000E+00  0.00000000E+00  0.00000000E+00
  0.00000000E+00  0.00000000E+00  0.00000000E+00
  0.00000000E+00  0.00000000E+00  0.00000000E+00
  0.00000000E+00  0.00000000E+00  0.00000000E+00
  0.00000000E+00  0.00000000E+00  0.00000000E+00
  0.00000000E+00  0.00000000E+00  0.00000000E+00
  0.00000000E+00  0.00000000E+00  0.00000000E+00
  0.00000000E+00  0.00000000E+00  0.00000000E+00
  0.00000000E+00  0.00000000E+00  0.00000000E+00
  0.00000000E+00  0.00000000E+00  0.00000000E+00
  0.00000000E+00  0.00000000E+00  0.00000000E+00
  0.00000000E+00  0.00000000E+00  0.00000000E+00
  0.00000000E+00  0.00000000E+00  0.00000000E+00
  0.00000000E+00  0.00000000E+00  0.00000000E+00
  0.00000000E+00  0.00000000E+00  0.00000000E+00
  0.00000000E+00  0.00000000E+00  0.00000000E+00
  0.00000000E+00  0.00000000E+00  0.00000000E+00
  0.00000000E+00  0.00000000E+00  0.00000000E+00
  0.00000000E+00  0.00000000E+00  0.00000000E+00
  0.00000000E+00  0.00000000E+00  0.00000000E+00
  0.00000000E+00  0.00000000E+00  0.00000000E+00
  0.00000000E+00  0.00000000E+00  0.00000000E+00
  0.00000000E+00  0.00000000E+00  0.00000000E+00
  0.00000000E+00  0.00000000E+00  0.00000000E+00
  0.00000000E+00  0.00000000E+00  0.00000000E+00
  0.00000000E+00  0.00000000E+00  0.00000000E+00
  0.00000000E+00  0.00000000E+00  0.00000000E+00
  0.00000000E+00  0.00000000E+00  0.00000000E+00
  0.00000000E+00  0.00000000E+00  0.00000000E+00
  0.00000000E+00  0.00000000E+00  0.00000000E+00
  0.00000000E+00  0.00000000E+00  0.00000000E+00
  0.00000000E+00  0.00000000E+00  0.00000000E+00
  0.00000000E+00  0.00000000E+00  0.00000000E+00
  0.00000000E+00  0.00000000E+00  0.00000000E+00
  0.00000000E+00  0.00000000E+00  0.00000000E+00
  0.00000000E+00  0.00000000E+00  0.00000000E+00
  0.00000000E+00  0.00000000E+00  0.00000000E+00
  0.00000000E+00  0.00000000E+00  0.00000000E+00
  0.00000000E+00  0.00000000E+00  0.00000000E+00
  0.00000000E+00  0.00000000E+00  0.00000000E+00
  0.00000000E+00  0.00000000E+00  0.00000000E+00
  0.00000000E+00  0.00000000E+00  0.00000000E+00
  0.00000000E+00  0.00000000E+00  0.00000000E+00
  0.00000000E+00  0.00000000E+00  0.00000000E+00
  0.00000000E+00  0.00000000E+00  0.00000000E+00
  0.00000000E+00  0.00000000E+00  0.00000000E+00
  0.00000000E+00  0.00000000E+00  0.00000000E+00
  0.00000000E+00  0.00000000E+00  0.00000000E+00
  0.00000000E+00  0.00000000E+00  0.00000000E+00
  0.00000000E+00  0.00000000E+00  0.00000000E+00
  0.00000000E+00  0.00000000E+00  0.00000000E+00
  0.00000000E+00  0.00000000E+00  0.00000000E+00
  0.00000000E+00  0.00000000E+00  0.00000000E+00
  0.00000000E+00  0.00000000E+00  0.00000000E+00
  0.00000000E+00  0.00000000E+00  0.00000000E+00
  0.00000000E+00  0.00000000E+00  0.00000000E+00
  0.00000000E+00  0.00000000E+00  0.00000000E+00
