CeO2-you-111-you-Cd                     
   1.00000000000000     
     9.8426606583409644   -5.6826631514948218    0.0000000000000000
     0.0000000001308912   11.3653243031603406    0.0000000000000000
     0.0000000000000000    0.0000000000000000   21.0740785747475030
   O    Cd   Ce   H 
    54     1    26     2
Selective dynamics
Direct
  0.0000284324058947  0.0000597866870731  0.9954085216679666   T   T   T
  0.1065029644200237  0.2199179822102835  0.1485816882191884   F   F   F
  0.2245235631093205  0.1157124569181796  0.3091429265199594   T   T   T
  0.0963479998193128  0.2163467349973671  0.4029759273216925   T   T   T
  0.0017876208679628  0.0001290369415619  0.2298921992203140   T   T   T
  0.2225590872607199  0.1117851745213798  0.0750842477091709   F   F   F
  0.3330513908935389  0.0002397793547069  0.9955120949503694   T   T   T
  0.4467480177902559  0.2199179822105179  0.1485816882191884   F   F   F
  0.5511576457276544  0.1159278284815183  0.3059288961161174   T   T   T
  0.4524661696038776  0.2166307894624780  0.4032362225654181   T   T   T
  0.3313323524369067  0.0002821409280510  0.2298819560094504   T   T   T
  0.5568732596493078  0.1097937403506606  0.0746609145655839   F   F   F
  0.6665949392274032 -0.0000418241790950  0.9943422643311403   T   T   T
  0.7778216627429870  0.2223093254859947  0.1506388476061886   F   F   F
  0.8973696453345714  0.1153151878672165  0.3056692298572378   T   T   T
  0.7793032639931079  0.2253516492657476  0.3822973327980979   T   T   T
  0.6682931122032539  0.0035380363673931  0.2313774203245733   T   T   T
  0.8862544807013677  0.1097937403506748  0.0746609145655839   F   F   F
  0.0004911617910769  0.3331272280239256  0.9954637691988317   T   T   T
  0.1108403739836774  0.5558266260162128  0.1494897655110208   F   F   F
  0.2169465992501352  0.4388790051191357  0.3052562577405446   T   T   T
  0.1098261726294849  0.5559623110365236  0.3843410099021110   T   T   T
 -0.0009678720810959  0.3338140845063365  0.2292921544814418   T   T   T
  0.2225590872608620  0.4441069127393362  0.0750842477091709   F   F   F
  0.3329628233882664  0.3328835548902341  0.9952594651762259   T   T   T
  0.4467480177897158  0.5601640355792057  0.1485816882191884   F   F   F
  0.5556875592994363  0.4395776296346235  0.3055279317318647   T   T   T
  0.4522994141780968  0.5729944441510338  0.3866363117157868   T   T   T
  0.3331073012850900  0.3330113804858597  0.2215194663954238   T   T   T
  0.5548818254784180  0.4441069127392794  0.0750842477091709   F   F   F
  0.6660072521605229  0.3333335232834279  0.9953088091932548   T   T   T
  0.7783192520325670  0.5558266260162483  0.1494897655110208   F   F   F
  0.8902671332876583  0.4478867853200267  0.3039071410024246   T   T   T
  0.7792139852476396  0.5558525891650448  0.3846241848693611   T   T   T
  0.6685571859403092  0.3341039833555773  0.2292289281675047   T   T   T
  0.8883733681672936  0.4434127363346718  0.0750706185068353   F   F   F
  0.0000498570460051  0.6670909612068472  0.9959700065420376   T   T   T
  0.1108403739837556  0.8883477479675506  0.1494897655110208   F   F   F
  0.2213145543602261  0.7782519759938725  0.3045611558940060   T   T   T
  0.1101952183378732  0.8882660836259901  0.3852637974951799   T   T   T
  0.0003536897359058  0.6677926241369712  0.2295192583114595   T   T   T
  0.2232532636655904  0.7782936318327032  0.0750706185068353   F   F   F
  0.3333545781936013  0.6660163365860209  0.9953195131214448   T   T   T
  0.4443566745140473  0.8888453372570098  0.1506388476061886   F   F   F
  0.5576604328745433  0.7810884066505842  0.3034031828268303   T   T   T
  0.4452637577792389  0.8911388724858252  0.3829734498210554   T   T   T
  0.3327937778614551  0.6651169821764674  0.2300951669285831   T   T   T
  0.5568732596493291  0.7804125192986646  0.0746609145655839   F   F   F
  0.6665628642833826  0.6664579723559735  0.9955051327625332   T   T   T
  0.7778216627429586  0.8888453372569955  0.1506388476061886   F   F   F
  0.8889355985536015  0.7777934168233943  0.3046794458602694   T   T   T
  0.7790237097886207  0.8915103318586195  0.3833190289906409   T   T   T
  0.6652970732719704  0.6649986591321099  0.2299887694868464   T   T   T
  0.8883733681671089  0.7782936318326179  0.0750706185068353   F   F   F
  0.3368609698920248  0.3404799152844739  0.3449171635967798   T   T   T
 -0.0007011954602527 -0.0042151864538052  0.3430286410860185   T   T   T
  0.2234984195192951  0.1136638390382245  0.1891099624219024   F   F   F
  0.1107112120593783  0.2220221060296623  0.0349450215495324   F   F   F
  0.3292341357084412 -0.0039703288900630  0.3429718190937164   T   T   T
  0.5555021849424335  0.1111648150573856  0.1897578978989216   F   F   F
  0.4446438939702730  0.2220221060296339  0.0349450215495324   F   F   F
  0.6675143185898907  0.0017055937361148  0.3440050170709437   T   T   T
  0.8889966301150096  0.1111648150574425  0.1897578978989216   F   F   F
  0.7775145541705371  0.2216951083410876  0.0350056252266953   F   F   F
  0.0012539517270591  0.3392920353533103  0.3423719638314220   T   T   T
  0.2234984195201122  0.4431675804810666  0.1891099624219024   F   F   F
  0.1111772485997804  0.5554897514003372  0.0357461951364542   F   F   F
  0.5530031609605999  0.4431675804807043  0.1891099624219024   F   F   F
  0.4446438939703370  0.5559557879407180  0.0349450215495324   F   F   F
  0.6713849180687957  0.3395137167812881  0.3425505696176917   T   T   T
  0.8888493601334631  0.4443647202668757  0.1895244143758958   F   F   F
  0.7776455028005174  0.5554897514003017  0.0357461951364542   F   F   F
  0.0001776121022873  0.6675016566867371  0.3441751424932116   T   T   T
  0.2223012797329602  0.7778176398665337  0.1895244143758958   F   F   F
  0.1111772485997022  0.8890214971993657  0.0357461951364542   F   F   F
  0.3350936253974980  0.6645531268226986  0.3442260558775972   T   T   T
  0.5555021849425614  0.7776703698851719  0.1897578978989216   F   F   F
  0.4449708916589188  0.8891524458294597  0.0350056252266953   F   F   F
  0.6621394533502089  0.6644082734797504  0.3444140550919240   T   T   T
  0.8888493601335767  0.7778176398665835  0.1895244143758958   F   F   F
  0.7775145541705371  0.8891524458294526  0.0350056252266953   F   F   F
  0.1037471254994074  0.2205794492313565  0.4489688835224096   T   T   T
  0.4513924045157192  0.2202854248185322  0.4493508215805328   T   T   T
 
  0.00000000E+00  0.00000000E+00  0.00000000E+00
  0.00000000E+00  0.00000000E+00  0.00000000E+00
  0.00000000E+00  0.00000000E+00  0.00000000E+00
  0.00000000E+00  0.00000000E+00  0.00000000E+00
  0.00000000E+00  0.00000000E+00  0.00000000E+00
  0.00000000E+00  0.00000000E+00  0.00000000E+00
  0.00000000E+00  0.00000000E+00  0.00000000E+00
  0.00000000E+00  0.00000000E+00  0.00000000E+00
  0.00000000E+00  0.00000000E+00  0.00000000E+00
  0.00000000E+00  0.00000000E+00  0.00000000E+00
  0.00000000E+00  0.00000000E+00  0.00000000E+00
  0.00000000E+00  0.00000000E+00  0.00000000E+00
  0.00000000E+00  0.00000000E+00  0.00000000E+00
  0.00000000E+00  0.00000000E+00  0.00000000E+00
  0.00000000E+00  0.00000000E+00  0.00000000E+00
  0.00000000E+00  0.00000000E+00  0.00000000E+00
  0.00000000E+00  0.00000000E+00  0.00000000E+00
  0.00000000E+00  0.00000000E+00  0.00000000E+00
  0.00000000E+00  0.00000000E+00  0.00000000E+00
  0.00000000E+00  0.00000000E+00  0.00000000E+00
  0.00000000E+00  0.00000000E+00  0.00000000E+00
  0.00000000E+00  0.00000000E+00  0.00000000E+00
  0.00000000E+00  0.00000000E+00  0.00000000E+00
  0.00000000E+00  0.00000000E+00  0.00000000E+00
  0.00000000E+00  0.00000000E+00  0.00000000E+00
  0.00000000E+00  0.00000000E+00  0.00000000E+00
  0.00000000E+00  0.00000000E+00  0.00000000E+00
  0.00000000E+00  0.00000000E+00  0.00000000E+00
  0.00000000E+00  0.00000000E+00  0.00000000E+00
  0.00000000E+00  0.00000000E+00  0.00000000E+00
  0.00000000E+00  0.00000000E+00  0.00000000E+00
  0.00000000E+00  0.00000000E+00  0.00000000E+00
  0.00000000E+00  0.00000000E+00  0.00000000E+00
  0.00000000E+00  0.00000000E+00  0.00000000E+00
  0.00000000E+00  0.00000000E+00  0.00000000E+00
  0.00000000E+00  0.00000000E+00  0.00000000E+00
  0.00000000E+00  0.00000000E+00  0.00000000E+00
  0.00000000E+00  0.00000000E+00  0.00000000E+00
  0.00000000E+00  0.00000000E+00  0.00000000E+00
  0.00000000E+00  0.00000000E+00  0.00000000E+00
  0.00000000E+00  0.00000000E+00  0.00000000E+00
  0.00000000E+00  0.00000000E+00  0.00000000E+00
  0.00000000E+00  0.00000000E+00  0.00000000E+00
  0.00000000E+00  0.00000000E+00  0.00000000E+00
  0.00000000E+00  0.00000000E+00  0.00000000E+00
  0.00000000E+00  0.00000000E+00  0.00000000E+00
  0.00000000E+00  0.00000000E+00  0.00000000E+00
  0.00000000E+00  0.00000000E+00  0.00000000E+00
  0.00000000E+00  0.00000000E+00  0.00000000E+00
  0.00000000E+00  0.00000000E+00  0.00000000E+00
  0.00000000E+00  0.00000000E+00  0.00000000E+00
  0.00000000E+00  0.00000000E+00  0.00000000E+00
  0.00000000E+00  0.00000000E+00  0.00000000E+00
  0.00000000E+00  0.00000000E+00  0.00000000E+00
  0.00000000E+00  0.00000000E+00  0.00000000E+00
  0.00000000E+00  0.00000000E+00  0.00000000E+00
  0.00000000E+00  0.00000000E+00  0.00000000E+00
  0.00000000E+00  0.00000000E+00  0.00000000E+00
  0.00000000E+00  0.00000000E+00  0.00000000E+00
  0.00000000E+00  0.00000000E+00  0.00000000E+00
  0.00000000E+00  0.00000000E+00  0.00000000E+00
  0.00000000E+00  0.00000000E+00  0.00000000E+00
  0.00000000E+00  0.00000000E+00  0.00000000E+00
  0.00000000E+00  0.00000000E+00  0.00000000E+00
  0.00000000E+00  0.00000000E+00  0.00000000E+00
  0.00000000E+00  0.00000000E+00  0.00000000E+00
  0.00000000E+00  0.00000000E+00  0.00000000E+00
  0.00000000E+00  0.00000000E+00  0.00000000E+00
  0.00000000E+00  0.00000000E+00  0.00000000E+00
  0.00000000E+00  0.00000000E+00  0.00000000E+00
  0.00000000E+00  0.00000000E+00  0.00000000E+00
  0.00000000E+00  0.00000000E+00  0.00000000E+00
  0.00000000E+00  0.00000000E+00  0.00000000E+00
  0.00000000E+00  0.00000000E+00  0.00000000E+00
  0.00000000E+00  0.00000000E+00  0.00000000E+00
  0.00000000E+00  0.00000000E+00  0.00000000E+00
  0.00000000E+00  0.00000000E+00  0.00000000E+00
  0.00000000E+00  0.00000000E+00  0.00000000E+00
  0.00000000E+00  0.00000000E+00  0.00000000E+00
  0.00000000E+00  0.00000000E+00  0.00000000E+00
  0.00000000E+00  0.00000000E+00  0.00000000E+00
  0.00000000E+00  0.00000000E+00  0.00000000E+00
  0.00000000E+00  0.00000000E+00  0.00000000E+00
