CeO2-you-111-you-W                      
   1.00000000000000     
     9.9047966376175278   -5.7076643520298251    0.0082102682896322
    -0.0000000066427706   11.4153266837879279   -0.0000000009964223
     0.0195761561402028   -0.0000000020893177   20.5823851357906555
   O    W    Ce H
    53     1    26 2
Selective dynamics
Direct
 -0.0020805519910568  0.0010387999400436  0.9930452142825646   T   T   T
  0.1232062203286975  0.2282696101638098  0.1519686256542686   F   F   F
  0.2235122347435927  0.1219666229281847  0.3030488039541745   T   T   T
  0.1660038270201669  0.2496684135006919  0.3907731726504600   T   T   T
 -0.0002459861619744 -0.0009108499490320  0.2260866366742146   T   T   T
  0.2206945866345296  0.1097330698500687  0.0713021189741616   F   F   F
  0.3338996488494033  0.0002449763247227  0.9913652573119642   T   T   T
  0.4407225943090577  0.2229430772206552  0.1474189640150282   F   F   F
  0.5451876053305912  0.1061986754951062  0.3077120441039632   T   T   T
  0.4342096586383329  0.2686134321957382  0.3720338148911865   T   T   T
  0.3291730598781396 -0.0005432025182519  0.2289587637710735   T   T   T
  0.5531793230113050  0.1100330202144292  0.0735308520073817   F   F   F
  0.6692844200227069  0.0013087100113142  0.9946141856658917   T   T   T
  0.7711702705735957  0.2229747637030543  0.1520133977934642   F   F   F
  0.8881763137898915  0.1107546568965515  0.3056951004486740   T   T   T
  0.7678846401764393  0.2074216390703503  0.3934522567171125   T   T   T
  0.6629470406926657 -0.0018599796546710  0.2309350886179864   T   T   T
  0.8907012602485620  0.1120171301239449  0.0775102705927728   F   F   F
 -0.0020805519909814  0.3302136480684810  0.9930452142824880   T   T   T
  0.1109292345926054  0.5555852589431073  0.1475914249483242   F   F   F
  0.2235122347611239  0.4348786118150837  0.3030488039539898   T   T   T
  0.1249521098287202  0.5698918786658482  0.3877905804079552   T   T   T
 -0.0002459861618099  0.3339978637823950  0.2260866366742153   T   T   T
  0.2206945866341293  0.4442945167840792  0.0713021189742417   F   F   F
  0.3329596872222340  0.3331463436106120  0.9917514032137204   T   T   T
  0.4407225943095627  0.5511135170920322  0.1474189640149004   F   F   F
  0.4342096586756640  0.4989302264767324  0.3720338148878041   T   T   T
  0.3608915216509112  0.3471122608239000  0.2458871889978150   T   T   T
  0.5564016713592428  0.4448668356796385  0.0696990647273780   F   F   F
  0.6674821280343112  0.3319330580567829  0.9924513263269507   T   T   T
  0.7792868603183708  0.5563104301588629  0.1463270754440143   F   F   F
  0.8940260880978629  0.4472210744752699  0.3053752830454537   T   T   T
  0.7907318865598815  0.5620329432794913  0.3900244298975801   T   T   T
  0.6583028236571555  0.3422832493998907  0.2337704663385022   T   T   T
  0.8890509616400389  0.4439324054346111  0.0723260222067148   F   F   F
 -0.0002474367715313  0.6665432816142565  0.9911022438591754   T   T   T
  0.1109292345920165  0.8886779756482719  0.1475914249484295   F   F   F
  0.2238763746137831  0.7786051873060631  0.3020659698260404   T   T   T
  0.1249521098321099  0.8883942311618906  0.3877905804071664   T   T   T
  0.0001043851662675  0.6667191925824463  0.2283465630431079   T   T   T
  0.2220620320672357  0.7776980160338010  0.0714244096217920   F   F   F
  0.3338996488498004  0.6669886725253347  0.9913652573119697   T   T   T
  0.4437196542913209  0.8885268271458563  0.1502600371317243   F   F   F
  0.5451876053222191  0.7723219298347256  0.3077120441039100   T   T   T
  0.4339042054080297  0.8836191027040585  0.3875932744892467   T   T   T
  0.3291730598799874  0.6630502623997886  0.2289587637708328   T   T   T
  0.5531793230115724  0.7764793027974098  0.0735308520073286   F   F   F
  0.6674821280355279  0.6688820699788336  0.9924513263269975   T   T   T
  0.7711702705735077  0.8815285068703964  0.1520133977932054   F   F   F
  0.8940260881004832  0.7801380136189732  0.3053752830451973   T   T   T
  0.7678846401672620  0.8937960010990956  0.3934522567177845   T   T   T
  0.6583028236677269  0.6493525742655962  0.2337704663378705   T   T   T
  0.8890509616407463  0.7784515562053701  0.0723260222067189   F   F   F
  0.3183787839857098  0.3258558920024042  0.3392793262841019   T   T   T
 -0.0001276635107301 -0.0009945141473399  0.3498253681754369   T   T   T
  0.2197777577406586  0.1078619969437841  0.1892854525825016   F   F   F
  0.1108198267880213  0.2220764133945106  0.0332263249871345   F   F   F
  0.3278671244993133 -0.0062989889053427  0.3435661852854729   T   T   T
  0.5531684032064729  0.1116523447236449  0.1919443143997012   F   F   F
  0.4432732486601887  0.2202400626364909  0.0308532368763376   F   F   F
  0.6643219450592883 -0.0011725274726621  0.3493158678601573   T   T   T
  0.8874948671816193  0.1104139335910683  0.1931130852553272   F   F   F
  0.7771765040039302  0.2220175914090900  0.0348163878183235   F   F   F
 -0.0001276635130732  0.3341998506374228  0.3498253681753755   T   T   T
  0.2197777577384727  0.4452487607972696  0.1892854525824587   F   F   F
  0.1100218528891232  0.5541549472803922  0.0317300470819443   F   F   F
  0.5593243653521308  0.4463281826737134  0.1815375099915316   F   F   F
  0.4432732486581143  0.5563671860228740  0.0308532368764286   F   F   F
  0.6764842768849856  0.3333213389613189  0.3540057617204166   T   T   T
  0.8877451777171149  0.4444345465981543  0.1912540174494738   F   F   F
  0.7797243164928590  0.5565291582457726  0.0306206191261870   F   F   F
  0.0003181554920149  0.6668260777489919  0.3464875339876494   T   T   T
  0.2201676758650946  0.7767508379331819  0.1868541111949551   F   F   F
  0.1100218528885698  0.8892009056092840  0.0317300470819828   F   F   F
  0.3278671245013836  0.6675001134050943  0.3435661852857612   T   T   T
  0.5531684032101523  0.7748490584820859  0.1919443143996595   F   F   F
  0.4450099158738636  0.8891719579365998  0.0334035191166544   F   F   F
  0.6764842768805316  0.6764959379183393  0.3540057617206313   T   T   T
  0.8877451777186284  0.7766436311234588  0.1912540174493922   F   F   F
  0.7771765040038293  0.8884919125947053  0.0348163878182249   F   F   F
0.3183787839857098 0.3258558920024042 0.4139279 T T T
0.446598 0.216020 0.433410 T T T 
 
  0.00000000E+00  0.00000000E+00  0.00000000E+00
  0.00000000E+00  0.00000000E+00  0.00000000E+00
  0.00000000E+00  0.00000000E+00  0.00000000E+00
  0.00000000E+00  0.00000000E+00  0.00000000E+00
  0.00000000E+00  0.00000000E+00  0.00000000E+00
  0.00000000E+00  0.00000000E+00  0.00000000E+00
  0.00000000E+00  0.00000000E+00  0.00000000E+00
  0.00000000E+00  0.00000000E+00  0.00000000E+00
  0.00000000E+00  0.00000000E+00  0.00000000E+00
  0.00000000E+00  0.00000000E+00  0.00000000E+00
  0.00000000E+00  0.00000000E+00  0.00000000E+00
  0.00000000E+00  0.00000000E+00  0.00000000E+00
  0.00000000E+00  0.00000000E+00  0.00000000E+00
  0.00000000E+00  0.00000000E+00  0.00000000E+00
  0.00000000E+00  0.00000000E+00  0.00000000E+00
  0.00000000E+00  0.00000000E+00  0.00000000E+00
  0.00000000E+00  0.00000000E+00  0.00000000E+00
  0.00000000E+00  0.00000000E+00  0.00000000E+00
  0.00000000E+00  0.00000000E+00  0.00000000E+00
  0.00000000E+00  0.00000000E+00  0.00000000E+00
  0.00000000E+00  0.00000000E+00  0.00000000E+00
  0.00000000E+00  0.00000000E+00  0.00000000E+00
  0.00000000E+00  0.00000000E+00  0.00000000E+00
  0.00000000E+00  0.00000000E+00  0.00000000E+00
  0.00000000E+00  0.00000000E+00  0.00000000E+00
  0.00000000E+00  0.00000000E+00  0.00000000E+00
  0.00000000E+00  0.00000000E+00  0.00000000E+00
  0.00000000E+00  0.00000000E+00  0.00000000E+00
  0.00000000E+00  0.00000000E+00  0.00000000E+00
  0.00000000E+00  0.00000000E+00  0.00000000E+00
  0.00000000E+00  0.00000000E+00  0.00000000E+00
  0.00000000E+00  0.00000000E+00  0.00000000E+00
  0.00000000E+00  0.00000000E+00  0.00000000E+00
  0.00000000E+00  0.00000000E+00  0.00000000E+00
  0.00000000E+00  0.00000000E+00  0.00000000E+00
  0.00000000E+00  0.00000000E+00  0.00000000E+00
  0.00000000E+00  0.00000000E+00  0.00000000E+00
  0.00000000E+00  0.00000000E+00  0.00000000E+00
  0.00000000E+00  0.00000000E+00  0.00000000E+00
  0.00000000E+00  0.00000000E+00  0.00000000E+00
  0.00000000E+00  0.00000000E+00  0.00000000E+00
  0.00000000E+00  0.00000000E+00  0.00000000E+00
  0.00000000E+00  0.00000000E+00  0.00000000E+00
  0.00000000E+00  0.00000000E+00  0.00000000E+00
  0.00000000E+00  0.00000000E+00  0.00000000E+00
  0.00000000E+00  0.00000000E+00  0.00000000E+00
  0.00000000E+00  0.00000000E+00  0.00000000E+00
  0.00000000E+00  0.00000000E+00  0.00000000E+00
  0.00000000E+00  0.00000000E+00  0.00000000E+00
  0.00000000E+00  0.00000000E+00  0.00000000E+00
  0.00000000E+00  0.00000000E+00  0.00000000E+00
  0.00000000E+00  0.00000000E+00  0.00000000E+00
  0.00000000E+00  0.00000000E+00  0.00000000E+00
  0.00000000E+00  0.00000000E+00  0.00000000E+00
  0.00000000E+00  0.00000000E+00  0.00000000E+00
  0.00000000E+00  0.00000000E+00  0.00000000E+00
  0.00000000E+00  0.00000000E+00  0.00000000E+00
  0.00000000E+00  0.00000000E+00  0.00000000E+00
  0.00000000E+00  0.00000000E+00  0.00000000E+00
  0.00000000E+00  0.00000000E+00  0.00000000E+00
  0.00000000E+00  0.00000000E+00  0.00000000E+00
  0.00000000E+00  0.00000000E+00  0.00000000E+00
  0.00000000E+00  0.00000000E+00  0.00000000E+00
  0.00000000E+00  0.00000000E+00  0.00000000E+00
  0.00000000E+00  0.00000000E+00  0.00000000E+00
  0.00000000E+00  0.00000000E+00  0.00000000E+00
  0.00000000E+00  0.00000000E+00  0.00000000E+00
  0.00000000E+00  0.00000000E+00  0.00000000E+00
  0.00000000E+00  0.00000000E+00  0.00000000E+00
  0.00000000E+00  0.00000000E+00  0.00000000E+00
  0.00000000E+00  0.00000000E+00  0.00000000E+00
  0.00000000E+00  0.00000000E+00  0.00000000E+00
  0.00000000E+00  0.00000000E+00  0.00000000E+00
  0.00000000E+00  0.00000000E+00  0.00000000E+00
  0.00000000E+00  0.00000000E+00  0.00000000E+00
  0.00000000E+00  0.00000000E+00  0.00000000E+00
  0.00000000E+00  0.00000000E+00  0.00000000E+00
  0.00000000E+00  0.00000000E+00  0.00000000E+00
  0.00000000E+00  0.00000000E+00  0.00000000E+00
  0.00000000E+00  0.00000000E+00  0.00000000E+00
