CeO2-you-111-you-Ge                     
   1.00000000000000     
     9.8429822858219129   -5.6828488435457372    0.0000000000000000
     0.0000000007671874   11.3656956882989135    0.0000000000000000
     0.0000000000000000    0.0000000000000000   20.9472343377478758
   O    Ge   Ce   H 
    54     1    26     1
Selective dynamics
Direct
 -0.0000719115012663  0.9999354462837208  0.9949583364930804   T   T   T
  0.1192412621460903  0.2262871310724961  0.1528297569264438   F   F   F
  0.1998367363426596  0.0775095793566616  0.2979184203827628   T   T   T
  0.1470964182299575  0.2427969542322141  0.3761192732330818   T   T   T
  0.9894799034396489  0.9963174037186948  0.2275081842724114   T   T   T
  0.2221758755553651  0.1110187511107057  0.0743579158009808   F   F   F
  0.3328308048344947  0.9994612744284513  0.9947016622330364   T   T   T
  0.4403788689264019  0.2262871310720058  0.1528297569264438   F   F   F
  0.5600172823164307  0.1212640134143535  0.3120687173846999   T   T   T
  0.4084404229887376  0.2617068460416849  0.3799582533271587   T   T   T
  0.3400078974963963  0.9978902220902686  0.2276929325780022   T   T   T
  0.5534149591043160  0.1132520408961284  0.0751384329022500   F   F   F
  0.6671586814250807  0.0001116722002026  0.9961022696469990   T   T   T
  0.7761222282808546  0.2189104565611473  0.1480185549591653   F   F   F
  0.8930750031072320  0.1132436898309247  0.3091844694387012   T   T   T
  0.7847043742218741  0.2277989572240069  0.3875217032598897   T   T   T
  0.6660669932217803  0.0002408164836239  0.2326459534884050   T   T   T
  0.8931710817916780  0.1132520408959934  0.0751384329022500   F   F   F
  0.9997433152623834  0.3335010313687353  0.9947810046962260   T   T   T
  0.1120849842004077  0.5545820158001220  0.1499714530372884   F   F   F
  0.2179958249715675  0.4498173244622016  0.3028602656231646   T   T   T
  0.1116010505964462  0.5528272607794291  0.3872291147301324   T   T   T
  0.9971687092002475  0.3312217709476116  0.2299230907384671   T   T   T
  0.2221758755554077  0.4444901244446555  0.0743579158009808   F   F   F
  0.3330067689530636  0.3332162747230359  0.9947196518002230   T   T   T
  0.4403788689275032  0.5474257378555052  0.1528297569264438   F   F   F
  0.5929508926047388  0.4605657287396056  0.2995357242061473   T   T   T
  0.4276910843024170  0.5208395126059514  0.3748450695801397   T   T   T
  0.3369759167079428  0.3334953927640499  0.2507110981644672   T   T   T
  0.5556482488892343  0.4444901244446342  0.0743579158009808   F   F   F
  0.6672263796444835  0.3335981568769604  0.9944728021568343   T   T   T
  0.7758300315995470  0.5545820157999586  0.1499714530372884   F   F   F
  0.8925156498687344  0.4465933673801815  0.3046585531634296   T   T   T
  0.7838580629459749  0.5560127702654458  0.3894883761845299   T   T   T
  0.6712372453670589  0.3289199547077326  0.2282080303657312   T   T   T
  0.8890212669472817  0.4447085338946266  0.0748216737926981   F   F   F
 -0.0001146332631450  0.6669099071280985  0.9947762140835158   T   T   T
  0.1120849842000453  0.8908369683999169  0.1499714530372884   F   F   F
  0.2199939852135246  0.7724498922256067  0.3057071353076270   T   T   T
  0.0944987898498497  0.8762350471153896  0.3913813281998210   T   T   T
  0.0002008402216931  0.6666535533803889  0.2283360787051887   T   T   T
  0.2219574661055717  0.7776457330527151  0.0748216737926981   F   F   F
  0.3330751842948492  0.6669932363897670  0.9945051412782564   T   T   T
  0.4477555434370188  0.8905447717191421  0.1480185549591653   F   F   F
  0.5550131392502902  0.7722110674225448  0.3064916118127444   T   T   T
  0.4519024542577406  0.8793885665393532  0.3880715914422136   T   T   T
  0.3347505637282060  0.6691363204597837  0.2293057033568243   T   T   T
  0.5534149591040105  0.7734959182078782  0.0751384329022500   F   F   F
  0.6673061603036883  0.6671791358003731  0.9947366721011359   T   T   T
  0.7761222282821265  0.8905447717197035  0.1480185549591653   F   F   F
  0.8879828101017888  0.7744081037865899  0.3038544463933534   T   T   T
  0.7769999510575608  0.8848648603960457  0.3849676577660595   T   T   T
  0.6681762551263951  0.6724355966738718  0.2279400342184933   T   T   T
  0.8890212669471467  0.7776457330526512  0.0748216737926981   F   F   F
  0.3138994003597626  0.3529441287279475  0.3382569537680882   T   T   T
  0.0014132910383114  0.9948270886772985  0.3434492474708070   T   T   T
  0.2209940654308653  0.1086551308625090  0.1918956802609841   F   F   F
  0.1121926325466660  0.2227628162742690  0.0353926750649194   F   F   F
  0.3270793999819147  0.9949240294405663  0.3469726790798173   T   T   T
  0.5558647160940140  0.1108022839115108  0.1898911095464442   F   F   F
  0.4439031837275991  0.2227628162750932  0.0353926750649194   F   F   F
  0.6671910225250398 -0.0013567651157749  0.3469565738270708   T   T   T
  0.8882715678157993  0.1108022839098126  0.1898911095464442   F   F   F
  0.7779876281395275  0.2226412562791822  0.0349162406770986   F   F   F
  0.0009579944430381  0.3352005597457096  0.3455175455399018   T   T   T
  0.2209940654291103  0.4456719345683524  0.1918956802609841   F   F   F
  0.1113957380760127  0.5552712619220941  0.0344259374125073   F   F   F
  0.5580118691400315  0.4456719345691340  0.1918956802609841   F   F   F
  0.4439031837257303  0.5544743674506449  0.0353926750649194   F   F   F
  0.6792853204026937  0.3418459346155458  0.3427643967512991   T   T   T
  0.8888800264905683  0.4444260529812709  0.1890083720443911   F   F   F
  0.7772085238466602  0.5552712619226767  0.0344259374125073   F   F   F
  0.0016555543357779  0.6678087276554235  0.3473895825496561   T   T   T
  0.2222399470191547  0.7777869735094285  0.1890083720443911   F   F   F
  0.1113957380773272  0.8894584761552267  0.0344259374125073   F   F   F
  0.3333714352216607  0.6682514803677313  0.3446830734570586   T   T   T
  0.5558647160901913  0.7783954321786766  0.1898911095464442   F   F   F
  0.4440247437212221  0.8886793718604693  0.0349162406770986   F   F   F
  0.6700548973331427  0.6637547611327602  0.3433172213006274   T   T   T
  0.8888800264902770  0.7777869735093006  0.1890083720443911   F   F   F
  0.7779876281392504  0.8886793718603485  0.0349162406770986   F   F   F
  0.3998078407176961  0.2788828422151703  0.4248964426117957   T   T   T
 
  0.00000000E+00  0.00000000E+00  0.00000000E+00
  0.00000000E+00  0.00000000E+00  0.00000000E+00
  0.00000000E+00  0.00000000E+00  0.00000000E+00
  0.00000000E+00  0.00000000E+00  0.00000000E+00
  0.00000000E+00  0.00000000E+00  0.00000000E+00
  0.00000000E+00  0.00000000E+00  0.00000000E+00
  0.00000000E+00  0.00000000E+00  0.00000000E+00
  0.00000000E+00  0.00000000E+00  0.00000000E+00
  0.00000000E+00  0.00000000E+00  0.00000000E+00
  0.00000000E+00  0.00000000E+00  0.00000000E+00
  0.00000000E+00  0.00000000E+00  0.00000000E+00
  0.00000000E+00  0.00000000E+00  0.00000000E+00
  0.00000000E+00  0.00000000E+00  0.00000000E+00
  0.00000000E+00  0.00000000E+00  0.00000000E+00
  0.00000000E+00  0.00000000E+00  0.00000000E+00
  0.00000000E+00  0.00000000E+00  0.00000000E+00
  0.00000000E+00  0.00000000E+00  0.00000000E+00
  0.00000000E+00  0.00000000E+00  0.00000000E+00
  0.00000000E+00  0.00000000E+00  0.00000000E+00
  0.00000000E+00  0.00000000E+00  0.00000000E+00
  0.00000000E+00  0.00000000E+00  0.00000000E+00
  0.00000000E+00  0.00000000E+00  0.00000000E+00
  0.00000000E+00  0.00000000E+00  0.00000000E+00
  0.00000000E+00  0.00000000E+00  0.00000000E+00
  0.00000000E+00  0.00000000E+00  0.00000000E+00
  0.00000000E+00  0.00000000E+00  0.00000000E+00
  0.00000000E+00  0.00000000E+00  0.00000000E+00
  0.00000000E+00  0.00000000E+00  0.00000000E+00
  0.00000000E+00  0.00000000E+00  0.00000000E+00
  0.00000000E+00  0.00000000E+00  0.00000000E+00
  0.00000000E+00  0.00000000E+00  0.00000000E+00
  0.00000000E+00  0.00000000E+00  0.00000000E+00
  0.00000000E+00  0.00000000E+00  0.00000000E+00
  0.00000000E+00  0.00000000E+00  0.00000000E+00
  0.00000000E+00  0.00000000E+00  0.00000000E+00
  0.00000000E+00  0.00000000E+00  0.00000000E+00
  0.00000000E+00  0.00000000E+00  0.00000000E+00
  0.00000000E+00  0.00000000E+00  0.00000000E+00
  0.00000000E+00  0.00000000E+00  0.00000000E+00
  0.00000000E+00  0.00000000E+00  0.00000000E+00
  0.00000000E+00  0.00000000E+00  0.00000000E+00
  0.00000000E+00  0.00000000E+00  0.00000000E+00
  0.00000000E+00  0.00000000E+00  0.00000000E+00
  0.00000000E+00  0.00000000E+00  0.00000000E+00
  0.00000000E+00  0.00000000E+00  0.00000000E+00
  0.00000000E+00  0.00000000E+00  0.00000000E+00
  0.00000000E+00  0.00000000E+00  0.00000000E+00
  0.00000000E+00  0.00000000E+00  0.00000000E+00
  0.00000000E+00  0.00000000E+00  0.00000000E+00
  0.00000000E+00  0.00000000E+00  0.00000000E+00
  0.00000000E+00  0.00000000E+00  0.00000000E+00
  0.00000000E+00  0.00000000E+00  0.00000000E+00
  0.00000000E+00  0.00000000E+00  0.00000000E+00
  0.00000000E+00  0.00000000E+00  0.00000000E+00
  0.00000000E+00  0.00000000E+00  0.00000000E+00
  0.00000000E+00  0.00000000E+00  0.00000000E+00
  0.00000000E+00  0.00000000E+00  0.00000000E+00
  0.00000000E+00  0.00000000E+00  0.00000000E+00
  0.00000000E+00  0.00000000E+00  0.00000000E+00
  0.00000000E+00  0.00000000E+00  0.00000000E+00
  0.00000000E+00  0.00000000E+00  0.00000000E+00
  0.00000000E+00  0.00000000E+00  0.00000000E+00
  0.00000000E+00  0.00000000E+00  0.00000000E+00
  0.00000000E+00  0.00000000E+00  0.00000000E+00
  0.00000000E+00  0.00000000E+00  0.00000000E+00
  0.00000000E+00  0.00000000E+00  0.00000000E+00
  0.00000000E+00  0.00000000E+00  0.00000000E+00
  0.00000000E+00  0.00000000E+00  0.00000000E+00
  0.00000000E+00  0.00000000E+00  0.00000000E+00
  0.00000000E+00  0.00000000E+00  0.00000000E+00
  0.00000000E+00  0.00000000E+00  0.00000000E+00
  0.00000000E+00  0.00000000E+00  0.00000000E+00
  0.00000000E+00  0.00000000E+00  0.00000000E+00
  0.00000000E+00  0.00000000E+00  0.00000000E+00
  0.00000000E+00  0.00000000E+00  0.00000000E+00
  0.00000000E+00  0.00000000E+00  0.00000000E+00
  0.00000000E+00  0.00000000E+00  0.00000000E+00
  0.00000000E+00  0.00000000E+00  0.00000000E+00
  0.00000000E+00  0.00000000E+00  0.00000000E+00
  0.00000000E+00  0.00000000E+00  0.00000000E+00
  0.00000000E+00  0.00000000E+00  0.00000000E+00
  0.00000000E+00  0.00000000E+00  0.00000000E+00
