CeO2-you-111-you-Ce                     
   1.00000000000000     
     9.8761064212428185   -5.7019730689266668    0.0000000004117460
     0.0177447740355906   11.4346789792161196    0.0078872358064599
     0.0083789126814258    0.0145127000284807   21.2012601894147039
   O    Ce   Ce   H 
    53     1    26     2
Selective dynamics
Direct
 -0.0001307299731975 -0.0000428727806948  0.9977157907482105   T   T   T
  0.1103401383859719  0.2221698535502554  0.1492635762658807   F   F   F
  0.2293279500716837  0.1135184050105031  0.3042674783148661   T   T   T
  0.1133929689506047  0.2213215895599454  0.3808947288231355   T   T   T
  0.0026634644448362  0.0008432337708770  0.2285619747080930   T   T   T
  0.2219605498715467  0.1105880997431186  0.0756062423659358   F   F   F
  0.3336180729774647  0.0005661162080193  0.9975514894963236   T   T   T
  0.4451627151642157  0.2221698535502910  0.1492635762658949   F   F   F
  0.5517918767904425  0.1171749810511595  0.3035443237432595   T   T   T
  0.4433091193204002  0.2167505487678141  0.3986153073328167   T   T   T
  0.3316136490567554 -0.0016354457901270  0.2276993289420053   T   T   T
  0.5560853415891245  0.1112336140263537  0.0762011002668288   F   F   F
  0.6668510098742746  0.9994385456637574  0.9982171491241655   T   T   T
  0.7784255641478524  0.2235171282957040  0.1512472957854811   F   F   F
  0.8909441247870123  0.1130919256969696  0.3020395907811255   T   T   T
  0.7791486669489442  0.2245206608454292  0.3805765725525556   T   T   T
  0.6662626495275085  0.0018852856672298  0.2296215560243318   T   T   T
  0.8884822724371944  0.1112336140263395  0.0762011002668217   F   F   F
  0.0001151378302968  0.3325413747172455  0.9978476765394791   T   T   T
  0.1099265128056572  0.5544015566806522  0.1493142494446715   F   F   F
  0.2283522598226104  0.4420208746431485  0.3051701332023259   T   T   T
  0.0962616962054943  0.5467089164083752  0.3829529277112211   T   T   T
  0.0035235511067723  0.3344737633979727  0.2292052772303247   T   T   T
  0.2227243562459122  0.4448155870405515  0.0765682317156475   F   F   F
  0.3327550092380814  0.3327221473294089  0.9982224351474442   T   T   T
  0.4440635973204863  0.5547951946409313  0.1509757548299717   F   F   F
  0.5409003426312579  0.4315191208768227  0.3084155253535568   T   T   T
  0.3302583155297781  0.3296035006191615  0.2275000772380129   T   T   T
  0.5554252307946470  0.4448155870405586  0.0765682317156404   F   F   F
  0.6663092084835861  0.3333273026245669  0.9978060547810518   T   T   T
  0.7778080438751402  0.5544015566807019  0.1493142494446644   F   F   F
  0.8895681169100373  0.4430483166965318  0.3001063269794982   T   T   T
  0.7838891615359337  0.5457177433282144  0.3824384313868077   T   T   T
  0.6664661573938234  0.3365763866925402  0.2289632437151617   T   T   T
  0.8886730117362234  0.4440120234724034  0.0754179963086798   F   F   F
  0.0002936984326810  0.6676008000541211  0.9978343041645527   T   T   T
  0.1107343719959815  0.8881357439919597  0.1486486640366920   F   F   F
  0.2184518885188280  0.7792725474454799  0.3025457633027336   T   T   T
  0.1132922753474581  0.8902568520739828  0.3830778293783166   T   T   T
  0.9990915302911838  0.6667368793406718  0.2276972867865663   T   T   T
  0.2226494063082995  0.7779333327539248  0.0758181441578571   F   F   F
  0.3335692749784543  0.6666788405752082  0.9981685209740072   T   T   T
  0.4454461255445779  0.8897644787756889  0.1501165718189483   F   F   F
  0.5577061811271039  0.7813481713830385  0.3046540616899742   T   T   T
  0.4488053592561890  0.9035078814811266  0.3843752594144578   T   T   T
  0.3319140779601548  0.6663843497509797  0.2271021530542844   T   T   T
  0.5552876693527011  0.7772413387054016  0.0769751736746400   F   F   F
  0.6664232308427906  0.6672492269795437  0.9981014732554994   T   T   T
  0.7776513532311427  0.8897644787757528  0.1501165718189341   F   F   F
  0.8950579839814142  0.7809418811894157  0.3034232810906340   T   T   T
  0.7876841897867050  0.9045508947187784  0.3839954176130528   T   T   T
  0.6669002621609557  0.6635002420930025  0.2282585274957106   T   T   T
  0.8886169264456001  0.7779333327539391  0.0758181441578500   F   F   F
  0.3223117343166664  0.3250196057259205  0.3381527851943729   T   T   T
  0.9991026369086726  0.9987107763740862  0.3427071432506544   T   T   T
  0.2208619324285408  0.1083908648567160  0.1870464526772295   F   F   F
  0.1108633431843913  0.2224998813181926  0.0369246634653848   F   F   F
  0.3293414313228650  0.9912667542866362  0.3417878700091614   T   T   T
  0.5549460741633965  0.1110921617867575  0.1898430927010537   F   F   F
  0.4449695381337904  0.2224998813181855  0.0369246634653848   F   F   F
  0.6676671478482069  0.0009660643620814  0.3424838238889477   T   T   T
  0.8894800876236104  0.1110921617868144  0.1898430927010679   F   F   F
  0.7778035604580680  0.2222731209161424  0.0373437870265292   F   F   F
  0.0002029001112445  0.3340761805897879  0.3417351457994059   T   T   T
  0.2231292838766521  0.4448396024804424  0.1895299134708708   F   F   F
  0.1112977561904245  0.5555579567913611  0.0371302995648222   F   F   F
  0.5550443186033718  0.4448396024801582  0.1895299134708708   F   F   F
  0.4446688047750484  0.5560056095500983  0.0374251017466420   F   F   F
  0.6748334997483423  0.3372382662180904  0.3409390828058903   T   T   T
  0.8892986968675061  0.4452633937352743  0.1892992028295595   F   F   F
  0.7775932006009185  0.5555579567913611  0.0371302995648222   F   F   F
  0.9994389009045688  0.6646695540194588  0.3422756645279802   T   T   T
  0.2217708302484809  0.7778404543248314  0.1883990422703476   F   F   F
  0.1111201849365671  0.8889073698730812  0.0358520047100725   F   F   F
  0.3309052775485277  0.6709157078718047  0.3448729574052805   T   T   T
  0.5555132567146117  0.7776925134293364  0.1909517559952505   F   F   F
  0.4450180127767496  0.8891370440606323  0.0374577900403423   F   F   F
  0.6738371065815006  0.6705855139182040  0.3443241197188511   T   T   T
  0.8894026240764177  0.7778404543248314  0.1883990422703690   F   F   F
  0.7774520312839286  0.8891370440606323  0.0374577900403423   F   F   F
  0.4366856587524808  0.5426850954249220  0.3922116858230215   T   T   T
  0.4420844802022331  0.2154341240417716  0.4444887118435694   T   T   T
 
  0.00000000E+00  0.00000000E+00  0.00000000E+00
  0.00000000E+00  0.00000000E+00  0.00000000E+00
  0.00000000E+00  0.00000000E+00  0.00000000E+00
  0.00000000E+00  0.00000000E+00  0.00000000E+00
  0.00000000E+00  0.00000000E+00  0.00000000E+00
  0.00000000E+00  0.00000000E+00  0.00000000E+00
  0.00000000E+00  0.00000000E+00  0.00000000E+00
  0.00000000E+00  0.00000000E+00  0.00000000E+00
  0.00000000E+00  0.00000000E+00  0.00000000E+00
  0.00000000E+00  0.00000000E+00  0.00000000E+00
  0.00000000E+00  0.00000000E+00  0.00000000E+00
  0.00000000E+00  0.00000000E+00  0.00000000E+00
  0.00000000E+00  0.00000000E+00  0.00000000E+00
  0.00000000E+00  0.00000000E+00  0.00000000E+00
  0.00000000E+00  0.00000000E+00  0.00000000E+00
  0.00000000E+00  0.00000000E+00  0.00000000E+00
  0.00000000E+00  0.00000000E+00  0.00000000E+00
  0.00000000E+00  0.00000000E+00  0.00000000E+00
  0.00000000E+00  0.00000000E+00  0.00000000E+00
  0.00000000E+00  0.00000000E+00  0.00000000E+00
  0.00000000E+00  0.00000000E+00  0.00000000E+00
  0.00000000E+00  0.00000000E+00  0.00000000E+00
  0.00000000E+00  0.00000000E+00  0.00000000E+00
  0.00000000E+00  0.00000000E+00  0.00000000E+00
  0.00000000E+00  0.00000000E+00  0.00000000E+00
  0.00000000E+00  0.00000000E+00  0.00000000E+00
  0.00000000E+00  0.00000000E+00  0.00000000E+00
  0.00000000E+00  0.00000000E+00  0.00000000E+00
  0.00000000E+00  0.00000000E+00  0.00000000E+00
  0.00000000E+00  0.00000000E+00  0.00000000E+00
  0.00000000E+00  0.00000000E+00  0.00000000E+00
  0.00000000E+00  0.00000000E+00  0.00000000E+00
  0.00000000E+00  0.00000000E+00  0.00000000E+00
  0.00000000E+00  0.00000000E+00  0.00000000E+00
  0.00000000E+00  0.00000000E+00  0.00000000E+00
  0.00000000E+00  0.00000000E+00  0.00000000E+00
  0.00000000E+00  0.00000000E+00  0.00000000E+00
  0.00000000E+00  0.00000000E+00  0.00000000E+00
  0.00000000E+00  0.00000000E+00  0.00000000E+00
  0.00000000E+00  0.00000000E+00  0.00000000E+00
  0.00000000E+00  0.00000000E+00  0.00000000E+00
  0.00000000E+00  0.00000000E+00  0.00000000E+00
  0.00000000E+00  0.00000000E+00  0.00000000E+00
  0.00000000E+00  0.00000000E+00  0.00000000E+00
  0.00000000E+00  0.00000000E+00  0.00000000E+00
  0.00000000E+00  0.00000000E+00  0.00000000E+00
  0.00000000E+00  0.00000000E+00  0.00000000E+00
  0.00000000E+00  0.00000000E+00  0.00000000E+00
  0.00000000E+00  0.00000000E+00  0.00000000E+00
  0.00000000E+00  0.00000000E+00  0.00000000E+00
  0.00000000E+00  0.00000000E+00  0.00000000E+00
  0.00000000E+00  0.00000000E+00  0.00000000E+00
  0.00000000E+00  0.00000000E+00  0.00000000E+00
  0.00000000E+00  0.00000000E+00  0.00000000E+00
  0.00000000E+00  0.00000000E+00  0.00000000E+00
  0.00000000E+00  0.00000000E+00  0.00000000E+00
  0.00000000E+00  0.00000000E+00  0.00000000E+00
  0.00000000E+00  0.00000000E+00  0.00000000E+00
  0.00000000E+00  0.00000000E+00  0.00000000E+00
  0.00000000E+00  0.00000000E+00  0.00000000E+00
  0.00000000E+00  0.00000000E+00  0.00000000E+00
  0.00000000E+00  0.00000000E+00  0.00000000E+00
  0.00000000E+00  0.00000000E+00  0.00000000E+00
  0.00000000E+00  0.00000000E+00  0.00000000E+00
  0.00000000E+00  0.00000000E+00  0.00000000E+00
  0.00000000E+00  0.00000000E+00  0.00000000E+00
  0.00000000E+00  0.00000000E+00  0.00000000E+00
  0.00000000E+00  0.00000000E+00  0.00000000E+00
  0.00000000E+00  0.00000000E+00  0.00000000E+00
  0.00000000E+00  0.00000000E+00  0.00000000E+00
  0.00000000E+00  0.00000000E+00  0.00000000E+00
  0.00000000E+00  0.00000000E+00  0.00000000E+00
  0.00000000E+00  0.00000000E+00  0.00000000E+00
  0.00000000E+00  0.00000000E+00  0.00000000E+00
  0.00000000E+00  0.00000000E+00  0.00000000E+00
  0.00000000E+00  0.00000000E+00  0.00000000E+00
  0.00000000E+00  0.00000000E+00  0.00000000E+00
  0.00000000E+00  0.00000000E+00  0.00000000E+00
  0.00000000E+00  0.00000000E+00  0.00000000E+00
  0.00000000E+00  0.00000000E+00  0.00000000E+00
  0.00000000E+00  0.00000000E+00  0.00000000E+00
  0.00000000E+00  0.00000000E+00  0.00000000E+00
