CeO2-you-111-you-Al                     
   1.00000000000000     
     9.8829253117396068   -5.7059099636841282   -0.0000000014905152
    -0.0372195020341468   11.3473518548364485   -0.0291991679703432
    -0.0317910316764666   -0.0550636728468761   20.9385108264259046
   O    Al   Ce   H 
    53     1    26     2
Selective dynamics
Direct
 -0.0001739212390586 -0.0001561385750825  0.9943562719423086   T   T   T
  0.1089694714568168  0.2214909526695266  0.1474867095156611   F   F   F
  0.2461908816898255  0.1493389398501110  0.3138254160525453   T   T   T
  0.0579868971648580  0.1979496955918002  0.3992030931745470   T   T   T
  0.0097592570610982  0.0051399499755035  0.2305770271936488   T   T   T
  0.2218285268621045  0.1103240537236161  0.0738737153451510   F   F   F
  0.3333447128207351  0.9996955073625694  0.9941357336318187   T   T   T
  0.4458544812166210  0.2214909526702442  0.1474867095160590   F   F   F
  0.5528587259266701  0.1161869261559717  0.3038335234748386   T   T   T
  0.4746719239242461  0.1982485168720385  0.4113745888999957   T   T   T
  0.3288398736931066  0.0030960976463170  0.2300557908960633   T   T   T
  0.5568353440035736  0.1103793174137095  0.0742593815197026   F   F   F
  0.6660170099617593  0.9983431307608905  0.9940395008746873   T   T   T
  0.7775292375264939  0.2217244750545220  0.1530270065023558   F   F   F
  0.8869654573540368  0.1112072805215122  0.3006895884422496   T   T   T
  0.7762007997107000  0.2219519585818857  0.3841757927699280   T   T   T
  0.6624389427371484  0.9967508538936311  0.2297178720340476   T   T   T
  0.8868779734087440  0.1103793174114998  0.0742593815187931   F   F   F
  0.9991193790743962  0.3316477791601010  0.9941785190549955   T   T   T
  0.1092097173329520  0.5563782977508751  0.1483299559917057   F   F   F
  0.2475225243961154  0.4277389630836577  0.3185182184010745   T   T   T
  0.0988348729011765  0.5501205448525076  0.3855938315756769   T   T   T
  0.0119540953984593  0.3405625245929942  0.2316171032538434   T   T   T
  0.2216378129997238  0.4450568857708461  0.0736281581786571   F   F   F
  0.3328298022106542  0.3322207664772231  0.9945280726530250   T   T   T
  0.4458544407344291  0.5583768814740324  0.1472366964876031   F   F   F
  0.5170475605129715  0.4231131766427800  0.3196318302702382   T   T   T
  0.3349149909571283  0.3365701981841018  0.2228899194617772   T   T   T
  0.5567530727703698  0.4450568857706330  0.0736281581786074   F   F   F
  0.6659544073383595  0.3319114404163334  0.9938932725415237   T   T   T
  0.7805015804183384  0.5563782977512233  0.1483299559918905   F   F   F
  0.8873749239773296  0.4416701986098993  0.3031113557684887   T   T   T
  0.7834823228035460  0.5482792174983689  0.3860808184506681   T   T   T
  0.6630201259229924  0.3399294141405199  0.2310811750943000   T   T   T
  0.8877436909708436  0.4421533819412318  0.0740624064328017   F   F   F
  0.9987966981624229  0.6646777593293414  0.9934228273151605   T   T   T
  0.1103904670495481  0.8874479340961727  0.1478373725418010   F   F   F
  0.2196781885472687  0.7810641748483210  0.3039584336553751   T   T   T
  0.1183200839129532  0.8975199776562325  0.3847128337226987   T   T   T
  0.0000766754303606  0.6674440271325280  0.2292565555856816   T   T   T
  0.2218537324571415  0.7776070814616247  0.0732748778837191   F   F   F
  0.3340434626982184  0.6663300804976739  0.9940015643640157   T   T   T
  0.4421184921543500  0.8883353294906442  0.1505675416611894   F   F   F
  0.5528051782907399  0.7727488261519476  0.3065540454380621   T   T   T
  0.4476160578289208  0.9003805643131134  0.3855490878712367   T   T   T
  0.3271650708631127  0.6603980941257506  0.2285579085608168   T   T   T
  0.5566180420641729  0.7799020841295317  0.0749791831917506   F   F   F
  0.6657582317895612  0.6667755043664580  0.9940802547389830   T   T   T
  0.7795498373371927  0.8883353294898626  0.1505675416608625   F   F   F
  0.8950324485551723  0.7825845334094885  0.3048884508468581   T   T   T
  0.7818980029596957  0.9011999416128731  0.3870068868082107   T   T   T
  0.6667350500471665  0.6603957645520182  0.2286462646868815   T   T   T
  0.8890863490043515  0.7776070814607507  0.0732748778834491   F   F   F
  0.3355250470891777  0.3334039077294034  0.3108418243130244   T   T   T
  0.0020843338233056  0.0097495542029780  0.3493080944559869   T   T   T
  0.2221749089388823  0.1110168178781521  0.1873575725847090   F   F   F
  0.1097812649733712  0.2207972100749132  0.0336543597628491   F   F   F
  0.3329777634560346  0.0017699561018609  0.3469280014932207   T   T   T
  0.5545203486597075  0.1109865047541660  0.1907541629210669   F   F   F
  0.4443489451019857  0.2207972100755811  0.0336543597630552   F   F   F
  0.6651207015042253 -0.0016180712671335  0.3454839268125445   T   T   T
  0.8898001560938411  0.1109865047527094  0.1907541629209035   F   F   F
  0.7770918713157968  0.2208497426318417  0.0347629493908528   F   F   F
 -0.0011546392526325  0.3283683810424478  0.3492154175318673   T   T   T
  0.2209418125207279  0.4460131040004072  0.1857780034855097   F   F   F
  0.1093833903292492  0.5544974065805590  0.0338855606978754   F   F   F
  0.5584052914802058  0.4460131040022617  0.1857780034858862   F   F   F
  0.4448365350989079  0.5563410701987621  0.0332173327752798   F   F   F
  0.6705660417177205  0.3347932126630417  0.3467552459478187   T   T   T
  0.8887856201531434  0.4442372403056751  0.1920173701292640   F   F   F
  0.7784470162523007  0.5544974065807438  0.0338855606979038   F   F   F
  0.0003050069378140  0.6663740579924894  0.3447554557947003   T   T   T
  0.2215615488000253  0.7795505050081104  0.1894762251196980   F   F   F
  0.1105011176865816  0.8876692353720514  0.0335396628684066   F   F   F
  0.3259225816663665  0.6700960557471444  0.3446769488648599   T   T   T
  0.5547471932518135  0.7761603865047420  0.1904133710653753   F   F   F
  0.4444707567615893  0.8882855494094386  0.0346114705561575   F   F   F
  0.6782564859160662  0.6717909094254191  0.3448291118472225   T   T   T
  0.8913219562084294  0.7795505050074283  0.1894762251196482   F   F   F
  0.7771477926476749  0.8882855494084225  0.0346114705557312   F   F   F
  0.3094884721060821  0.3642858482888994  0.4013814150435592   T   T   T
  0.4336907883446929  0.2425564778377205  0.4349422295708320   T   T   T
 
  0.00000000E+00  0.00000000E+00  0.00000000E+00
  0.00000000E+00  0.00000000E+00  0.00000000E+00
  0.00000000E+00  0.00000000E+00  0.00000000E+00
  0.00000000E+00  0.00000000E+00  0.00000000E+00
  0.00000000E+00  0.00000000E+00  0.00000000E+00
  0.00000000E+00  0.00000000E+00  0.00000000E+00
  0.00000000E+00  0.00000000E+00  0.00000000E+00
  0.00000000E+00  0.00000000E+00  0.00000000E+00
  0.00000000E+00  0.00000000E+00  0.00000000E+00
  0.00000000E+00  0.00000000E+00  0.00000000E+00
  0.00000000E+00  0.00000000E+00  0.00000000E+00
  0.00000000E+00  0.00000000E+00  0.00000000E+00
  0.00000000E+00  0.00000000E+00  0.00000000E+00
  0.00000000E+00  0.00000000E+00  0.00000000E+00
  0.00000000E+00  0.00000000E+00  0.00000000E+00
  0.00000000E+00  0.00000000E+00  0.00000000E+00
  0.00000000E+00  0.00000000E+00  0.00000000E+00
  0.00000000E+00  0.00000000E+00  0.00000000E+00
  0.00000000E+00  0.00000000E+00  0.00000000E+00
  0.00000000E+00  0.00000000E+00  0.00000000E+00
  0.00000000E+00  0.00000000E+00  0.00000000E+00
  0.00000000E+00  0.00000000E+00  0.00000000E+00
  0.00000000E+00  0.00000000E+00  0.00000000E+00
  0.00000000E+00  0.00000000E+00  0.00000000E+00
  0.00000000E+00  0.00000000E+00  0.00000000E+00
  0.00000000E+00  0.00000000E+00  0.00000000E+00
  0.00000000E+00  0.00000000E+00  0.00000000E+00
  0.00000000E+00  0.00000000E+00  0.00000000E+00
  0.00000000E+00  0.00000000E+00  0.00000000E+00
  0.00000000E+00  0.00000000E+00  0.00000000E+00
  0.00000000E+00  0.00000000E+00  0.00000000E+00
  0.00000000E+00  0.00000000E+00  0.00000000E+00
  0.00000000E+00  0.00000000E+00  0.00000000E+00
  0.00000000E+00  0.00000000E+00  0.00000000E+00
  0.00000000E+00  0.00000000E+00  0.00000000E+00
  0.00000000E+00  0.00000000E+00  0.00000000E+00
  0.00000000E+00  0.00000000E+00  0.00000000E+00
  0.00000000E+00  0.00000000E+00  0.00000000E+00
  0.00000000E+00  0.00000000E+00  0.00000000E+00
  0.00000000E+00  0.00000000E+00  0.00000000E+00
  0.00000000E+00  0.00000000E+00  0.00000000E+00
  0.00000000E+00  0.00000000E+00  0.00000000E+00
  0.00000000E+00  0.00000000E+00  0.00000000E+00
  0.00000000E+00  0.00000000E+00  0.00000000E+00
  0.00000000E+00  0.00000000E+00  0.00000000E+00
  0.00000000E+00  0.00000000E+00  0.00000000E+00
  0.00000000E+00  0.00000000E+00  0.00000000E+00
  0.00000000E+00  0.00000000E+00  0.00000000E+00
  0.00000000E+00  0.00000000E+00  0.00000000E+00
  0.00000000E+00  0.00000000E+00  0.00000000E+00
  0.00000000E+00  0.00000000E+00  0.00000000E+00
  0.00000000E+00  0.00000000E+00  0.00000000E+00
  0.00000000E+00  0.00000000E+00  0.00000000E+00
  0.00000000E+00  0.00000000E+00  0.00000000E+00
  0.00000000E+00  0.00000000E+00  0.00000000E+00
  0.00000000E+00  0.00000000E+00  0.00000000E+00
  0.00000000E+00  0.00000000E+00  0.00000000E+00
  0.00000000E+00  0.00000000E+00  0.00000000E+00
  0.00000000E+00  0.00000000E+00  0.00000000E+00
  0.00000000E+00  0.00000000E+00  0.00000000E+00
  0.00000000E+00  0.00000000E+00  0.00000000E+00
  0.00000000E+00  0.00000000E+00  0.00000000E+00
  0.00000000E+00  0.00000000E+00  0.00000000E+00
  0.00000000E+00  0.00000000E+00  0.00000000E+00
  0.00000000E+00  0.00000000E+00  0.00000000E+00
  0.00000000E+00  0.00000000E+00  0.00000000E+00
  0.00000000E+00  0.00000000E+00  0.00000000E+00
  0.00000000E+00  0.00000000E+00  0.00000000E+00
  0.00000000E+00  0.00000000E+00  0.00000000E+00
  0.00000000E+00  0.00000000E+00  0.00000000E+00
  0.00000000E+00  0.00000000E+00  0.00000000E+00
  0.00000000E+00  0.00000000E+00  0.00000000E+00
  0.00000000E+00  0.00000000E+00  0.00000000E+00
  0.00000000E+00  0.00000000E+00  0.00000000E+00
  0.00000000E+00  0.00000000E+00  0.00000000E+00
  0.00000000E+00  0.00000000E+00  0.00000000E+00
  0.00000000E+00  0.00000000E+00  0.00000000E+00
  0.00000000E+00  0.00000000E+00  0.00000000E+00
  0.00000000E+00  0.00000000E+00  0.00000000E+00
  0.00000000E+00  0.00000000E+00  0.00000000E+00
  0.00000000E+00  0.00000000E+00  0.00000000E+00
  0.00000000E+00  0.00000000E+00  0.00000000E+00
