CeO2-you-111-you-Pt                     
   1.00000000000000     
     9.7957258110299890   -5.6555653059089943    0.0000000000000000
     0.0000000058123272   11.3111286313665111   -0.0000000000000000
     0.0000000000000000    0.0000000000000000   21.3668917145341055
   O    Pt   Ce H
    54     1    26 1
Selective dynamics
Direct
  0.0001585161085327  0.0000327736972115  0.9970352930626061   T   T   T
  0.1019373568406032  0.2176351784201340  0.1483567725575597   F   F   F
  0.2370684324125929  0.1408038648234302  0.3031634939572132   T   T   T
  0.1301659721683465  0.2317494860822499  0.3824872307504941   T   T   T
  0.0037033582844042  0.0006303119019037  0.2311733006092692   T   T   T
  0.2225936169158842  0.1118542338314829  0.0759165148599722   F   F   F
  0.3332072575888599  0.0000327736972404  0.9970352930626061   T   T   T
  0.4490308215795269  0.2176351784199838  0.1483567725575597   F   F   F
  0.5534827182234747  0.1131842817762020  0.3048191417341727   T   T   T
  0.4349165139138995  0.2317494860805411  0.3824872307504941   T   T   T
  0.3302599536176669  0.0006303119016899  0.2311733006092692   T   T   T
  0.5573887411788488  0.1092782588205696  0.0758137154428503   F   F   F
  0.6666669999999968 -0.0000000000000000  0.9957211058131625   T   T   T
  0.7778962515821174  0.2224585031643575  0.1520627684187981   F   F   F
  0.8930355635528280  0.1131842817763025  0.3048191417341727   T   T   T
  0.7775568469470712  0.2217796938940803  0.3817617474797336   T   T   T
  0.6666669999999968 -0.0000000000000000  0.2317986751466198   T   T   T
  0.8852235176419015  0.1092782588207496  0.0758137154428503   F   F   F
  0.0001585161089332  0.3334587424113895  0.9970352930626061   T   T   T
  0.1103394858099589  0.5563275141910978  0.1500531118523989   F   F   F
  0.2370684324165411  0.4295975675891588  0.3031634939572132   T   T   T
  0.1144692580028858  0.5521977419967526  0.3790878931852227   T   T   T
  0.0037033582847742  0.3364060463820222  0.2311733006092692   T   T   T
  0.2225936169165202  0.4440723830843974  0.0759165148599722   F   F   F
  0.3333330000000032  0.3333330000000032  0.9966238078839906   T   T   T
  0.4490308215798652  0.5647296431598895  0.1483567725575597   F   F   F
  0.5258631351708730  0.4295975675874065  0.3031634939572132   T   T   T
  0.4349165139177495  0.5365010278372164  0.3824872307504941   T   T   T
  0.3333330000000032  0.3333330000000032  0.2102926522925082   T   T   T
  0.5548127661676028  0.4440723830841152  0.0759165148599722   F   F   F
  0.6666342263022721  0.3334587424112405  0.9970352930626061   T   T   T
  0.7793210283808113  0.5563275141907740  0.1500531118523989   F   F   F
  0.8890043705022813  0.4446747410045705  0.3040522974107204   T   T   T
  0.7710614839939753  0.5521977419968647  0.3790878931852227   T   T   T
  0.6660366880970772  0.3364060463816440  0.2311733006092692   T   T   T
  0.8883470652184019  0.4433601304369302  0.0764626846930183   F   F   F
 -0.0000000000000000  0.6666669999999968  0.9974783964256424   T   T   T
  0.1103394858092297  0.8873459716181328  0.1500531118523989   F   F   F
  0.2219912589954559  0.7776626294977155  0.3040522974107204   T   T   T
  0.1144692580031390  0.8956055160063874  0.3790878931852227   T   T   T
 -0.0000000000000000  0.6666669999999968  0.2300214551630188   T   T   T
  0.2233058695634833  0.7783199347815949  0.0764626846930183   F   F   F
  0.3332072575891954  0.6665084838915483  0.9970352930626061   T   T   T
  0.4442074968360207  0.8887707484178794  0.1520627684187981   F   F   F
  0.5534827182237012  0.7736314364474955  0.3048191417341727   T   T   T
  0.4448863061056963  0.8891101530529256  0.3817617474797336   T   T   T
  0.3302599536185185  0.6629636417164521  0.2311733006092692   T   T   T
  0.5573887411792541  0.7814434823586808  0.0758137154428503   F   F   F
  0.6666342263022070  0.6665084838913703  0.9970352930626061   T   T   T
  0.7778962515818547  0.8887707484177630  0.1520627684187981   F   F   F
  0.8890043705022628  0.7776626294977070  0.3040522974107204   T   T   T
  0.7775568469472256  0.8891101530529942  0.3817617474797336   T   T   T
  0.6660366880975590  0.6629636417162880  0.2311733006092692   T   T   T
  0.8883470652181150  0.7783199347814680  0.0764626846930183   F   F   F
  0.3333330000000032  0.3333330000000032  0.3457621773112624   T   T   T
  0.0047950408052950  0.0053432696256211  0.3425361563725831   T   T   T
  0.2234517134530452  0.1135704269071208  0.1880725378605653   F   F   F
  0.1102539174506304  0.2217934587257411  0.0360896119376248   F   F   F
  0.3338812288206134  0.0053432696255191  0.3425361563725831   T   T   T
  0.5554988949934708  0.1111681050086001  0.1905681586156838   F   F   F
  0.4448725412751067  0.2217934587261177  0.0360896119376248   F   F   F
  0.6666669999999968 -0.0000000000000000  0.3446286564196918   T   T   T
  0.8890032100144947  0.1111681050079647  0.1905681586156838   F   F   F
  0.7774565715996269  0.2215791431990753  0.0364459141710455   F   F   F
  0.0047950408059350  0.3327847711794473  0.3425361563725831   T   T   T
  0.2234517134507164  0.4432142865459205  0.1880725378605653   F   F   F
  0.1109277471074793  0.5557392528908859  0.0371125803079871   F   F   F
  0.5530965730962453  0.4432142865469540  0.1880725378605653   F   F   F
  0.4448725412742582  0.5564130825481481  0.0360896119376248   F   F   F
  0.6613237303732218  0.3327847711790614  0.3425361563725831   T   T   T
  0.8888480025448584  0.4443620050893463  0.1904019928553258   F   F   F
  0.7781445057839063  0.5557392528913897  0.0371125803079871   F   F   F
 -0.0000000000000000  0.6666669999999968  0.3404060690063041   T   T   T
  0.2223039949094490  0.7778189974551384  0.1904019928553258   F   F   F
  0.1109277471086144  0.8885224942177293  0.0371125803079871   F   F   F
  0.3338812288214831  0.6618719591953176  0.3425361563725831   T   T   T
  0.5554988949920392  0.7776637899834354  0.1905681586156838   F   F   F
  0.4450868568003231  0.8892104284003699  0.0364459141710455   F   F   F
  0.6613237303734517  0.6618719591950335  0.3425361563725831   T   T   T
  0.8888480025456922  0.7778189974555083  0.1904019928553258   F   F   F
  0.7774565716000432  0.8892104284005545  0.0364459141710455   F   F   F
0.446598 0.216020 0.433410 T T T 
 
  0.00000000E+00  0.00000000E+00  0.00000000E+00
  0.00000000E+00  0.00000000E+00  0.00000000E+00
  0.00000000E+00  0.00000000E+00  0.00000000E+00
  0.00000000E+00  0.00000000E+00  0.00000000E+00
  0.00000000E+00  0.00000000E+00  0.00000000E+00
  0.00000000E+00  0.00000000E+00  0.00000000E+00
  0.00000000E+00  0.00000000E+00  0.00000000E+00
  0.00000000E+00  0.00000000E+00  0.00000000E+00
  0.00000000E+00  0.00000000E+00  0.00000000E+00
  0.00000000E+00  0.00000000E+00  0.00000000E+00
  0.00000000E+00  0.00000000E+00  0.00000000E+00
  0.00000000E+00  0.00000000E+00  0.00000000E+00
  0.00000000E+00  0.00000000E+00  0.00000000E+00
  0.00000000E+00  0.00000000E+00  0.00000000E+00
  0.00000000E+00  0.00000000E+00  0.00000000E+00
  0.00000000E+00  0.00000000E+00  0.00000000E+00
  0.00000000E+00  0.00000000E+00  0.00000000E+00
  0.00000000E+00  0.00000000E+00  0.00000000E+00
  0.00000000E+00  0.00000000E+00  0.00000000E+00
  0.00000000E+00  0.00000000E+00  0.00000000E+00
  0.00000000E+00  0.00000000E+00  0.00000000E+00
  0.00000000E+00  0.00000000E+00  0.00000000E+00
  0.00000000E+00  0.00000000E+00  0.00000000E+00
  0.00000000E+00  0.00000000E+00  0.00000000E+00
  0.00000000E+00  0.00000000E+00  0.00000000E+00
  0.00000000E+00  0.00000000E+00  0.00000000E+00
  0.00000000E+00  0.00000000E+00  0.00000000E+00
  0.00000000E+00  0.00000000E+00  0.00000000E+00
  0.00000000E+00  0.00000000E+00  0.00000000E+00
  0.00000000E+00  0.00000000E+00  0.00000000E+00
  0.00000000E+00  0.00000000E+00  0.00000000E+00
  0.00000000E+00  0.00000000E+00  0.00000000E+00
  0.00000000E+00  0.00000000E+00  0.00000000E+00
  0.00000000E+00  0.00000000E+00  0.00000000E+00
  0.00000000E+00  0.00000000E+00  0.00000000E+00
  0.00000000E+00  0.00000000E+00  0.00000000E+00
  0.00000000E+00  0.00000000E+00  0.00000000E+00
  0.00000000E+00  0.00000000E+00  0.00000000E+00
  0.00000000E+00  0.00000000E+00  0.00000000E+00
  0.00000000E+00  0.00000000E+00  0.00000000E+00
  0.00000000E+00  0.00000000E+00  0.00000000E+00
  0.00000000E+00  0.00000000E+00  0.00000000E+00
  0.00000000E+00  0.00000000E+00  0.00000000E+00
  0.00000000E+00  0.00000000E+00  0.00000000E+00
  0.00000000E+00  0.00000000E+00  0.00000000E+00
  0.00000000E+00  0.00000000E+00  0.00000000E+00
  0.00000000E+00  0.00000000E+00  0.00000000E+00
  0.00000000E+00  0.00000000E+00  0.00000000E+00
  0.00000000E+00  0.00000000E+00  0.00000000E+00
  0.00000000E+00  0.00000000E+00  0.00000000E+00
  0.00000000E+00  0.00000000E+00  0.00000000E+00
  0.00000000E+00  0.00000000E+00  0.00000000E+00
  0.00000000E+00  0.00000000E+00  0.00000000E+00
  0.00000000E+00  0.00000000E+00  0.00000000E+00
  0.00000000E+00  0.00000000E+00  0.00000000E+00
  0.00000000E+00  0.00000000E+00  0.00000000E+00
  0.00000000E+00  0.00000000E+00  0.00000000E+00
  0.00000000E+00  0.00000000E+00  0.00000000E+00
  0.00000000E+00  0.00000000E+00  0.00000000E+00
  0.00000000E+00  0.00000000E+00  0.00000000E+00
  0.00000000E+00  0.00000000E+00  0.00000000E+00
  0.00000000E+00  0.00000000E+00  0.00000000E+00
  0.00000000E+00  0.00000000E+00  0.00000000E+00
  0.00000000E+00  0.00000000E+00  0.00000000E+00
  0.00000000E+00  0.00000000E+00  0.00000000E+00
  0.00000000E+00  0.00000000E+00  0.00000000E+00
  0.00000000E+00  0.00000000E+00  0.00000000E+00
  0.00000000E+00  0.00000000E+00  0.00000000E+00
  0.00000000E+00  0.00000000E+00  0.00000000E+00
  0.00000000E+00  0.00000000E+00  0.00000000E+00
  0.00000000E+00  0.00000000E+00  0.00000000E+00
  0.00000000E+00  0.00000000E+00  0.00000000E+00
  0.00000000E+00  0.00000000E+00  0.00000000E+00
  0.00000000E+00  0.00000000E+00  0.00000000E+00
  0.00000000E+00  0.00000000E+00  0.00000000E+00
  0.00000000E+00  0.00000000E+00  0.00000000E+00
  0.00000000E+00  0.00000000E+00  0.00000000E+00
  0.00000000E+00  0.00000000E+00  0.00000000E+00
  0.00000000E+00  0.00000000E+00  0.00000000E+00
  0.00000000E+00  0.00000000E+00  0.00000000E+00
  0.00000000E+00  0.00000000E+00  0.00000000E+00
