CeO2-you-111-you-In                     
   1.00000000000000     
     9.8579053797287255   -5.6827748858264071    0.0018723913405497
    -0.0000000015072789   11.3655477689673603   -0.0000000002124968
     0.0042311696269989   -0.0000000004254832   21.1360586249102802
   O    In   Ce H
    53     1    26 1
Selective dynamics
Direct
 -0.0010323479566227  0.0011293960959648  0.9968957314205287   T   T   T
  0.1182404758420122  0.2257867379208791  0.1518522390588329   T   T   T
  0.2160340825648439  0.1060870226910448  0.3013574079766098   T   T   T
  0.1108229427174772  0.2220779713588023  0.3834692351861102   T   T   T
 -0.0019975151124629  0.0003762437536445  0.2278902641040154   T   T   T
  0.2216088821963827  0.1101232746102471  0.0750707213159626   T   T   T
  0.3333709921312056 -0.0004208825083479  0.9961753466378404   T   T   T
  0.4437930204821838  0.2207681595519847  0.1476445152453591   T   T   T
  0.5554055399098471  0.1065673953066359  0.3042166862207025   T   T   T
  0.4443710696525578  0.2397050058178043  0.3712967833567715   T   T   T
  0.3345606552884888  0.0014675531455794  0.2294069300810406   T   T   T
  0.5552690111535982  0.1101927043642115  0.0751998501807790   T   T   T
  0.6698611617848725  0.0015970808924715  0.9969084174597770   T   T   T
  0.7737273070319670  0.2249273168338521  0.1519207639176864   T   T   T
  0.8889265174695385  0.1111297587343124  0.3039163937485957   T   T   T
  0.7800803154093182  0.2189436417942382  0.3862711968600416   T   T   T
  0.6679946704624991  0.0006638352311084  0.2286951495374756   T   T   T
  0.8892465803033314  0.1112897901516197  0.0786937905388081   T   T   T
 -0.0010323479566141  0.3311712559473386  0.9968957314205258   T   T   T
  0.1112249103671598  0.5559555443003226  0.1508879946191199   T   T   T
  0.2160340825643938  0.4432800598746267  0.3013574079766730   T   T   T
  0.1145240245169916  0.5586780433603590  0.3831172095624765   T   T   T
 -0.0019975151117000  0.3309592411334565  0.2278902641039914   T   T   T
  0.2216088821962729  0.4448186075859971  0.0750707213159493   T   T   T
  0.3316525352627314  0.3324927676312445  0.9958447906076437   T   T   T
  0.4437930204807120  0.5563588609308752  0.1476445152454035   T   T   T
  0.4443710696525858  0.5380000638371164  0.3712967833569978   T   T   T
  0.3513743480192680  0.3423536740094058  0.2341083387886524   T   T   T
  0.5556317345940452  0.4444818672971578  0.0729013329582652   T   T   T
  0.6676512917528082  0.3326394781555638  0.9961835075075784   T   T   T
  0.7786053204941443  0.5559696602465114  0.1478237041109441   T   T   T
  0.8947640297636610  0.4446007278970626  0.3036008624881328   T   T   T
  0.7713899819226612  0.5523619909611898  0.3780837935446238   T   T   T
  0.6587718149217612  0.3420029034481172  0.2342917957875918   T   T   T
  0.8898752514548900  0.4445338479699976  0.0755501542721929   T   T   T
  0.0003804401742011  0.6668572200870261  0.9961297651422480   T   T   T
  0.1112249103668508  0.8886033660661870  0.1508879946191327   T   T   T
  0.2224416506807873  0.7778878253402823  0.3021600157388050   T   T   T
  0.1145240245158885  0.8891799811556933  0.3831172095624788   T   T   T
 -0.0012641694377135  0.6660349152806072  0.2294355543646828   T   T   T
  0.2226044296020796  0.7779692148009512  0.0755737849196709   T   T   T
  0.3333709921310000  0.6671258746395269  0.9961753466378610   T   T   T
  0.4448145694960813  0.8890742847482302  0.1508314664137244   T   T   T
  0.5554055399081003  0.7821711446035964  0.3042166862205917   T   T   T
  0.4406207155308274  0.8869773577655108  0.3836113180806179   T   T   T
  0.3345606552885923  0.6664271021435474  0.2294069300810130   T   T   T
  0.5552690111533471  0.7784093067895596  0.0751998501808099   T   T   T
  0.6676512917526947  0.6683448135973926  0.9961835075076344   T   T   T
  0.7737273070316720  0.8821329901977829  0.1519207639175932   T   T   T
  0.8947640297623786  0.7834963018628432  0.3036008624881587   T   T   T
  0.7800803154062527  0.8944696736117435  0.3862711968601013   T   T   T
  0.6587718149209970  0.6501019114741511  0.2342917957877654   T   T   T
  0.8898752514547091  0.7786744034845146  0.0755501542722308   T   T   T
  0.3173215094673830  0.3253272547335977  0.3422816205512426   T   T   T
  0.0022782955005668  0.0026846913354197  0.3436772675291377   T   T   T
  0.2232836645767264  0.1121041599849949  0.1910927959771726   T   T   T
  0.1113136170598711  0.2223233085299508  0.0367939821771399   T   T   T
  0.3323698517605829  0.0017658118586246  0.3420786405791456   T   T   T
  0.5550923058914878  0.1118493606793243  0.1909456897560531   T   T   T
  0.4434796839855510  0.2203333433342719  0.0343948145693971   T   T   T
  0.6660995871579490 -0.0002837064202297  0.3447000878437224   T   T   T
  0.8886359364080394  0.1109844682046227  0.1908009137931437   T   T   T
  0.7778812995853511  0.2223249224105894  0.0368300905397526   T   T   T
  0.0022782954980237  0.3329266041653058  0.3436772675291292   T   T   T
  0.2232836645774655  0.4445125045906920  0.1910927959771764   T   T   T
  0.1108112415265451  0.5548408247893745  0.0367106380657085   T   T   T
  0.5547962721409047  0.4440641360691100  0.1824178822392931   T   T   T
  0.4434796839857897  0.5564803406512525  0.0343948145693646   T   T   T
  0.6714322838594045  0.3282342955921205  0.3478087090999615   T   T   T
  0.8881953407719485  0.4447104980724667  0.1910220363407241   T   T   T
  0.7796949374752122  0.5565144687375311  0.0345939896055061   T   T   T
  0.0018772040584310  0.6676056020312260  0.3422716616632067   T   T   T
  0.2223719053216194  0.7778529526612098  0.1893508419286972   T   T   T
  0.1108112415262728  0.8893044167375251  0.0367106380657258   T   T   T
  0.3323698517606622  0.6639380398997849  0.3420786405792619   T   T   T
  0.5550923058941799  0.7765759452119083  0.1909456897560640   T   T   T
  0.4453365200212907  0.8893352600104774  0.0365971219754106   T   T   T
  0.6714322838637146  0.6765309882687905  0.3478087090996392   T   T   T
  0.8881953407737239  0.7768178427035726  0.1910220363407615   T   T   T
  0.7778812995857417  0.8888893771749475  0.0368300905397523   T   T   T
0.446598 0.216020 0.433410 T T T 
 
  0.00000000E+00  0.00000000E+00  0.00000000E+00
  0.00000000E+00  0.00000000E+00  0.00000000E+00
  0.00000000E+00  0.00000000E+00  0.00000000E+00
  0.00000000E+00  0.00000000E+00  0.00000000E+00
  0.00000000E+00  0.00000000E+00  0.00000000E+00
  0.00000000E+00  0.00000000E+00  0.00000000E+00
  0.00000000E+00  0.00000000E+00  0.00000000E+00
  0.00000000E+00  0.00000000E+00  0.00000000E+00
  0.00000000E+00  0.00000000E+00  0.00000000E+00
  0.00000000E+00  0.00000000E+00  0.00000000E+00
  0.00000000E+00  0.00000000E+00  0.00000000E+00
  0.00000000E+00  0.00000000E+00  0.00000000E+00
  0.00000000E+00  0.00000000E+00  0.00000000E+00
  0.00000000E+00  0.00000000E+00  0.00000000E+00
  0.00000000E+00  0.00000000E+00  0.00000000E+00
  0.00000000E+00  0.00000000E+00  0.00000000E+00
  0.00000000E+00  0.00000000E+00  0.00000000E+00
  0.00000000E+00  0.00000000E+00  0.00000000E+00
  0.00000000E+00  0.00000000E+00  0.00000000E+00
  0.00000000E+00  0.00000000E+00  0.00000000E+00
  0.00000000E+00  0.00000000E+00  0.00000000E+00
  0.00000000E+00  0.00000000E+00  0.00000000E+00
  0.00000000E+00  0.00000000E+00  0.00000000E+00
  0.00000000E+00  0.00000000E+00  0.00000000E+00
  0.00000000E+00  0.00000000E+00  0.00000000E+00
  0.00000000E+00  0.00000000E+00  0.00000000E+00
  0.00000000E+00  0.00000000E+00  0.00000000E+00
  0.00000000E+00  0.00000000E+00  0.00000000E+00
  0.00000000E+00  0.00000000E+00  0.00000000E+00
  0.00000000E+00  0.00000000E+00  0.00000000E+00
  0.00000000E+00  0.00000000E+00  0.00000000E+00
  0.00000000E+00  0.00000000E+00  0.00000000E+00
  0.00000000E+00  0.00000000E+00  0.00000000E+00
  0.00000000E+00  0.00000000E+00  0.00000000E+00
  0.00000000E+00  0.00000000E+00  0.00000000E+00
  0.00000000E+00  0.00000000E+00  0.00000000E+00
  0.00000000E+00  0.00000000E+00  0.00000000E+00
  0.00000000E+00  0.00000000E+00  0.00000000E+00
  0.00000000E+00  0.00000000E+00  0.00000000E+00
  0.00000000E+00  0.00000000E+00  0.00000000E+00
  0.00000000E+00  0.00000000E+00  0.00000000E+00
  0.00000000E+00  0.00000000E+00  0.00000000E+00
  0.00000000E+00  0.00000000E+00  0.00000000E+00
  0.00000000E+00  0.00000000E+00  0.00000000E+00
  0.00000000E+00  0.00000000E+00  0.00000000E+00
  0.00000000E+00  0.00000000E+00  0.00000000E+00
  0.00000000E+00  0.00000000E+00  0.00000000E+00
  0.00000000E+00  0.00000000E+00  0.00000000E+00
  0.00000000E+00  0.00000000E+00  0.00000000E+00
  0.00000000E+00  0.00000000E+00  0.00000000E+00
  0.00000000E+00  0.00000000E+00  0.00000000E+00
  0.00000000E+00  0.00000000E+00  0.00000000E+00
  0.00000000E+00  0.00000000E+00  0.00000000E+00
  0.00000000E+00  0.00000000E+00  0.00000000E+00
  0.00000000E+00  0.00000000E+00  0.00000000E+00
  0.00000000E+00  0.00000000E+00  0.00000000E+00
  0.00000000E+00  0.00000000E+00  0.00000000E+00
  0.00000000E+00  0.00000000E+00  0.00000000E+00
  0.00000000E+00  0.00000000E+00  0.00000000E+00
  0.00000000E+00  0.00000000E+00  0.00000000E+00
  0.00000000E+00  0.00000000E+00  0.00000000E+00
  0.00000000E+00  0.00000000E+00  0.00000000E+00
  0.00000000E+00  0.00000000E+00  0.00000000E+00
  0.00000000E+00  0.00000000E+00  0.00000000E+00
  0.00000000E+00  0.00000000E+00  0.00000000E+00
  0.00000000E+00  0.00000000E+00  0.00000000E+00
  0.00000000E+00  0.00000000E+00  0.00000000E+00
  0.00000000E+00  0.00000000E+00  0.00000000E+00
  0.00000000E+00  0.00000000E+00  0.00000000E+00
  0.00000000E+00  0.00000000E+00  0.00000000E+00
  0.00000000E+00  0.00000000E+00  0.00000000E+00
  0.00000000E+00  0.00000000E+00  0.00000000E+00
  0.00000000E+00  0.00000000E+00  0.00000000E+00
  0.00000000E+00  0.00000000E+00  0.00000000E+00
  0.00000000E+00  0.00000000E+00  0.00000000E+00
  0.00000000E+00  0.00000000E+00  0.00000000E+00
  0.00000000E+00  0.00000000E+00  0.00000000E+00
  0.00000000E+00  0.00000000E+00  0.00000000E+00
  0.00000000E+00  0.00000000E+00  0.00000000E+00
  0.00000000E+00  0.00000000E+00  0.00000000E+00
