CeO2-you-111-you-Hg                     
   1.00000000000000     
     9.8402607806631082   -5.6812775815487750    0.0000000000000000
     0.0000000004581029   11.3625531643226552    0.0000000000000000
     0.0000000000000000    0.0000000000000000   21.2525489196966006
   O    Hg   Ce   H 
    54     1    26     1
Selective dynamics
Direct
  0.0001845020794374  0.0001132423954917  0.9971544484780370   T   T   T
  0.1050752776687247  0.2192041388348613  0.1486021693101236   F   F   F
  0.2371045536141644  0.1243751964072015  0.3086394132834745   T   T   T
  0.1116504469122775  0.2236444960814443  0.3843475721562856   T   T   T
  0.0056023315951118  0.0016173613895160  0.2311455596249080   T   T   T
  0.2227109831127905  0.1120889662255209  0.0757163298247363   F   F   F
  0.3330041382261031  0.0000988850277776  0.9967519926149533   T   T   T
  0.4474618611661327  0.2192041388353019  0.1486021693101236   F   F   F
  0.5526591811658403  0.1133077287766595  0.3043302668971070   T   T   T
  0.4690174785039092  0.1985834406803062  0.4066106777900749   T   T   T
  0.3304075529379653 -0.0002901756250442  0.2301114224399386   T   T   T
  0.5570343790162653  0.1096326209836533  0.0754574129596861   F   F   F
  0.6669443290545741 -0.0000481563353774  0.9955412983393135   T   T   T
  0.7779474698298969  0.2225609396598145  0.1510647210161764   F   F   F
  0.8907663579005138  0.1096030895091026  0.3042832803332829   T   T   T
  0.7797253603528418  0.2222375290544407  0.3809458746853854   T   T   T
  0.6663636900775560  0.0007226074267364  0.2307259457459936   T   T   T
  0.8859322419674172  0.1096326209836818  0.0754574129596861   F   F   F
  0.0001374324618338  0.3331028601347850  0.9967228879694341   T   T   T
  0.1107440953722616  0.5559229046276855  0.1497484937991800   F   F   F
  0.2154833103081778  0.4512925527866273  0.2986785831474762   T   T   T
  0.1100924028981958  0.5566442925818824  0.3829486377126815   T   T   T
 -0.0033169080241898  0.3303437165271414  0.2285548016171762   T   T   T
  0.2227109831129184  0.4439550168872657  0.0757163298247363   F   F   F
  0.3333682176967346  0.3332071202739414  0.9964858146872700   T   T   T
  0.4474618611651380  0.5615917223298439  0.1486021693101236   F   F   F
  0.5429238015693649  0.4294427651238844  0.3081986759449092   T   T   T
  0.4434910322021127  0.5548475503427333  0.3839731054692033   T   T   T
  0.3328901356234759  0.3329542206615211  0.2183436106480663   T   T   T
  0.5545780337742983  0.4439550168872088  0.0757163298247363   F   F   F
  0.6663499995756205  0.3336709663406071  0.9968786356276519   T   T   T
  0.7785118092554413  0.5559229046276997  0.1497484937991800   F   F   F
  0.8906427339190554  0.4459985489070816  0.3032809475866655   T   T   T
  0.7768131734398268  0.5534910027819605  0.3817171207942628   T   T   T
  0.6669883734916501  0.3356636553396177  0.2299442883701606   T   T   T
  0.8884309966241446  0.4435279932483382  0.0760190999331911   F   F   F
 -0.0000310083680292  0.6668863842455079  0.9972725111912132   T   T   T
  0.1107440953723042  0.8881551907446195  0.1497484937991800   F   F   F
  0.2212041058946195  0.7765708948888751  0.3033017876761467   T   T   T
  0.1129388104135645  0.8897647064625243  0.3816427964867989   T   T   T
 -0.0004207410334326  0.6674601541428064  0.2294001547124236   T   T   T
  0.2231380067518245  0.7782360033758522  0.0760190999331911   F   F   F
  0.3331354356253972  0.6662737299155729  0.9969160615709006   T   T   T
  0.4441050603402275  0.8887195301700999  0.1510647210161764   F   F   F
  0.5566540707381465  0.7761094587497553  0.3041317401878236   T   T   T
  0.4437727718771250  0.8867646225581937  0.3812470496261540   T   T   T
  0.3359586723013850  0.6696489482610291  0.2284156392941293   T   T   T
  0.5570343790163221  0.7807347580326649  0.0754574129596861   F   F   F
  0.6666447427111396  0.6665905892630429  0.9968039892180501   T   T   T
  0.7779474698298685  0.8887195301700856  0.1510647210161764   F   F   F
  0.8885842207275022  0.7779190329090866  0.3042153300114498   T   T   T
  0.7775439220693766  0.8881979438198637  0.3825835636582131   T   T   T
  0.6652246633292035  0.6610589496439592  0.2310964434075204   T   T   T
  0.8884309966240309  0.7782360033758025  0.0760190999331911   F   F   F
  0.3313164552823912  0.3355050433338453  0.3496948719032795   T   T   T
  0.0023916395155088  0.0019770467245804  0.3430665616787221   T   T   T
  0.2235177812898002  0.1137025625793058  0.1885129522748414   F   F   F
  0.1106840147459991  0.2220085073730118  0.0360900231893879   F   F   F
  0.3325970307952818 -0.0054430023199311  0.3432037389160192   T   T   T
  0.5555546683203048  0.1111123316795215  0.1898267481222007   F   F   F
  0.4446574926270088  0.2220085073730189  0.0360900231893879   F   F   F
  0.6674575744200514 -0.0010501772135942  0.3431017104463359   T   T   T
  0.8888916633592672  0.1111123316795783  0.1898267481222007   F   F   F
  0.7774406473123889  0.2215472946248127  0.0361638411471361   F   F   F
  0.0041365979490082  0.3361695726935128  0.3411821468802436   T   T   T
  0.2235177812904539  0.4431482187104905  0.1885129522748414   F   F   F
  0.1111150044841338  0.5555519955160975  0.0368515557336693   F   F   F
  0.5529644374197531  0.4431482187101992  0.1885129522748414   F   F   F
  0.4446574926269875  0.5559829852539693  0.0360900231893879   F   F   F
  0.6723474825824232  0.3341163872248922  0.3431038264808231   T   T   T
  0.8889353863043965  0.4445367726087213  0.1895530696808194   F   F   F
  0.7777699910318958  0.5555519955160335  0.0368515557336693   F   F   F
  0.0000954179415891  0.6666471580060666  0.3425116775833687   T   T   T
  0.2221292273910649  0.7777316136956003  0.1895530696808194   F   F   F
  0.1111150044839704  0.8888970089678736  0.0368515557336693   F   F   F
  0.3304413431082768  0.6627277835022406  0.3411549762689441   T   T   T
  0.5555546683204255  0.7777753366409002  0.1898267481222007   F   F   F
  0.4451187053753003  0.8892263526876079  0.0361638411471361   F   F   F
  0.6647693958876261  0.6642092219310100  0.3429740392838396   T   T   T
  0.8889353863045386  0.7777316136956713  0.1895530696808194   F   F   F
  0.7774406473123108  0.8892263526875723  0.0361638411471361   F   F   F
  0.4501329041610964  0.2173084227088036  0.4488584395675581   T   T   T
 
  0.00000000E+00  0.00000000E+00  0.00000000E+00
  0.00000000E+00  0.00000000E+00  0.00000000E+00
  0.00000000E+00  0.00000000E+00  0.00000000E+00
  0.00000000E+00  0.00000000E+00  0.00000000E+00
  0.00000000E+00  0.00000000E+00  0.00000000E+00
  0.00000000E+00  0.00000000E+00  0.00000000E+00
  0.00000000E+00  0.00000000E+00  0.00000000E+00
  0.00000000E+00  0.00000000E+00  0.00000000E+00
  0.00000000E+00  0.00000000E+00  0.00000000E+00
  0.00000000E+00  0.00000000E+00  0.00000000E+00
  0.00000000E+00  0.00000000E+00  0.00000000E+00
  0.00000000E+00  0.00000000E+00  0.00000000E+00
  0.00000000E+00  0.00000000E+00  0.00000000E+00
  0.00000000E+00  0.00000000E+00  0.00000000E+00
  0.00000000E+00  0.00000000E+00  0.00000000E+00
  0.00000000E+00  0.00000000E+00  0.00000000E+00
  0.00000000E+00  0.00000000E+00  0.00000000E+00
  0.00000000E+00  0.00000000E+00  0.00000000E+00
  0.00000000E+00  0.00000000E+00  0.00000000E+00
  0.00000000E+00  0.00000000E+00  0.00000000E+00
  0.00000000E+00  0.00000000E+00  0.00000000E+00
  0.00000000E+00  0.00000000E+00  0.00000000E+00
  0.00000000E+00  0.00000000E+00  0.00000000E+00
  0.00000000E+00  0.00000000E+00  0.00000000E+00
  0.00000000E+00  0.00000000E+00  0.00000000E+00
  0.00000000E+00  0.00000000E+00  0.00000000E+00
  0.00000000E+00  0.00000000E+00  0.00000000E+00
  0.00000000E+00  0.00000000E+00  0.00000000E+00
  0.00000000E+00  0.00000000E+00  0.00000000E+00
  0.00000000E+00  0.00000000E+00  0.00000000E+00
  0.00000000E+00  0.00000000E+00  0.00000000E+00
  0.00000000E+00  0.00000000E+00  0.00000000E+00
  0.00000000E+00  0.00000000E+00  0.00000000E+00
  0.00000000E+00  0.00000000E+00  0.00000000E+00
  0.00000000E+00  0.00000000E+00  0.00000000E+00
  0.00000000E+00  0.00000000E+00  0.00000000E+00
  0.00000000E+00  0.00000000E+00  0.00000000E+00
  0.00000000E+00  0.00000000E+00  0.00000000E+00
  0.00000000E+00  0.00000000E+00  0.00000000E+00
  0.00000000E+00  0.00000000E+00  0.00000000E+00
  0.00000000E+00  0.00000000E+00  0.00000000E+00
  0.00000000E+00  0.00000000E+00  0.00000000E+00
  0.00000000E+00  0.00000000E+00  0.00000000E+00
  0.00000000E+00  0.00000000E+00  0.00000000E+00
  0.00000000E+00  0.00000000E+00  0.00000000E+00
  0.00000000E+00  0.00000000E+00  0.00000000E+00
  0.00000000E+00  0.00000000E+00  0.00000000E+00
  0.00000000E+00  0.00000000E+00  0.00000000E+00
  0.00000000E+00  0.00000000E+00  0.00000000E+00
  0.00000000E+00  0.00000000E+00  0.00000000E+00
  0.00000000E+00  0.00000000E+00  0.00000000E+00
  0.00000000E+00  0.00000000E+00  0.00000000E+00
  0.00000000E+00  0.00000000E+00  0.00000000E+00
  0.00000000E+00  0.00000000E+00  0.00000000E+00
  0.00000000E+00  0.00000000E+00  0.00000000E+00
  0.00000000E+00  0.00000000E+00  0.00000000E+00
  0.00000000E+00  0.00000000E+00  0.00000000E+00
  0.00000000E+00  0.00000000E+00  0.00000000E+00
  0.00000000E+00  0.00000000E+00  0.00000000E+00
  0.00000000E+00  0.00000000E+00  0.00000000E+00
  0.00000000E+00  0.00000000E+00  0.00000000E+00
  0.00000000E+00  0.00000000E+00  0.00000000E+00
  0.00000000E+00  0.00000000E+00  0.00000000E+00
  0.00000000E+00  0.00000000E+00  0.00000000E+00
  0.00000000E+00  0.00000000E+00  0.00000000E+00
  0.00000000E+00  0.00000000E+00  0.00000000E+00
  0.00000000E+00  0.00000000E+00  0.00000000E+00
  0.00000000E+00  0.00000000E+00  0.00000000E+00
  0.00000000E+00  0.00000000E+00  0.00000000E+00
  0.00000000E+00  0.00000000E+00  0.00000000E+00
  0.00000000E+00  0.00000000E+00  0.00000000E+00
  0.00000000E+00  0.00000000E+00  0.00000000E+00
  0.00000000E+00  0.00000000E+00  0.00000000E+00
  0.00000000E+00  0.00000000E+00  0.00000000E+00
  0.00000000E+00  0.00000000E+00  0.00000000E+00
  0.00000000E+00  0.00000000E+00  0.00000000E+00
  0.00000000E+00  0.00000000E+00  0.00000000E+00
  0.00000000E+00  0.00000000E+00  0.00000000E+00
  0.00000000E+00  0.00000000E+00  0.00000000E+00
  0.00000000E+00  0.00000000E+00  0.00000000E+00
  0.00000000E+00  0.00000000E+00  0.00000000E+00
  0.00000000E+00  0.00000000E+00  0.00000000E+00
