CeO2-you-111-you-Nb                     
   1.00000000000000     
     9.8355892315446969   -5.6785804569581906    0.0000000006345379
     0.0399187865379594   11.4263002773247102    0.0122385008889978
     0.0132330320226935    0.0229202799946159   20.9827945804203644
   O    Nb   Ce   H 
    53     1    26     1
Selective dynamics
Direct
  0.0000186616901851  0.0006112848445666  0.9950105463810895   T   T   T
  0.1189113367749906  0.2246523973178220  0.1486701404689820   T   T   T
  0.2429195062244045  0.1370318255150242  0.3079611250114178   T   T   T
  0.1399702990540827  0.2492299575898750  0.3854599927395262   T   T   T
  0.0070461801352013  0.0030263561663561  0.2284701859893145   T   T   T
  0.2228086529739127  0.1086643197556100  0.0730497471020394   T   T   T
  0.3344580592197626 -0.0006054783107874  0.9931717196646926   T   T   T
  0.4444492464513158  0.2225259626985948  0.1465262091325516   T   T   T
  0.5652774041377366  0.1167761601099134  0.3040066819585157   T   T   T
  0.4714572571211179  0.2163062733455372  0.4044730530086428   T   T   T
  0.3328473664348310  0.0015142804452088  0.2281260939422533   T   T   T
  0.5554937430200522  0.1098377191986242  0.0737515081652571   T   T   T
  0.6700055859253898  0.0003624953992208  0.9951533467328023   T   T   T
  0.7736617338773929  0.2249604888583028  0.1518671596919356   T   T   T
  0.8937543623893931  0.1187674950406023  0.3045011459497352   T   T   T
  0.7846827320738324  0.2255897647889996  0.3877264990950403   T   T   T
  0.6687344786754078 -0.0013104190456878  0.2284329204147466   T   T   T
  0.8890267338371486  0.1103434809071209  0.0774089193255649   T   T   T
 -0.0008933634255815  0.3290109093239167  0.9944909182059033   T   T   T
  0.1098718073325784  0.5561789923583731  0.1460223476650915   T   T   T
  0.2205948129078291  0.4364088598660007  0.2997772719772294   T   T   T
  0.0986489809211845  0.5436071164429657  0.3842394115921034   T   T   T
  0.0033182556762147  0.3346861645355335  0.2249233961412901   T   T   T
  0.2220843313293624  0.4446023025522402  0.0711692579456012   T   T   T
  0.3323124847969919  0.3313476926120025  0.9931127890481167   T   T   T
  0.4440093052592570  0.5546620960846751  0.1439839895667596   T   T   T
  0.4519283680058533  0.4560244650324734  0.3651895953894516   T   T   T
  0.3442941491735725  0.3427930218421892  0.2330157642655068   T   T   T
  0.5564765778899804  0.4436737760421919  0.0693728303749543   T   T   T
  0.6672770354931300  0.3303062838702198  0.9931155258380703   T   T   T
  0.7793089877403742  0.5549443701110794  0.1445526109372738   T   T   T
  0.8895868101779865  0.4371584605460356  0.3000539185081131   T   T   T
  0.7741681639175428  0.5371273527860297  0.3806180870361040   T   T   T
  0.6550882752958841  0.3454594949807648  0.2351526075901377   T   T   T
  0.8893286720837911  0.4426437615718879  0.0717629213981744   T   T   T
  0.0010023819409502  0.6658029035214371  0.9924434708695110   T   T   T
  0.1118496298661270  0.8882544288652896  0.1486492680317070   T   T   T
  0.2198018101608767  0.7725520778314544  0.3011221306270810   T   T   T
  0.1037788534491481  0.8692443834377032  0.3878354890661589   T   T   T
 -0.0018837437557375  0.6625785681183608  0.2268535308002293   T   T   T
  0.2239820897999345  0.7779665336815141  0.0725787915352694   T   T   T
  0.3346817222885343  0.6671199593942013  0.9928214929519632   T   T   T
  0.4466062062651662  0.8904596221388266  0.1499267181599158   T   T   T
  0.5562704073279744  0.7738262345415881  0.3019800442981045   T   T   T
  0.4588250285943858  0.8895664745004744  0.3875691804093073   T   T   T
  0.3321270532773726  0.6620925320299129  0.2244974317469721   T   T   T
  0.5569289000929650  0.7779289513148903  0.0733920016325368   T   T   T
  0.6682001178668862  0.6678381749517683  0.9929258680398835   T   T   T
  0.7781010579422702  0.8840237914112175  0.1518463792060784   T   T   T
  0.8908037661386841  0.7750227998885029  0.3019384712283803   T   T   T
  0.7723856577042886  0.8912735024691335  0.3885106992822688   T   T   T
  0.6589272095409745  0.6466118035035174  0.2298422457118785   T   T   T
  0.8905186064938719  0.7775499421210290  0.0725869565641025   T   T   T
  0.2930741915262763  0.3234496592749338  0.3288219222022569   T   T   T
  0.0011427731527621 -0.0048231592126666  0.3492515481149605   T   T   T
  0.2239946729618736  0.1093443931187280  0.1884944757747302   T   T   T
  0.1114590915412608  0.2208610000466593  0.0338920735294863   T   T   T
  0.3344195177585159  0.9941929644399939  0.3503965246764190   T   T   T
  0.5543861942162533  0.1105923988059408  0.1913891083873546   T   T   T
  0.4444411013691990  0.2194146950512625  0.0316665489558609   T   T   T
  0.6669700828705459 -0.0059390420493427  0.3452384957581787   T   T   T
  0.8910384951269937  0.1109258245961989  0.1912922398685636   T   T   T
  0.7778961177569212  0.2209036648376180  0.0349929509271196   T   T   T
 -0.0025612829250735  0.3340546908900521  0.3436966084018096   T   T   T
  0.2221421890080411  0.4466995920675254  0.1836996997215794   T   T   T
  0.1113172035282712  0.5553339304336196  0.0323697068711612   T   T   T
  0.5567935003779053  0.4454672119261249  0.1792292923025734   T   T   T
  0.4453500802882265  0.5571000829180460  0.0305837185118247   T   T   T
  0.6781005983342556  0.3266391842371070  0.3473512082645668   T   T   T
  0.8884200163573622  0.4445952567533801  0.1877185003445914   T   T   T
  0.7804024732823333  0.5560226760054520  0.0311621523852694   T   T   T
  0.0009377291317636  0.6646886046611719  0.3429466243120728   T   T   T
  0.2234691299085028  0.7780142298157546  0.1885629608187807   T   T   T
  0.1121884524017799  0.8888101275090567  0.0340375803764500   T   T   T
  0.3310189231523584  0.6703212548716165  0.3431881436677418   T   T   T
  0.5559171072067711  0.7754066164405342  0.1905198827502398   T   T   T
  0.4465394862819674  0.8894717618700564  0.0348733829493977   T   T   T
  0.6743327369645435  0.6712299554262380  0.3471014951610734   T   T   T
  0.8897811966058509  0.7760689283053785  0.1902727536306614   T   T   T
  0.7790321676549598  0.8887700324508688  0.0355900199895427   T   T   T
  0.4543163045728228  0.2642152956043622  0.4381069729305387   T   T   T
 
  0.00000000E+00  0.00000000E+00  0.00000000E+00
  0.00000000E+00  0.00000000E+00  0.00000000E+00
  0.00000000E+00  0.00000000E+00  0.00000000E+00
  0.00000000E+00  0.00000000E+00  0.00000000E+00
  0.00000000E+00  0.00000000E+00  0.00000000E+00
  0.00000000E+00  0.00000000E+00  0.00000000E+00
  0.00000000E+00  0.00000000E+00  0.00000000E+00
  0.00000000E+00  0.00000000E+00  0.00000000E+00
  0.00000000E+00  0.00000000E+00  0.00000000E+00
  0.00000000E+00  0.00000000E+00  0.00000000E+00
  0.00000000E+00  0.00000000E+00  0.00000000E+00
  0.00000000E+00  0.00000000E+00  0.00000000E+00
  0.00000000E+00  0.00000000E+00  0.00000000E+00
  0.00000000E+00  0.00000000E+00  0.00000000E+00
  0.00000000E+00  0.00000000E+00  0.00000000E+00
  0.00000000E+00  0.00000000E+00  0.00000000E+00
  0.00000000E+00  0.00000000E+00  0.00000000E+00
  0.00000000E+00  0.00000000E+00  0.00000000E+00
  0.00000000E+00  0.00000000E+00  0.00000000E+00
  0.00000000E+00  0.00000000E+00  0.00000000E+00
  0.00000000E+00  0.00000000E+00  0.00000000E+00
  0.00000000E+00  0.00000000E+00  0.00000000E+00
  0.00000000E+00  0.00000000E+00  0.00000000E+00
  0.00000000E+00  0.00000000E+00  0.00000000E+00
  0.00000000E+00  0.00000000E+00  0.00000000E+00
  0.00000000E+00  0.00000000E+00  0.00000000E+00
  0.00000000E+00  0.00000000E+00  0.00000000E+00
  0.00000000E+00  0.00000000E+00  0.00000000E+00
  0.00000000E+00  0.00000000E+00  0.00000000E+00
  0.00000000E+00  0.00000000E+00  0.00000000E+00
  0.00000000E+00  0.00000000E+00  0.00000000E+00
  0.00000000E+00  0.00000000E+00  0.00000000E+00
  0.00000000E+00  0.00000000E+00  0.00000000E+00
  0.00000000E+00  0.00000000E+00  0.00000000E+00
  0.00000000E+00  0.00000000E+00  0.00000000E+00
  0.00000000E+00  0.00000000E+00  0.00000000E+00
  0.00000000E+00  0.00000000E+00  0.00000000E+00
  0.00000000E+00  0.00000000E+00  0.00000000E+00
  0.00000000E+00  0.00000000E+00  0.00000000E+00
  0.00000000E+00  0.00000000E+00  0.00000000E+00
  0.00000000E+00  0.00000000E+00  0.00000000E+00
  0.00000000E+00  0.00000000E+00  0.00000000E+00
  0.00000000E+00  0.00000000E+00  0.00000000E+00
  0.00000000E+00  0.00000000E+00  0.00000000E+00
  0.00000000E+00  0.00000000E+00  0.00000000E+00
  0.00000000E+00  0.00000000E+00  0.00000000E+00
  0.00000000E+00  0.00000000E+00  0.00000000E+00
  0.00000000E+00  0.00000000E+00  0.00000000E+00
  0.00000000E+00  0.00000000E+00  0.00000000E+00
  0.00000000E+00  0.00000000E+00  0.00000000E+00
  0.00000000E+00  0.00000000E+00  0.00000000E+00
  0.00000000E+00  0.00000000E+00  0.00000000E+00
  0.00000000E+00  0.00000000E+00  0.00000000E+00
  0.00000000E+00  0.00000000E+00  0.00000000E+00
  0.00000000E+00  0.00000000E+00  0.00000000E+00
  0.00000000E+00  0.00000000E+00  0.00000000E+00
  0.00000000E+00  0.00000000E+00  0.00000000E+00
  0.00000000E+00  0.00000000E+00  0.00000000E+00
  0.00000000E+00  0.00000000E+00  0.00000000E+00
  0.00000000E+00  0.00000000E+00  0.00000000E+00
  0.00000000E+00  0.00000000E+00  0.00000000E+00
  0.00000000E+00  0.00000000E+00  0.00000000E+00
  0.00000000E+00  0.00000000E+00  0.00000000E+00
  0.00000000E+00  0.00000000E+00  0.00000000E+00
  0.00000000E+00  0.00000000E+00  0.00000000E+00
  0.00000000E+00  0.00000000E+00  0.00000000E+00
  0.00000000E+00  0.00000000E+00  0.00000000E+00
  0.00000000E+00  0.00000000E+00  0.00000000E+00
  0.00000000E+00  0.00000000E+00  0.00000000E+00
  0.00000000E+00  0.00000000E+00  0.00000000E+00
  0.00000000E+00  0.00000000E+00  0.00000000E+00
  0.00000000E+00  0.00000000E+00  0.00000000E+00
  0.00000000E+00  0.00000000E+00  0.00000000E+00
  0.00000000E+00  0.00000000E+00  0.00000000E+00
  0.00000000E+00  0.00000000E+00  0.00000000E+00
  0.00000000E+00  0.00000000E+00  0.00000000E+00
  0.00000000E+00  0.00000000E+00  0.00000000E+00
  0.00000000E+00  0.00000000E+00  0.00000000E+00
  0.00000000E+00  0.00000000E+00  0.00000000E+00
  0.00000000E+00  0.00000000E+00  0.00000000E+00
  0.00000000E+00  0.00000000E+00  0.00000000E+00
