CeO2-you-111-you-Nb                     
   1.00000000000000     
     9.8470903888776320   -5.6852206576247255    0.0000000000000000
    -0.0000000001710843   11.3704393139969753    0.0000000000000000
     0.0000000000000000    0.0000000000000000   21.0541099874070383
   O    Nb   Ce   H 
    54     1    26     1
Selective dynamics
Direct
 -0.0000408828882676 -0.0000625017928905  0.9954935830576614   T   T   T
  0.1163810300212234  0.2248570150107483  0.1517262494405358   F   F   F
  0.2332764213931363  0.1154795387343975  0.3029495687072341   T   T   T
  0.1589729311959560  0.2409762855721992  0.3797401384418681   T   T   T
  0.0006700067934344  0.9990628329420090  0.2296527976261241   T   T   T
  0.2221591465511992  0.1109852931023241  0.0748590007043290   F   F   F
  0.3336661939914961 -0.0000153077204698  0.9956627126277232   T   T   T
  0.4418089849895210  0.2248570150108691  0.1517262494405358   F   F   F
  0.5498689845729000  0.1144629386955175  0.3059172385085538   T   T   T
  0.4333204799031906  0.2306119342286297  0.3953360743589663   T   T   T
  0.3337416325908537  0.9971598021115935  0.2283728058261214   T   T   T
  0.5542662988386340  0.1124007011618460  0.0758970660562710   F   F   F
  0.6669824354724917 -0.0001512210726067  0.9966348694009560   T   T   T
  0.7762968427557766  0.2192596855113891  0.1494753075878137   F   F   F
  0.8934115574700530  0.1091866821068029  0.3055108682348558   T   T   T
  0.7663874269379963  0.2163217339085034  0.3861400662135767   T   T   T
  0.6662179743121547 -0.0000897111152428  0.2322249615435430   T   T   T
  0.8914684023230635  0.1124007011616968  0.0758970660562710   F   F   F
  0.9995565658021729  0.3329374520534110  0.9956113145127118   T   T   T
  0.1116768111184143  0.5549901888821651  0.1494771453016099   F   F   F
  0.2315209139518050  0.4475856300573043  0.3027599713728648   T   T   T
  0.1220921730612957  0.5707066749555146  0.3859207427472341   T   T   T
 -0.0000305541397303  0.3333299751587590  0.2284160243555173   T   T   T
  0.2221591465513697  0.4445068534488712  0.0748590007043290   F   F   F
  0.3335347260223390  0.3332892507668644  0.9956057403133283   T   T   T
  0.4418089849892510  0.5502859699783897  0.1517262494405358   F   F   F
  0.5382712472626833  0.4226060033083547  0.3051732230877796   T   T   T
  0.4180445308988865  0.5102620689290761  0.3836044560412833   T   T   T
  0.3288324763685629  0.3347575459952458  0.2364561138797623   T   T   T
  0.5556817068974382  0.4445068534488001  0.0748590007043290   F   F   F
  0.6672536639304868  0.3330847894934670  0.9955174496911049   T   T   T
  0.7766463777635693  0.5549901888819875  0.1494771453016099   F   F   F
  0.8899611198215813  0.4473948135256939  0.3036899960537585   T   T   T
  0.7824104226274811  0.5466044144256236  0.3865313143401430   T   T   T
  0.6691563831069269  0.3338273412491219  0.2288744271604553   T   T   T
  0.8887540943015324  0.4441741886030712  0.0751935293068868   F   F   F
 -0.0000642077407933  0.6671547087624413  0.9957459924668804   T   T   T
  0.1116768111180164  0.8900206222358520  0.1494771453016099   F   F   F
  0.2218703745892679  0.7791525496329346  0.3033258087303540   T   T   T
  0.1136068286618411  0.8919303769225020  0.3843560836995964   T   T   T
  0.0003721532418656  0.6674106565352131  0.2281505175059043   T   T   T
  0.2224918113969707  0.7779129056984644  0.0751935293068868   F   F   F
  0.3337836820720878  0.6675697730043026  0.9955289697143560   T   T   T
  0.4474063144880702  0.8903701572442202  0.1494753075878137   F   F   F
  0.5484831027253755  0.7744491124170667  0.3084458663237232   T   T   T
  0.4404882714029555  0.8897794516578961  0.3854080220366676   T   T   T
  0.3331793390882963  0.6685854072841382  0.2295085139856997   T   T   T
  0.5542662988383071  0.7751985976764573  0.0758970660562710   F   F   F
  0.6672381414830947  0.6673182459058594  0.9957846988966677   T   T   T
  0.7762968427561461  0.8903701572443907  0.1494753075878137   F   F   F
  0.8939731066531232  0.7795408115286426  0.3046604989861988   T   T   T
  0.7874094395768821  0.9016072063537119  0.3865193232915838   T   T   T
  0.6664903331681703  0.6657648923872743  0.2293964941923566   T   T   T
  0.8887540943014969  0.7779129056984502  0.0751935293068868   F   F   F
  0.3259739551076567  0.3490448062317386  0.3343886244450271   T   T   T
  0.0024380377976804  0.9985211584499707  0.3428135136178039   T   T   T
  0.2212653060727661  0.1091976121459979  0.1907423489614146   F   F   F
  0.1117115730562972  0.2225222865283598  0.0359406064738934   F   F   F
  0.3295911737711730  0.9971078675150203  0.3426879760241700   T   T   T
  0.5554861660882651  0.1111808339130320  0.1904942486383376   F   F   F
  0.4441437134720587  0.2225222865285517  0.0359406064738934   F   F   F
  0.6691971070989740  0.0005810920791102  0.3461334434648251   T   T   T
  0.8890286678243697  0.1111808339126341  0.1904942486383376   F   F   F
  0.7777767875789365  0.2222195751579008  0.0358795147857336   F   F   F
  0.0020884189843010  0.3350447732561624  0.3482434442938334   T   T   T
  0.2212653060717287  0.4454006939267714  0.1907423489614146   F   F   F
  0.1113299828534267  0.5553370171461793  0.0351597726816522   F   F   F
  0.5574693878555053  0.4454006939272261  0.1907423489614146   F   F   F
  0.4441437134716395  0.5549554269430956  0.0359406064738934   F   F   F
  0.6721638864213086  0.3361255498978061  0.3435626846683571   T   T   T
  0.8889649381588001  0.4445958763174716  0.1888666347360441   F   F   F
  0.7773400342928767  0.5553370171463001  0.0351597726816522   F   F   F
 -0.0003354225487844  0.6658874184689368  0.3439398647047075   T   T   T
  0.2220701236821156  0.7777020618411967  0.1888666347360441   F   F   F
  0.1113299828537038  0.8893269657075180  0.0351597726816522   F   F   F
  0.3315178115396235  0.6713890705659524  0.3444489156583014   T   T   T
  0.5554861660873698  0.7776383321743339  0.1904942486383376   F   F   F
  0.4444464248421625  0.8888902124210603  0.0358795147857336   F   F   F
  0.6664092300078122  0.6617279150792179  0.3481523539530709   T   T   T
  0.8889649381590843  0.7777020618413246  0.1888666347360441   F   F   F
  0.7777767875788939  0.8888902124210389  0.0358795147857336   F   F   F
  0.4223219797192216  0.2371244135183171  0.4408493055830502   T   T   T
 
  0.00000000E+00  0.00000000E+00  0.00000000E+00
  0.00000000E+00  0.00000000E+00  0.00000000E+00
  0.00000000E+00  0.00000000E+00  0.00000000E+00
  0.00000000E+00  0.00000000E+00  0.00000000E+00
  0.00000000E+00  0.00000000E+00  0.00000000E+00
  0.00000000E+00  0.00000000E+00  0.00000000E+00
  0.00000000E+00  0.00000000E+00  0.00000000E+00
  0.00000000E+00  0.00000000E+00  0.00000000E+00
  0.00000000E+00  0.00000000E+00  0.00000000E+00
  0.00000000E+00  0.00000000E+00  0.00000000E+00
  0.00000000E+00  0.00000000E+00  0.00000000E+00
  0.00000000E+00  0.00000000E+00  0.00000000E+00
  0.00000000E+00  0.00000000E+00  0.00000000E+00
  0.00000000E+00  0.00000000E+00  0.00000000E+00
  0.00000000E+00  0.00000000E+00  0.00000000E+00
  0.00000000E+00  0.00000000E+00  0.00000000E+00
  0.00000000E+00  0.00000000E+00  0.00000000E+00
  0.00000000E+00  0.00000000E+00  0.00000000E+00
  0.00000000E+00  0.00000000E+00  0.00000000E+00
  0.00000000E+00  0.00000000E+00  0.00000000E+00
  0.00000000E+00  0.00000000E+00  0.00000000E+00
  0.00000000E+00  0.00000000E+00  0.00000000E+00
  0.00000000E+00  0.00000000E+00  0.00000000E+00
  0.00000000E+00  0.00000000E+00  0.00000000E+00
  0.00000000E+00  0.00000000E+00  0.00000000E+00
  0.00000000E+00  0.00000000E+00  0.00000000E+00
  0.00000000E+00  0.00000000E+00  0.00000000E+00
  0.00000000E+00  0.00000000E+00  0.00000000E+00
  0.00000000E+00  0.00000000E+00  0.00000000E+00
  0.00000000E+00  0.00000000E+00  0.00000000E+00
  0.00000000E+00  0.00000000E+00  0.00000000E+00
  0.00000000E+00  0.00000000E+00  0.00000000E+00
  0.00000000E+00  0.00000000E+00  0.00000000E+00
  0.00000000E+00  0.00000000E+00  0.00000000E+00
  0.00000000E+00  0.00000000E+00  0.00000000E+00
  0.00000000E+00  0.00000000E+00  0.00000000E+00
  0.00000000E+00  0.00000000E+00  0.00000000E+00
  0.00000000E+00  0.00000000E+00  0.00000000E+00
  0.00000000E+00  0.00000000E+00  0.00000000E+00
  0.00000000E+00  0.00000000E+00  0.00000000E+00
  0.00000000E+00  0.00000000E+00  0.00000000E+00
  0.00000000E+00  0.00000000E+00  0.00000000E+00
  0.00000000E+00  0.00000000E+00  0.00000000E+00
  0.00000000E+00  0.00000000E+00  0.00000000E+00
  0.00000000E+00  0.00000000E+00  0.00000000E+00
  0.00000000E+00  0.00000000E+00  0.00000000E+00
  0.00000000E+00  0.00000000E+00  0.00000000E+00
  0.00000000E+00  0.00000000E+00  0.00000000E+00
  0.00000000E+00  0.00000000E+00  0.00000000E+00
  0.00000000E+00  0.00000000E+00  0.00000000E+00
  0.00000000E+00  0.00000000E+00  0.00000000E+00
  0.00000000E+00  0.00000000E+00  0.00000000E+00
  0.00000000E+00  0.00000000E+00  0.00000000E+00
  0.00000000E+00  0.00000000E+00  0.00000000E+00
  0.00000000E+00  0.00000000E+00  0.00000000E+00
  0.00000000E+00  0.00000000E+00  0.00000000E+00
  0.00000000E+00  0.00000000E+00  0.00000000E+00
  0.00000000E+00  0.00000000E+00  0.00000000E+00
  0.00000000E+00  0.00000000E+00  0.00000000E+00
  0.00000000E+00  0.00000000E+00  0.00000000E+00
  0.00000000E+00  0.00000000E+00  0.00000000E+00
  0.00000000E+00  0.00000000E+00  0.00000000E+00
  0.00000000E+00  0.00000000E+00  0.00000000E+00
  0.00000000E+00  0.00000000E+00  0.00000000E+00
  0.00000000E+00  0.00000000E+00  0.00000000E+00
  0.00000000E+00  0.00000000E+00  0.00000000E+00
  0.00000000E+00  0.00000000E+00  0.00000000E+00
  0.00000000E+00  0.00000000E+00  0.00000000E+00
  0.00000000E+00  0.00000000E+00  0.00000000E+00
  0.00000000E+00  0.00000000E+00  0.00000000E+00
  0.00000000E+00  0.00000000E+00  0.00000000E+00
  0.00000000E+00  0.00000000E+00  0.00000000E+00
  0.00000000E+00  0.00000000E+00  0.00000000E+00
  0.00000000E+00  0.00000000E+00  0.00000000E+00
  0.00000000E+00  0.00000000E+00  0.00000000E+00
  0.00000000E+00  0.00000000E+00  0.00000000E+00
  0.00000000E+00  0.00000000E+00  0.00000000E+00
  0.00000000E+00  0.00000000E+00  0.00000000E+00
  0.00000000E+00  0.00000000E+00  0.00000000E+00
  0.00000000E+00  0.00000000E+00  0.00000000E+00
  0.00000000E+00  0.00000000E+00  0.00000000E+00
  0.00000000E+00  0.00000000E+00  0.00000000E+00
