CeO2-you-111-you-Bi                     
   1.00000000000000     
     9.9021613725124880   -5.7170159052523282   -0.0000000001729331
    -0.0139054290409182   11.4099448903148346   -0.0033082970747776
    -0.0035732862429518   -0.0061891122757566   20.3889996296802458
   O    Bi   Ce   H 
    53     1    26     2
Selective dynamics
Direct
  0.9997662278387481  0.0003349787359345  0.9894761412961568   T   T   T
  0.1119059404243146  0.2229792666506256  0.1481623151505289   F   F   F
  0.2274529586910838  0.1120863717627439  0.3095425543323940   T   T   T
  0.0937913854938852  0.2138318576140292  0.3923417372753178   T   T   T
  0.0024382584930658  0.0014657221837742  0.2302155790237291   T   T   T
  0.2221375457266248  0.1109420914535377  0.0706390076666423   F   F   F
  0.3342942542915064  0.0009078071947335  0.9895507183110749   T   T   T
  0.4444063262262290  0.2229792666505332  0.1481623151505005   F   F   F
  0.5521697534044707  0.1173906771750139  0.3071260252851343   T   T   T
  0.4585761934792298  0.2127369003694694  0.4090354578872792   T   T   T
  0.3319374824915307 -0.0005464956717718  0.2291716159895502   T   T   T
  0.5561800677268138  0.1118544778128410  0.0716671109427125   F   F   F
  0.6670852518800313 -0.0002032162717117  0.9904725863580989   T   T   T
  0.7770783622006547  0.2208227244011951  0.1505185820118271   F   F   F
  0.8850593193292465  0.1087770566071011  0.3065357707409570   T   T   T
  0.7755053490145075  0.2231471567999433  0.3884600419445332   T   T   T
  0.6623790081527219  0.9969694802464522  0.2317209314813697   T   T   T
  0.8890084100858786  0.1118544778127557  0.0716671109426912   F   F   F
  0.0000855402971772  0.3332452885098479  0.9903927144266866   T   T   T
  0.1108818781110941  0.5554429302086561  0.1482753045726142   F   F   F
  0.2225726847656828  0.4420069587003479  0.3095954175623759   T   T   T
  0.0951936855612311  0.5489513361408747  0.3912749987822318   T   T   T
  0.0009484150210718  0.3334310897786719  0.2312348493915687   T   T   T
  0.2224656898843875  0.4445582495930367  0.0721643306149815   F   F   F
  0.3335306159731889  0.3338593715629529  0.9904381189902314   T   T   T
  0.4438487879007695  0.5543655758014623  0.1503054020180201   F   F   F
  0.5559291873278601  0.4458932202985290  0.3111035175963356   T   T   T
  0.3326883509628692  0.3322594125699718  0.2314891066348601   T   T   T
  0.5554265597084793  0.4445582495928804  0.0721643306149957   F   F   F
  0.6668142119220842  0.3335616040117695  0.9901179284726240   T   T   T
  0.7778940520974444  0.5554429302087769  0.1482753045726000   F   F   F
  0.8872085829930757  0.4444320843003821  0.3060979644365374   T   T   T
  0.7810682443112678  0.5578979748851363  0.3896441400589840   T   T   T
  0.6666041675531548  0.3355714972515547  0.2305136868651457   T   T   T
  0.8882015042884603  0.4430690085767779  0.0720683803714408   F   F   F
  0.9995916657305247  0.6661406541746473  0.9903654297088237   T   T   T
  0.1112802249060607  0.8892274498120329  0.1463626024186269   F   F   F
  0.2186382769827272  0.7807630844609422  0.3069935449269995   T   T   T
  0.1111386744708033  0.8895001593221393  0.3909101961061393   T   T   T
 -0.0002401930332597  0.6676067519272705  0.2292921973328375   T   T   T
  0.2223366277632124  0.7784560350236873  0.0706585205324544   F   F   F
  0.3337124930529249  0.6666607745102578  0.9904916232283336   T   T   T
  0.4445262964444083  0.8895039485501073  0.1480101542868510   F   F   F
  0.5591410789001757  0.7733203382196400  0.3101611093631721   T   T   T
  0.4509058857649438  0.9034263488070906  0.3903903139853492   T   T   T
  0.3330564175489084  0.6684313896914662  0.2290498379166326   T   T   T
  0.5551136640691894  0.7768933281380015  0.0725055367298424   F   F   F
  0.6667486873404275  0.6668102819251535  0.9906082427250215   T   T   T
  0.7783106521057590  0.8895039485502849  0.1480101542868226   F   F   F
  0.8913731098582993  0.7802652892108100  0.3067662830006576   T   T   T
  0.7806362420698971  0.8900745062795659  0.3902535927285700   T   T   T
  0.6697516232685958  0.6674944475437883  0.2301098080505008   T   T   T
  0.8894524072606274  0.7784560350238721  0.0706585205324401   F   F   F
  0.3230021593170794  0.3313455026651040  0.3474148310709043   T   T   T
  0.0004953430718469  0.0024161471663617  0.3494351343835177   T   T   T
  0.2222145402813283  0.1110960805626036  0.1876176331424091   F   F   F
  0.1111082224282711  0.2227870677877419  0.0308531049950957   F   F   F
  0.3295830385443890 -0.0054961067906602  0.3476601152874345   T   T   T
  0.5546395138817672  0.1103003828452955  0.1898963049877906   F   F   F
  0.4450118453594172  0.2227870677877135  0.0308531049951029   F   F   F
  0.6649944055442143  0.0000996076439110  0.3483204700714984   T   T   T
  0.8889948689635148  0.1103003828453879  0.1898963049877409   F   F   F
  0.7777823470199863  0.2222306940400998  0.0314319902547666   F   F   F
 -0.0026088789104318  0.3321817444507027  0.3494152865780997   T   T   T
  0.2223380974617015  0.4448645060074625  0.1911310448415904   F   F   F
  0.1110525718422082  0.5549452722747432  0.0311275874622865   F   F   F
  0.5558604085456693  0.4448645060073275  0.1911310448415051   F   F   F
  0.4441841993709303  0.5550363987419686  0.0316227155555779   F   F   F
  0.6733049970278444  0.3384816328921456  0.3471192114265498   T   T   T
  0.8890330513844447  0.4447321027689384  0.1900597279180190   F   F   F
  0.7772257004325382  0.5549452722746935  0.0311275874622723   F   F   F
  0.0010065518681526  0.6674924143235493  0.3486757234386952   T   T   T
  0.2214966851676294  0.7789130242724340  0.1875520992697730   F   F   F
  0.1112324494516983  0.8891318989034431  0.0290817732894126   F   F   F
  0.3293274153303159  0.6697423873398320  0.3509516107779850   T   T   T
  0.5548022540597515  0.7762705081195591  0.1901244859790054   F   F   F
  0.4447120716001791  0.8888369878297624  0.0308629462884227   F   F   F
  0.6775832117841123  0.6732240456751200  0.3463452520748102   T   T   T
  0.8907493391047794  0.7789130242721924  0.1875520992697446   F   F   F
  0.7774579162295367  0.8888369878295919  0.0308629462884511   F   F   F
  0.4575117371315418  0.5613552719858993  0.3976744568147333   T   T   T
  0.4526102059569150  0.2219639392771999  0.4561640884222421   T   T   T
 
  0.00000000E+00  0.00000000E+00  0.00000000E+00
  0.00000000E+00  0.00000000E+00  0.00000000E+00
  0.00000000E+00  0.00000000E+00  0.00000000E+00
  0.00000000E+00  0.00000000E+00  0.00000000E+00
  0.00000000E+00  0.00000000E+00  0.00000000E+00
  0.00000000E+00  0.00000000E+00  0.00000000E+00
  0.00000000E+00  0.00000000E+00  0.00000000E+00
  0.00000000E+00  0.00000000E+00  0.00000000E+00
  0.00000000E+00  0.00000000E+00  0.00000000E+00
  0.00000000E+00  0.00000000E+00  0.00000000E+00
  0.00000000E+00  0.00000000E+00  0.00000000E+00
  0.00000000E+00  0.00000000E+00  0.00000000E+00
  0.00000000E+00  0.00000000E+00  0.00000000E+00
  0.00000000E+00  0.00000000E+00  0.00000000E+00
  0.00000000E+00  0.00000000E+00  0.00000000E+00
  0.00000000E+00  0.00000000E+00  0.00000000E+00
  0.00000000E+00  0.00000000E+00  0.00000000E+00
  0.00000000E+00  0.00000000E+00  0.00000000E+00
  0.00000000E+00  0.00000000E+00  0.00000000E+00
  0.00000000E+00  0.00000000E+00  0.00000000E+00
  0.00000000E+00  0.00000000E+00  0.00000000E+00
  0.00000000E+00  0.00000000E+00  0.00000000E+00
  0.00000000E+00  0.00000000E+00  0.00000000E+00
  0.00000000E+00  0.00000000E+00  0.00000000E+00
  0.00000000E+00  0.00000000E+00  0.00000000E+00
  0.00000000E+00  0.00000000E+00  0.00000000E+00
  0.00000000E+00  0.00000000E+00  0.00000000E+00
  0.00000000E+00  0.00000000E+00  0.00000000E+00
  0.00000000E+00  0.00000000E+00  0.00000000E+00
  0.00000000E+00  0.00000000E+00  0.00000000E+00
  0.00000000E+00  0.00000000E+00  0.00000000E+00
  0.00000000E+00  0.00000000E+00  0.00000000E+00
  0.00000000E+00  0.00000000E+00  0.00000000E+00
  0.00000000E+00  0.00000000E+00  0.00000000E+00
  0.00000000E+00  0.00000000E+00  0.00000000E+00
  0.00000000E+00  0.00000000E+00  0.00000000E+00
  0.00000000E+00  0.00000000E+00  0.00000000E+00
  0.00000000E+00  0.00000000E+00  0.00000000E+00
  0.00000000E+00  0.00000000E+00  0.00000000E+00
  0.00000000E+00  0.00000000E+00  0.00000000E+00
  0.00000000E+00  0.00000000E+00  0.00000000E+00
  0.00000000E+00  0.00000000E+00  0.00000000E+00
  0.00000000E+00  0.00000000E+00  0.00000000E+00
  0.00000000E+00  0.00000000E+00  0.00000000E+00
  0.00000000E+00  0.00000000E+00  0.00000000E+00
  0.00000000E+00  0.00000000E+00  0.00000000E+00
  0.00000000E+00  0.00000000E+00  0.00000000E+00
  0.00000000E+00  0.00000000E+00  0.00000000E+00
  0.00000000E+00  0.00000000E+00  0.00000000E+00
  0.00000000E+00  0.00000000E+00  0.00000000E+00
  0.00000000E+00  0.00000000E+00  0.00000000E+00
  0.00000000E+00  0.00000000E+00  0.00000000E+00
  0.00000000E+00  0.00000000E+00  0.00000000E+00
  0.00000000E+00  0.00000000E+00  0.00000000E+00
  0.00000000E+00  0.00000000E+00  0.00000000E+00
  0.00000000E+00  0.00000000E+00  0.00000000E+00
  0.00000000E+00  0.00000000E+00  0.00000000E+00
  0.00000000E+00  0.00000000E+00  0.00000000E+00
  0.00000000E+00  0.00000000E+00  0.00000000E+00
  0.00000000E+00  0.00000000E+00  0.00000000E+00
  0.00000000E+00  0.00000000E+00  0.00000000E+00
  0.00000000E+00  0.00000000E+00  0.00000000E+00
  0.00000000E+00  0.00000000E+00  0.00000000E+00
  0.00000000E+00  0.00000000E+00  0.00000000E+00
  0.00000000E+00  0.00000000E+00  0.00000000E+00
  0.00000000E+00  0.00000000E+00  0.00000000E+00
  0.00000000E+00  0.00000000E+00  0.00000000E+00
  0.00000000E+00  0.00000000E+00  0.00000000E+00
  0.00000000E+00  0.00000000E+00  0.00000000E+00
  0.00000000E+00  0.00000000E+00  0.00000000E+00
  0.00000000E+00  0.00000000E+00  0.00000000E+00
  0.00000000E+00  0.00000000E+00  0.00000000E+00
  0.00000000E+00  0.00000000E+00  0.00000000E+00
  0.00000000E+00  0.00000000E+00  0.00000000E+00
  0.00000000E+00  0.00000000E+00  0.00000000E+00
  0.00000000E+00  0.00000000E+00  0.00000000E+00
  0.00000000E+00  0.00000000E+00  0.00000000E+00
  0.00000000E+00  0.00000000E+00  0.00000000E+00
  0.00000000E+00  0.00000000E+00  0.00000000E+00
  0.00000000E+00  0.00000000E+00  0.00000000E+00
  0.00000000E+00  0.00000000E+00  0.00000000E+00
  0.00000000E+00  0.00000000E+00  0.00000000E+00
