CeO2-you-111-you-Pb                     
   1.00000000000000     
     9.9242270653546534   -5.7297555420333461   -0.0000000010483693
    -0.0432214523086127   11.3846473208958159   -0.0200885188359178
    -0.0214260846419974   -0.0371110609377293   21.1772514930615543
   O    Pb   Ce   H 
    53     1    26     1
Selective dynamics
Direct
  0.0002086643085230  0.0000435672031931  0.9959174423291253   T   T   T
  0.1092119532650331  0.2210296544918452  0.1496526424094534   T   T   T
  0.2222201497176795  0.1186622032808137  0.3051506995329736   T   T   T
  0.0829916607542821  0.2122450791803629  0.3870564832311119   T   T   T
  0.0007876160218398  0.0002098725863069  0.2284648086630054   T   T   T
  0.2233793375383767  0.1129081892648097  0.0749263208420032   T   T   T
  0.3334495675082049  0.0005021870365077  0.9959216713432050   T   T   T
  0.4461990130734514  0.2228794455953930  0.1499866231889979   T   T   T
  0.5606314994329770  0.1179223429539667  0.3034387523883352   T   T   T
  0.4712768306052416  0.2196227875745434  0.4055845576971510   T   T   T
  0.3320557343063976  0.0007949852828262  0.2269376968892828   T   T   T
  0.5558095155923491  0.1113593411330168  0.0751217122609616   T   T   T
  0.6666303975617448 -0.0000189451129056  0.9959031498827795   T   T   T
  0.7758639629525437  0.2177641334882618  0.1511391864254824   T   T   T
  0.8830802163952061  0.1086514100050262  0.3006373203418464   T   T   T
  0.7787714625808443  0.2211300703569738  0.3821985482082855   T   T   T
  0.6575536850085681  0.9876229185124821  0.2318019588663914   T   T   T
  0.8888500768899106  0.1109957550205576  0.0745833536444850   T   T   T
  0.0001748696480622  0.3329328974162619  0.9962721948390449   T   T   T
  0.1117621687414008  0.5554410224227851  0.1485564482427504   T   T   T
  0.2228907694590495  0.4528828454952183  0.3048595223112219   T   T   T
  0.1108979571683217  0.5612965866439167  0.3841682882645816   T   T   T
  0.0012049631448107  0.3337567795943784  0.2286525642890791   T   T   T
  0.2229677360718135  0.4441176051992353  0.0752513989094030   T   T   T
  0.3337292435227163  0.3337317246664576  0.9959671326993086   T   T   T
  0.4448798909689137  0.5566424309843746  0.1494343981387021   T   T   T
  0.5646487068554962  0.4498013866668272  0.3059501394065087   T   T   T
  0.3345689076679374  0.3370383160458430  0.2262915718529016   T   T   T
  0.5551085817571578  0.4448153375600180  0.0752134305493392   T   T   T
  0.6667147051251283  0.3331433588297060  0.9966176686857122   T   T   T
  0.7773848109921562  0.5546715970361304  0.1483934039300382   T   T   T
  0.8910709280309784  0.4460464152421973  0.3031894310675221   T   T   T
  0.7842625890796020  0.5593374099305534  0.3838215779891364   T   T   T
  0.6689594522736806  0.3354904374412665  0.2283610430011114   T   T   T
  0.8884807642394389  0.4422875841319966  0.0754238742843232   T   T   T
  0.9994251017689417  0.6652643861581722  0.9962891102793748   T   T   T
  0.1107138648873671  0.8901746762907757  0.1474011724458584   T   T   T
  0.2169390266558145  0.7759677737024094  0.3013561695548008   T   T   T
  0.0968158961591055  0.8834441498193223  0.3842493407702038   T   T   T
 -0.0003357100466651  0.6670282848421695  0.2263763372505093   T   T   T
  0.2219825001671987  0.7786089132727911  0.0740476261971112   T   T   T
  0.3331389380008141  0.6662343244499747  0.9965272085378041   T   T   T
  0.4444089369173151  0.8887982843277242  0.1481451050738203   T   T   T
  0.5413046659476508  0.7461995134505951  0.3118643208645309   T   T   T
  0.4488088000231857  0.8821614006301846  0.3817682051777777   T   T   T
  0.3332193169231438  0.6713265774544047  0.2274434832521526   T   T   T
  0.5559067542262776  0.7780930822937964  0.0748425352991949   T   T   T
  0.6662758150025347  0.6662453507747254  0.9959134347702211   T   T   T
  0.7776366423479338  0.8894049730490005  0.1483514724707374   T   T   T
  0.8907491347347507  0.7770943588028322  0.3000316011890197   T   T   T
  0.7780371367285662  0.8871898279737641  0.3796841667003710   T   T   T
  0.6701817174975796  0.6700540678987297  0.2271776910313916   T   T   T
  0.8887216652382807  0.7778208524066063  0.0736972556904859   T   T   T
  0.3200966438138355  0.3285716764075871  0.3492897354282530   T   T   T
  0.0000857370095456  0.0033839883775401  0.3425993870934692   T   T   T
  0.2237007553774668  0.1142815655868598  0.1901392341788254   T   T   T
  0.1113232367785424  0.2221072106572263  0.0359446288832180   T   T   T
  0.3310922703124677  0.0006794394360975  0.3459862138639367   T   T   T
  0.5536828465502784  0.1099849066677939  0.1902348810950616   T   T   T
  0.4444648737910684  0.2223424564264682  0.0361847039139989   T   T   T
  0.6644468516430291  0.9971855032145698  0.3428970067600371   T   T   T
  0.8884654054241886  0.1098200129139461  0.1892765175963484   T   T   T
  0.7772235045065203  0.2208079142236409  0.0362138732452416   T   T   T
  0.9980771430721050  0.3314235488304248  0.3429950830446687   T   T   T
  0.2224560833497738  0.4438730944040833  0.1895553930381718   T   T   T
  0.1109083681773453  0.5543650481458137  0.0355527537572832   T   T   T
  0.5546274586412464  0.4436469758035765  0.1901556089574439   T   T   T
  0.4441852154810584  0.5546875037595942  0.0354363967394242   T   T   T
  0.6760644250254102  0.3373190670904910  0.3413984754599362   T   T   T
  0.8898860947578050  0.4447582089009108  0.1883596529208005   T   T   T
  0.7769919522831812  0.5542542641552161  0.0355247423941891   T   T   T
  0.0014098268597594  0.6696337599056216  0.3435132956733800   T   T   T
  0.2210954774513411  0.7798813329114384  0.1866441114406383   T   T   T
  0.1114249629751705  0.8895912637995090  0.0346252551277565   T   T   T
  0.3207918146348954  0.6727083444937135  0.3379058606523092   T   T   T
  0.5536571893219482  0.7752563297541739  0.1876082151144920   T   T   T
  0.4443929039853807  0.8890557162365169  0.0354469039125522   T   T   T
  0.6842934073056435  0.6708593687195397  0.3369734122720225   T   T   T
  0.8910778559494851  0.7787640980241473  0.1860714046287035   T   T   T
  0.7774577664351227  0.8886509290725154  0.0349915522130812   T   T   T
  0.4661653376467585  0.2337009413218549  0.4505494474339530   T   T   T
 
  0.00000000E+00  0.00000000E+00  0.00000000E+00
  0.00000000E+00  0.00000000E+00  0.00000000E+00
  0.00000000E+00  0.00000000E+00  0.00000000E+00
  0.00000000E+00  0.00000000E+00  0.00000000E+00
  0.00000000E+00  0.00000000E+00  0.00000000E+00
  0.00000000E+00  0.00000000E+00  0.00000000E+00
  0.00000000E+00  0.00000000E+00  0.00000000E+00
  0.00000000E+00  0.00000000E+00  0.00000000E+00
  0.00000000E+00  0.00000000E+00  0.00000000E+00
  0.00000000E+00  0.00000000E+00  0.00000000E+00
  0.00000000E+00  0.00000000E+00  0.00000000E+00
  0.00000000E+00  0.00000000E+00  0.00000000E+00
  0.00000000E+00  0.00000000E+00  0.00000000E+00
  0.00000000E+00  0.00000000E+00  0.00000000E+00
  0.00000000E+00  0.00000000E+00  0.00000000E+00
  0.00000000E+00  0.00000000E+00  0.00000000E+00
  0.00000000E+00  0.00000000E+00  0.00000000E+00
  0.00000000E+00  0.00000000E+00  0.00000000E+00
  0.00000000E+00  0.00000000E+00  0.00000000E+00
  0.00000000E+00  0.00000000E+00  0.00000000E+00
  0.00000000E+00  0.00000000E+00  0.00000000E+00
  0.00000000E+00  0.00000000E+00  0.00000000E+00
  0.00000000E+00  0.00000000E+00  0.00000000E+00
  0.00000000E+00  0.00000000E+00  0.00000000E+00
  0.00000000E+00  0.00000000E+00  0.00000000E+00
  0.00000000E+00  0.00000000E+00  0.00000000E+00
  0.00000000E+00  0.00000000E+00  0.00000000E+00
  0.00000000E+00  0.00000000E+00  0.00000000E+00
  0.00000000E+00  0.00000000E+00  0.00000000E+00
  0.00000000E+00  0.00000000E+00  0.00000000E+00
  0.00000000E+00  0.00000000E+00  0.00000000E+00
  0.00000000E+00  0.00000000E+00  0.00000000E+00
  0.00000000E+00  0.00000000E+00  0.00000000E+00
  0.00000000E+00  0.00000000E+00  0.00000000E+00
  0.00000000E+00  0.00000000E+00  0.00000000E+00
  0.00000000E+00  0.00000000E+00  0.00000000E+00
  0.00000000E+00  0.00000000E+00  0.00000000E+00
  0.00000000E+00  0.00000000E+00  0.00000000E+00
  0.00000000E+00  0.00000000E+00  0.00000000E+00
  0.00000000E+00  0.00000000E+00  0.00000000E+00
  0.00000000E+00  0.00000000E+00  0.00000000E+00
  0.00000000E+00  0.00000000E+00  0.00000000E+00
  0.00000000E+00  0.00000000E+00  0.00000000E+00
  0.00000000E+00  0.00000000E+00  0.00000000E+00
  0.00000000E+00  0.00000000E+00  0.00000000E+00
  0.00000000E+00  0.00000000E+00  0.00000000E+00
  0.00000000E+00  0.00000000E+00  0.00000000E+00
  0.00000000E+00  0.00000000E+00  0.00000000E+00
  0.00000000E+00  0.00000000E+00  0.00000000E+00
  0.00000000E+00  0.00000000E+00  0.00000000E+00
  0.00000000E+00  0.00000000E+00  0.00000000E+00
  0.00000000E+00  0.00000000E+00  0.00000000E+00
  0.00000000E+00  0.00000000E+00  0.00000000E+00
  0.00000000E+00  0.00000000E+00  0.00000000E+00
  0.00000000E+00  0.00000000E+00  0.00000000E+00
  0.00000000E+00  0.00000000E+00  0.00000000E+00
  0.00000000E+00  0.00000000E+00  0.00000000E+00
  0.00000000E+00  0.00000000E+00  0.00000000E+00
  0.00000000E+00  0.00000000E+00  0.00000000E+00
  0.00000000E+00  0.00000000E+00  0.00000000E+00
  0.00000000E+00  0.00000000E+00  0.00000000E+00
  0.00000000E+00  0.00000000E+00  0.00000000E+00
  0.00000000E+00  0.00000000E+00  0.00000000E+00
  0.00000000E+00  0.00000000E+00  0.00000000E+00
  0.00000000E+00  0.00000000E+00  0.00000000E+00
  0.00000000E+00  0.00000000E+00  0.00000000E+00
  0.00000000E+00  0.00000000E+00  0.00000000E+00
  0.00000000E+00  0.00000000E+00  0.00000000E+00
  0.00000000E+00  0.00000000E+00  0.00000000E+00
  0.00000000E+00  0.00000000E+00  0.00000000E+00
  0.00000000E+00  0.00000000E+00  0.00000000E+00
  0.00000000E+00  0.00000000E+00  0.00000000E+00
  0.00000000E+00  0.00000000E+00  0.00000000E+00
  0.00000000E+00  0.00000000E+00  0.00000000E+00
  0.00000000E+00  0.00000000E+00  0.00000000E+00
  0.00000000E+00  0.00000000E+00  0.00000000E+00
  0.00000000E+00  0.00000000E+00  0.00000000E+00
  0.00000000E+00  0.00000000E+00  0.00000000E+00
  0.00000000E+00  0.00000000E+00  0.00000000E+00
  0.00000000E+00  0.00000000E+00  0.00000000E+00
  0.00000000E+00  0.00000000E+00  0.00000000E+00
