CeO2-you-111-you-Ca                     
   1.00000000000000     
     9.8534920346294488   -5.6889166493203716    0.0000000000000000
    -0.0000000010366359   11.3778312945882583    0.0000000000000000
     0.0000000000000000    0.0000000000000000   20.4307580790379362
   O    Ca   Ce   H 
    54     1    26     1
Selective dynamics
Direct
 -0.0001449679000536  0.9996810539614577  0.9894558496688715   T   T   T
  0.1100839427782034  0.2217084713896043  0.1482866120408346   F   F   F
  0.2244492252241628  0.1075458738432848  0.3086960658880785   T   T   T
  0.0979898533435004  0.2145394439548278  0.3906188154126898   T   T   T
  0.0002315750326568 -0.0000851412797408  0.2307062726176083   T   T   T
  0.2222932743131310  0.1112535486260597  0.0714823388861134   F   F   F
  0.3329785995708323 -0.0000306952050173  0.9895417464293896   T   T   T
  0.4449575286113969  0.2217084713900519  0.1482866120408346   F   F   F
  0.5515274968413374  0.1152550718650215  0.3091200177557960   T   T   T
  0.4478140475848770  0.2182186802862668  0.4061005528367084   T   T   T
  0.3335386671055424  0.9981279600383016  0.2301764730790677   T   T   T
  0.5556352638822588  0.1110317361181501  0.0712537168158107   F   F   F
  0.6669858889265217 -0.0000281112105621  0.9891614050240133   T   T   T
  0.7776323689277262  0.2219307378554589  0.1481257682190389   F   F   F
  0.8866228674154432  0.1093579174084263  0.3065357837536544   T   T   T
  0.7781418936386388  0.2232066574326306  0.3888786568964438   T   T   T
  0.6650434697684927  0.0016195817252421  0.2310244015245446   T   T   T
  0.8887304722357641  0.1110317361180222  0.0712537168158107   F   F   F
  0.0000311197518216  0.3329428104296127  0.9895458270953263   T   T   T
  0.1111295472611147  0.5555374527385553  0.1482963920657596   F   F   F
  0.2200412060156129  0.4466478708489823  0.3077246002500018   T   T   T
  0.1112025587507487  0.5556474198451529  0.3903876172656124   T   T   T
  0.9991206072821930  0.3321850816064204  0.2306658505934787   T   T   T
  0.2222932743135644  0.4443727256870673  0.0714823388861134   F   F   F
  0.3329946714909872  0.3329972695879158  0.9896108193567764   T   T   T
  0.4449575286103951  0.5565830572203510  0.1482866120408346   F   F   F
  0.5586194640749298  0.4414052049739285  0.3088600189029571   T   T   T
  0.4508983984728445  0.5686435289801569  0.3906121307254667   T   T   T
  0.3331134837548905  0.3336501965951214  0.2276577594826008   T   T   T
  0.5554134513733118  0.4443727256868684  0.0714823388861134   F   F   F
  0.6666951111822418  0.3332998842036383  0.9895494693336456   T   T   T
  0.7777409054775362  0.5555374527386547  0.1482963920657596   F   F   F
  0.8909330549521171  0.4463776011706790  0.3073626945219841   T   T   T
  0.7791678278250310  0.5539665179607465  0.3907312563611107   T   T   T
  0.6686491218848495  0.3335547650510276  0.2300823693672203   T   T   T
  0.8887604970142959  0.4441869940285699  0.0714616618556647   F   F   F
  0.0000107347759260  0.6669739532779507  0.9901345821642575   T   T   T
  0.1111295472613492  0.8889260945227946  0.1482963920657596   F   F   F
  0.2208362370087890  0.7760595231107148  0.3073264765135921   T   T   T
  0.1119466380258930  0.8868393186269465  0.3906419774791404   T   T   T
 -0.0003299053503828  0.6673638561933450  0.2304819634368580   T   T   T
  0.2224790059713655  0.7779065029857009  0.0714616618556647   F   F   F
  0.3333328401859149  0.6666572316494743  0.9896119753529746   T   T   T
  0.4447352621445404  0.8890346310722705  0.1481257682190389   F   F   F
  0.5571759551090701  0.7801721645396430  0.3063971508664352   T   T   T
  0.4434672569386462  0.8891079116145316  0.3888085256561035   T   T   T
  0.3341461193223894  0.6674124858477941  0.2304684642370819   T   T   T
  0.5556352638819817  0.7779365277638277  0.0712537168158107   F   F   F
  0.6671586576975091  0.6671023550699767  0.9895602382458123   T   T   T
  0.7776323689277262  0.8890346310722705  0.1481257682190389   F   F   F
  0.8888441307077674  0.7771329272907119  0.3087035602964135   T   T   T
  0.7761968187059568  0.8896116537147056  0.3895432163634477   T   T   T
  0.6668678186941166  0.6665147983877697  0.2311757385746815   T   T   T
  0.8887604970143386  0.7779065029857222  0.0714616618556647   F   F   F
  0.3325107215183540  0.3335798215329419  0.3505307752244886   T   T   T
  0.0007693001249550  0.0010698663667892  0.3483347721246165   T   T   T
  0.2228066743730821  0.1122803487461681  0.1903561726539138   F   F   F
  0.1111249094432267  0.2222289547216434  0.0307447607920537   F   F   F
  0.3278822414802716 -0.0065368051013343  0.3468829304939609   T   T   T
  0.5557012961135612  0.1109657038861016  0.1892487918428003   F   F   F
  0.4444370452784057  0.2222289547216647  0.0307447607920537   F   F   F
  0.6663609203358725  0.0003071181550843  0.3479054784936992   T   T   T
  0.8885984077726476  0.1109657038862082  0.1892487918428003   F   F   F
  0.7777463531388022  0.2221587062775043  0.0303531191081916   F   F   F
  0.0018452402485216  0.3321748560867282  0.3485753026764270   T   T   T
  0.2228066743730679  0.4438593256269101  0.1903561726539138   F   F   F
  0.1111786527325052  0.5554883472671506  0.0308283056584528   F   F   F
  0.5543866512538571  0.4438593256269172  0.1903561726539138   F   F   F
  0.4444370452783559  0.5555420905566990  0.0307447607920537   F   F   F
  0.6733224166140749  0.3388468352122190  0.3469398713179367   T   T   T
  0.8889402706614220  0.4445465413229996  0.1894554273753641   F   F   F
  0.7776426945347481  0.5554883472672572  0.0308283056584528   F   F   F
  0.0003774686280369  0.6662920582502979  0.3491397878645966   T   T   T
  0.2221194586774899  0.7777267293385748  0.1894554273753641   F   F   F
  0.1111786527327467  0.8890243054655969  0.0308283056584528   F   F   F
  0.3342904755564153  0.6649934624124737  0.3485295143160858   T   T   T
  0.5557012961137957  0.7780685922276902  0.1892487918428003   F   F   F
  0.4445072937221397  0.8889206468611945  0.0303531191081916   F   F   F
  0.6650122554110660  0.6654347257489707  0.3484285797741066   T   T   T
  0.8889402706610809  0.7777267293384185  0.1894554273753641   F   F   F
  0.7777463531390509  0.8889206468613011  0.0303531191081916   F   F   F
  0.4468936768533863  0.2183457351889046  0.4536941468646059   T   T   T
 
  0.00000000E+00  0.00000000E+00  0.00000000E+00
  0.00000000E+00  0.00000000E+00  0.00000000E+00
  0.00000000E+00  0.00000000E+00  0.00000000E+00
  0.00000000E+00  0.00000000E+00  0.00000000E+00
  0.00000000E+00  0.00000000E+00  0.00000000E+00
  0.00000000E+00  0.00000000E+00  0.00000000E+00
  0.00000000E+00  0.00000000E+00  0.00000000E+00
  0.00000000E+00  0.00000000E+00  0.00000000E+00
  0.00000000E+00  0.00000000E+00  0.00000000E+00
  0.00000000E+00  0.00000000E+00  0.00000000E+00
  0.00000000E+00  0.00000000E+00  0.00000000E+00
  0.00000000E+00  0.00000000E+00  0.00000000E+00
  0.00000000E+00  0.00000000E+00  0.00000000E+00
  0.00000000E+00  0.00000000E+00  0.00000000E+00
  0.00000000E+00  0.00000000E+00  0.00000000E+00
  0.00000000E+00  0.00000000E+00  0.00000000E+00
  0.00000000E+00  0.00000000E+00  0.00000000E+00
  0.00000000E+00  0.00000000E+00  0.00000000E+00
  0.00000000E+00  0.00000000E+00  0.00000000E+00
  0.00000000E+00  0.00000000E+00  0.00000000E+00
  0.00000000E+00  0.00000000E+00  0.00000000E+00
  0.00000000E+00  0.00000000E+00  0.00000000E+00
  0.00000000E+00  0.00000000E+00  0.00000000E+00
  0.00000000E+00  0.00000000E+00  0.00000000E+00
  0.00000000E+00  0.00000000E+00  0.00000000E+00
  0.00000000E+00  0.00000000E+00  0.00000000E+00
  0.00000000E+00  0.00000000E+00  0.00000000E+00
  0.00000000E+00  0.00000000E+00  0.00000000E+00
  0.00000000E+00  0.00000000E+00  0.00000000E+00
  0.00000000E+00  0.00000000E+00  0.00000000E+00
  0.00000000E+00  0.00000000E+00  0.00000000E+00
  0.00000000E+00  0.00000000E+00  0.00000000E+00
  0.00000000E+00  0.00000000E+00  0.00000000E+00
  0.00000000E+00  0.00000000E+00  0.00000000E+00
  0.00000000E+00  0.00000000E+00  0.00000000E+00
  0.00000000E+00  0.00000000E+00  0.00000000E+00
  0.00000000E+00  0.00000000E+00  0.00000000E+00
  0.00000000E+00  0.00000000E+00  0.00000000E+00
  0.00000000E+00  0.00000000E+00  0.00000000E+00
  0.00000000E+00  0.00000000E+00  0.00000000E+00
  0.00000000E+00  0.00000000E+00  0.00000000E+00
  0.00000000E+00  0.00000000E+00  0.00000000E+00
  0.00000000E+00  0.00000000E+00  0.00000000E+00
  0.00000000E+00  0.00000000E+00  0.00000000E+00
  0.00000000E+00  0.00000000E+00  0.00000000E+00
  0.00000000E+00  0.00000000E+00  0.00000000E+00
  0.00000000E+00  0.00000000E+00  0.00000000E+00
  0.00000000E+00  0.00000000E+00  0.00000000E+00
  0.00000000E+00  0.00000000E+00  0.00000000E+00
  0.00000000E+00  0.00000000E+00  0.00000000E+00
  0.00000000E+00  0.00000000E+00  0.00000000E+00
  0.00000000E+00  0.00000000E+00  0.00000000E+00
  0.00000000E+00  0.00000000E+00  0.00000000E+00
  0.00000000E+00  0.00000000E+00  0.00000000E+00
  0.00000000E+00  0.00000000E+00  0.00000000E+00
  0.00000000E+00  0.00000000E+00  0.00000000E+00
  0.00000000E+00  0.00000000E+00  0.00000000E+00
  0.00000000E+00  0.00000000E+00  0.00000000E+00
  0.00000000E+00  0.00000000E+00  0.00000000E+00
  0.00000000E+00  0.00000000E+00  0.00000000E+00
  0.00000000E+00  0.00000000E+00  0.00000000E+00
  0.00000000E+00  0.00000000E+00  0.00000000E+00
  0.00000000E+00  0.00000000E+00  0.00000000E+00
  0.00000000E+00  0.00000000E+00  0.00000000E+00
  0.00000000E+00  0.00000000E+00  0.00000000E+00
  0.00000000E+00  0.00000000E+00  0.00000000E+00
  0.00000000E+00  0.00000000E+00  0.00000000E+00
  0.00000000E+00  0.00000000E+00  0.00000000E+00
  0.00000000E+00  0.00000000E+00  0.00000000E+00
  0.00000000E+00  0.00000000E+00  0.00000000E+00
  0.00000000E+00  0.00000000E+00  0.00000000E+00
  0.00000000E+00  0.00000000E+00  0.00000000E+00
  0.00000000E+00  0.00000000E+00  0.00000000E+00
  0.00000000E+00  0.00000000E+00  0.00000000E+00
  0.00000000E+00  0.00000000E+00  0.00000000E+00
  0.00000000E+00  0.00000000E+00  0.00000000E+00
  0.00000000E+00  0.00000000E+00  0.00000000E+00
  0.00000000E+00  0.00000000E+00  0.00000000E+00
  0.00000000E+00  0.00000000E+00  0.00000000E+00
  0.00000000E+00  0.00000000E+00  0.00000000E+00
  0.00000000E+00  0.00000000E+00  0.00000000E+00
  0.00000000E+00  0.00000000E+00  0.00000000E+00
