CeO2-you-111-you-Zr                     
   1.00000000000000     
     9.8343272895089822   -5.6778518748011262    0.0000000007797193
     0.0358503602915950   11.4177963927247941    0.0149206925471127
     0.0161792043387333    0.0280231992128634   20.7576393233337235
   O    Zr   Ce H
    53     1    26 2
Selective dynamics
Direct
 -0.0012064497878793 -0.0005572541041413  0.9935641941422354   T   T   T
  0.1111836433040286  0.2224447423159324  0.1479715033386277   F   F   F
  0.2201669256308416  0.1070008512642325  0.2999598132008338   T   T   T
  0.1249301280913063  0.2193216021483067  0.3817545110154973   T   T   T
 -0.0008550792805233 -0.0009363058314712  0.2280567972511995   T   T   T
  0.2214770089804531  0.1096210179610788  0.0716661334264301   F   F   F
  0.3339821956837070 -0.0005572541042251  0.9935641941422159   T   T   T
  0.4445940990118569  0.2224447423160314  0.1479715033387002   F   F   F
  0.5564236838523337  0.1158273575012225  0.3052393733595712   T   T   T
  0.4277244740577135  0.2193216021525801  0.3817545110158063   T   T   T
  0.3332517734492560 -0.0009363058313506  0.2280567972512946   T   T   T
  0.5571820572542601  0.1114950117798784  0.0742265817689521   F   F   F
  0.6668280598089722  0.0003221196179579  0.9939621177051529   T   T   T
  0.7794036631091461  0.2254733262182646  0.1521018060421214   F   F   F
  0.8927376736485431  0.1158273575011673  0.3052393733595686   T   T   T
  0.7793638622472649  0.2253937244948617  0.3860353280742658   T   T   T
  0.6671114686010664  0.0008889372019804  0.2307744780405095   T   T   T
  0.8876469545256145  0.1114950117799547  0.0742265817689380   F   F   F
  0.0004505362935571  0.3329118197208770  0.9936459864402567   T   T   T
  0.1102651462220021  0.5542397301940278  0.1488282094851783   F   F   F
  0.2485608284719141  0.4441809349576773  0.3144316427369542   T   T   T
  0.0978260554377504  0.5460088857734335  0.3868566672058206   T   T   T
  0.0106569378857630  0.3387790885400127  0.2325505013974885   T   T   T
  0.2231658061141819  0.4451630203264295  0.0743603035860585   F   F   F
  0.3333423519919322  0.3333517039839656  0.9937656866967181   T   T   T
  0.4442818991342882  0.5552317982686295  0.1508219486988010   F   F   F
  0.5289541064892704  0.4441809349634218  0.3144316427374182   T   T   T
  0.3291528948346322  0.3249727896698070  0.2290168863956001   T   T   T
  0.5553312142122011  0.4451630203264478  0.0743603035860581   F   F   F
  0.6657952834272901  0.3329118197208822  0.9936459864402503   T   T   T
  0.7773075839723341  0.5542397301941220  0.1488282094851844   F   F   F
  0.8869862903653090  0.4406385807302885  0.3031639949378808   T   T   T
  0.7815158303356705  0.5460088857729941  0.3868566672056341   T   T   T
  0.6614561506541667  0.3387790885402135  0.2325505013974297   T   T   T
  0.8884635991113962  0.4435931982227960  0.0732941429289936   F   F   F
  0.0002589853082819  0.6671849706167337  0.9935077404057109   T   T   T
  0.1105015996533139  0.8876701993063284  0.1468042924541125   F   F   F
  0.2187984034472688  0.7799859432260092  0.3050223937236900   T   T   T
  0.1114958346583773  0.8896586693167962  0.3872224638882800   T   T   T
 -0.0001593029551108  0.6663483940896295  0.2287489157000303   T   T   T
  0.2228298089419238  0.7769151166437336  0.0732557701025040   F   F   F
  0.3339418663738049  0.6664491450402587  0.9934312273964548   T   T   T
  0.4462706661303072  0.8901607913542352  0.1496451079478034   F   F   F
  0.5559383622595393  0.7785427245182602  0.3087971326485499   T   T   T
  0.4503792555335426  0.9050044841329540  0.3887591239400651   T   T   T
  0.3307105022563603  0.6655543241658582  0.2284194123988146   T   T   T
  0.5549852398103117  0.7766364796205019  0.0744861405341253   F   F   F
  0.6658402786663280  0.6664491450402578  0.9934312273964626   T   T   T
  0.7772231252239487  0.8901607913544024  0.1496451079477747   F   F   F
  0.8945205397795998  0.7799859432265922  0.3050223937236606   T   T   T
  0.7879582285999273  0.9050044841332587  0.3887591239400708   T   T   T
  0.6681768219096558  0.6655543241661868  0.2284194123988250   T   T   T
  0.8874183077018815  0.7769151166438217  0.0732557701024647   F   F   F
  0.3179241472987713  0.3025152945940254  0.3307462905161900   T   T   T
  0.0005038560926037 -0.0001180123463016  0.3466292531250715   T   T   T
  0.2198575027083766  0.1063820054160388  0.1852817759569854   F   F   F
  0.1107280530565444  0.2225816634336509  0.0333006348491217   F   F   F
  0.3327111315624419 -0.0001180123465392  0.3466292531249078   T   T   T
  0.5548514769346626  0.1116554556092575  0.1903903908688524   F   F   F
  0.4451866103771011  0.2225816634337000  0.0333006348491304   F   F   F
  0.6684604655817051  0.0035869311636698  0.3471624780151230   T   T   T
  0.8901379786748913  0.1116554556092184  0.1903903908688863   F   F   F
  0.7779880052320068  0.2226420104639136  0.0344998242775658   F   F   F
  0.0039997271249853  0.3338173121937205  0.3464755225255950   T   T   T
  0.2243161508719491  0.4457123346240346  0.1902005297370357   F   F   F
  0.1116341800766380  0.5553772836539757  0.0339021433880562   F   F   F
  0.5547301837516956  0.4457123346236402  0.1902005297370223   F   F   F
  0.4447454090540997  0.5561588181081825  0.0338112514737868   F   F   F
  0.6631515850679925  0.3338173121922490  0.3464755225255924   T   T   T
  0.8895949159792735  0.4458558319589470  0.1904641370120327   F   F   F
  0.7770761035773021  0.5553772836540273  0.0339021433880465   F   F   F
 -0.0019231477010714  0.6628207045984219  0.3456204286747951   T   T   T
  0.2223766209217122  0.7776042693106966  0.1886367865544984   F   F   F
  0.1105636044744931  0.8877942089489734  0.0319581113971685   F   F   F
  0.3285144924538861  0.6743013017975373  0.3457951928796920   T   T   T
  0.5560030947241913  0.7786721894485152  0.1920042697485040   F   F   F
  0.4452777824736616  0.8888632139344346  0.0341499444097548   F   F   F
  0.6791198093396011  0.6743013017929588  0.3457951928793571   T   T   T
  0.8885606483887538  0.7776042693105146  0.1886367865545268   F   F   F
  0.7769184314608527  0.8888632139344304  0.0341499444097631   F   F   F
0.3279241472987713 0.3125152945940254 0.410746 T T T
0.446598 0.216020 0.433410 T T T 
 
  0.00000000E+00  0.00000000E+00  0.00000000E+00
  0.00000000E+00  0.00000000E+00  0.00000000E+00
  0.00000000E+00  0.00000000E+00  0.00000000E+00
  0.00000000E+00  0.00000000E+00  0.00000000E+00
  0.00000000E+00  0.00000000E+00  0.00000000E+00
  0.00000000E+00  0.00000000E+00  0.00000000E+00
  0.00000000E+00  0.00000000E+00  0.00000000E+00
  0.00000000E+00  0.00000000E+00  0.00000000E+00
  0.00000000E+00  0.00000000E+00  0.00000000E+00
  0.00000000E+00  0.00000000E+00  0.00000000E+00
  0.00000000E+00  0.00000000E+00  0.00000000E+00
  0.00000000E+00  0.00000000E+00  0.00000000E+00
  0.00000000E+00  0.00000000E+00  0.00000000E+00
  0.00000000E+00  0.00000000E+00  0.00000000E+00
  0.00000000E+00  0.00000000E+00  0.00000000E+00
  0.00000000E+00  0.00000000E+00  0.00000000E+00
  0.00000000E+00  0.00000000E+00  0.00000000E+00
  0.00000000E+00  0.00000000E+00  0.00000000E+00
  0.00000000E+00  0.00000000E+00  0.00000000E+00
  0.00000000E+00  0.00000000E+00  0.00000000E+00
  0.00000000E+00  0.00000000E+00  0.00000000E+00
  0.00000000E+00  0.00000000E+00  0.00000000E+00
  0.00000000E+00  0.00000000E+00  0.00000000E+00
  0.00000000E+00  0.00000000E+00  0.00000000E+00
  0.00000000E+00  0.00000000E+00  0.00000000E+00
  0.00000000E+00  0.00000000E+00  0.00000000E+00
  0.00000000E+00  0.00000000E+00  0.00000000E+00
  0.00000000E+00  0.00000000E+00  0.00000000E+00
  0.00000000E+00  0.00000000E+00  0.00000000E+00
  0.00000000E+00  0.00000000E+00  0.00000000E+00
  0.00000000E+00  0.00000000E+00  0.00000000E+00
  0.00000000E+00  0.00000000E+00  0.00000000E+00
  0.00000000E+00  0.00000000E+00  0.00000000E+00
  0.00000000E+00  0.00000000E+00  0.00000000E+00
  0.00000000E+00  0.00000000E+00  0.00000000E+00
  0.00000000E+00  0.00000000E+00  0.00000000E+00
  0.00000000E+00  0.00000000E+00  0.00000000E+00
  0.00000000E+00  0.00000000E+00  0.00000000E+00
  0.00000000E+00  0.00000000E+00  0.00000000E+00
  0.00000000E+00  0.00000000E+00  0.00000000E+00
  0.00000000E+00  0.00000000E+00  0.00000000E+00
  0.00000000E+00  0.00000000E+00  0.00000000E+00
  0.00000000E+00  0.00000000E+00  0.00000000E+00
  0.00000000E+00  0.00000000E+00  0.00000000E+00
  0.00000000E+00  0.00000000E+00  0.00000000E+00
  0.00000000E+00  0.00000000E+00  0.00000000E+00
  0.00000000E+00  0.00000000E+00  0.00000000E+00
  0.00000000E+00  0.00000000E+00  0.00000000E+00
  0.00000000E+00  0.00000000E+00  0.00000000E+00
  0.00000000E+00  0.00000000E+00  0.00000000E+00
  0.00000000E+00  0.00000000E+00  0.00000000E+00
  0.00000000E+00  0.00000000E+00  0.00000000E+00
  0.00000000E+00  0.00000000E+00  0.00000000E+00
  0.00000000E+00  0.00000000E+00  0.00000000E+00
  0.00000000E+00  0.00000000E+00  0.00000000E+00
  0.00000000E+00  0.00000000E+00  0.00000000E+00
  0.00000000E+00  0.00000000E+00  0.00000000E+00
  0.00000000E+00  0.00000000E+00  0.00000000E+00
  0.00000000E+00  0.00000000E+00  0.00000000E+00
  0.00000000E+00  0.00000000E+00  0.00000000E+00
  0.00000000E+00  0.00000000E+00  0.00000000E+00
  0.00000000E+00  0.00000000E+00  0.00000000E+00
  0.00000000E+00  0.00000000E+00  0.00000000E+00
  0.00000000E+00  0.00000000E+00  0.00000000E+00
  0.00000000E+00  0.00000000E+00  0.00000000E+00
  0.00000000E+00  0.00000000E+00  0.00000000E+00
  0.00000000E+00  0.00000000E+00  0.00000000E+00
  0.00000000E+00  0.00000000E+00  0.00000000E+00
  0.00000000E+00  0.00000000E+00  0.00000000E+00
  0.00000000E+00  0.00000000E+00  0.00000000E+00
  0.00000000E+00  0.00000000E+00  0.00000000E+00
  0.00000000E+00  0.00000000E+00  0.00000000E+00
  0.00000000E+00  0.00000000E+00  0.00000000E+00
  0.00000000E+00  0.00000000E+00  0.00000000E+00
  0.00000000E+00  0.00000000E+00  0.00000000E+00
  0.00000000E+00  0.00000000E+00  0.00000000E+00
  0.00000000E+00  0.00000000E+00  0.00000000E+00
  0.00000000E+00  0.00000000E+00  0.00000000E+00
  0.00000000E+00  0.00000000E+00  0.00000000E+00
  0.00000000E+00  0.00000000E+00  0.00000000E+00
