CeO2-you-111-you-Pd                     
   1.00000000000000     
     9.8556808833579908   -5.6704643548632623   -0.0007336707167015
    -0.0000000011912849   11.3409267118817887    0.0000000000791284
    -0.0019354782822686    0.0000000001845824   20.9444231492412669
   O    Pd   Ce   H 
    53     1    26     2
Selective dynamics
Direct
  0.9993585971956893  0.0008348996750631  0.9950961699887223   T   T   T
  0.1151354163194753  0.2242342081595439  0.1512905642385576   F   F   F
  0.2292826184049264  0.1279050136404396  0.3105666639521013   T   T   T
  0.0573804051729905  0.1952232946496835  0.4002675762803694   T   T   T
  0.0037781590179796  0.0023183950609564  0.2298398670119757   T   T   T
  0.2213475757504639  0.1099585205055220  0.0746747587491612   F   F   F
  0.3332492095992116  0.0000758651525145  0.9940515244090558   T   T   T
  0.4446296161174388  0.2204561988231291  0.1470990938068439   F   F   F
  0.5483992166015619  0.1045507527024053  0.3055748159314273   T   T   T
  0.4528207724134194  0.2028761263853624  0.4050193788224568   T   T   T
  0.3288918643390806 -0.0000241186870106  0.2306096332775000   T   T   T
  0.5551123780778511  0.1094856181562776  0.0742191795395968   F   F   F
  0.6691016849793006  0.0010680369651245  0.9949467398061068   T   T   T
  0.7743368697854507  0.2254939682604444  0.1515829532781012   F   F   F
  0.8851550932741332  0.1075997473662168  0.3027645182653977   T   T   T
  0.7788655845078918  0.2147791688867653  0.3879775235118423   T   T   T
  0.6652151815087129  0.0001421647052808  0.2286218638230257   T   T   T
  0.8885530910051926  0.1109430455024381  0.0773996628426374   F   F   F
  0.9991681542735393  0.3313071911053190  0.9952058505650418   T   T   T
  0.1105364960294537  0.5559389652377575  0.1507316711762243   F   F   F
  0.2168573368504948  0.4352089689324496  0.3052074747265853   T   T   T
  0.1181153727380712  0.5592015299777859  0.3864337520536534   T   T   T
 -0.0009938795580099  0.3318038263430716  0.2286454080361337   T   T   T
  0.2213475757507766  0.4447220552452791  0.0746747587491754   F   F   F
  0.3312119152182486  0.3323670265291367  0.9945863877483717   T   T   T
  0.4446296161153569  0.5575074172947652  0.1470990938067800   F   F   F
  0.4556394084193070  0.5397188869812423  0.3678407681157957   T   T   T
  0.3505940573782403  0.3429131866547531  0.2281188497415096   T   T   T
  0.5557989953644054  0.4445654976824471  0.0715504589120286   F   F   F
  0.6680788139583271  0.3328840598290252  0.9942660018769232   T   T   T
  0.7793779745149010  0.5563559872568078  0.1472362844160031   F   F   F
  0.8970587832338687  0.4470133958052148  0.3065808894704627   T   T   T
  0.7745114348508538  0.5636455944614175  0.3816864440493352   T   T   T
  0.6595617313369974  0.3421671229810590  0.2341750713413805   T   T   T
  0.8902612849040281  0.4446763887338676  0.0745907696038373   F   F   F
  0.0007126368200441  0.6673119558092818  0.9943692855763523   T   T   T
  0.1105364960285797  0.8879315307906168  0.1507316711762812   F   F   F
  0.2216017754126154  0.7744304559866270  0.3037582508731880   T   T   T
  0.1152358036280890  0.8882276595374540  0.3847815456150467   T   T   T
  0.9979843680907885  0.6667439420275298  0.2303814947838575   T   T   T
  0.2228821561733483  0.7781080780865821  0.0747019696415876   F   F   F
  0.3333511875026512  0.6667844811030496  0.9940181973326324   T   T   T
  0.4436387938421547  0.8884863969212020  0.1505822068020777   F   F   F
  0.5576174533874674  0.7820252137970100  0.3047145456027546   T   T   T
  0.4391288744166600  0.8810440978269537  0.3855241455520368   T   T   T
  0.3335648560772625  0.6643522589269245  0.2307903024945901   T   T   T
  0.5551123780783485  0.7789597599220812  0.0742191795394902   F   F   F
  0.6680712587330310  0.6689841793840134  0.9945497221029052   T   T   T
  0.7743368697833475  0.8821759015241639  0.1515829532783286   F   F   F
  0.8929817975452053  0.7853451025823269  0.3050950514686067   T   T   T
  0.7750415479281836  0.8897679124625104  0.3880756308759900   T   T   T
  0.6606151782734354  0.6509072633302194  0.2350501668658142   T   T   T
  0.8902612849035165  0.7789178961694958  0.0745907696037733   F   F   F
  0.3338719008076425  0.3373980515155618  0.3366175298470558   T   T   T
  0.0028829254433184  0.0084749511318534  0.3487333880120286   T   T   T
  0.2222290899958921  0.1120562428782321  0.1917957586266752   F   F   F
  0.1110862246039090  0.2222096123020165  0.0357648446637810   F   F   F
  0.3294805495340170 -0.0066259130491754  0.3450962106959319   T   T   T
  0.5548464123001366  0.1112652252512305  0.1902612537079875   F   F   F
  0.4431036341865848  0.2199044777972858  0.0331604181821135   F   F   F
  0.6646105894720493 -0.0001930738533962  0.3459061557518542   T   T   T
  0.8884497141786198  0.1108913570898267  0.1910176257013703   F   F   F
  0.7779941937222148  0.2224328329494440  0.0353278984894416   F   F   F
 -0.0008925175123627  0.3277285564680941  0.3490327882254310   T   T   T
  0.2222290899951247  0.4435058471169739  0.1917957586266965   F   F   F
  0.1107169197427282  0.5546819763392108  0.0353431213137441   F   F   F
  0.5559416865432851  0.4446368432691372  0.1814706174515095   F   F   F
  0.4431036341872741  0.5565331563889231  0.0331604181820708   F   F   F
  0.6730896882737405  0.3297733498236308  0.3511202579729733   T   T   T
  0.8889103354198440  0.4446394853419662  0.1913041698559539   F   F   F
  0.7803544553047601  0.5568442276523697  0.0332276482043738   F   F   F
  0.0008955014075849  0.6664803562623983  0.3445849117121328   T   T   T
  0.2217002064013585  0.7775171032013830  0.1897351300319912   F   F   F
  0.1107169197428561  0.8893689434045839  0.0353431213137227   F   F   F
  0.3316163834096784  0.6604709392259864  0.3439235534189968   T   T   T
  0.5548464123030783  0.7769141870489449  0.1902612537079591   F   F   F
  0.4448936830015953  0.8891138415006381  0.0347243440745899   F   F   F
  0.6753613573835318  0.6799984289705668  0.3468885333779129   T   T   T
  0.8889103354225085  0.7776038500817819  0.1913041698559397   F   F   F
  0.7779941937232948  0.8888943607732003  0.0353278984894203   F   F   F
  0.2802827478374957  0.3093866019419022  0.4045806074073697   T   T   T
  0.4127443566846760  0.2302668849035280  0.4388227606696378   T   T   T
 
  0.00000000E+00  0.00000000E+00  0.00000000E+00
  0.00000000E+00  0.00000000E+00  0.00000000E+00
  0.00000000E+00  0.00000000E+00  0.00000000E+00
  0.00000000E+00  0.00000000E+00  0.00000000E+00
  0.00000000E+00  0.00000000E+00  0.00000000E+00
  0.00000000E+00  0.00000000E+00  0.00000000E+00
  0.00000000E+00  0.00000000E+00  0.00000000E+00
  0.00000000E+00  0.00000000E+00  0.00000000E+00
  0.00000000E+00  0.00000000E+00  0.00000000E+00
  0.00000000E+00  0.00000000E+00  0.00000000E+00
  0.00000000E+00  0.00000000E+00  0.00000000E+00
  0.00000000E+00  0.00000000E+00  0.00000000E+00
  0.00000000E+00  0.00000000E+00  0.00000000E+00
  0.00000000E+00  0.00000000E+00  0.00000000E+00
  0.00000000E+00  0.00000000E+00  0.00000000E+00
  0.00000000E+00  0.00000000E+00  0.00000000E+00
  0.00000000E+00  0.00000000E+00  0.00000000E+00
  0.00000000E+00  0.00000000E+00  0.00000000E+00
  0.00000000E+00  0.00000000E+00  0.00000000E+00
  0.00000000E+00  0.00000000E+00  0.00000000E+00
  0.00000000E+00  0.00000000E+00  0.00000000E+00
  0.00000000E+00  0.00000000E+00  0.00000000E+00
  0.00000000E+00  0.00000000E+00  0.00000000E+00
  0.00000000E+00  0.00000000E+00  0.00000000E+00
  0.00000000E+00  0.00000000E+00  0.00000000E+00
  0.00000000E+00  0.00000000E+00  0.00000000E+00
  0.00000000E+00  0.00000000E+00  0.00000000E+00
  0.00000000E+00  0.00000000E+00  0.00000000E+00
  0.00000000E+00  0.00000000E+00  0.00000000E+00
  0.00000000E+00  0.00000000E+00  0.00000000E+00
  0.00000000E+00  0.00000000E+00  0.00000000E+00
  0.00000000E+00  0.00000000E+00  0.00000000E+00
  0.00000000E+00  0.00000000E+00  0.00000000E+00
  0.00000000E+00  0.00000000E+00  0.00000000E+00
  0.00000000E+00  0.00000000E+00  0.00000000E+00
  0.00000000E+00  0.00000000E+00  0.00000000E+00
  0.00000000E+00  0.00000000E+00  0.00000000E+00
  0.00000000E+00  0.00000000E+00  0.00000000E+00
  0.00000000E+00  0.00000000E+00  0.00000000E+00
  0.00000000E+00  0.00000000E+00  0.00000000E+00
  0.00000000E+00  0.00000000E+00  0.00000000E+00
  0.00000000E+00  0.00000000E+00  0.00000000E+00
  0.00000000E+00  0.00000000E+00  0.00000000E+00
  0.00000000E+00  0.00000000E+00  0.00000000E+00
  0.00000000E+00  0.00000000E+00  0.00000000E+00
  0.00000000E+00  0.00000000E+00  0.00000000E+00
  0.00000000E+00  0.00000000E+00  0.00000000E+00
  0.00000000E+00  0.00000000E+00  0.00000000E+00
  0.00000000E+00  0.00000000E+00  0.00000000E+00
  0.00000000E+00  0.00000000E+00  0.00000000E+00
  0.00000000E+00  0.00000000E+00  0.00000000E+00
  0.00000000E+00  0.00000000E+00  0.00000000E+00
  0.00000000E+00  0.00000000E+00  0.00000000E+00
  0.00000000E+00  0.00000000E+00  0.00000000E+00
  0.00000000E+00  0.00000000E+00  0.00000000E+00
  0.00000000E+00  0.00000000E+00  0.00000000E+00
  0.00000000E+00  0.00000000E+00  0.00000000E+00
  0.00000000E+00  0.00000000E+00  0.00000000E+00
  0.00000000E+00  0.00000000E+00  0.00000000E+00
  0.00000000E+00  0.00000000E+00  0.00000000E+00
  0.00000000E+00  0.00000000E+00  0.00000000E+00
  0.00000000E+00  0.00000000E+00  0.00000000E+00
  0.00000000E+00  0.00000000E+00  0.00000000E+00
  0.00000000E+00  0.00000000E+00  0.00000000E+00
  0.00000000E+00  0.00000000E+00  0.00000000E+00
  0.00000000E+00  0.00000000E+00  0.00000000E+00
  0.00000000E+00  0.00000000E+00  0.00000000E+00
  0.00000000E+00  0.00000000E+00  0.00000000E+00
  0.00000000E+00  0.00000000E+00  0.00000000E+00
  0.00000000E+00  0.00000000E+00  0.00000000E+00
  0.00000000E+00  0.00000000E+00  0.00000000E+00
  0.00000000E+00  0.00000000E+00  0.00000000E+00
  0.00000000E+00  0.00000000E+00  0.00000000E+00
  0.00000000E+00  0.00000000E+00  0.00000000E+00
  0.00000000E+00  0.00000000E+00  0.00000000E+00
  0.00000000E+00  0.00000000E+00  0.00000000E+00
  0.00000000E+00  0.00000000E+00  0.00000000E+00
  0.00000000E+00  0.00000000E+00  0.00000000E+00
  0.00000000E+00  0.00000000E+00  0.00000000E+00
  0.00000000E+00  0.00000000E+00  0.00000000E+00
  0.00000000E+00  0.00000000E+00  0.00000000E+00
  0.00000000E+00  0.00000000E+00  0.00000000E+00
