CeO2-you-111-you-Cd                     
   1.00000000000000     
     9.8826232238119580   -5.7057355508434409   -0.0000000010332488
    -0.0188243856376406   11.3788643032791974   -0.0197355970220452
    -0.0214139146441252   -0.0370899818634447   20.8517932097645478
   O    Cd   Ce   H 
    53     1    26     2
Selective dynamics
Direct
 -0.0003188125112217 -0.0002058506626320  0.9945332605191936   T   T   T
  0.1074000949386402  0.2214031922555577  0.1486671905887249   F   F   F
  0.2326736430232677  0.1184822068590312  0.3084837321810122   T   T   T
  0.0940730748091003  0.2180966742225650  0.3875634803947130   T   T   T
  0.0037300133791370  0.0016283423719164  0.2298285050260673   T   T   T
  0.2223883661336146  0.1114437322671904  0.0733940480996438   F   F   F
  0.3331396666482847  0.9995059598606212  0.9941193658097061   T   T   T
  0.4473360973166578  0.2214031922553445  0.1486671905887249   F   F   F
  0.5510651255157925  0.1152137113339224  0.3059625316599117   T   T   T
  0.4620091563272875  0.2161043348195414  0.4051634742764482   T   T   T
  0.3310447909517605 -0.0010783112728529  0.2286915141188529   T   T   T
  0.5578191353848752  0.1108213802453406  0.0739457026747203   F   F   F
  0.6659680997485430  0.9985413291415109  0.9931308047970291   T   T   T
  0.7774139727183353  0.2214939454367340  0.1531493870427312   F   F   F
  0.8860812764236279  0.1090866173085982  0.3041850186950909   T   T   T
  0.7763001447120272  0.2224614529451601  0.3839900877305506   T   T   T
  0.6611685253790778  0.9939984087387177  0.2326634989619656   T   T   T
  0.8863362448605088  0.1108213802454543  0.0739457026747345   F   F   F
  0.0004879082726205  0.3326012679697607  0.9942748510755699   T   T   T
  0.1102320183045364  0.5545455109459567  0.1493801187211830   F   F   F
  0.2217689580175087  0.4546589722180088  0.3043689303488226   T   T   T
  0.1118419947364596  0.5615239724664942  0.3868680815320028   T   T   T
  0.0004247471668125  0.3326499634978263  0.2304872488249492   T   T   T
  0.2236892033003528  0.4448518809980868  0.0747237725323870   F   F   F
  0.3331156263459611  0.3325114321444158  0.9940944370749359   T   T   T
  0.4460834438151480  0.5588348876306384  0.1499580686157813   F   F   F
  0.5625273818062509  0.4482929197705195  0.3074218045175428   T   T   T
  0.3336659524747689  0.3336655495358649  0.2236132008168763   T   T   T
  0.5544966776975286  0.4448518809979163  0.0747237725323870   F   F   F
  0.6660095913315653  0.3325665316364080  0.9941903157040997   T   T   T
  0.7776464926412103  0.5545455109457151  0.1493801187211901   F   F   F
  0.8920061015167866  0.4486442669557873  0.3056942779439548   T   T   T
  0.7831948919271924  0.5606641608233084  0.3872090413698216   T   T   T
  0.6676919055479951  0.3343559846145257  0.2306804521814499   T   T   T
  0.8875392953545642  0.4417445907091846  0.0748288939726791   F   F   F
  0.9984568226001066  0.6643836838296266  0.9941703959021170   T   T   T
  0.1111368559240375  0.8889407118477095  0.1469857020464573   F   F   F
  0.2202230609712692  0.7792301283500803  0.3043214199911717   T   T   T
  0.1130582794374009  0.8918823126963628  0.3863010253116537   T   T   T
  0.0009223434119178  0.6697059993832621  0.2290971354911372   T   T   T
  0.2221714841607536  0.7770346078886092  0.0729841223776617   F   F   F
  0.3328187469329787  0.6651927994349391  0.9937803993308522   T   T   T
  0.4450863517328330  0.8888443776589980  0.1484638519298116   F   F   F
  0.5480220002457709  0.7625753986422935  0.3112923751199715   T   T   T
  0.4424707472540664  0.8895691765091359  0.3835946765015228   T   T   T
  0.3344238110326462  0.6723217851692490  0.2289077148719150   T   T   T
  0.5554266294353170  0.7775192588705977  0.0737230945975966   F   F   F
  0.6661561444775967  0.6653971403757465  0.9937616988807398   T   T   T
  0.7770910259264099  0.8888443776592325  0.1484638519298045   F   F   F
  0.8912509216808159  0.7801941966955738  0.3049332226274802   T   T   T
  0.7778366689940840  0.8896134332197466  0.3846428295837223   T   T   T
  0.6702117073879598  0.6703361219614159  0.2295725274196123   T   T   T
  0.8881961237279583  0.7770346078885524  0.0729841223776617   F   F   F
  0.3316398920421971  0.3434915275789366  0.3493272272678580   T   T   T
  0.0055489405536752  0.0084458176692867  0.3456307721547824   T   T   T
  0.2227181035218990  0.1121032070445693  0.1886905897093172   F   F   F
  0.1107073081491663  0.2220181466176143  0.0343842769402158   F   F   F
  0.3298767768818366  0.0000864598181192  0.3440422539073799   T   T   T
  0.5547720389240354  0.1107057560756104  0.1902593036789355   F   F   F
  0.4446438384684939  0.2220181466176996  0.0343842769402016   F   F   F
  0.6651951859043599 -0.0013060001794265  0.3455637441361058   T   T   T
  0.8892677171508296  0.1107057560748785  0.1902593036789426   F   F   F
  0.7773164394028882  0.2212988788056762  0.0345836465945339   F   F   F
  0.0019762864171186  0.3330003624223694  0.3455293124484973   T   T   T
  0.2239311181280570  0.4440371653511690  0.1905857593403155   F   F   F
  0.1103613052063110  0.5537249349916067  0.0344948589869745   F   F   F
  0.5534400472243988  0.4440371653515882  0.1905857593402800   F   F   F
  0.4440104559497939  0.5546889118994471  0.0337563760733630   F   F   F
  0.6738597707257655  0.3391435554831899  0.3442593881876698   T   T   T
  0.8894075830371477  0.4454811660740177  0.1913990468564677   F   F   F
  0.7766966297853344  0.5537249349917133  0.0344948589869745   F   F   F
  0.0019593481944060  0.6706094575830507  0.3459062314431603   T   T   T
  0.2215475198780581  0.7790003029487167  0.1871081588742811   F   F   F
  0.1108411340735458  0.8883492681472944  0.0328529640002557   F   F   F
  0.3242726503618857  0.6681183128148911  0.3422365246046045   T   T   T
  0.5551631745564478  0.7769923491128878  0.1888297462233766   F   F   F
  0.4447204369394413  0.8881963355443716  0.0334112790651915   F   F   F
  0.6774653069582069  0.6697469308248650  0.3425408344297087   T   T   T
  0.8907857830700863  0.7790003029484680  0.1871081588742882   F   F   F
  0.7768088986048269  0.8881963355442721  0.0334112790651986   F   F   F
  0.4258842835664117  0.5228298237627786  0.3931854656406766   T   T   T
  0.4554870204410629  0.2284663631759584  0.4509085583434991   T   T   T
 
  0.00000000E+00  0.00000000E+00  0.00000000E+00
  0.00000000E+00  0.00000000E+00  0.00000000E+00
  0.00000000E+00  0.00000000E+00  0.00000000E+00
  0.00000000E+00  0.00000000E+00  0.00000000E+00
  0.00000000E+00  0.00000000E+00  0.00000000E+00
  0.00000000E+00  0.00000000E+00  0.00000000E+00
  0.00000000E+00  0.00000000E+00  0.00000000E+00
  0.00000000E+00  0.00000000E+00  0.00000000E+00
  0.00000000E+00  0.00000000E+00  0.00000000E+00
  0.00000000E+00  0.00000000E+00  0.00000000E+00
  0.00000000E+00  0.00000000E+00  0.00000000E+00
  0.00000000E+00  0.00000000E+00  0.00000000E+00
  0.00000000E+00  0.00000000E+00  0.00000000E+00
  0.00000000E+00  0.00000000E+00  0.00000000E+00
  0.00000000E+00  0.00000000E+00  0.00000000E+00
  0.00000000E+00  0.00000000E+00  0.00000000E+00
  0.00000000E+00  0.00000000E+00  0.00000000E+00
  0.00000000E+00  0.00000000E+00  0.00000000E+00
  0.00000000E+00  0.00000000E+00  0.00000000E+00
  0.00000000E+00  0.00000000E+00  0.00000000E+00
  0.00000000E+00  0.00000000E+00  0.00000000E+00
  0.00000000E+00  0.00000000E+00  0.00000000E+00
  0.00000000E+00  0.00000000E+00  0.00000000E+00
  0.00000000E+00  0.00000000E+00  0.00000000E+00
  0.00000000E+00  0.00000000E+00  0.00000000E+00
  0.00000000E+00  0.00000000E+00  0.00000000E+00
  0.00000000E+00  0.00000000E+00  0.00000000E+00
  0.00000000E+00  0.00000000E+00  0.00000000E+00
  0.00000000E+00  0.00000000E+00  0.00000000E+00
  0.00000000E+00  0.00000000E+00  0.00000000E+00
  0.00000000E+00  0.00000000E+00  0.00000000E+00
  0.00000000E+00  0.00000000E+00  0.00000000E+00
  0.00000000E+00  0.00000000E+00  0.00000000E+00
  0.00000000E+00  0.00000000E+00  0.00000000E+00
  0.00000000E+00  0.00000000E+00  0.00000000E+00
  0.00000000E+00  0.00000000E+00  0.00000000E+00
  0.00000000E+00  0.00000000E+00  0.00000000E+00
  0.00000000E+00  0.00000000E+00  0.00000000E+00
  0.00000000E+00  0.00000000E+00  0.00000000E+00
  0.00000000E+00  0.00000000E+00  0.00000000E+00
  0.00000000E+00  0.00000000E+00  0.00000000E+00
  0.00000000E+00  0.00000000E+00  0.00000000E+00
  0.00000000E+00  0.00000000E+00  0.00000000E+00
  0.00000000E+00  0.00000000E+00  0.00000000E+00
  0.00000000E+00  0.00000000E+00  0.00000000E+00
  0.00000000E+00  0.00000000E+00  0.00000000E+00
  0.00000000E+00  0.00000000E+00  0.00000000E+00
  0.00000000E+00  0.00000000E+00  0.00000000E+00
  0.00000000E+00  0.00000000E+00  0.00000000E+00
  0.00000000E+00  0.00000000E+00  0.00000000E+00
  0.00000000E+00  0.00000000E+00  0.00000000E+00
  0.00000000E+00  0.00000000E+00  0.00000000E+00
  0.00000000E+00  0.00000000E+00  0.00000000E+00
  0.00000000E+00  0.00000000E+00  0.00000000E+00
  0.00000000E+00  0.00000000E+00  0.00000000E+00
  0.00000000E+00  0.00000000E+00  0.00000000E+00
  0.00000000E+00  0.00000000E+00  0.00000000E+00
  0.00000000E+00  0.00000000E+00  0.00000000E+00
  0.00000000E+00  0.00000000E+00  0.00000000E+00
  0.00000000E+00  0.00000000E+00  0.00000000E+00
  0.00000000E+00  0.00000000E+00  0.00000000E+00
  0.00000000E+00  0.00000000E+00  0.00000000E+00
  0.00000000E+00  0.00000000E+00  0.00000000E+00
  0.00000000E+00  0.00000000E+00  0.00000000E+00
  0.00000000E+00  0.00000000E+00  0.00000000E+00
  0.00000000E+00  0.00000000E+00  0.00000000E+00
  0.00000000E+00  0.00000000E+00  0.00000000E+00
  0.00000000E+00  0.00000000E+00  0.00000000E+00
  0.00000000E+00  0.00000000E+00  0.00000000E+00
  0.00000000E+00  0.00000000E+00  0.00000000E+00
  0.00000000E+00  0.00000000E+00  0.00000000E+00
  0.00000000E+00  0.00000000E+00  0.00000000E+00
  0.00000000E+00  0.00000000E+00  0.00000000E+00
  0.00000000E+00  0.00000000E+00  0.00000000E+00
  0.00000000E+00  0.00000000E+00  0.00000000E+00
  0.00000000E+00  0.00000000E+00  0.00000000E+00
  0.00000000E+00  0.00000000E+00  0.00000000E+00
  0.00000000E+00  0.00000000E+00  0.00000000E+00
  0.00000000E+00  0.00000000E+00  0.00000000E+00
  0.00000000E+00  0.00000000E+00  0.00000000E+00
  0.00000000E+00  0.00000000E+00  0.00000000E+00
  0.00000000E+00  0.00000000E+00  0.00000000E+00
