CeO2-you-111-you-Ti                     
   1.00000000000000     
     9.8395689562612478   -5.6808781566672204    0.0000000000000000
     0.0000000007491389   11.3617543152042124    0.0000000000000000
     0.0000000000000000    0.0000000000000000   20.4963938485402331
   O    Ti   Ce   H 
    54     1    26     2
Selective dynamics
Direct
 -0.0000539828992528  0.0004250995916818  0.9895838631106340   T   T   T
  0.1082168166650139  0.2206709513537769  0.1463720955630517   T   T   T
  0.2448175949262735  0.1444449481395516  0.3152570912404425   T   T   T
  0.0710897501473284  0.2017568401089515  0.3958925962110132   T   T   T
  0.0089699376267047  0.0043079303662113  0.2326960946068505   T   T   T
  0.2221338615843222  0.1104771120561306  0.0715975442295111   T   T   T
  0.3332504441899239  0.0005458920689681  0.9895281801552281   T   T   T
  0.4464496975107027  0.2211533750162795  0.1471465664036245   T   T   T
  0.5545208046726420  0.1121848858888423  0.3062217216638729   T   T   T
  0.4723907707931971  0.1931536151416026  0.4112342811441297   T   T   T
  0.3289569337075300  0.0014661037417936  0.2320396225817563   T   T   T
  0.5567223202809177  0.1098432154439589  0.0713382727152707   T   T   T
  0.6667093343138188  0.0000431138581826  0.9887808317479345   T   T   T
  0.7787030983528097  0.2251741937782037  0.1494792045801664   T   T   T
  0.8845376586884981  0.1087577436929604  0.3035632273374172   T   T   T
  0.7772776360231984  0.2212385846736967  0.3885073699219832   T   T   T
  0.6655276397478427  0.0022527241051137  0.2285586470730106   T   T   T
  0.8862665852362517  0.1099085155768492  0.0714982661514869   T   T   T
 -0.0002648529482133  0.3327055987499775  0.9896219475779705   T   T   T
  0.1100263666236183  0.5565162713019112  0.1476716362364309   T   T   T
  0.2369459787264575  0.4295174506028193  0.3122236331697154   T   T   T
  0.1124265147345503  0.5533401459106940  0.3867167702442944   T   T   T
  0.0066649100677088  0.3376280663729514  0.2312965477438899   T   T   T
  0.2222209032281793  0.4451356055832333  0.0708096109416411   T   T   T
  0.3330282933384492  0.3327041863817467  0.9896539947800098   T   T   T
  0.4463102071430029  0.5586584896012062  0.1465411039624746   T   T   T
  0.5214832752715930  0.4214339990759409  0.3154004170397530   T   T   T
  0.4648229832586679  0.5961150894413392  0.3961306483065418   T   T   T
  0.3330600199481698  0.3335570282193515  0.2232944602357953   T   T   T
  0.5557773158516393  0.4442718315415018  0.0714165957915824   T   T   T
  0.6659882993325393  0.3330754727216996  0.9892686294318906   T   T   T
  0.7793196668073923  0.5568693616147072  0.1483318060618959   T   T   T
  0.8889397583229489  0.4427248581140782  0.3072863021094758   T   T   T
  0.7747364707485884  0.5516069155395670  0.3863063530975930   T   T   T
  0.6657794193374632  0.3382866488031498  0.2321579137049421   T   T   T
  0.8886003647367379  0.4444190930715509  0.0708545142499632   T   T   T
 -0.0005435274344518  0.6675202167143633  0.9895720533916416   T   T   T
  0.1097294529450151  0.8868781656542858  0.1486869395366015   T   T   T
  0.2233935397142662  0.7774213619867377  0.3072511824006222   T   T   T
  0.1148044674558280  0.8918492048707147  0.3864516708977506   T   T   T
 -0.0001595896896449  0.6666914166797357  0.2316474264698500   T   T   T
  0.2223483639468289  0.7779888694352346  0.0710743896266282   T   T   T
  0.3338679391567035  0.6670466028411443  0.9891821688319344   T   T   T
  0.4419249168071379  0.8878461746127555  0.1497099900472763   T   T   T
  0.5579894408009194  0.7825779138201658  0.3035759272701515   T   T   T
  0.4451994764771808  0.8885730356624868  0.3883234140770477   T   T   T
  0.3292217424459032  0.6594786028775491  0.2313923432431746   T   T   T
  0.5568984301304994  0.7804671546266722  0.0713511129304635   T   T   T
  0.6664630256746238  0.6671888126330993  0.9896621879820914   T   T   T
  0.7790177732728459  0.8880775734113119  0.1509157791609441   T   T   T
  0.8876131838427788  0.7786723943686822  0.3085454488052131   T   T   T
  0.7759731585414422  0.8904667620891971  0.3893888504587938   T   T   T
  0.6623566735936148  0.6578850998470027  0.2328152106399712   T   T   T
  0.8884694142380949  0.7787954824620682  0.0717833842452240   T   T   T
  0.3311295524316696  0.3346111149936700  0.3301151580694199   T   T   T
  0.9985955505518296  0.0039939093121919  0.3510098494500761   T   T   T
  0.2227588825113558  0.1116695107415219  0.1879804192120553   T   T   T
  0.1103529757754703  0.2217501280002037  0.0299394157180851   T   T   T
  0.3338890014662616 -0.0041579401913128  0.3495387280767660   T   T   T
  0.5552341465129681  0.1117838232746097  0.1897928667991733   T   T   T
  0.4447488208340422  0.2218086037264651  0.0297605601333511   T   T   T
  0.6665735762971570  0.0001451418472047  0.3474875172524126   T   T   T
  0.8894918722901178  0.1120969876284422  0.1897159413482634   T   T   T
  0.7774466828982179  0.2221025792676745  0.0303408838167511   T   T   T
  0.0001083891244939  0.3286027984369561  0.3503849247135210   T   T   T
  0.2223239498212599  0.4442952907809316  0.1873233917969371   T   T   T
  0.1106917415927823  0.5560329399153623  0.0302694555855368   T   T   T
  0.5549766690550990  0.4440752858636314  0.1879314209003094   T   T   T
  0.4447954332756135  0.5563462158460563  0.0298868769658759   T   T   T
  0.6703862336954245  0.3325245705373489  0.3495485534210776   T   T   T
  0.8891835370212638  0.4447589810282401  0.1901046084913599   T   T   T
  0.7781727342090533  0.5562849837799998  0.0308050773444381   T   T   T
  0.0002557694336095  0.6658754868638087  0.3472373335724887   T   T   T
  0.2219702152146872  0.7773350242902581  0.1901639561275636   T   T   T
  0.1104304388507601  0.8885199886309565  0.0309183716841483   T   T   T
  0.3377954302009347  0.6662143468908533  0.3503687977617180   T   T   T
  0.5549371598269425  0.7774705279523000  0.1897907894950968   T   T   T
  0.4445709244718538  0.8891046917936340  0.0303364992883670   T   T   T
  0.6623079318576173  0.6679526997844693  0.3510301883648494   T   T   T
  0.8887254126624575  0.7779811305043185  0.1916293315055428   T   T   T
  0.7776770885897174  0.8891985564687392  0.0307338449568523   T   T   T
  0.3511480747139219  0.3155651681949734  0.4140920425121122   T   T   T
  0.4223321267966142  0.2436146519930947  0.4220213544973684   T   T   T
 
  0.00000000E+00  0.00000000E+00  0.00000000E+00
  0.00000000E+00  0.00000000E+00  0.00000000E+00
  0.00000000E+00  0.00000000E+00  0.00000000E+00
  0.00000000E+00  0.00000000E+00  0.00000000E+00
  0.00000000E+00  0.00000000E+00  0.00000000E+00
  0.00000000E+00  0.00000000E+00  0.00000000E+00
  0.00000000E+00  0.00000000E+00  0.00000000E+00
  0.00000000E+00  0.00000000E+00  0.00000000E+00
  0.00000000E+00  0.00000000E+00  0.00000000E+00
  0.00000000E+00  0.00000000E+00  0.00000000E+00
  0.00000000E+00  0.00000000E+00  0.00000000E+00
  0.00000000E+00  0.00000000E+00  0.00000000E+00
  0.00000000E+00  0.00000000E+00  0.00000000E+00
  0.00000000E+00  0.00000000E+00  0.00000000E+00
  0.00000000E+00  0.00000000E+00  0.00000000E+00
  0.00000000E+00  0.00000000E+00  0.00000000E+00
  0.00000000E+00  0.00000000E+00  0.00000000E+00
  0.00000000E+00  0.00000000E+00  0.00000000E+00
  0.00000000E+00  0.00000000E+00  0.00000000E+00
  0.00000000E+00  0.00000000E+00  0.00000000E+00
  0.00000000E+00  0.00000000E+00  0.00000000E+00
  0.00000000E+00  0.00000000E+00  0.00000000E+00
  0.00000000E+00  0.00000000E+00  0.00000000E+00
  0.00000000E+00  0.00000000E+00  0.00000000E+00
  0.00000000E+00  0.00000000E+00  0.00000000E+00
  0.00000000E+00  0.00000000E+00  0.00000000E+00
  0.00000000E+00  0.00000000E+00  0.00000000E+00
  0.00000000E+00  0.00000000E+00  0.00000000E+00
  0.00000000E+00  0.00000000E+00  0.00000000E+00
  0.00000000E+00  0.00000000E+00  0.00000000E+00
  0.00000000E+00  0.00000000E+00  0.00000000E+00
  0.00000000E+00  0.00000000E+00  0.00000000E+00
  0.00000000E+00  0.00000000E+00  0.00000000E+00
  0.00000000E+00  0.00000000E+00  0.00000000E+00
  0.00000000E+00  0.00000000E+00  0.00000000E+00
  0.00000000E+00  0.00000000E+00  0.00000000E+00
  0.00000000E+00  0.00000000E+00  0.00000000E+00
  0.00000000E+00  0.00000000E+00  0.00000000E+00
  0.00000000E+00  0.00000000E+00  0.00000000E+00
  0.00000000E+00  0.00000000E+00  0.00000000E+00
  0.00000000E+00  0.00000000E+00  0.00000000E+00
  0.00000000E+00  0.00000000E+00  0.00000000E+00
  0.00000000E+00  0.00000000E+00  0.00000000E+00
  0.00000000E+00  0.00000000E+00  0.00000000E+00
  0.00000000E+00  0.00000000E+00  0.00000000E+00
  0.00000000E+00  0.00000000E+00  0.00000000E+00
  0.00000000E+00  0.00000000E+00  0.00000000E+00
  0.00000000E+00  0.00000000E+00  0.00000000E+00
  0.00000000E+00  0.00000000E+00  0.00000000E+00
  0.00000000E+00  0.00000000E+00  0.00000000E+00
  0.00000000E+00  0.00000000E+00  0.00000000E+00
  0.00000000E+00  0.00000000E+00  0.00000000E+00
  0.00000000E+00  0.00000000E+00  0.00000000E+00
  0.00000000E+00  0.00000000E+00  0.00000000E+00
  0.00000000E+00  0.00000000E+00  0.00000000E+00
  0.00000000E+00  0.00000000E+00  0.00000000E+00
  0.00000000E+00  0.00000000E+00  0.00000000E+00
  0.00000000E+00  0.00000000E+00  0.00000000E+00
  0.00000000E+00  0.00000000E+00  0.00000000E+00
  0.00000000E+00  0.00000000E+00  0.00000000E+00
  0.00000000E+00  0.00000000E+00  0.00000000E+00
  0.00000000E+00  0.00000000E+00  0.00000000E+00
  0.00000000E+00  0.00000000E+00  0.00000000E+00
  0.00000000E+00  0.00000000E+00  0.00000000E+00
  0.00000000E+00  0.00000000E+00  0.00000000E+00
  0.00000000E+00  0.00000000E+00  0.00000000E+00
  0.00000000E+00  0.00000000E+00  0.00000000E+00
  0.00000000E+00  0.00000000E+00  0.00000000E+00
  0.00000000E+00  0.00000000E+00  0.00000000E+00
  0.00000000E+00  0.00000000E+00  0.00000000E+00
  0.00000000E+00  0.00000000E+00  0.00000000E+00
  0.00000000E+00  0.00000000E+00  0.00000000E+00
  0.00000000E+00  0.00000000E+00  0.00000000E+00
  0.00000000E+00  0.00000000E+00  0.00000000E+00
  0.00000000E+00  0.00000000E+00  0.00000000E+00
  0.00000000E+00  0.00000000E+00  0.00000000E+00
  0.00000000E+00  0.00000000E+00  0.00000000E+00
  0.00000000E+00  0.00000000E+00  0.00000000E+00
  0.00000000E+00  0.00000000E+00  0.00000000E+00
  0.00000000E+00  0.00000000E+00  0.00000000E+00
  0.00000000E+00  0.00000000E+00  0.00000000E+00
  0.00000000E+00  0.00000000E+00  0.00000000E+00
  0.00000000E+00  0.00000000E+00  0.00000000E+00
