CeO2-you-111-you-Mo                     
   1.00000000000000     
     9.8576934438011410   -5.6913423301845665    0.0000000007277666
     0.0341483531642275   11.4418293361607475    0.0139620145910378
     0.0149927818224245    0.0259682555406755   20.8085138977089983
   O    Mo   Ce   H 
    53     1    26     2
Selective dynamics
Direct
  0.9985426804323564  0.9996982012052622  0.9946834589322542   T   T   T
  0.1113009673956569  0.2225440243914321  0.1477014604261271   F   F   F
  0.2392921618517270  0.1531484261924084  0.3174488425800967   T   T   T
  0.2983534289253429  0.3115617929385518  0.4199009389484092   T   T   T
  0.0051988975710094  0.0002954863078670  0.2289016029660492   T   T   T
  0.2211009798815553  0.1088689597631927  0.0715818156815686   F   F   F
  0.3346626416730615  0.9990412743731215  0.9941722622681683   T   T   T
  0.4445760569955226  0.2225440243907215  0.1477014604261342   F   F   F
  0.5613552745596613  0.1160755001600777  0.3057848315188980   T   T   T
  0.4835091364756376  0.2025616534573680  0.4162858013238407   T   T   T
  0.3275307508071187  0.0018586686293834  0.2288875290485100   T   T   T
  0.5579467147587991  0.1119920107175147  0.0751733152033367   F   F   F
  0.6668940238148452  0.9995567200956830  0.9949288792911454   T   T   T
  0.7801800360049072  0.2270260720096147  0.1533910262081406   F   F   F
  0.9022008662866976  0.1231215453340970  0.3109616798797351   T   T   T
  0.7831830585872700  0.2265998498152898  0.3892688270436144   T   T   T
  0.6719520645929017  0.0030003770729296  0.2308375839105678   T   T   T
  0.8873792959586808  0.1119920107176853  0.0751733152033509   F   F   F
  0.0000466740868139  0.3321426373855119  0.9942236784517965   T   T   T
  0.1095428111280015  0.5537757196093196  0.1480680578918623   F   F   F
  0.2188886093284730  0.4098177865219051  0.3140053110376144   T   T   T
  0.0973582035611953  0.5428271861992904  0.3854115806280043   T   T   T
  0.0063845186914315  0.3383746684238592  0.2308736195403613   T   T   T
  0.2227943853103085  0.4449682058367372  0.0738574331522273   F   F   F
  0.3330346772536771  0.3324738777789371  0.9942916139543231   T   T   T
  0.4431865962890811  0.5530411925792720  0.1499522380166098   F   F   F
  0.5177769727991832  0.4107719157874296  0.3193099569092269   T   T   T
  0.3342584763536636  0.3351353348647613  0.2270039540154415   T   T   T
  0.5555078205262021  0.4449682058366733  0.0738574331522130   F   F   F
  0.6660245116183067  0.3325448058377212  0.9941078679151324   T   T   T
  0.7775659084808311  0.5537757196088009  0.1480680578918552   F   F   F
  0.8862195585062083  0.4407177165174904  0.3022989609801935   T   T   T
  0.7778409768057983  0.5417556384447568  0.3851900971415098   T   T   T
  0.6617503792198475  0.3391326205707979  0.2320591809429631   T   T   T
  0.8885655224560978  0.4437970449119533  0.0729044448215674   F   F   F
  0.0006803600946039  0.6678300456740965  0.9939448038869508   T   T   T
  0.1097522809119837  0.8861715618229908  0.1465729817474326   F   F   F
  0.2184160579168095  0.7751301104969213  0.3034227615379735   T   T   T
  0.1022549183100348  0.8707656770318721  0.3903186047813071   T   T   T
  0.9991890174817375  0.6666239501481322  0.2276167492518923   T   T   T
  0.2233654125065101  0.7770191485749010  0.0735067739219346   F   F   F
  0.3339182211389031  0.6664732996018300  0.9941246903826502   T   T   T
  0.4470977856006542  0.8907535172623966  0.1504817256510549   F   F   F
  0.5572035451625948  0.7789934142609158  0.3031454948621814   T   T   T
  0.4570816164110970  0.8900635180279171  0.3902511270716562   T   T   T
  0.3280129937215920  0.6575440593807478  0.2295615611835031   T   T   T
  0.5548533818969830  0.7763727637940647  0.0747134969344216   F   F   F
  0.6663124461100096  0.6673466840564031  0.9940805893887039   T   T   T
  0.7769887316622004  0.8907535172629508  0.1504817256510833   F   F   F
  0.8885824046482288  0.7745211049482975  0.3035656697506651   T   T   T
  0.7705851379439008  0.8900236364156864  0.3903672562124972   T   T   T
  0.6629117247469660  0.6571403650663329  0.2298624695141824   T   T   T
  0.8869867360683727  0.7770191485747659  0.0735067739219559   F   F   F
  0.3326287440709081  0.3409682897394052  0.3377352634985835   T   T   T
  0.9936307707508325  0.9845144620174405  0.3486231188489200   T   T   T
  0.2187567520104707  0.1041805040234465  0.1837223715312888   F   F   F
  0.1099364635790891  0.2223311904708325  0.0334611186101910   F   F   F
  0.3346833922721824  0.9952198976229764  0.3531441314313575   T   T   T
  0.5545222765669067  0.1120227887085008  0.1917169514560868   F   F   F
  0.4457277268915121  0.2223311904709249  0.0334611186101910   F   F   F
  0.6658232745893058 -0.0049311782078410  0.3479777115452217   T   T   T
  0.8908345121406214  0.1120227887073639  0.1917169514562218   F   F   F
  0.7779298841878415  0.2225257683755402  0.0352908179129798   F   F   F
  0.9873298039528162  0.3376088741317628  0.3437380440881709   T   T   T
  0.2247594095497476  0.4453068075273308  0.1890043700986226   F   F   F
  0.1119592685067730  0.5557635145217716  0.0339081972613826   F   F   F
  0.5538813979797510  0.4453068075288442  0.1890043700984947   F   F   F
  0.4446057212990766  0.5558794425979485  0.0336488565670194   F   F   F
  0.6705207492915389  0.3286555248776822  0.3494349801640300   T   T   T
  0.8902164107356185  0.4470988214716982  0.1889791294949887   F   F   F
  0.7771372460150445  0.5557635145216651  0.0339081972613897   F   F   F
  0.0003275925218603  0.6666029087310269  0.3450596506802318   T   T   T
  0.2226423425861341  0.7774363117651646  0.1890653633894033   F   F   F
  0.1102683857011826  0.8872037714022127  0.0323673147233663   F   F   F
  0.3317742633308418  0.6712225234027333  0.3473788025363441   T   T   T
  0.5560009329972644  0.7786678659937678  0.1915038466553227   F   F   F
  0.4456026549567369  0.8892541334278548  0.0350596488758939   F   F   F
  0.6695000874697239  0.6668752842147078  0.3480060821758167   T   T   T
  0.8881269691791545  0.7774363117652783  0.1890653633895099   F   F   F
  0.7769844784712632  0.8892541334277553  0.0350596488759010   F   F   F
  0.4289699329382643  0.5318786219511586  0.3695754717689168   T   T   T
  0.4438101996997206  0.2419655922325428  0.4442395570238672   T   T   T
 
  0.00000000E+00  0.00000000E+00  0.00000000E+00
  0.00000000E+00  0.00000000E+00  0.00000000E+00
  0.00000000E+00  0.00000000E+00  0.00000000E+00
  0.00000000E+00  0.00000000E+00  0.00000000E+00
  0.00000000E+00  0.00000000E+00  0.00000000E+00
  0.00000000E+00  0.00000000E+00  0.00000000E+00
  0.00000000E+00  0.00000000E+00  0.00000000E+00
  0.00000000E+00  0.00000000E+00  0.00000000E+00
  0.00000000E+00  0.00000000E+00  0.00000000E+00
  0.00000000E+00  0.00000000E+00  0.00000000E+00
  0.00000000E+00  0.00000000E+00  0.00000000E+00
  0.00000000E+00  0.00000000E+00  0.00000000E+00
  0.00000000E+00  0.00000000E+00  0.00000000E+00
  0.00000000E+00  0.00000000E+00  0.00000000E+00
  0.00000000E+00  0.00000000E+00  0.00000000E+00
  0.00000000E+00  0.00000000E+00  0.00000000E+00
  0.00000000E+00  0.00000000E+00  0.00000000E+00
  0.00000000E+00  0.00000000E+00  0.00000000E+00
  0.00000000E+00  0.00000000E+00  0.00000000E+00
  0.00000000E+00  0.00000000E+00  0.00000000E+00
  0.00000000E+00  0.00000000E+00  0.00000000E+00
  0.00000000E+00  0.00000000E+00  0.00000000E+00
  0.00000000E+00  0.00000000E+00  0.00000000E+00
  0.00000000E+00  0.00000000E+00  0.00000000E+00
  0.00000000E+00  0.00000000E+00  0.00000000E+00
  0.00000000E+00  0.00000000E+00  0.00000000E+00
  0.00000000E+00  0.00000000E+00  0.00000000E+00
  0.00000000E+00  0.00000000E+00  0.00000000E+00
  0.00000000E+00  0.00000000E+00  0.00000000E+00
  0.00000000E+00  0.00000000E+00  0.00000000E+00
  0.00000000E+00  0.00000000E+00  0.00000000E+00
  0.00000000E+00  0.00000000E+00  0.00000000E+00
  0.00000000E+00  0.00000000E+00  0.00000000E+00
  0.00000000E+00  0.00000000E+00  0.00000000E+00
  0.00000000E+00  0.00000000E+00  0.00000000E+00
  0.00000000E+00  0.00000000E+00  0.00000000E+00
  0.00000000E+00  0.00000000E+00  0.00000000E+00
  0.00000000E+00  0.00000000E+00  0.00000000E+00
  0.00000000E+00  0.00000000E+00  0.00000000E+00
  0.00000000E+00  0.00000000E+00  0.00000000E+00
  0.00000000E+00  0.00000000E+00  0.00000000E+00
  0.00000000E+00  0.00000000E+00  0.00000000E+00
  0.00000000E+00  0.00000000E+00  0.00000000E+00
  0.00000000E+00  0.00000000E+00  0.00000000E+00
  0.00000000E+00  0.00000000E+00  0.00000000E+00
  0.00000000E+00  0.00000000E+00  0.00000000E+00
  0.00000000E+00  0.00000000E+00  0.00000000E+00
  0.00000000E+00  0.00000000E+00  0.00000000E+00
  0.00000000E+00  0.00000000E+00  0.00000000E+00
  0.00000000E+00  0.00000000E+00  0.00000000E+00
  0.00000000E+00  0.00000000E+00  0.00000000E+00
  0.00000000E+00  0.00000000E+00  0.00000000E+00
  0.00000000E+00  0.00000000E+00  0.00000000E+00
  0.00000000E+00  0.00000000E+00  0.00000000E+00
  0.00000000E+00  0.00000000E+00  0.00000000E+00
  0.00000000E+00  0.00000000E+00  0.00000000E+00
  0.00000000E+00  0.00000000E+00  0.00000000E+00
  0.00000000E+00  0.00000000E+00  0.00000000E+00
  0.00000000E+00  0.00000000E+00  0.00000000E+00
  0.00000000E+00  0.00000000E+00  0.00000000E+00
  0.00000000E+00  0.00000000E+00  0.00000000E+00
  0.00000000E+00  0.00000000E+00  0.00000000E+00
  0.00000000E+00  0.00000000E+00  0.00000000E+00
  0.00000000E+00  0.00000000E+00  0.00000000E+00
  0.00000000E+00  0.00000000E+00  0.00000000E+00
  0.00000000E+00  0.00000000E+00  0.00000000E+00
  0.00000000E+00  0.00000000E+00  0.00000000E+00
  0.00000000E+00  0.00000000E+00  0.00000000E+00
  0.00000000E+00  0.00000000E+00  0.00000000E+00
  0.00000000E+00  0.00000000E+00  0.00000000E+00
  0.00000000E+00  0.00000000E+00  0.00000000E+00
  0.00000000E+00  0.00000000E+00  0.00000000E+00
  0.00000000E+00  0.00000000E+00  0.00000000E+00
  0.00000000E+00  0.00000000E+00  0.00000000E+00
  0.00000000E+00  0.00000000E+00  0.00000000E+00
  0.00000000E+00  0.00000000E+00  0.00000000E+00
  0.00000000E+00  0.00000000E+00  0.00000000E+00
  0.00000000E+00  0.00000000E+00  0.00000000E+00
  0.00000000E+00  0.00000000E+00  0.00000000E+00
  0.00000000E+00  0.00000000E+00  0.00000000E+00
  0.00000000E+00  0.00000000E+00  0.00000000E+00
  0.00000000E+00  0.00000000E+00  0.00000000E+00
