CeO2-you-111-you-Os                     
   1.00000000000000     
     9.8947516156391817   -5.7186499690715484   -0.0130697962616688
    -0.0051200245062741   11.4284297832956447    0.0130697941341233
    -0.0147824618020047    0.0256039738158727   21.0100051232745599
   O    Os   Ce   H 
    53     1    26     2
Selective dynamics
Direct
  0.9994812788165408  0.9998130843728119  0.9961105985087750   T   T   T
  0.1161470583111495  0.2234107383558666  0.1482936174772362   F   F   F
  0.2673388629850729  0.1433100630411660  0.3116701938916570   T   T   T
  0.1559981302941632  0.2694315723585575  0.3635159360998949   T   T   T
  0.0099735753226892  0.0040823245908665  0.2313233532978191   T   T   T
  0.2215624718600679  0.1091799214072537  0.0743183191776708   F   F   F
  0.3355407204662805  0.0015556359524188  0.9965945528942618   T   T   T
  0.4382516015496378  0.2284143984488907  0.1532173551505593   F   F   F
  0.5541917146950591  0.1119091332619614  0.3037532751129554   T   T   T
  0.4845041112115481  0.1822215073780430  0.4148809888321102   T   T   T
  0.3317523922717107  0.0001969089115253  0.2276752998505035   T   T   T
  0.5539701217745829  0.1126968782246109  0.0790751074686895   F   F   F
  0.6657598065289979  0.0010180762330175  0.9989800184234339   T   T   T
  0.7839452123051416  0.2237337824823129  0.1514079853407111   F   F   F
  0.8853992447055875  0.1090802928948146  0.3036839489249764   T   T   T
  0.7712834229348181  0.2175499989972720  0.3875211324504400   T   T   T
  0.6659659632763614  0.0005914396314779  0.2287249066128536   T   T   T
  0.8903728108103053  0.1103573480738120  0.0766370550504831   F   F   F
  0.9972728795147850  0.3311362741959847  0.9957803582834269   T   T   T
  0.1105740958238570  0.5560929041733687  0.1452958136770732   F   F   F
  0.1062700447387091  0.5620790951008001  0.3835566811202692   T   T   T
  0.0155398872336832  0.3435302056639371  0.2311218081290020   T   T   T
  0.2219216156086787  0.4447443843929548  0.0711921795618338   F   F   F
  0.3340765195876358  0.3324077933475755  0.9957322846551132   T   T   T
  0.4432552616541443  0.5505199416919950  0.1482936174774210   F   F   F
  0.5234697270597062  0.4004169638863905  0.3116528473278163   T   T   T
  0.3927663571867733  0.5089523529953284  0.3629358359539939   T   T   T
  0.3207275124696409  0.3459826775596274  0.2354032553705142   T   T   T
  0.5574870785915351  0.4451035281388798  0.0743183191776851   F   F   F
  0.6654340008977977  0.3313542720982950  0.9966135483222818   T   T   T
  0.7781506128831666  0.5556148612148490  0.1497854355742092   F   F   F
  0.8825400458356444  0.4440839469560303  0.3012760659204832   T   T   T
  0.7787282776849336  0.5448985165091389  0.3856754151500930   T   T   T
  0.6663467180136411  0.3342249470697368  0.2274086983184612   T   T   T
  0.8881041478148717  0.4446576348130122  0.0738352863243890   F   F   F
  0.9990027551940841  0.6676005755476838  0.9951112563947822   T   T   T
  0.1110521387832009  0.8885163871140023  0.1497854355740174   F   F   F
  0.2231154397104710  0.7838862749659954  0.3012633882987367   T   T   T
  0.1224038325056321  0.8889832919552279  0.3851730719761033   T   T   T
  0.0010988801145268  0.6660216648540004  0.2279019315707220   T   T   T
  0.2220083651860421  0.7785628521834980  0.0738352863245026   F   F   F
  0.3351615165377168  0.6693311589916103  0.9957614621095159   T   T   T
  0.4429322175189725  0.8827217876942228  0.1514079853405406   F   F   F
  0.5575966637340544  0.7811360424211109  0.3039373033539412   T   T   T
  0.4493506127428268  0.8943309817875351  0.3876274640670511   T   T   T
  0.3235749246219644  0.6511993287880894  0.2316198500183046   T   T   T
  0.5563096519274353  0.7762941891903736  0.0766370550505968   F   F   F
  0.6674649997158587  0.6685250929998745  0.9960580073392082   T   T   T
  0.7776057789499902  0.8890612210508451  0.1534912840570755   F   F   F
  0.8900804449154657  0.7766376514570085  0.3044303487893540   T   T   T
  0.7750757224166179  0.8931292677535885  0.3889893434733852   T   T   T
  0.6628541290957376  0.6570939586212752  0.2312191376422418   T   T   T
  0.8884768250341821  0.7781901749652249  0.0758289643982977   F   F   F
  0.3342890147228719  0.3315368567006655  0.3363569341478883   T   T   T
  0.0004102635856305  0.9986702109571440  0.3474645082379871   T   T   T
  0.2201354964926026  0.1076376694016901  0.1894405714081060   F   F   F
  0.1097722567658650  0.2197881518089275  0.0343871776590134   F   F   F
  0.3371911612523280  0.9945227889365905  0.3475004226860000   T   T   T
  0.5555056736808481  0.1111613263223106  0.1912408268155090   F   F   F
  0.4441436814186943  0.2225223185817882  0.0359490565115479   F   F   F
  0.6691072299671829  0.9978584688577534  0.3453698508622868   T   T   T
  0.8912787192479072  0.1123119447297682  0.1930978542045736   F   F   F
  0.7779884753887742  0.2221885342762135  0.0373986567717566   F   F   F
  0.9881894607559070  0.3347255718506124  0.3480236129394239   T   T   T
  0.2207415314849115  0.4459244685046784  0.1811276572437919   F   F   F
  0.1100751666266717  0.5565918333721385  0.0326963613469147   F   F   F
  0.5590293305936740  0.4465305035054499  0.1894405714077578   F   F   F
  0.4468778481905105  0.5568947432342313  0.0343871776585942   F   F   F
  0.6721217985176766  0.3298382257692474  0.3474364283833543   T   T   T
  0.8911120963080208  0.4446769975366109  0.1891203050842236   F   F   F
  0.7774694161233455  0.5556292344559211  0.0355830070368484   F   F   F
  0.0000124276784886  0.6667746998609992  0.3437424218429959   T   T   T
  0.2219890024698046  0.7755549037043679  0.1891203050846144   F   F   F
  0.1110377655453973  0.8891975838778663  0.0355830070369123   F   F   F
  0.3322674634231801  0.6790026394469550  0.3477469974774453   T   T   T
  0.5543550552612473  0.7753882807540577  0.1930978542042183   F   F   F
  0.4444774657233381  0.8886785246124447  0.0373986567717139   F   F   F
  0.6690027600967938  0.6666393522867596  0.3476965804377616   T   T   T
  0.8893526461141263  0.7773143538880447  0.1910972110539646   F   F   F
  0.7776314187242477  0.8890355812753441  0.0385551596739688   F   F   F
  0.3623616275195486  0.3044724656514538  0.4095752411001360   T   T   T
  0.4436077083251485  0.2223998598339441  0.4410187801008794   T   T   T
 
  0.00000000E+00  0.00000000E+00  0.00000000E+00
  0.00000000E+00  0.00000000E+00  0.00000000E+00
  0.00000000E+00  0.00000000E+00  0.00000000E+00
  0.00000000E+00  0.00000000E+00  0.00000000E+00
  0.00000000E+00  0.00000000E+00  0.00000000E+00
  0.00000000E+00  0.00000000E+00  0.00000000E+00
  0.00000000E+00  0.00000000E+00  0.00000000E+00
  0.00000000E+00  0.00000000E+00  0.00000000E+00
  0.00000000E+00  0.00000000E+00  0.00000000E+00
  0.00000000E+00  0.00000000E+00  0.00000000E+00
  0.00000000E+00  0.00000000E+00  0.00000000E+00
  0.00000000E+00  0.00000000E+00  0.00000000E+00
  0.00000000E+00  0.00000000E+00  0.00000000E+00
  0.00000000E+00  0.00000000E+00  0.00000000E+00
  0.00000000E+00  0.00000000E+00  0.00000000E+00
  0.00000000E+00  0.00000000E+00  0.00000000E+00
  0.00000000E+00  0.00000000E+00  0.00000000E+00
  0.00000000E+00  0.00000000E+00  0.00000000E+00
  0.00000000E+00  0.00000000E+00  0.00000000E+00
  0.00000000E+00  0.00000000E+00  0.00000000E+00
  0.00000000E+00  0.00000000E+00  0.00000000E+00
  0.00000000E+00  0.00000000E+00  0.00000000E+00
  0.00000000E+00  0.00000000E+00  0.00000000E+00
  0.00000000E+00  0.00000000E+00  0.00000000E+00
  0.00000000E+00  0.00000000E+00  0.00000000E+00
  0.00000000E+00  0.00000000E+00  0.00000000E+00
  0.00000000E+00  0.00000000E+00  0.00000000E+00
  0.00000000E+00  0.00000000E+00  0.00000000E+00
  0.00000000E+00  0.00000000E+00  0.00000000E+00
  0.00000000E+00  0.00000000E+00  0.00000000E+00
  0.00000000E+00  0.00000000E+00  0.00000000E+00
  0.00000000E+00  0.00000000E+00  0.00000000E+00
  0.00000000E+00  0.00000000E+00  0.00000000E+00
  0.00000000E+00  0.00000000E+00  0.00000000E+00
  0.00000000E+00  0.00000000E+00  0.00000000E+00
  0.00000000E+00  0.00000000E+00  0.00000000E+00
  0.00000000E+00  0.00000000E+00  0.00000000E+00
  0.00000000E+00  0.00000000E+00  0.00000000E+00
  0.00000000E+00  0.00000000E+00  0.00000000E+00
  0.00000000E+00  0.00000000E+00  0.00000000E+00
  0.00000000E+00  0.00000000E+00  0.00000000E+00
  0.00000000E+00  0.00000000E+00  0.00000000E+00
  0.00000000E+00  0.00000000E+00  0.00000000E+00
  0.00000000E+00  0.00000000E+00  0.00000000E+00
  0.00000000E+00  0.00000000E+00  0.00000000E+00
  0.00000000E+00  0.00000000E+00  0.00000000E+00
  0.00000000E+00  0.00000000E+00  0.00000000E+00
  0.00000000E+00  0.00000000E+00  0.00000000E+00
  0.00000000E+00  0.00000000E+00  0.00000000E+00
  0.00000000E+00  0.00000000E+00  0.00000000E+00
  0.00000000E+00  0.00000000E+00  0.00000000E+00
  0.00000000E+00  0.00000000E+00  0.00000000E+00
  0.00000000E+00  0.00000000E+00  0.00000000E+00
  0.00000000E+00  0.00000000E+00  0.00000000E+00
  0.00000000E+00  0.00000000E+00  0.00000000E+00
  0.00000000E+00  0.00000000E+00  0.00000000E+00
  0.00000000E+00  0.00000000E+00  0.00000000E+00
  0.00000000E+00  0.00000000E+00  0.00000000E+00
  0.00000000E+00  0.00000000E+00  0.00000000E+00
  0.00000000E+00  0.00000000E+00  0.00000000E+00
  0.00000000E+00  0.00000000E+00  0.00000000E+00
  0.00000000E+00  0.00000000E+00  0.00000000E+00
  0.00000000E+00  0.00000000E+00  0.00000000E+00
  0.00000000E+00  0.00000000E+00  0.00000000E+00
  0.00000000E+00  0.00000000E+00  0.00000000E+00
  0.00000000E+00  0.00000000E+00  0.00000000E+00
  0.00000000E+00  0.00000000E+00  0.00000000E+00
  0.00000000E+00  0.00000000E+00  0.00000000E+00
  0.00000000E+00  0.00000000E+00  0.00000000E+00
  0.00000000E+00  0.00000000E+00  0.00000000E+00
  0.00000000E+00  0.00000000E+00  0.00000000E+00
  0.00000000E+00  0.00000000E+00  0.00000000E+00
  0.00000000E+00  0.00000000E+00  0.00000000E+00
  0.00000000E+00  0.00000000E+00  0.00000000E+00
  0.00000000E+00  0.00000000E+00  0.00000000E+00
  0.00000000E+00  0.00000000E+00  0.00000000E+00
  0.00000000E+00  0.00000000E+00  0.00000000E+00
  0.00000000E+00  0.00000000E+00  0.00000000E+00
  0.00000000E+00  0.00000000E+00  0.00000000E+00
  0.00000000E+00  0.00000000E+00  0.00000000E+00
  0.00000000E+00  0.00000000E+00  0.00000000E+00
  0.00000000E+00  0.00000000E+00  0.00000000E+00
