CeO2-you-111-you-In                     
   1.00000000000000     
     9.8503223024340159   -5.6870866018270956    0.0000000005234767
     0.0155238340482827   11.4010592696020741    0.0099744722104691
     0.0107968259562429    0.0187006479432592   20.9204396210637036
   O    In   Ce   H 
    53     1    26     1
Selective dynamics
Direct
 -0.0001647966126136  0.0001811217006746  0.9945087099940390   T   T   T
  0.1086449490941285  0.2206178929616855  0.1474102316273464   T   T   T
  0.2277033904853180  0.1061469604744094  0.3023207420944523   T   T   T
  0.1150066134826073  0.2185269438948296  0.3839917503785677   T   T   T
  0.0011815798629475  0.0005551138359704  0.2290053963224691   T   T   T
  0.2229173471710334  0.1111801335024039  0.0726426961596160   T   T   T
  0.3345220533934297  0.0007001881833781  0.9937102054790299   T   T   T
  0.4460329655934969  0.2210461896576747  0.1480669196342321   T   T   T
  0.5525831552953301  0.1192719219179119  0.3058125230688914   T   T   T
  0.4360000488399010  0.2180737204886092  0.4003366664588337   T   T   T
  0.3338292800240253  0.9963995171728115  0.2272602835423854   T   T   T
  0.5576209023109338  0.1116765537361805  0.0736034392335105   T   T   T
  0.6669862662263075 -0.0000110359387758  0.9934839810400697   T   T   T
  0.7786373986306522  0.2240079817121675  0.1510768541803973   T   T   T
  0.8912394529582611  0.1141534010202758  0.3042707678549751   T   T   T
  0.7785179929948046  0.2241835737517568  0.3846887188197120   T   T   T
  0.6656858338212460  0.0010845795277482  0.2316099257542692   T   T   T
  0.8868786440249019  0.1108078958286129  0.0738593042057668   T   T   T
  0.0014247831379470  0.3336798181618798  0.9939656486474315   T   T   T
  0.1106288068111057  0.5549651209767250  0.1477341155009840   T   T   T
  0.2389503605463175  0.4461402423411338  0.3104638826484302   T   T   T
  0.0966389005468065  0.5468767232587006  0.3863412626175249   T   T   T
  0.0079879563239931  0.3378976521475962  0.2307427372814380   T   T   T
  0.2238214731097037  0.4454640955072887  0.0739277912108628   T   T   T
  0.3334022420264401  0.3336833316451536  0.9939887568678468   T   T   T
  0.4461139485487018  0.5579101999498313  0.1497288650949387   T   T   T
  0.5324468753803083  0.4347318918818068  0.3161311384550712   T   T   T
  0.3307609409161285  0.3289595019132038  0.2235684671477600   T   T   T
  0.5548317045613967  0.4445466689725651  0.0743605867418219   T   T   T
  0.6662025000060070  0.3338413760823965  0.9937979635482026   T   T   T
  0.7782082747785993  0.5551895958750407  0.1479318675719473   T   T   T
  0.8882486730650960  0.4415981745449692  0.3023216121899955   T   T   T
  0.7836599307865396  0.5463174945903455  0.3864298218922276   T   T   T
  0.6650172896626412  0.3395702030839377  0.2308382708319582   T   T   T
  0.8886393725743870  0.4433815788915700  0.0729227338405340   T   T   T
  0.0002464668473471  0.6677308979899953  0.9940942491779425   T   T   T
  0.1106095570210885  0.8881667968850581  0.1471211810405286   T   T   T
  0.2179725658848244  0.7783003370880304  0.3036364903071212   T   T   T
  0.1122093084984465  0.8881851013319368  0.3862883059448297   T   T   T
  0.9995767211781466  0.6658384435505322  0.2280895733853446   T   T   T
  0.2236263279715676  0.7780332675471058  0.0729670826629831   T   T   T
  0.3341412859870189  0.6667945417424329  0.9936866728416942   T   T   T
  0.4474973756660696  0.8900994286291517  0.1488596433780107   T   T   T
  0.5554948410631334  0.7766877902946672  0.3084549609051112   T   T   T
  0.4493259832395105  0.9041470099713148  0.3871801050592128   T   T   T
  0.3313615466340204  0.6665493173674853  0.2273576794189239   T   T   T
  0.5564794812671657  0.7780963293390797  0.0742633522939882   T   T   T
  0.6667066356492373  0.6668030639828557  0.9941932905375229   T   T   T
  0.7773152155201943  0.8897233725055393  0.1507401082988155   T   T   T
  0.8945410280675146  0.7798229043634674  0.3046121685988019   T   T   T
  0.7875367022767390  0.9035537649467781  0.3874707945254692   T   T   T
  0.6675623692670191  0.6628312398409918  0.2289358469541937   T   T   T
  0.8880406354591370  0.7781569572274815  0.0737220686579515   T   T   T
  0.3171131176696821  0.3120848920258145  0.3340350832028012   T   T   T
  0.0018493999964828  0.0012689565436209  0.3455858899612995   T   T   T
  0.2217858458733630  0.1089158823643894  0.1867431154626963   T   T   T
  0.1112587073393693  0.2226908625779778  0.0338113699290981   T   T   T
  0.3291649645028174 -0.0070241541399859  0.3436973566887416   T   T   T
  0.5553501705991918  0.1117121316294532  0.1897209348899318   T   T   T
  0.4452337433039512  0.2226488741355803  0.0334293355071923   T   T   T
  0.6682773138217174  0.0020198784059456  0.3458976021636255   T   T   T
  0.8902324277219263  0.1118906337850562  0.1900315766399980   T   T   T
  0.7779686524270445  0.2223464707880872  0.0340569282821094   T   T   T
  0.0038828225809492  0.3333219253715378  0.3448869783484407   T   T   T
  0.2243401231950672  0.4448460178950872  0.1890040030214740   T   T   T
  0.1119035366721416  0.5556407556637957  0.0335468229676954   T   T   T
  0.5534227126713287  0.4439471251031449  0.1889405568257036   T   T   T
  0.4450801319873188  0.5564328216534519  0.0340338496896321   T   T   T
  0.6726270536047967  0.3371364668443813  0.3441726590917135   T   T   T
  0.8899144976714420  0.4458593498884166  0.1887779426045149   T   T   T
  0.7775687422664792  0.5559194866279550  0.0340745483755690   T   T   T
  0.9987497839387084  0.6631959843770787  0.3448176079271840   T   T   T
  0.2224040657989390  0.7771133311239302  0.1870952151853933   T   T   T
  0.1112033264204415  0.8890533568502744  0.0329257121609018   T   T   T
  0.3268929256119292  0.6722734445722942  0.3440673570301916   T   T   T
  0.5557840858480372  0.7779546422855336  0.1915319600748942   T   T   T
  0.4461255354374961  0.8895342919582306  0.0340100171835279   T   T   T
  0.6790999086125223  0.6726297359322501  0.3446676881935184   T   T   T
  0.8890785804742617  0.7773909230456570  0.1887364046108010   T   T   T
  0.7773617357289980  0.8891652085619587  0.0346115217845714   T   T   T
  0.4274289303465761  0.2176178162726867  0.4466487502709108   T   T   T
 
  0.00000000E+00  0.00000000E+00  0.00000000E+00
  0.00000000E+00  0.00000000E+00  0.00000000E+00
  0.00000000E+00  0.00000000E+00  0.00000000E+00
  0.00000000E+00  0.00000000E+00  0.00000000E+00
  0.00000000E+00  0.00000000E+00  0.00000000E+00
  0.00000000E+00  0.00000000E+00  0.00000000E+00
  0.00000000E+00  0.00000000E+00  0.00000000E+00
  0.00000000E+00  0.00000000E+00  0.00000000E+00
  0.00000000E+00  0.00000000E+00  0.00000000E+00
  0.00000000E+00  0.00000000E+00  0.00000000E+00
  0.00000000E+00  0.00000000E+00  0.00000000E+00
  0.00000000E+00  0.00000000E+00  0.00000000E+00
  0.00000000E+00  0.00000000E+00  0.00000000E+00
  0.00000000E+00  0.00000000E+00  0.00000000E+00
  0.00000000E+00  0.00000000E+00  0.00000000E+00
  0.00000000E+00  0.00000000E+00  0.00000000E+00
  0.00000000E+00  0.00000000E+00  0.00000000E+00
  0.00000000E+00  0.00000000E+00  0.00000000E+00
  0.00000000E+00  0.00000000E+00  0.00000000E+00
  0.00000000E+00  0.00000000E+00  0.00000000E+00
  0.00000000E+00  0.00000000E+00  0.00000000E+00
  0.00000000E+00  0.00000000E+00  0.00000000E+00
  0.00000000E+00  0.00000000E+00  0.00000000E+00
  0.00000000E+00  0.00000000E+00  0.00000000E+00
  0.00000000E+00  0.00000000E+00  0.00000000E+00
  0.00000000E+00  0.00000000E+00  0.00000000E+00
  0.00000000E+00  0.00000000E+00  0.00000000E+00
  0.00000000E+00  0.00000000E+00  0.00000000E+00
  0.00000000E+00  0.00000000E+00  0.00000000E+00
  0.00000000E+00  0.00000000E+00  0.00000000E+00
  0.00000000E+00  0.00000000E+00  0.00000000E+00
  0.00000000E+00  0.00000000E+00  0.00000000E+00
  0.00000000E+00  0.00000000E+00  0.00000000E+00
  0.00000000E+00  0.00000000E+00  0.00000000E+00
  0.00000000E+00  0.00000000E+00  0.00000000E+00
  0.00000000E+00  0.00000000E+00  0.00000000E+00
  0.00000000E+00  0.00000000E+00  0.00000000E+00
  0.00000000E+00  0.00000000E+00  0.00000000E+00
  0.00000000E+00  0.00000000E+00  0.00000000E+00
  0.00000000E+00  0.00000000E+00  0.00000000E+00
  0.00000000E+00  0.00000000E+00  0.00000000E+00
  0.00000000E+00  0.00000000E+00  0.00000000E+00
  0.00000000E+00  0.00000000E+00  0.00000000E+00
  0.00000000E+00  0.00000000E+00  0.00000000E+00
  0.00000000E+00  0.00000000E+00  0.00000000E+00
  0.00000000E+00  0.00000000E+00  0.00000000E+00
  0.00000000E+00  0.00000000E+00  0.00000000E+00
  0.00000000E+00  0.00000000E+00  0.00000000E+00
  0.00000000E+00  0.00000000E+00  0.00000000E+00
  0.00000000E+00  0.00000000E+00  0.00000000E+00
  0.00000000E+00  0.00000000E+00  0.00000000E+00
  0.00000000E+00  0.00000000E+00  0.00000000E+00
  0.00000000E+00  0.00000000E+00  0.00000000E+00
  0.00000000E+00  0.00000000E+00  0.00000000E+00
  0.00000000E+00  0.00000000E+00  0.00000000E+00
  0.00000000E+00  0.00000000E+00  0.00000000E+00
  0.00000000E+00  0.00000000E+00  0.00000000E+00
  0.00000000E+00  0.00000000E+00  0.00000000E+00
  0.00000000E+00  0.00000000E+00  0.00000000E+00
  0.00000000E+00  0.00000000E+00  0.00000000E+00
  0.00000000E+00  0.00000000E+00  0.00000000E+00
  0.00000000E+00  0.00000000E+00  0.00000000E+00
  0.00000000E+00  0.00000000E+00  0.00000000E+00
  0.00000000E+00  0.00000000E+00  0.00000000E+00
  0.00000000E+00  0.00000000E+00  0.00000000E+00
  0.00000000E+00  0.00000000E+00  0.00000000E+00
  0.00000000E+00  0.00000000E+00  0.00000000E+00
  0.00000000E+00  0.00000000E+00  0.00000000E+00
  0.00000000E+00  0.00000000E+00  0.00000000E+00
  0.00000000E+00  0.00000000E+00  0.00000000E+00
  0.00000000E+00  0.00000000E+00  0.00000000E+00
  0.00000000E+00  0.00000000E+00  0.00000000E+00
  0.00000000E+00  0.00000000E+00  0.00000000E+00
  0.00000000E+00  0.00000000E+00  0.00000000E+00
  0.00000000E+00  0.00000000E+00  0.00000000E+00
  0.00000000E+00  0.00000000E+00  0.00000000E+00
  0.00000000E+00  0.00000000E+00  0.00000000E+00
  0.00000000E+00  0.00000000E+00  0.00000000E+00
  0.00000000E+00  0.00000000E+00  0.00000000E+00
  0.00000000E+00  0.00000000E+00  0.00000000E+00
  0.00000000E+00  0.00000000E+00  0.00000000E+00
