CeO2-you-111-you-Mn                     
   1.00000000000000     
     9.7786396418024477   -5.6457006019096942    0.0000000000000000
     0.0000000078559077   11.2913992303794508   -0.0000000000000000
     0.0000000000000000   -0.0000000000000000   21.3088512900609395
   O    Mn   Ce
    54     1    26
Selective dynamics
Direct
  0.0000398885630225  0.0000393848519573  0.9963749551690546   T   T   T
  0.1025412521452128  0.2179371260722874  0.1484594760146654   T   T   T
  0.2351751489432370  0.1370172978845389  0.3016792461481977   T   T   T
  0.1452141728636659  0.2392735864298400  0.3817309494424641   T   T   T
  0.0023467154709181  0.0000963369930609  0.2310626142016900   T   T   T
  0.2225800468294031  0.1118270936585857  0.0756440106967736   T   T   T
  0.3333324962890331  0.0000393848519634  0.9963749551690546   T   T   T
  0.4487288739270708  0.2179371260720028  0.1484594760146654   T   T   T
  0.5518557137286193  0.1148112862707108  0.3064295552002625   T   T   T
  0.4273924135661701  0.2392735864280696  0.3817309494424641   T   T   T
  0.3310826215222882  0.0000963369926913  0.2310626142016900   T   T   T
  0.5573027742056301  0.1093642257941511  0.0757242133568249   T   T   T
  0.6666669999999968 -0.0000000000000000  0.9950175757548896   T   T   T
  0.7774329536398096  0.2215319072797348  0.1518497110351991   T   T   T
  0.8962895725422992  0.1148112862709180  0.3064295552002625   T   T   T
  0.7777384817970844  0.2221429635940471  0.3822903148338837   T   T   T
  0.6666669999999968 -0.0000000000000000  0.2334296449242995   T   T   T
  0.8853954515885905  0.1093642257942197  0.0757242133568249   T   T   T
  0.0000398885632367  0.3333335037110822  0.9963749551690546   T   T   T
  0.1104169475985173  0.5562500524026933  0.1499568650691449   T   T   T
  0.2351751489475903  0.4314908510586942  0.3016792461481977   T   T   T
  0.1146500906629211  0.5520169093368695  0.3804655045772612   T   T   T
  0.0023467154712387  0.3355833784770276  0.2310626142016900   T   T   T
  0.2225800468298930  0.4440859531708136  0.0756440106967736   T   T   T
  0.3333330000000032  0.3333330000000032  0.9960544257079192   T   T   T
  0.4487288739277119  0.5641257478557168  0.1484594760146654   T   T   T
  0.5296497021091797  0.4314908510567623  0.3016792461481977   T   T   T
  0.4273924135701593  0.5214528271420975  0.3817309494424641   T   T   T
  0.3333330000000032  0.3333330000000032  0.2129271887606410   T   T   T
  0.5548399063407110  0.4440859531705961  0.0756440106967736   T   T   T
  0.6666276151477438  0.3333335037109930  0.9963749551690546   T   T   T
  0.7791661048038014  0.5562500524023225  0.1499568650691449   T   T   T
  0.8891644991715210  0.4449949983430249  0.3046100668818338   T   T   T
  0.7706998186740104  0.5520169093369350  0.3804655045772612   T   T   T
  0.6665706630056404  0.3355833784765157  0.2310626142016900   T   T   T
  0.8884202382451596  0.4435064764904021  0.0763574643366194   T   T   T
 -0.0000000000000000  0.6666669999999968  0.9965872403128126   T   T   T
  0.1104169475976814  0.8875008951949885  0.1499568650691449   T   T   T
  0.2216710016569196  0.7775025008284758  0.3046100668818338   T   T   T
  0.1146500906630688  0.8959671813261997  0.3804655045772612   T   T   T
 -0.0000000000000000  0.6666669999999968  0.2302796235064337   T   T   T
  0.2231595235098673  0.7782467617548372  0.0763574643366194   T   T   T
  0.3333324962892336  0.6666271114370499  0.9963749551690546   T   T   T
  0.4451340927206191  0.8892340463601872  0.1518497110351991   T   T   T
  0.5518557137290858  0.7703774274583712  0.3064295552002625   T   T   T
  0.4445230364055335  0.8889285182029124  0.3822903148338837   T   T   T
  0.3310826215234419  0.6643202845304237  0.2310626142016900   T   T   T
  0.5573027742057841  0.7812715484116294  0.0757242133568249   T   T   T
  0.6666276151477307  0.6666271114369545  0.9963749551690546   T   T   T
  0.7774329536395641  0.8892340463600782  0.1518497110351991   T   T   T
  0.8891644991715592  0.7775025008284928  0.3046100668818338   T   T   T
  0.7777384817973749  0.8889285182030410  0.3822903148338837   T   T   T
  0.6665706630064731  0.6643202845302814  0.2310626142016900   T   T   T
  0.8884202382449730  0.7782467617547539  0.0763574643366194   T   T   T
  0.3333330000000032  0.3333330000000032  0.3453407567930507   T   T   T
  0.0076182804764800  0.0067025883009568  0.3423400073143724   T   T   T
  0.2235136474370902  0.1136942948751413  0.1884511219563970   T   T   T
  0.1103382106708091  0.2218356053356869  0.0357981433394841   T   T   T
  0.3324173078248232  0.0067025883010358  0.3423400073143724   T   T   T
  0.5555698937088441  0.1110971062933008  0.1906743355990957   T   T   T
  0.4448303946648742  0.2218356053359360  0.0357981433394841   T   T   T
  0.6666669999999968 -0.0000000000000000  0.3461871621567938   T   T   T
  0.8888612125837992  0.1110971062926427  0.1906743355990957   T   T   T
  0.7774230707712895  0.2215121415425091  0.0360413227684509   T   T   T
  0.0076182804772532  0.3342486921757044  0.3423400073143724   T   T   T
  0.2235136474349182  0.4431523525619451  0.1884511219563970   T   T   T
  0.1109893553573650  0.5556776446417672  0.0366548294362112   T   T   T
  0.5529727051279987  0.4431523525629090  0.1884511219563970   T   T   T
  0.4448303946643125  0.5563287893283843  0.0357981433394841   T   T   T
  0.6599644116981016  0.3342486921754404  0.3423400073143724   T   T   T
  0.8888264666492879  0.4443189332982285  0.1904392463559175   T   T   T
  0.7780212892846662  0.5556776446420351  0.0366548294362112   T   T   T
  0.0000000000000000  0.6666669999999968  0.3411277908265075   T   T   T
  0.2223470667006426  0.7778405333507089  0.1904392463559175   T   T   T
  0.1109893553579688  0.8886457107162024  0.0366548294362112   T   T   T
  0.3324173078254184  0.6590487195236030  0.3423400073143724   T   T   T
  0.5555698937073612  0.7778057874140563  0.1906743355990957   T   T   T
  0.4451538584572404  0.8892439292287073  0.0360413227684509   T   T   T
  0.6599644116979240  0.6590487195232597  0.3423400073143724   T   T   T
  0.8888264666500697  0.7778405333510554  0.1904392463559175   T   T   T
  0.7774230707714629  0.8892439292287839  0.0360413227684509   T   T   T
 
  0.00000000E+00  0.00000000E+00  0.00000000E+00
  0.00000000E+00  0.00000000E+00  0.00000000E+00
  0.00000000E+00  0.00000000E+00  0.00000000E+00
  0.00000000E+00  0.00000000E+00  0.00000000E+00
  0.00000000E+00  0.00000000E+00  0.00000000E+00
  0.00000000E+00  0.00000000E+00  0.00000000E+00
  0.00000000E+00  0.00000000E+00  0.00000000E+00
  0.00000000E+00  0.00000000E+00  0.00000000E+00
  0.00000000E+00  0.00000000E+00  0.00000000E+00
  0.00000000E+00  0.00000000E+00  0.00000000E+00
  0.00000000E+00  0.00000000E+00  0.00000000E+00
  0.00000000E+00  0.00000000E+00  0.00000000E+00
  0.00000000E+00  0.00000000E+00  0.00000000E+00
  0.00000000E+00  0.00000000E+00  0.00000000E+00
  0.00000000E+00  0.00000000E+00  0.00000000E+00
  0.00000000E+00  0.00000000E+00  0.00000000E+00
  0.00000000E+00  0.00000000E+00  0.00000000E+00
  0.00000000E+00  0.00000000E+00  0.00000000E+00
  0.00000000E+00  0.00000000E+00  0.00000000E+00
  0.00000000E+00  0.00000000E+00  0.00000000E+00
  0.00000000E+00  0.00000000E+00  0.00000000E+00
  0.00000000E+00  0.00000000E+00  0.00000000E+00
  0.00000000E+00  0.00000000E+00  0.00000000E+00
  0.00000000E+00  0.00000000E+00  0.00000000E+00
  0.00000000E+00  0.00000000E+00  0.00000000E+00
  0.00000000E+00  0.00000000E+00  0.00000000E+00
  0.00000000E+00  0.00000000E+00  0.00000000E+00
  0.00000000E+00  0.00000000E+00  0.00000000E+00
  0.00000000E+00  0.00000000E+00  0.00000000E+00
  0.00000000E+00  0.00000000E+00  0.00000000E+00
  0.00000000E+00  0.00000000E+00  0.00000000E+00
  0.00000000E+00  0.00000000E+00  0.00000000E+00
  0.00000000E+00  0.00000000E+00  0.00000000E+00
  0.00000000E+00  0.00000000E+00  0.00000000E+00
  0.00000000E+00  0.00000000E+00  0.00000000E+00
  0.00000000E+00  0.00000000E+00  0.00000000E+00
  0.00000000E+00  0.00000000E+00  0.00000000E+00
  0.00000000E+00  0.00000000E+00  0.00000000E+00
  0.00000000E+00  0.00000000E+00  0.00000000E+00
  0.00000000E+00  0.00000000E+00  0.00000000E+00
  0.00000000E+00  0.00000000E+00  0.00000000E+00
  0.00000000E+00  0.00000000E+00  0.00000000E+00
  0.00000000E+00  0.00000000E+00  0.00000000E+00
  0.00000000E+00  0.00000000E+00  0.00000000E+00
  0.00000000E+00  0.00000000E+00  0.00000000E+00
  0.00000000E+00  0.00000000E+00  0.00000000E+00
  0.00000000E+00  0.00000000E+00  0.00000000E+00
  0.00000000E+00  0.00000000E+00  0.00000000E+00
  0.00000000E+00  0.00000000E+00  0.00000000E+00
  0.00000000E+00  0.00000000E+00  0.00000000E+00
  0.00000000E+00  0.00000000E+00  0.00000000E+00
  0.00000000E+00  0.00000000E+00  0.00000000E+00
  0.00000000E+00  0.00000000E+00  0.00000000E+00
  0.00000000E+00  0.00000000E+00  0.00000000E+00
  0.00000000E+00  0.00000000E+00  0.00000000E+00
  0.00000000E+00  0.00000000E+00  0.00000000E+00
  0.00000000E+00  0.00000000E+00  0.00000000E+00
  0.00000000E+00  0.00000000E+00  0.00000000E+00
  0.00000000E+00  0.00000000E+00  0.00000000E+00
  0.00000000E+00  0.00000000E+00  0.00000000E+00
  0.00000000E+00  0.00000000E+00  0.00000000E+00
  0.00000000E+00  0.00000000E+00  0.00000000E+00
  0.00000000E+00  0.00000000E+00  0.00000000E+00
  0.00000000E+00  0.00000000E+00  0.00000000E+00
  0.00000000E+00  0.00000000E+00  0.00000000E+00
  0.00000000E+00  0.00000000E+00  0.00000000E+00
  0.00000000E+00  0.00000000E+00  0.00000000E+00
  0.00000000E+00  0.00000000E+00  0.00000000E+00
  0.00000000E+00  0.00000000E+00  0.00000000E+00
  0.00000000E+00  0.00000000E+00  0.00000000E+00
  0.00000000E+00  0.00000000E+00  0.00000000E+00
  0.00000000E+00  0.00000000E+00  0.00000000E+00
  0.00000000E+00  0.00000000E+00  0.00000000E+00
  0.00000000E+00  0.00000000E+00  0.00000000E+00
  0.00000000E+00  0.00000000E+00  0.00000000E+00
  0.00000000E+00  0.00000000E+00  0.00000000E+00
  0.00000000E+00  0.00000000E+00  0.00000000E+00
  0.00000000E+00  0.00000000E+00  0.00000000E+00
  0.00000000E+00  0.00000000E+00  0.00000000E+00
  0.00000000E+00  0.00000000E+00  0.00000000E+00
  0.00000000E+00  0.00000000E+00  0.00000000E+00
