CeO2-you-111-you-Ta                     
   1.00000000000000     
     9.8302922736783671   -5.6755222565919121    0.0000000005590858
     0.0431129029423804   11.4257162491860775    0.0105633847442164
     0.0116443294957368    0.0201685669053349   20.7507070522619337
   O    Ta   Ce   H 
    53     1    26     2
Selective dynamics
Direct
  0.9976206972506370  0.9989288473086687  0.9936750038786926   T   T   T
  0.1113715062317766  0.2223668360242144  0.1478883671978650   F   F   F
  0.2350208948926695  0.1262326214288049  0.3037018039164716   T   T   T
  0.1382081347746218  0.2332505088236559  0.3800115587838946   T   T   T
  0.0022445488368377 -0.0004941605840422  0.2292831568909606   T   T   T
  0.2210273853126807  0.1087217706254933  0.0711075423936549   F   F   F
  0.3343364929382222  0.9989392240915758  0.9933173250108484   T   T   T
  0.4443283297923415  0.2223668360236886  0.1478883671979148   F   F   F
  0.5601122004454511  0.1225262871834314  0.3079400682011604   T   T   T
  0.4200299383180831  0.2365479456100323  0.3964623847035939   T   T   T
  0.3312630077155546  0.9975197597237843  0.2275282760031435   T   T   T
  0.5576447763797319  0.1117535926903130  0.0748444714203345   F   F   F
  0.6664178254859224  0.9989684624288332  0.9941110819316609   T   T   T
  0.7800093224333509  0.2266846448664808  0.1532877373887445   F   F   F
  0.8952032897028420  0.1148121660241164  0.3066924443588875   T   T   T
  0.7844754046343109  0.2281482714538728  0.3872365264128249   T   T   T
  0.6671062756840309  0.0014098244615091  0.2318878405566070   T   T   T
  0.8874428163108874  0.1117535926905404  0.0748444714202989   F   F   F
  0.9995760939432976  0.3323122031658283  0.9933098835001430   T   T   T
  0.1099835989295812  0.5539711190666310  0.1484744693813695   F   F   F
  0.2450585171314908  0.4409757275006801  0.3062154894532583   T   T   T
  0.0986365571143051  0.5419652215815655  0.3870825808775211   T   T   T
  0.0084460301018084  0.3368044737403980  0.2326037568114119   T   T   T
  0.2225062485212064  0.4442857985036781  0.0736994831039510   F   F   F
  0.3329764609918055  0.3323505675826581  0.9932989786474961   T   T   T
  0.4434713300083359  0.5536106600171351  0.1502736142096879   F   F   F
  0.5236124663452792  0.4273840632640770  0.3085538425672734   T   T   T
  0.3273449997451708  0.3268423503720141  0.2294856256126629   T   T   T
  0.5551135499822522  0.4442857985036497  0.0736994831039439   F   F   F
  0.6658646461795144  0.3321071444501145  0.9933299162830709   T   T   T
  0.7773205201369038  0.5539711190665457  0.1484744693813695   F   F   F
  0.8893664806050487  0.4419361493977839  0.3032974137945464   T   T   T
  0.7793341122985629  0.5429073804004666  0.3862969613538730   T   T   T
  0.6654138715152257  0.3395099393531751  0.2313086063502898   T   T   T
  0.8884014169656140  0.4434688339310924  0.0729882102865460   F   F   F
 -0.0001434386675490  0.6666070205659188  0.9928190958485316   T   T   T
  0.1099048171732520  0.8864766343457546  0.1464565036243712   F   F   F
  0.2164237912154921  0.7729296985952953  0.3067316868804422   T   T   T
  0.0974463256914733  0.8837046914621303  0.3884405375047306   T   T   T
  0.9994011261645298  0.6669579666723264  0.2288242651861070   T   T   T
  0.2228786892201882  0.7764117508201025  0.0729941971897077   F   F   F
  0.3338216466707390  0.6659848340580296  0.9932182743531547   T   T   T
  0.4465000486870281  0.8903570051951277  0.1500599492639552   F   F   F
  0.5575310575013535  0.7763135061326043  0.3071913861328942   T   T   T
  0.4618098931482967  0.8975425445934254  0.3915672762104897   T   T   T
  0.3315698257450500  0.6656647215287210  0.2284148101689688   T   T   T
  0.5547526262874030  0.7761712525748408  0.0743808874710794   F   F   F
  0.6652750935631290  0.6657284755161998  0.9932265698908852   T   T   T
  0.7771899565082236  0.8903570051953764  0.1500599492639196   F   F   F
  0.8912131287437857  0.7783012121787678  0.3043501354362237   T   T   T
  0.7898235698472884  0.9016943474631974  0.3887245703792515   T   T   T
  0.6664776497272793  0.6619684765326548  0.2289215110853525   T   T   T
  0.8868660615998607  0.7764117508200812  0.0729941971897361   F   F   F
  0.3175787439209104  0.3207044540779114  0.3297778245087265   T   T   T
  0.0019674665243928  0.9986494301767382  0.3462649391186405   T   T   T
  0.2189130991575965  0.1044931983162769  0.1842445256197962   F   F   F
  0.1100464655953033  0.2220511497545985  0.0330304091318538   F   F   F
  0.3308672200836134  0.9948853825056703  0.3500887213867213   T   T   T
  0.5547134438294279  0.1119974461770212  0.1913767475081727   F   F   F
  0.4453376841592132  0.2220511497548330  0.0330304091318823   F   F   F
  0.6683842777889601 -0.0005568880624489  0.3484901559857467   T   T   T
  0.8906180023470327  0.1119974461762254  0.1913767475082651   F   F   F
  0.7778458478741683  0.2223576957480731  0.0347456610766201   F   F   F
  0.0034846410715450  0.3337205648420404  0.3467817236157566   T   T   T
  0.2246506299264297  0.4457825373213637  0.1896100198490203   F   F   F
  0.1115903628703876  0.5550809339069929  0.0334799323408532   F   F   F
  0.5544659073964837  0.4457825373225290  0.1896100198489137   F   F   F
  0.4443526512505258  0.5553733025008114  0.0331819512290963   F   F   F
  0.6737842139626491  0.3358199569270469  0.3444310197851982   T   T   T
  0.8899541207707458  0.4465742415416543  0.1901504519481847   F   F   F
  0.7768235710367932  0.5550809339071989  0.0334799323408532   F   F   F
 -0.0005788461767155  0.6647026823955405  0.3453163089345734   T   T   T
  0.2225789287900994  0.7771494119617230  0.1889075613327478   F   F   F
  0.1100810925231102  0.8868291850463734  0.0316992712436885   F   F   F
  0.3321675258595894  0.6704714627914462  0.3484616127682193   T   T   T
  0.5560691144811258  0.7788042289619099  0.1919784079675466   F   F   F
  0.4453593603764716  0.8887219906338117  0.0343880623413710   F   F   F
  0.6727853020541920  0.6674144998377493  0.3468539751597809   T   T   T
  0.8879034831711365  0.7771494119612470  0.1889075613327833   F   F   F
  0.7766956302573647  0.8887219906338544  0.0343880623413710   F   F   F
  0.3948113776787678  0.4610764255496492  0.3960456623581621   T   T   T
  0.4192411421647650  0.2641722442453041  0.4406627701279155   T   T   T
 
  0.00000000E+00  0.00000000E+00  0.00000000E+00
  0.00000000E+00  0.00000000E+00  0.00000000E+00
  0.00000000E+00  0.00000000E+00  0.00000000E+00
  0.00000000E+00  0.00000000E+00  0.00000000E+00
  0.00000000E+00  0.00000000E+00  0.00000000E+00
  0.00000000E+00  0.00000000E+00  0.00000000E+00
  0.00000000E+00  0.00000000E+00  0.00000000E+00
  0.00000000E+00  0.00000000E+00  0.00000000E+00
  0.00000000E+00  0.00000000E+00  0.00000000E+00
  0.00000000E+00  0.00000000E+00  0.00000000E+00
  0.00000000E+00  0.00000000E+00  0.00000000E+00
  0.00000000E+00  0.00000000E+00  0.00000000E+00
  0.00000000E+00  0.00000000E+00  0.00000000E+00
  0.00000000E+00  0.00000000E+00  0.00000000E+00
  0.00000000E+00  0.00000000E+00  0.00000000E+00
  0.00000000E+00  0.00000000E+00  0.00000000E+00
  0.00000000E+00  0.00000000E+00  0.00000000E+00
  0.00000000E+00  0.00000000E+00  0.00000000E+00
  0.00000000E+00  0.00000000E+00  0.00000000E+00
  0.00000000E+00  0.00000000E+00  0.00000000E+00
  0.00000000E+00  0.00000000E+00  0.00000000E+00
  0.00000000E+00  0.00000000E+00  0.00000000E+00
  0.00000000E+00  0.00000000E+00  0.00000000E+00
  0.00000000E+00  0.00000000E+00  0.00000000E+00
  0.00000000E+00  0.00000000E+00  0.00000000E+00
  0.00000000E+00  0.00000000E+00  0.00000000E+00
  0.00000000E+00  0.00000000E+00  0.00000000E+00
  0.00000000E+00  0.00000000E+00  0.00000000E+00
  0.00000000E+00  0.00000000E+00  0.00000000E+00
  0.00000000E+00  0.00000000E+00  0.00000000E+00
  0.00000000E+00  0.00000000E+00  0.00000000E+00
  0.00000000E+00  0.00000000E+00  0.00000000E+00
  0.00000000E+00  0.00000000E+00  0.00000000E+00
  0.00000000E+00  0.00000000E+00  0.00000000E+00
  0.00000000E+00  0.00000000E+00  0.00000000E+00
  0.00000000E+00  0.00000000E+00  0.00000000E+00
  0.00000000E+00  0.00000000E+00  0.00000000E+00
  0.00000000E+00  0.00000000E+00  0.00000000E+00
  0.00000000E+00  0.00000000E+00  0.00000000E+00
  0.00000000E+00  0.00000000E+00  0.00000000E+00
  0.00000000E+00  0.00000000E+00  0.00000000E+00
  0.00000000E+00  0.00000000E+00  0.00000000E+00
  0.00000000E+00  0.00000000E+00  0.00000000E+00
  0.00000000E+00  0.00000000E+00  0.00000000E+00
  0.00000000E+00  0.00000000E+00  0.00000000E+00
  0.00000000E+00  0.00000000E+00  0.00000000E+00
  0.00000000E+00  0.00000000E+00  0.00000000E+00
  0.00000000E+00  0.00000000E+00  0.00000000E+00
  0.00000000E+00  0.00000000E+00  0.00000000E+00
  0.00000000E+00  0.00000000E+00  0.00000000E+00
  0.00000000E+00  0.00000000E+00  0.00000000E+00
  0.00000000E+00  0.00000000E+00  0.00000000E+00
  0.00000000E+00  0.00000000E+00  0.00000000E+00
  0.00000000E+00  0.00000000E+00  0.00000000E+00
  0.00000000E+00  0.00000000E+00  0.00000000E+00
  0.00000000E+00  0.00000000E+00  0.00000000E+00
  0.00000000E+00  0.00000000E+00  0.00000000E+00
  0.00000000E+00  0.00000000E+00  0.00000000E+00
  0.00000000E+00  0.00000000E+00  0.00000000E+00
  0.00000000E+00  0.00000000E+00  0.00000000E+00
  0.00000000E+00  0.00000000E+00  0.00000000E+00
  0.00000000E+00  0.00000000E+00  0.00000000E+00
  0.00000000E+00  0.00000000E+00  0.00000000E+00
  0.00000000E+00  0.00000000E+00  0.00000000E+00
  0.00000000E+00  0.00000000E+00  0.00000000E+00
  0.00000000E+00  0.00000000E+00  0.00000000E+00
  0.00000000E+00  0.00000000E+00  0.00000000E+00
  0.00000000E+00  0.00000000E+00  0.00000000E+00
  0.00000000E+00  0.00000000E+00  0.00000000E+00
  0.00000000E+00  0.00000000E+00  0.00000000E+00
  0.00000000E+00  0.00000000E+00  0.00000000E+00
  0.00000000E+00  0.00000000E+00  0.00000000E+00
  0.00000000E+00  0.00000000E+00  0.00000000E+00
  0.00000000E+00  0.00000000E+00  0.00000000E+00
  0.00000000E+00  0.00000000E+00  0.00000000E+00
  0.00000000E+00  0.00000000E+00  0.00000000E+00
  0.00000000E+00  0.00000000E+00  0.00000000E+00
  0.00000000E+00  0.00000000E+00  0.00000000E+00
  0.00000000E+00  0.00000000E+00  0.00000000E+00
  0.00000000E+00  0.00000000E+00  0.00000000E+00
  0.00000000E+00  0.00000000E+00  0.00000000E+00
  0.00000000E+00  0.00000000E+00  0.00000000E+00
