CeO2-you-111-you-Rh                     
   1.00000000000000     
     9.7925622306971345   -5.6537388120115013    0.0000000000000000
     0.0000000061605534   11.3074756448175151    0.0000000000000000
     0.0000000000000000    0.0000000000000000   21.1075598993297469
   O    Rh   Ce   H 
    54     1    26     2
Selective dynamics
Direct
  0.0000299639357678  0.0005936656188655  0.9945232611988063   T   T   T
  0.1051871974754151  0.2197662873954966  0.1479323382685149   T   T   T
  0.2523072688544339  0.1423560888287956  0.3131749627698917   T   T   T
  0.1197348046875049  0.2329238291856183  0.3796422678495798   T   T   T
  0.0098447753283537  0.0054256043388976  0.2334679394378447   T   T   T
  0.2232671593788867  0.1126987308165527  0.0746773705214515   T   T   T
  0.3327391769745163  0.0002483717083803  0.9939578954888212   T   T   T
  0.4463295797806228  0.2204784948932275  0.1487871815953501   T   T   T
  0.5532937991583657  0.1123396854730293  0.3049207831778892   T   T   T
  0.4818473413590704  0.1857966909460422  0.4132975889311757   T   T   T
  0.3295301109838945  0.0004789989946252  0.2305488360191140   T   T   T
  0.5555199716289554  0.1109967853180527  0.0738123120667066   T   T   T
  0.6660728359723941  0.0000958626195226  0.9930201517192797   T   T   T
  0.7754662344627701  0.2215667893878043  0.1497079097150116   T   T   T
  0.8892031906007414  0.1099201959801997  0.3048406064348957   T   T   T
  0.7804320174455975  0.2229607438905203  0.3837625998849524   T   T   T
  0.6662008870321675  0.0010443374383629  0.2307384425182355   T   T   T
  0.8847261160224053  0.1083702464548046  0.0745717420610342   T   T   T
 -0.0012092405333330  0.3325253475399143  0.9946864293852165   T   T   T
  0.1095666396228975  0.5569712720261187  0.1487558168680890   T   T   T
  0.2199663629742566  0.4455435031562068  0.3004210175928251   T   T   T
  0.1096092399992076  0.5565911425736172  0.3839716088079462   T   T   T
 -0.0032615874097844  0.3329587934368032  0.2288564394594735   T   T   T
  0.2220139049545742  0.4449497609592153  0.0737193684240226   T   T   T
  0.3328836667555325  0.3340099627137887  0.9940698512149265   T   T   T
  0.4468259476468022  0.5614156783318008  0.1483285218386899   T   T   T
  0.5238440147702675  0.4135801869681393  0.3133295035783379   T   T   T
  0.4344993643254695  0.5474208948929330  0.3794650454683716   T   T   T
  0.3312048836227273  0.3354351019234122  0.2202583495090223   T   T   T
  0.5543503409510833  0.4443842301886526  0.0749371218212845   T   T   T
  0.6660700197393223  0.3342200074368569  0.9940832852649465   T   T   T
  0.7772568966586011  0.5566924706856275  0.1493614019049395   T   T   T
  0.8883189552399878  0.4464383363526080  0.3044519383486964   T   T   T
  0.7732050653082021  0.5541306497904861  0.3830824827349177   T   T   T
  0.6659407559892681  0.3364523398880487  0.2309492419225317   T   T   T
  0.8878285740791697  0.4440476009935205  0.0742764048929120   T   T   T
 -0.0002607695528644  0.6673493128783122  0.9948674571786780   T   T   T
  0.1094716742349671  0.8899103740992212  0.1497166724993870   T   T   T
  0.2200963072953998  0.7781906485513106  0.3042847974599466   T   T   T
  0.1136219169189268  0.8945080533552068  0.3833436066631192   T   T   T
 -0.0008279022649568  0.6674584803984864  0.2296977882102123   T   T   T
  0.2225758413023536  0.7790442859910039  0.0745115353058736   T   T   T
  0.3331881782607099  0.6673218978167591  0.9943369031742554   T   T   T
  0.4452418057905357  0.8906246211018899  0.1499961938057477   T   T   T
  0.5568495464329208  0.7778026146365824  0.3047615110916415   T   T   T
  0.4432975824537805  0.8851314139311386  0.3836194932405305   T   T   T
  0.3330227199136181  0.6686901977388012  0.2290114967185080   T   T   T
  0.5573325824698009  0.7808690444694356  0.0744137755326334   T   T   T
  0.6666971388669563  0.6670245454865862  0.9944363507884938   T   T   T
  0.7786134454208227  0.8876149240204759  0.1529572788932310   T   T   T
  0.8885430000889782  0.7793054617393247  0.3049790560191251   T   T   T
  0.7779799145869178  0.8890948303166580  0.3851897469238693   T   T   T
  0.6623084589993224  0.6569512453279617  0.2335192637603968   T   T   T
  0.8886277973572114  0.7792834668252492  0.0749778457287084   T   T   T
  0.3264072074321305  0.3398142632731600  0.3439325359921748   T   T   T
  0.0055777472120271  0.0069839918691073  0.3448777618383310   T   T   T
  0.2248092954368514  0.1155318359272717  0.1893498496396848   T   T   T
  0.1100236419408385  0.2219904452005999  0.0344216178784436   T   T   T
  0.3341031281559559 -0.0024573468637254  0.3456085056838643   T   T   T
  0.5548912085392477  0.1114427800099007  0.1902850678421999   T   T   T
  0.4443008111190991  0.2225649331159066  0.0338399153385294   T   T   T
  0.6672810174762974 -0.0008715519774615  0.3455963534666092   T   T   T
  0.8885034870093999  0.1115968513950599  0.1902226546610542   T   T   T
  0.7764139819812178  0.2215957337861038  0.0342234541124275   T   T   T
  0.0027060187838592  0.3357844919248130  0.3429259954971585   T   T   T
  0.2214128198662937  0.4449969081710617  0.1879383395839641   T   T   T
  0.1104307592544745  0.5560934648215371  0.0344143877953955   T   T   T
  0.5510601816076496  0.4416457043430994  0.1894391174051689   T   T   T
  0.4445370478002232  0.5564864450248894  0.0344388248607553   T   T   T
  0.6688261899121756  0.3323708606500493  0.3455353579823819   T   T   T
  0.8869945952910945  0.4445897923471983  0.1890569303547101   T   T   T
  0.7773806341663350  0.5561589516096601  0.0351045618252742   T   T   T
 -0.0009979861885103  0.6677572475143815  0.3435450338862904   T   T   T
  0.2218490832291926  0.7794400100835915  0.1891272150244793   T   T   T
  0.1108059689197942  0.8896148979030680  0.0350352224266956   T   T   T
  0.3304874294818059  0.6632884708364127  0.3428464395872386   T   T   T
  0.5548738678173359  0.7779246172139190  0.1903417610085054   T   T   T
  0.4447371780568290  0.8898584614108322  0.0341238940550010   T   T   T
  0.6603549199301126  0.6618007868498499  0.3448791770102597   T   T   T
  0.8891420593583185  0.7777910428256941  0.1911722991969018   T   T   T
  0.7773481008435459  0.8891055370391198  0.0345449967016539   T   T   T
  0.3442648883904093  0.3218152322506334  0.4140625927990180   T   T   T
  0.4443802428244550  0.2226340336133238  0.4439533448559058   T   T   T
 
  0.00000000E+00  0.00000000E+00  0.00000000E+00
  0.00000000E+00  0.00000000E+00  0.00000000E+00
  0.00000000E+00  0.00000000E+00  0.00000000E+00
  0.00000000E+00  0.00000000E+00  0.00000000E+00
  0.00000000E+00  0.00000000E+00  0.00000000E+00
  0.00000000E+00  0.00000000E+00  0.00000000E+00
  0.00000000E+00  0.00000000E+00  0.00000000E+00
  0.00000000E+00  0.00000000E+00  0.00000000E+00
  0.00000000E+00  0.00000000E+00  0.00000000E+00
  0.00000000E+00  0.00000000E+00  0.00000000E+00
  0.00000000E+00  0.00000000E+00  0.00000000E+00
  0.00000000E+00  0.00000000E+00  0.00000000E+00
  0.00000000E+00  0.00000000E+00  0.00000000E+00
  0.00000000E+00  0.00000000E+00  0.00000000E+00
  0.00000000E+00  0.00000000E+00  0.00000000E+00
  0.00000000E+00  0.00000000E+00  0.00000000E+00
  0.00000000E+00  0.00000000E+00  0.00000000E+00
  0.00000000E+00  0.00000000E+00  0.00000000E+00
  0.00000000E+00  0.00000000E+00  0.00000000E+00
  0.00000000E+00  0.00000000E+00  0.00000000E+00
  0.00000000E+00  0.00000000E+00  0.00000000E+00
  0.00000000E+00  0.00000000E+00  0.00000000E+00
  0.00000000E+00  0.00000000E+00  0.00000000E+00
  0.00000000E+00  0.00000000E+00  0.00000000E+00
  0.00000000E+00  0.00000000E+00  0.00000000E+00
  0.00000000E+00  0.00000000E+00  0.00000000E+00
  0.00000000E+00  0.00000000E+00  0.00000000E+00
  0.00000000E+00  0.00000000E+00  0.00000000E+00
  0.00000000E+00  0.00000000E+00  0.00000000E+00
  0.00000000E+00  0.00000000E+00  0.00000000E+00
  0.00000000E+00  0.00000000E+00  0.00000000E+00
  0.00000000E+00  0.00000000E+00  0.00000000E+00
  0.00000000E+00  0.00000000E+00  0.00000000E+00
  0.00000000E+00  0.00000000E+00  0.00000000E+00
  0.00000000E+00  0.00000000E+00  0.00000000E+00
  0.00000000E+00  0.00000000E+00  0.00000000E+00
  0.00000000E+00  0.00000000E+00  0.00000000E+00
  0.00000000E+00  0.00000000E+00  0.00000000E+00
  0.00000000E+00  0.00000000E+00  0.00000000E+00
  0.00000000E+00  0.00000000E+00  0.00000000E+00
  0.00000000E+00  0.00000000E+00  0.00000000E+00
  0.00000000E+00  0.00000000E+00  0.00000000E+00
  0.00000000E+00  0.00000000E+00  0.00000000E+00
  0.00000000E+00  0.00000000E+00  0.00000000E+00
  0.00000000E+00  0.00000000E+00  0.00000000E+00
  0.00000000E+00  0.00000000E+00  0.00000000E+00
  0.00000000E+00  0.00000000E+00  0.00000000E+00
  0.00000000E+00  0.00000000E+00  0.00000000E+00
  0.00000000E+00  0.00000000E+00  0.00000000E+00
  0.00000000E+00  0.00000000E+00  0.00000000E+00
  0.00000000E+00  0.00000000E+00  0.00000000E+00
  0.00000000E+00  0.00000000E+00  0.00000000E+00
  0.00000000E+00  0.00000000E+00  0.00000000E+00
  0.00000000E+00  0.00000000E+00  0.00000000E+00
  0.00000000E+00  0.00000000E+00  0.00000000E+00
  0.00000000E+00  0.00000000E+00  0.00000000E+00
  0.00000000E+00  0.00000000E+00  0.00000000E+00
  0.00000000E+00  0.00000000E+00  0.00000000E+00
  0.00000000E+00  0.00000000E+00  0.00000000E+00
  0.00000000E+00  0.00000000E+00  0.00000000E+00
  0.00000000E+00  0.00000000E+00  0.00000000E+00
  0.00000000E+00  0.00000000E+00  0.00000000E+00
  0.00000000E+00  0.00000000E+00  0.00000000E+00
  0.00000000E+00  0.00000000E+00  0.00000000E+00
  0.00000000E+00  0.00000000E+00  0.00000000E+00
  0.00000000E+00  0.00000000E+00  0.00000000E+00
  0.00000000E+00  0.00000000E+00  0.00000000E+00
  0.00000000E+00  0.00000000E+00  0.00000000E+00
  0.00000000E+00  0.00000000E+00  0.00000000E+00
  0.00000000E+00  0.00000000E+00  0.00000000E+00
  0.00000000E+00  0.00000000E+00  0.00000000E+00
  0.00000000E+00  0.00000000E+00  0.00000000E+00
  0.00000000E+00  0.00000000E+00  0.00000000E+00
  0.00000000E+00  0.00000000E+00  0.00000000E+00
  0.00000000E+00  0.00000000E+00  0.00000000E+00
  0.00000000E+00  0.00000000E+00  0.00000000E+00
  0.00000000E+00  0.00000000E+00  0.00000000E+00
  0.00000000E+00  0.00000000E+00  0.00000000E+00
  0.00000000E+00  0.00000000E+00  0.00000000E+00
  0.00000000E+00  0.00000000E+00  0.00000000E+00
  0.00000000E+00  0.00000000E+00  0.00000000E+00
  0.00000000E+00  0.00000000E+00  0.00000000E+00
  0.00000000E+00  0.00000000E+00  0.00000000E+00
