CeO2-you-111-you-Mg                     
   1.00000000000000     
     9.8232278121244700   -5.6767089410028344   -0.0028396531369779
    -0.0045599216952601   11.3455178685279154    0.0028396526589569
    -0.0029274835483283    0.0050705500057764   21.0904913556552209
   O    Mg   Ce   H 
    53     1    26     2
Selective dynamics
Direct
  0.9998082037352485  0.9997313574804322  0.9952965524872130   T   T   T
  0.1090435028732699  0.2203092944586089  0.1472956839921409   F   F   F
  0.2250965950393763  0.1150215946846197  0.3036933290223712   T   T   T
  0.1264017601687117  0.2482545855403013  0.3706390966864349   T   T   T
 -0.0000053085387144  0.0012019510840724  0.2299966923834098   T   T   T
  0.2217788427810703  0.1105414233116022  0.0753191624905796   F   F   F
  0.3348192369677886  0.0006513769836602  0.9963906716513760   T   T   T
  0.4418948631194084  0.2247711368792693  0.1519613045792667   F   F   F
  0.5608184091432561  0.1183730930128572  0.3074188711540569   T   T   T
  0.4429439162521196  0.2397610358594225  0.3970494928380052   T   T   T
  0.3357830289830144 -0.0004462147484289  0.2282583415211797   T   T   T
  0.5559210396649021  0.1107459603350165  0.0783008375204659   F   F   F
  0.6659719280097548  0.0010274548767718  0.9957592159276949   T   T   T
  0.7844121033939260  0.2255802282837749  0.1521156614128572   F   F   F
  0.8852339446665621  0.1081761292521011  0.3046048795944766   T   T   T
  0.7798176978009771  0.2225959444037331  0.3881412409694890   T   T   T
  0.6658629810639178  0.0006116234020151  0.2292491464060077   T   T   T
  0.8876002674948680  0.1100808326623053  0.0749007527370082   F   F   F
  0.9978386343200677  0.3324663787999486  0.9952087157620325   T   T   T
  0.1110679615119778  0.5555990384866192  0.1483184255082719   F   F   F
  0.1189219218303519  0.5471101918210681  0.3790681734856426   T   T   T
  0.0177804248670823  0.3418313602307547  0.2356247204513081   T   T   T
  0.2224635842636076  0.4442024157373794  0.0724900491146343   F   F   F
  0.3339469734200402  0.3321291478612052  0.9950127622602299   T   T   T
  0.4463567055450852  0.5576234971277145  0.1472956839920272   F   F   F
  0.5554381339464785  0.4351436030029642  0.3034364816125366   T   T   T
  0.4220721793884435  0.5392586401061248  0.3673247433898216   T   T   T
  0.3261333147454870  0.3435755423725266  0.2327678340271096   T   T   T
  0.5561255766883235  0.4448871572186590  0.0753191624906364   F   F   F
  0.6656785764043285  0.3317633733241730  0.9963155549687369   T   T   T
  0.7781245565896739  0.5553962919806281  0.1517376226078255   F   F   F
  0.8872937598362034  0.4438905880350178  0.3048492834864127   T   T   T
  0.7766551122891974  0.5555866659410491  0.3841897455660400   T   T   T
  0.6687760052562043  0.3328173954459828  0.2287652858242399   T   T   T
  0.8884861296589150  0.4447751331141490  0.0755961191872885   F   F   F
  0.9998491735080912  0.6674321679646362  0.9957354628561966   T   T   T
  0.1112707080181536  0.8885424434085181  0.1517376226078113   F   F   F
  0.2216034824638138  0.7755335712899978  0.3056166912412336   T   T   T
  0.0956207365601962  0.8812298454233802  0.3863942155147323   T   T   T
  0.0007333975285813  0.6659622530370911  0.2303413117233803   T   T   T
  0.2218908668855946  0.7781808703405062  0.0755961191872245   F   F   F
  0.3338459107119625  0.6683326223777375  0.9953017230062875   T   T   T
  0.4410857717168994  0.8822548966059713  0.1521156614129211   F   F   F
  0.5601571376241717  0.7817919103654317  0.3033462092434435   T   T   T
  0.4550797940251677  0.8829155688177323  0.3894323002832079   T   T   T
  0.3256061103647591  0.6488411210848615  0.2351065701642834   T   T   T
  0.5565861673385086  0.7790667325057044  0.0749007527370154   F   F   F
  0.6675704261471783  0.6671858053009808  0.9953446033480859   T   T   T
  0.7777099034145962  0.8889570965858908  0.1506089412898106   F   F   F
  0.8869724940649474  0.7755710635370531  0.3025476438553912   T   T   T
  0.7779354817117484  0.8854495280089129  0.3836150990445237   T   T   T
  0.6636921219442470  0.6643716846583663  0.2302140073788138   T   T   T
  0.8888953880656487  0.7777716119338365  0.0760276968416491   F   F   F
  0.3386452303779612  0.3265072910159801  0.3364969098937218   T   T   T
  0.0051560846071036  0.0038368845541130  0.3422145617113435   T   T   T
  0.2229428699131972  0.1133392760270269  0.1923139393679421   F   F   F
  0.1100632474266874  0.2200778788411526  0.0338536055552510   F   F   F
  0.3307492316975218 -0.0004972277027842  0.3481687708027660   T   T   T
  0.5557899192854734  0.1108770807170600  0.1912961365046471   F   F   F
  0.4442165088521151  0.2224494911477564  0.0368259028803735   F   F   F
  0.6676877167976975  0.9985671613934699  0.3463651638416058   T   T   T
  0.8896026924163891  0.1115324343449231  0.1904777602989824   F   F   F
  0.7777788015719480  0.2223331486715168  0.0362413638319836   F   F   F
  0.9931779566097363  0.3266917712662881  0.3477004659536971   T   T   T
  0.2234873595352838  0.4431786404595144  0.1823386210837086   F   F   F
  0.1100313160497990  0.5566356839498354  0.0344949967498422   F   F   F
  0.5533277239703196  0.4437231300851323  0.1923139393679349   F   F   F
  0.4465881211586478  0.5566037525729328  0.0338536055553078   F   F   F
  0.6707166909121952  0.3369987622546272  0.3432210203765028   T   T   T
  0.8899040983990076  0.4447506355188153  0.1916417591764414   F   F   F
  0.7773780005946520  0.5549177055388199  0.0367752136127351   F   F   F
  0.0001258162961277  0.6688872218114155  0.3436613039921980   T   T   T
  0.2219153644841683  0.7767629016084996  0.1916417591764628   F   F   F
  0.1117492944622356  0.8892889994059772  0.0367752136126995   F   F   F
  0.3412816496348141  0.6744731062879884  0.3469537208083089   T   T   T
  0.5551345656498157  0.7770643075829753  0.1904777602990535   F   F   F
  0.4443328513279567  0.8888881984282406  0.0362413638319907   F   F   F
  0.6612414242255138  0.6606597411774583  0.3419167301747711   T   T   T
  0.8889359547775442  0.7777310452245558  0.1899883055806981   F   F   F
  0.7774944124371999  0.8891725875621574  0.0357641520078502   F   F   F
  0.3041394010441508  0.3514185974138510  0.4595789308447693   T   T   T
  0.4406698034296775  0.2588469966841070  0.4418833738636199   T   T   T
 
  0.00000000E+00  0.00000000E+00  0.00000000E+00
  0.00000000E+00  0.00000000E+00  0.00000000E+00
  0.00000000E+00  0.00000000E+00  0.00000000E+00
  0.00000000E+00  0.00000000E+00  0.00000000E+00
  0.00000000E+00  0.00000000E+00  0.00000000E+00
  0.00000000E+00  0.00000000E+00  0.00000000E+00
  0.00000000E+00  0.00000000E+00  0.00000000E+00
  0.00000000E+00  0.00000000E+00  0.00000000E+00
  0.00000000E+00  0.00000000E+00  0.00000000E+00
  0.00000000E+00  0.00000000E+00  0.00000000E+00
  0.00000000E+00  0.00000000E+00  0.00000000E+00
  0.00000000E+00  0.00000000E+00  0.00000000E+00
  0.00000000E+00  0.00000000E+00  0.00000000E+00
  0.00000000E+00  0.00000000E+00  0.00000000E+00
  0.00000000E+00  0.00000000E+00  0.00000000E+00
  0.00000000E+00  0.00000000E+00  0.00000000E+00
  0.00000000E+00  0.00000000E+00  0.00000000E+00
  0.00000000E+00  0.00000000E+00  0.00000000E+00
  0.00000000E+00  0.00000000E+00  0.00000000E+00
  0.00000000E+00  0.00000000E+00  0.00000000E+00
  0.00000000E+00  0.00000000E+00  0.00000000E+00
  0.00000000E+00  0.00000000E+00  0.00000000E+00
  0.00000000E+00  0.00000000E+00  0.00000000E+00
  0.00000000E+00  0.00000000E+00  0.00000000E+00
  0.00000000E+00  0.00000000E+00  0.00000000E+00
  0.00000000E+00  0.00000000E+00  0.00000000E+00
  0.00000000E+00  0.00000000E+00  0.00000000E+00
  0.00000000E+00  0.00000000E+00  0.00000000E+00
  0.00000000E+00  0.00000000E+00  0.00000000E+00
  0.00000000E+00  0.00000000E+00  0.00000000E+00
  0.00000000E+00  0.00000000E+00  0.00000000E+00
  0.00000000E+00  0.00000000E+00  0.00000000E+00
  0.00000000E+00  0.00000000E+00  0.00000000E+00
  0.00000000E+00  0.00000000E+00  0.00000000E+00
  0.00000000E+00  0.00000000E+00  0.00000000E+00
  0.00000000E+00  0.00000000E+00  0.00000000E+00
  0.00000000E+00  0.00000000E+00  0.00000000E+00
  0.00000000E+00  0.00000000E+00  0.00000000E+00
  0.00000000E+00  0.00000000E+00  0.00000000E+00
  0.00000000E+00  0.00000000E+00  0.00000000E+00
  0.00000000E+00  0.00000000E+00  0.00000000E+00
  0.00000000E+00  0.00000000E+00  0.00000000E+00
  0.00000000E+00  0.00000000E+00  0.00000000E+00
  0.00000000E+00  0.00000000E+00  0.00000000E+00
  0.00000000E+00  0.00000000E+00  0.00000000E+00
  0.00000000E+00  0.00000000E+00  0.00000000E+00
  0.00000000E+00  0.00000000E+00  0.00000000E+00
  0.00000000E+00  0.00000000E+00  0.00000000E+00
  0.00000000E+00  0.00000000E+00  0.00000000E+00
  0.00000000E+00  0.00000000E+00  0.00000000E+00
  0.00000000E+00  0.00000000E+00  0.00000000E+00
  0.00000000E+00  0.00000000E+00  0.00000000E+00
  0.00000000E+00  0.00000000E+00  0.00000000E+00
  0.00000000E+00  0.00000000E+00  0.00000000E+00
  0.00000000E+00  0.00000000E+00  0.00000000E+00
  0.00000000E+00  0.00000000E+00  0.00000000E+00
  0.00000000E+00  0.00000000E+00  0.00000000E+00
  0.00000000E+00  0.00000000E+00  0.00000000E+00
  0.00000000E+00  0.00000000E+00  0.00000000E+00
  0.00000000E+00  0.00000000E+00  0.00000000E+00
  0.00000000E+00  0.00000000E+00  0.00000000E+00
  0.00000000E+00  0.00000000E+00  0.00000000E+00
  0.00000000E+00  0.00000000E+00  0.00000000E+00
  0.00000000E+00  0.00000000E+00  0.00000000E+00
  0.00000000E+00  0.00000000E+00  0.00000000E+00
  0.00000000E+00  0.00000000E+00  0.00000000E+00
  0.00000000E+00  0.00000000E+00  0.00000000E+00
  0.00000000E+00  0.00000000E+00  0.00000000E+00
  0.00000000E+00  0.00000000E+00  0.00000000E+00
  0.00000000E+00  0.00000000E+00  0.00000000E+00
  0.00000000E+00  0.00000000E+00  0.00000000E+00
  0.00000000E+00  0.00000000E+00  0.00000000E+00
  0.00000000E+00  0.00000000E+00  0.00000000E+00
  0.00000000E+00  0.00000000E+00  0.00000000E+00
  0.00000000E+00  0.00000000E+00  0.00000000E+00
  0.00000000E+00  0.00000000E+00  0.00000000E+00
  0.00000000E+00  0.00000000E+00  0.00000000E+00
  0.00000000E+00  0.00000000E+00  0.00000000E+00
  0.00000000E+00  0.00000000E+00  0.00000000E+00
  0.00000000E+00  0.00000000E+00  0.00000000E+00
  0.00000000E+00  0.00000000E+00  0.00000000E+00
  0.00000000E+00  0.00000000E+00  0.00000000E+00
