CeO2-you-111-you-Y                      
   1.00000000000000     
     9.8634206918334737   -5.6833645632431500   -0.0013176301701052
    -0.0000000021365577   11.3667271224971866    0.0000000001604351
    -0.0029977866109228    0.0000000003100426   20.7747371626223511
   O    Y    Ce   H 
    53     1    26     1
Selective dynamics
Direct
  0.9992436910124850  0.0008597454860149  0.9924551679969316   T   T   T
  0.1185029525106216  0.2255604076685726  0.1510592083237420   T   T   T
  0.2196511130198948  0.1117600236578934  0.3051798176309164   T   T   T
  0.1069193838922215  0.2206121568456403  0.3881512857632861   T   T   T
  0.0000348228462813  0.0001100897392073  0.2283042748104566   T   T   T
  0.2214082847915468  0.1101092632531472  0.0718338515841296   T   T   T
  0.3342852455671469  0.9996359238758686  0.9916969896381413   T   T   T
  0.4425017601876565  0.2204656155691793  0.1464703958880723   T   T   T
  0.5568665157374685  0.1075967767841860  0.3067327566793319   T   T   T
  0.4404707606766401  0.2420006989066007  0.3986991384902326   T   T   T
  0.3325813355260605 -0.0011730724652028  0.2284097041039282   T   T   T
  0.5549534015477062  0.1109102730292266  0.0731927586786727   T   T   T
  0.6682774905892682  0.0015414700434931  0.9933915045921430   T   T   T
  0.7741921683896570  0.2252913724874128  0.1512399157114333   T   T   T
  0.8893588341875065  0.1099720791077741  0.3046555663111616   T   T   T
  0.7852586584762927  0.2165755547079422  0.3910543697567244   T   T   T
  0.6676977278464701  0.0004028781799805  0.2285888041763911   T   T   T
  0.8893492048479067  0.1108172843181252  0.0759283091969407   T   T   T
  0.9986124232656632  0.3316813279979768  0.9934093853264181   T   T   T
  0.1108256147468944  0.5551083010155430  0.1497746439765624   T   T   T
  0.2169121844107537  0.4429189008987283  0.3045524749483155   T   T   T
  0.1138748805205078  0.5554679889894226  0.3885345228926216   T   T   T
  0.9992776640177554  0.3315416448455340  0.2282188874161534   T   T   T
  0.2213347895085351  0.4444538270613652  0.0725005881526349   T   T   T
  0.3311942477148122  0.3327301554825349  0.9914887692268650   T   T   T
  0.4438116600521645  0.5562618054678060  0.1456014016825386   T   T   T
  0.4566954458059788  0.5444547217429123  0.3753763999401164   T   T   T
  0.3533961124504290  0.3441016287749179  0.2350732641733874   T   T   T
  0.5556360003529901  0.4438084227710147  0.0691604627937088   T   T   T
  0.6679919589021782  0.3320502507529983  0.9917121927293242   T   T   T
  0.7794915560365030  0.5574613811880352  0.1456319481150853   T   T   T
  0.8958790884820613  0.4453936631882640  0.3054875995610685   T   T   T
  0.7716646306145615  0.5612158290062924  0.3821320397045430   T   T   T
  0.6576059310110219  0.3436077341815161  0.2342042971290819   T   T   T
  0.8892921297113004  0.4447286812813757  0.0731016568844082   T   T   T
  0.0003838819595865  0.6659347903606756  0.9916796697336516   T   T   T
  0.1103176650560918  0.8886529286358442  0.1488990197013700   T   T   T
  0.2197795484196874  0.7689417102222994  0.3044999884239590   T   T   T
  0.0963782825952873  0.8778508843292524  0.3883472645168733   T   T   T
  0.9982591961724925  0.6667661957601075  0.2293137215250259   T   T   T
  0.2222564820260211  0.7777899419717543  0.0729412600001765   T   T   T
  0.3332923670309746  0.6666966426889886  0.9919205994378670   T   T   T
  0.4452012941896762  0.8886129210124614  0.1494522327201829   T   T   T
  0.5606976878086096  0.7809880991530511  0.3038564094091480   T   T   T
  0.4490644421310417  0.8745411081413595  0.3888297871847659   T   T   T
  0.3363012035893366  0.6658162508816660  0.2293887839743066   T   T   T
  0.5561427719538201  0.7784403894998960  0.0721164916921754   T   T   T
  0.6672746975485466  0.6680179458444440  0.9910628378218352   T   T   T
  0.7743165848470306  0.8820527248258970  0.1505887357638556   T   T   T
  0.8901755289962942  0.7820438712393426  0.3033847915922219   T   T   T
  0.7798555430766952  0.8908592815980960  0.3883971563804304   T   T   T
  0.6575677121508084  0.6466298896562647  0.2348783755623076   T   T   T
  0.8897531716349482  0.7789363220134350  0.0714559885665774   T   T   T
  0.3101031847785785  0.3260090341796040  0.3439538351914316   T   T   T
  0.0020292238079243  0.0009694477498662  0.3456720443165431   T   T   T
  0.2239444277584749  0.1112763943752603  0.1914711903170591   T   T   T
  0.1113313596050652  0.2221834404207279  0.0334792042467334   T   T   T
  0.3282973373908753 -0.0094484507872038  0.3485882426066725   T   T   T
  0.5542361096451489  0.1114532541454147  0.1918809129959733   T   T   T
  0.4430818482194589  0.2195726107944155  0.0309434510944771   T   T   T
  0.6667875223434372 -0.0010621215199274  0.3463145199151447   T   T   T
  0.8892290469673464  0.1112669261478351  0.1903733619889481   T   T   T
  0.7772299413477766  0.2223621141730620  0.0341036721503088   T   T   T
  0.0012338147219861  0.3325844036697405  0.3473775251871192   T   T   T
  0.2235604862003087  0.4448201516780676  0.1899869371469282   T   T   T
  0.1105394685928140  0.5547396367582479  0.0333281338219112   T   T   T
  0.5552595014180899  0.4439150359865158  0.1802985579788934   T   T   T
  0.4432539269155183  0.5565039430117698  0.0303429599723801   T   T   T
  0.6777771814913083  0.3289504052743659  0.3515330941257703   T   T   T
  0.8881571763607583  0.4449824187482551  0.1905094731466791   T   T   T
  0.7798806738081321  0.5564525525424515  0.0304286894387761   T   T   T
  0.0003590143918900  0.6665516076062482  0.3456331265271306   T   T   T
  0.2223789278192055  0.7775718262987376  0.1892206930845947   T   T   T
  0.1109862564920825  0.8893804165430582  0.0329892027803792   T   T   T
  0.3348953526308340  0.6636229674412367  0.3452442511314667   T   T   T
  0.5554469226913218  0.7766300623353390  0.1895751696360164   T   T   T
  0.4452197191769567  0.8895539898295701  0.0335536162560068   T   T   T
  0.6743697075000866  0.6793865727726928  0.3481093384155478   T   T   T
  0.8888922920470722  0.7768410667988742  0.1894794162781837   T   T   T
  0.7778235803873973  0.8888326942449235  0.0328837273124864   T   T   T
  0.4426702650462752  0.2560668951047194  0.4450421849443670   T   T   T
 
  0.00000000E+00  0.00000000E+00  0.00000000E+00
  0.00000000E+00  0.00000000E+00  0.00000000E+00
  0.00000000E+00  0.00000000E+00  0.00000000E+00
  0.00000000E+00  0.00000000E+00  0.00000000E+00
  0.00000000E+00  0.00000000E+00  0.00000000E+00
  0.00000000E+00  0.00000000E+00  0.00000000E+00
  0.00000000E+00  0.00000000E+00  0.00000000E+00
  0.00000000E+00  0.00000000E+00  0.00000000E+00
  0.00000000E+00  0.00000000E+00  0.00000000E+00
  0.00000000E+00  0.00000000E+00  0.00000000E+00
  0.00000000E+00  0.00000000E+00  0.00000000E+00
  0.00000000E+00  0.00000000E+00  0.00000000E+00
  0.00000000E+00  0.00000000E+00  0.00000000E+00
  0.00000000E+00  0.00000000E+00  0.00000000E+00
  0.00000000E+00  0.00000000E+00  0.00000000E+00
  0.00000000E+00  0.00000000E+00  0.00000000E+00
  0.00000000E+00  0.00000000E+00  0.00000000E+00
  0.00000000E+00  0.00000000E+00  0.00000000E+00
  0.00000000E+00  0.00000000E+00  0.00000000E+00
  0.00000000E+00  0.00000000E+00  0.00000000E+00
  0.00000000E+00  0.00000000E+00  0.00000000E+00
  0.00000000E+00  0.00000000E+00  0.00000000E+00
  0.00000000E+00  0.00000000E+00  0.00000000E+00
  0.00000000E+00  0.00000000E+00  0.00000000E+00
  0.00000000E+00  0.00000000E+00  0.00000000E+00
  0.00000000E+00  0.00000000E+00  0.00000000E+00
  0.00000000E+00  0.00000000E+00  0.00000000E+00
  0.00000000E+00  0.00000000E+00  0.00000000E+00
  0.00000000E+00  0.00000000E+00  0.00000000E+00
  0.00000000E+00  0.00000000E+00  0.00000000E+00
  0.00000000E+00  0.00000000E+00  0.00000000E+00
  0.00000000E+00  0.00000000E+00  0.00000000E+00
  0.00000000E+00  0.00000000E+00  0.00000000E+00
  0.00000000E+00  0.00000000E+00  0.00000000E+00
  0.00000000E+00  0.00000000E+00  0.00000000E+00
  0.00000000E+00  0.00000000E+00  0.00000000E+00
  0.00000000E+00  0.00000000E+00  0.00000000E+00
  0.00000000E+00  0.00000000E+00  0.00000000E+00
  0.00000000E+00  0.00000000E+00  0.00000000E+00
  0.00000000E+00  0.00000000E+00  0.00000000E+00
  0.00000000E+00  0.00000000E+00  0.00000000E+00
  0.00000000E+00  0.00000000E+00  0.00000000E+00
  0.00000000E+00  0.00000000E+00  0.00000000E+00
  0.00000000E+00  0.00000000E+00  0.00000000E+00
  0.00000000E+00  0.00000000E+00  0.00000000E+00
  0.00000000E+00  0.00000000E+00  0.00000000E+00
  0.00000000E+00  0.00000000E+00  0.00000000E+00
  0.00000000E+00  0.00000000E+00  0.00000000E+00
  0.00000000E+00  0.00000000E+00  0.00000000E+00
  0.00000000E+00  0.00000000E+00  0.00000000E+00
  0.00000000E+00  0.00000000E+00  0.00000000E+00
  0.00000000E+00  0.00000000E+00  0.00000000E+00
  0.00000000E+00  0.00000000E+00  0.00000000E+00
  0.00000000E+00  0.00000000E+00  0.00000000E+00
  0.00000000E+00  0.00000000E+00  0.00000000E+00
  0.00000000E+00  0.00000000E+00  0.00000000E+00
  0.00000000E+00  0.00000000E+00  0.00000000E+00
  0.00000000E+00  0.00000000E+00  0.00000000E+00
  0.00000000E+00  0.00000000E+00  0.00000000E+00
  0.00000000E+00  0.00000000E+00  0.00000000E+00
  0.00000000E+00  0.00000000E+00  0.00000000E+00
  0.00000000E+00  0.00000000E+00  0.00000000E+00
  0.00000000E+00  0.00000000E+00  0.00000000E+00
  0.00000000E+00  0.00000000E+00  0.00000000E+00
  0.00000000E+00  0.00000000E+00  0.00000000E+00
  0.00000000E+00  0.00000000E+00  0.00000000E+00
  0.00000000E+00  0.00000000E+00  0.00000000E+00
  0.00000000E+00  0.00000000E+00  0.00000000E+00
  0.00000000E+00  0.00000000E+00  0.00000000E+00
  0.00000000E+00  0.00000000E+00  0.00000000E+00
  0.00000000E+00  0.00000000E+00  0.00000000E+00
  0.00000000E+00  0.00000000E+00  0.00000000E+00
  0.00000000E+00  0.00000000E+00  0.00000000E+00
  0.00000000E+00  0.00000000E+00  0.00000000E+00
  0.00000000E+00  0.00000000E+00  0.00000000E+00
  0.00000000E+00  0.00000000E+00  0.00000000E+00
  0.00000000E+00  0.00000000E+00  0.00000000E+00
  0.00000000E+00  0.00000000E+00  0.00000000E+00
  0.00000000E+00  0.00000000E+00  0.00000000E+00
  0.00000000E+00  0.00000000E+00  0.00000000E+00
  0.00000000E+00  0.00000000E+00  0.00000000E+00
