CeO2-you-111-you-Tl                     
   1.00000000000000     
     9.8738318477186411   -5.7006598447998522   -0.0000000000503731
     0.0054575094357442   11.4107703662215805   -0.0009938312897511
    -0.0010906823132689   -0.0018891168651566   21.2106510094351286
   O    Tl   Ce   H 
    53     1    26     2
Selective dynamics
Direct
 -0.0000245342014450  0.0000445600706061  0.9976209260166157   T   T   T
  0.1077149351814697  0.2212479468353408  0.1489070974877933   F   F   F
  0.2335017794095090  0.1208804062949534  0.3063079459551465   T   T   T
  0.0933077872659183  0.2153620973217285  0.3846674440171601   T   T   T
  0.0039995099112579  0.0013272744719695  0.2293547047808925   T   T   T
  0.2222219551627234  0.1111109103254222  0.0753942997907586   F   F   F
  0.3335128020470877 -0.0000090554772416  0.9971121496553904   T   T   T
  0.4468660116535830  0.2212479468351347  0.1489070974877933   F   F   F
  0.5501151996174923  0.1136059093396435  0.3041816701129693   T   T   T
  0.4571927009403317  0.2107073209417246  0.4025967855896037   T   T   T
  0.3302444240621446  0.9984593174313563  0.2284638742683539   T   T   T
  0.5576684276161430  0.1112045058531450  0.0759500210006152   F   F   F
  0.6665950323447785  0.9993378947259932  0.9967818684821645   T   T   T
  0.7780220232576980  0.2227100465154095  0.1532285622888949   F   F   F
  0.8872085895621558  0.1110557667647447  0.3011460972672176   T   T   T
  0.7777667734607103  0.2211252545442020  0.3801090578401382   T   T   T
  0.6615011388602553  0.9946110289868647  0.2320413774128444   T   T   T
  0.8868700782370382  0.1112045058532658  0.0759500210006081   F   F   F
  0.0008524220525234  0.3332725179518059  0.9974386813542069   T   T   T
  0.1100617433907658  0.5547661784171609  0.1494822969503886   F   F   F
  0.2273673348164066  0.4551985399022230  0.3039881840252893   T   T   T
  0.1114432352190307  0.5596979520604437  0.3825609187578652   T   T   T
  0.0032335646751597  0.3336418432638188  0.2294608613368419   T   T   T
  0.2233529612077945  0.4447931711720727  0.0762506571994095   F   F   F
  0.3330849727109651  0.3324539054703747  0.9973781233556945   T   T   T
  0.4458759002820400  0.5584198005642023  0.1504836880426836   F   F   F
  0.5535821383396359  0.4345431041332738  0.3050807544963817   T   T   T
  0.3312604249860312  0.3319913596537504  0.2228102868512253   T   T   T
  0.5547742099642008  0.4447931711720159  0.0762506571994095   F   F   F
  0.6661627308442014  0.3332014961866291  0.9976004594989761   T   T   T
  0.7780374350263699  0.5547661784170757  0.1494822969503957   F   F   F
  0.8927913314625512  0.4460182246863111  0.3021599148803957   T   T   T
  0.7872499860148721  0.5490122913007377  0.3849070680915886   T   T   T
  0.6681219972234995  0.3338827921335546  0.2288544875881114   T   T   T
  0.8879560972578489  0.4425781945157112  0.0760672520040586   F   F   F
 -0.0006057586666700  0.6666266093685912  0.9975917056844774   T   T   T
  0.1107681157033298  0.8882032314064432  0.1484763286650264   F   F   F
  0.2195880542047475  0.7784999161274958  0.3019811366542378   T   T   T
  0.1139128735775163  0.8916640007637462  0.3818700746772378   T   T   T
  0.0000468303190603  0.6681356139128188  0.2282520796088034   T   T   T
  0.2227508377439023  0.7777741960788447  0.0754061281518048   F   F   F
  0.3334295762901368  0.6664394660562099  0.9975054607226729   T   T   T
  0.4460173383038892  0.8895952704017560  0.1494803661176221   F   F   F
  0.5416943253082576  0.7640901385783870  0.3101911340983037   T   T   T
  0.4377961188153428  0.8894433005597480  0.3823541868013994   T   T   T
  0.3323825305892364  0.6706108166320243  0.2278418653262483   T   T   T
  0.5554181699521763  0.7775023399043519  0.0761169176304364   F   F   F
  0.6665664929638280  0.6667359609668408  0.9971795896356555   T   T   T
  0.7769109320980405  0.8895952704019905  0.1494803661176221   F   F   F
  0.8934449448210394  0.7804652229509877  0.3036896577810722   T   T   T
  0.7825293481745160  0.9024134842866494  0.3832376703462111   T   T   T
  0.6682263810986649  0.6681118174134462  0.2279067821729234   T   T   T
  0.8883563583350380  0.7777741960788731  0.0754061281518119   F   F   F
  0.3279648309411198  0.3311313977814873  0.3480068822833307   T   T   T
 -0.0006580384026987  0.0037120089292278  0.3431693122597658   T   T   T
  0.2220213782172493  0.1107097564348223  0.1876930262153635   F   F   F
  0.1108433835232390  0.2223277530373267  0.0367820831902321   F   F   F
  0.3296898365978254 -0.0030075640192553  0.3422863579398394   T   T   T
  0.5549068640332351  0.1109194234705697  0.1900876015073081   F   F   F
  0.4448173695140696  0.2223277530374048  0.0367820831902321   F   F   F
  0.6656485032934697 -0.0011656515547928  0.3433794753935702   T   T   T
  0.8893465594369871  0.1109194234699729  0.1900876015073152   F   F   F
  0.7776626318362432  0.2219912636724573  0.0371614444455801   F   F   F
  0.0015928902261391  0.3324939516563377  0.3418057130299661   T   T   T
  0.2242610088608075  0.4440891713652348  0.1898700827471203   F   F   F
  0.1111112587019392  0.5550256523263144  0.0370759011836057   F   F   F
  0.5531621625051955  0.4440891713656825  0.1898700827471274   F   F   F
  0.4444882586114645  0.5556445172228592  0.0367466280664885   F   F   F
  0.6740493874318443  0.3369095187193910  0.3411524913379074   T   T   T
  0.8895143417925269  0.4456946835850673  0.1902471499201610   F   F   F
  0.7772473936243927  0.5550256523264281  0.0370759011836128   F   F   F
 -0.0012079610621265  0.6669198046827018  0.3428539562537991   T   T   T
  0.2219833998188605  0.7784181771111207  0.1875010935209787   F   F   F
  0.1111861440871351  0.8890392881742883  0.0355964732549126   F   F   F
  0.3225447552883223  0.6716762206764256  0.3386785183734274   T   T   T
  0.5553995327247492  0.7774650654495119  0.1897709204442606   F   F   F
  0.4452663621733919  0.8890724068201337  0.0366541197869381   F   F   F
  0.6766924200099422  0.6674021306418738  0.3431036961813528   T   T   T
  0.8897677772917802  0.7784181771108152  0.1875010935209787   F   F   F
  0.7771390446467521  0.8890724068201266  0.0366541197869381   F   F   F
  0.4053517086018313  0.4744245438195944  0.4057280555048470   T   T   T
  0.4520982763431652  0.2178980735574060  0.4481047367192715   T   T   T
 
  0.00000000E+00  0.00000000E+00  0.00000000E+00
  0.00000000E+00  0.00000000E+00  0.00000000E+00
  0.00000000E+00  0.00000000E+00  0.00000000E+00
  0.00000000E+00  0.00000000E+00  0.00000000E+00
  0.00000000E+00  0.00000000E+00  0.00000000E+00
  0.00000000E+00  0.00000000E+00  0.00000000E+00
  0.00000000E+00  0.00000000E+00  0.00000000E+00
  0.00000000E+00  0.00000000E+00  0.00000000E+00
  0.00000000E+00  0.00000000E+00  0.00000000E+00
  0.00000000E+00  0.00000000E+00  0.00000000E+00
  0.00000000E+00  0.00000000E+00  0.00000000E+00
  0.00000000E+00  0.00000000E+00  0.00000000E+00
  0.00000000E+00  0.00000000E+00  0.00000000E+00
  0.00000000E+00  0.00000000E+00  0.00000000E+00
  0.00000000E+00  0.00000000E+00  0.00000000E+00
  0.00000000E+00  0.00000000E+00  0.00000000E+00
  0.00000000E+00  0.00000000E+00  0.00000000E+00
  0.00000000E+00  0.00000000E+00  0.00000000E+00
  0.00000000E+00  0.00000000E+00  0.00000000E+00
  0.00000000E+00  0.00000000E+00  0.00000000E+00
  0.00000000E+00  0.00000000E+00  0.00000000E+00
  0.00000000E+00  0.00000000E+00  0.00000000E+00
  0.00000000E+00  0.00000000E+00  0.00000000E+00
  0.00000000E+00  0.00000000E+00  0.00000000E+00
  0.00000000E+00  0.00000000E+00  0.00000000E+00
  0.00000000E+00  0.00000000E+00  0.00000000E+00
  0.00000000E+00  0.00000000E+00  0.00000000E+00
  0.00000000E+00  0.00000000E+00  0.00000000E+00
  0.00000000E+00  0.00000000E+00  0.00000000E+00
  0.00000000E+00  0.00000000E+00  0.00000000E+00
  0.00000000E+00  0.00000000E+00  0.00000000E+00
  0.00000000E+00  0.00000000E+00  0.00000000E+00
  0.00000000E+00  0.00000000E+00  0.00000000E+00
  0.00000000E+00  0.00000000E+00  0.00000000E+00
  0.00000000E+00  0.00000000E+00  0.00000000E+00
  0.00000000E+00  0.00000000E+00  0.00000000E+00
  0.00000000E+00  0.00000000E+00  0.00000000E+00
  0.00000000E+00  0.00000000E+00  0.00000000E+00
  0.00000000E+00  0.00000000E+00  0.00000000E+00
  0.00000000E+00  0.00000000E+00  0.00000000E+00
  0.00000000E+00  0.00000000E+00  0.00000000E+00
  0.00000000E+00  0.00000000E+00  0.00000000E+00
  0.00000000E+00  0.00000000E+00  0.00000000E+00
  0.00000000E+00  0.00000000E+00  0.00000000E+00
  0.00000000E+00  0.00000000E+00  0.00000000E+00
  0.00000000E+00  0.00000000E+00  0.00000000E+00
  0.00000000E+00  0.00000000E+00  0.00000000E+00
  0.00000000E+00  0.00000000E+00  0.00000000E+00
  0.00000000E+00  0.00000000E+00  0.00000000E+00
  0.00000000E+00  0.00000000E+00  0.00000000E+00
  0.00000000E+00  0.00000000E+00  0.00000000E+00
  0.00000000E+00  0.00000000E+00  0.00000000E+00
  0.00000000E+00  0.00000000E+00  0.00000000E+00
  0.00000000E+00  0.00000000E+00  0.00000000E+00
  0.00000000E+00  0.00000000E+00  0.00000000E+00
  0.00000000E+00  0.00000000E+00  0.00000000E+00
  0.00000000E+00  0.00000000E+00  0.00000000E+00
  0.00000000E+00  0.00000000E+00  0.00000000E+00
  0.00000000E+00  0.00000000E+00  0.00000000E+00
  0.00000000E+00  0.00000000E+00  0.00000000E+00
  0.00000000E+00  0.00000000E+00  0.00000000E+00
  0.00000000E+00  0.00000000E+00  0.00000000E+00
  0.00000000E+00  0.00000000E+00  0.00000000E+00
  0.00000000E+00  0.00000000E+00  0.00000000E+00
  0.00000000E+00  0.00000000E+00  0.00000000E+00
  0.00000000E+00  0.00000000E+00  0.00000000E+00
  0.00000000E+00  0.00000000E+00  0.00000000E+00
  0.00000000E+00  0.00000000E+00  0.00000000E+00
  0.00000000E+00  0.00000000E+00  0.00000000E+00
  0.00000000E+00  0.00000000E+00  0.00000000E+00
  0.00000000E+00  0.00000000E+00  0.00000000E+00
  0.00000000E+00  0.00000000E+00  0.00000000E+00
  0.00000000E+00  0.00000000E+00  0.00000000E+00
  0.00000000E+00  0.00000000E+00  0.00000000E+00
  0.00000000E+00  0.00000000E+00  0.00000000E+00
  0.00000000E+00  0.00000000E+00  0.00000000E+00
  0.00000000E+00  0.00000000E+00  0.00000000E+00
  0.00000000E+00  0.00000000E+00  0.00000000E+00
  0.00000000E+00  0.00000000E+00  0.00000000E+00
  0.00000000E+00  0.00000000E+00  0.00000000E+00
  0.00000000E+00  0.00000000E+00  0.00000000E+00
  0.00000000E+00  0.00000000E+00  0.00000000E+00
