CeO2-you-111-you-Ag                     
   1.00000000000000     
     9.8582940952841156   -5.6916891212466432   -0.0000000001264945
    -0.0085402156232054   11.3685841528536091   -0.0024443338986595
    -0.0027083124120834   -0.0046909339072592   21.1747678366137215
   O    Ag   Ce   H 
    53     1    26     1
Selective dynamics
Direct
  0.0001102030532861  0.0000310171671517  0.9955413963397127   T   T   T
  0.1065870802373193  0.2202185432031224  0.1490321245116380   T   T   T
  0.2244036784216054  0.1057422039325154  0.3033872184323118   T   T   T
  0.0805289909760241  0.2084924662223138  0.3879437439701743   T   T   T
  0.0002656869373809  0.0003078059296571  0.2287866849498185   T   T   T
  0.2235327241510064  0.1131731618235659  0.0747622793526174   T   T   T
  0.3334427263333314  0.0010243867847249  0.9953971482089478   T   T   T
  0.4476487854248669  0.2208226559089174  0.1493754765737050   T   T   T
  0.5526912172377265  0.1161472791397518  0.3040093349639374   T   T   T
  0.4667991369563966  0.2023495941082097  0.4052845439372777   T   T   T
  0.3335379853249023  0.9976840242820060  0.2273967730859303   T   T   T
  0.5569956396254351  0.1111831690547289  0.0744022728696171   T   T   T
  0.6665038299084617 -0.0000410641557598  0.9948621515989976   T   T   T
  0.7765918149011646  0.2200279650244016  0.1517019723460206   T   T   T
  0.8841503613205002  0.1098891355013973  0.3008644597444108   T   T   T
  0.7755597862970823  0.2202477467419902  0.3816422667351665   T   T   T
  0.6577042756702380  0.9902855696140712  0.2324155445655836   T   T   T
  0.8874044827953128  0.1110708813654386  0.0742518802313164   T   T   T
  0.0004520090917433  0.3337867088762546  0.9958350621530697   T   T   T
  0.1114163527492403  0.5555292311794017  0.1485554024652591   T   T   T
  0.2281730385492826  0.4559563799701281  0.3064243859849490   T   T   T
  0.1102215556018749  0.5602911020370794  0.3847419575452118   T   T   T
  0.0031831161024993  0.3353211505670216  0.2296222056532220   T   T   T
  0.2232921056189312  0.4445047209387268  0.0751890907063840   T   T   T
  0.3337486207536804  0.3338993505826649  0.9955937965242091   T   T   T
  0.4471553603877923  0.5601042473431352  0.1493038560609189   T   T   T
  0.5582099609619872  0.4504933656985006  0.3115267985128488   T   T   T
  0.3346073984834576  0.3346090051980821  0.2199440087779503   T   T   T
  0.5546506477709037  0.4443579934206477  0.0756660370953512   T   T   T
  0.6672091965724612  0.3346620249850201  0.9960119332828875   T   T   T
  0.7778986409507181  0.5557709216261028  0.1491350666234803   T   T   T
  0.8902113834649409  0.4463167525010955  0.3039290022462198   T   T   T
  0.7845535528641344  0.5593486595849730  0.3852646124856203   T   T   T
  0.6671526209910380  0.3367266018917789  0.2301295036621846   T   T   T
  0.8882759154735672  0.4428088598091375  0.0755207775657459   T   T   T
  0.9994143660378147  0.6661268872479286  0.9959887860083623   T   T   T
  0.1112188550002004  0.8900627762118756  0.1474729336717911   T   T   T
  0.2178336713314703  0.7781860213003705  0.3017916564850589   T   T   T
  0.1128726050091129  0.8889233446836928  0.3845433428850323   T   T   T
  0.0004700949847469  0.6674548170841436  0.2272930376403997   T   T   T
  0.2226317255256750  0.7781985927727483  0.0735223235899294   T   T   T
  0.3330613752047852  0.6655515625673192  0.9952632339115419   T   T   T
  0.4452499822124117  0.8887913324688598  0.1477544768796931   T   T   T
  0.5435392369973185  0.7535339222980314  0.3126517326643871   T   T   T
  0.4408401577126895  0.8881634759585746  0.3797112899848400   T   T   T
  0.3331162584628335  0.6711840367217932  0.2277739289835291   T   T   T
  0.5561151317613692  0.7784541777655778  0.0743804952958986   T   T   T
  0.6669614989107814  0.6664710620666302  0.9957993716730624   T   T   T
  0.7768372103193468  0.8894964261206300  0.1491981087768075   T   T   T
  0.8934133396004692  0.7791200610896768  0.3027177389509270   T   T   T
  0.7786522873203821  0.8893559244854807  0.3806589895731307   T   T   T
  0.6699849429466032  0.6688052498535038  0.2288865470326354   T   T   T
  0.8892339522573457  0.7789383077101522  0.0745149823463297   T   T   T
  0.3309337350225552  0.3338044391043810  0.3431158257789949   T   T   T
  0.0055652982470796  0.0081612893769006  0.3434739211977499   T   T   T
  0.2235957408655188  0.1133653588660555  0.1897386189622598   T   T   T
  0.1114245240734668  0.2226638829836655  0.0358053214516440   T   T   T
  0.3284554206706987 -0.0010236972922151  0.3420354342667938   T   T   T
  0.5544438773185468  0.1105744972275726  0.1897645857053448   T   T   T
  0.4448980965135055  0.2227664506624510  0.0356749284650880   T   T   T
  0.6648196189041466 -0.0010538092658896  0.3432689095173337   T   T   T
  0.8887647955428624  0.1107000189972588  0.1896600933522803   T   T   T
  0.7775921774849536  0.2219392124628866  0.0356260338620268   T   T   T
  0.0019399104294890  0.3310052014730870  0.3439312983765541   T   T   T
  0.2231674487786763  0.4436086585538919  0.1898793025005816   T   T   T
  0.1110042320255918  0.5546816687019619  0.0352227626827696   T   T   T
  0.5538828136731146  0.4435783504701101  0.1899110961647565   T   T   T
  0.4444766152316222  0.5553479798146355  0.0351430254869112   T   T   T
  0.6722456555585122  0.3371664238115932  0.3431336365733718   T   T   T
  0.8898644320425038  0.4452971307117546  0.1895781818661625   T   T   T
  0.7776345943410607  0.5552564250709515  0.0358720418172536   T   T   T
  0.0011537569386105  0.6678841389072091  0.3441456743303284   T   T   T
  0.2213369174347265  0.7785814782904376  0.1860436117509749   T   T   T
  0.1115066099801679  0.8899924192100251  0.0344086400417386   T   T   T
  0.3205209594947567  0.6693245309731538  0.3382883160753467   T   T   T
  0.5543994552626604  0.7764004720129519  0.1880446108283024   T   T   T
  0.4451477165405588  0.8892819174395087  0.0344968609126431   T   T   T
  0.6832265460496465  0.6715718416736870  0.3390424624045673   T   T   T
  0.8911432315165172  0.7793003810425373  0.1873675551830225   T   T   T
  0.7776548168116816  0.8892722877865886  0.0348795301210560   T   T   T
  0.4450384296911177  0.2210534546679038  0.4471609742081987   T   T   T
 
  0.00000000E+00  0.00000000E+00  0.00000000E+00
  0.00000000E+00  0.00000000E+00  0.00000000E+00
  0.00000000E+00  0.00000000E+00  0.00000000E+00
  0.00000000E+00  0.00000000E+00  0.00000000E+00
  0.00000000E+00  0.00000000E+00  0.00000000E+00
  0.00000000E+00  0.00000000E+00  0.00000000E+00
  0.00000000E+00  0.00000000E+00  0.00000000E+00
  0.00000000E+00  0.00000000E+00  0.00000000E+00
  0.00000000E+00  0.00000000E+00  0.00000000E+00
  0.00000000E+00  0.00000000E+00  0.00000000E+00
  0.00000000E+00  0.00000000E+00  0.00000000E+00
  0.00000000E+00  0.00000000E+00  0.00000000E+00
  0.00000000E+00  0.00000000E+00  0.00000000E+00
  0.00000000E+00  0.00000000E+00  0.00000000E+00
  0.00000000E+00  0.00000000E+00  0.00000000E+00
  0.00000000E+00  0.00000000E+00  0.00000000E+00
  0.00000000E+00  0.00000000E+00  0.00000000E+00
  0.00000000E+00  0.00000000E+00  0.00000000E+00
  0.00000000E+00  0.00000000E+00  0.00000000E+00
  0.00000000E+00  0.00000000E+00  0.00000000E+00
  0.00000000E+00  0.00000000E+00  0.00000000E+00
  0.00000000E+00  0.00000000E+00  0.00000000E+00
  0.00000000E+00  0.00000000E+00  0.00000000E+00
  0.00000000E+00  0.00000000E+00  0.00000000E+00
  0.00000000E+00  0.00000000E+00  0.00000000E+00
  0.00000000E+00  0.00000000E+00  0.00000000E+00
  0.00000000E+00  0.00000000E+00  0.00000000E+00
  0.00000000E+00  0.00000000E+00  0.00000000E+00
  0.00000000E+00  0.00000000E+00  0.00000000E+00
  0.00000000E+00  0.00000000E+00  0.00000000E+00
  0.00000000E+00  0.00000000E+00  0.00000000E+00
  0.00000000E+00  0.00000000E+00  0.00000000E+00
  0.00000000E+00  0.00000000E+00  0.00000000E+00
  0.00000000E+00  0.00000000E+00  0.00000000E+00
  0.00000000E+00  0.00000000E+00  0.00000000E+00
  0.00000000E+00  0.00000000E+00  0.00000000E+00
  0.00000000E+00  0.00000000E+00  0.00000000E+00
  0.00000000E+00  0.00000000E+00  0.00000000E+00
  0.00000000E+00  0.00000000E+00  0.00000000E+00
  0.00000000E+00  0.00000000E+00  0.00000000E+00
  0.00000000E+00  0.00000000E+00  0.00000000E+00
  0.00000000E+00  0.00000000E+00  0.00000000E+00
  0.00000000E+00  0.00000000E+00  0.00000000E+00
  0.00000000E+00  0.00000000E+00  0.00000000E+00
  0.00000000E+00  0.00000000E+00  0.00000000E+00
  0.00000000E+00  0.00000000E+00  0.00000000E+00
  0.00000000E+00  0.00000000E+00  0.00000000E+00
  0.00000000E+00  0.00000000E+00  0.00000000E+00
  0.00000000E+00  0.00000000E+00  0.00000000E+00
  0.00000000E+00  0.00000000E+00  0.00000000E+00
  0.00000000E+00  0.00000000E+00  0.00000000E+00
  0.00000000E+00  0.00000000E+00  0.00000000E+00
  0.00000000E+00  0.00000000E+00  0.00000000E+00
  0.00000000E+00  0.00000000E+00  0.00000000E+00
  0.00000000E+00  0.00000000E+00  0.00000000E+00
  0.00000000E+00  0.00000000E+00  0.00000000E+00
  0.00000000E+00  0.00000000E+00  0.00000000E+00
  0.00000000E+00  0.00000000E+00  0.00000000E+00
  0.00000000E+00  0.00000000E+00  0.00000000E+00
  0.00000000E+00  0.00000000E+00  0.00000000E+00
  0.00000000E+00  0.00000000E+00  0.00000000E+00
  0.00000000E+00  0.00000000E+00  0.00000000E+00
  0.00000000E+00  0.00000000E+00  0.00000000E+00
  0.00000000E+00  0.00000000E+00  0.00000000E+00
  0.00000000E+00  0.00000000E+00  0.00000000E+00
  0.00000000E+00  0.00000000E+00  0.00000000E+00
  0.00000000E+00  0.00000000E+00  0.00000000E+00
  0.00000000E+00  0.00000000E+00  0.00000000E+00
  0.00000000E+00  0.00000000E+00  0.00000000E+00
  0.00000000E+00  0.00000000E+00  0.00000000E+00
  0.00000000E+00  0.00000000E+00  0.00000000E+00
  0.00000000E+00  0.00000000E+00  0.00000000E+00
  0.00000000E+00  0.00000000E+00  0.00000000E+00
  0.00000000E+00  0.00000000E+00  0.00000000E+00
  0.00000000E+00  0.00000000E+00  0.00000000E+00
  0.00000000E+00  0.00000000E+00  0.00000000E+00
  0.00000000E+00  0.00000000E+00  0.00000000E+00
  0.00000000E+00  0.00000000E+00  0.00000000E+00
  0.00000000E+00  0.00000000E+00  0.00000000E+00
  0.00000000E+00  0.00000000E+00  0.00000000E+00
  0.00000000E+00  0.00000000E+00  0.00000000E+00
