CeO2-you-111-you-Hg                     
   1.00000000000000     
     9.8292150828747875   -5.6930540959102558    0.0104842658773298
     0.0000000019385902   11.3861061914195290   -0.0000000012251360
     0.0220630686403782   -0.0000000022110212   21.0849428826154366
   O    Hg   Ce H
    53     1    26 2
Selective dynamics
Direct
  0.0001752353747153  0.0012476325907371  0.9964540414573866   T   T   T
  0.1115708791564995  0.2224519395780344  0.1506883674088821   F   F   F
  0.2162329314340597  0.0981960957486599  0.3019099867525948   T   T   T
  0.0993965694971355  0.2163647847492857  0.3900728490352762   T   T   T
 -0.0026206328887800 -0.0006157865088956  0.2284364499901361   T   T   T
  0.2226121366767917  0.1106353353510249  0.0751830718140202   F   F   F
  0.3323113231897177 -0.0005000978849827  0.9946811627894887   T   T   T
  0.4475329376468932  0.2192613421336549  0.1460201219692965   F   F   F
  0.5591598784327084  0.1099653223289947  0.3034003544517001   T   T   T
  0.4569138474053623  0.2302946657048896  0.3801173364969359   T   T   T
  0.3371289052860056  0.0009593842355461  0.2285693996331042   T   T   T
  0.5562093258567833  0.1092850341033013  0.0735553893566546   F   F   F
  0.6688587275811748  0.0010958637908953  0.9946365382979218   T   T   T
  0.7747583222757081  0.2259753299224161  0.1511163899555981   F   F   F
  0.8901347370052813  0.1117338685025681  0.3049744769403872   T   T   T
  0.7778553669083064  0.2211709727418655  0.3856995482539097   T   T   T
  0.6686088213805592  0.0009709106903706  0.2286537738652279   T   T   T
  0.8864608085059735  0.1098969042529288  0.0771690377525568   F   F   F
  0.0001752353747479  0.3322606027836306  0.9964540414573586   T   T   T
  0.1105583061119191  0.5557297712892774  0.1507873243307985   F   F   F
  0.2162329314308085  0.4513698356834998  0.3019099867532257   T   T   T
  0.1110196971834910  0.5598975343655996  0.3840920136987652   T   T   T
 -0.0026206328874026  0.3313281536201679  0.2284364499902029   T   T   T
  0.2226121366765630  0.4453098013258194  0.0751830718140535   F   F   F
  0.3306480378861484  0.3319905189429739  0.9950085482488786   T   T   T
  0.4475329376447478  0.5616055955141924  0.1460201219690430   F   F   F
  0.4569138474047233  0.5599531817002621  0.3801173364971495   T   T   T
  0.3446791751400067  0.3390060875705943  0.2230899534924730   T   T   T
  0.5541310542008759  0.4437315271008456  0.0710612331089780   F   F   F
  0.6679842096771379  0.3328084056179066  0.9948757832495364   T   T   T
  0.7780884154240110  0.5557112077109136  0.1468765949074451   F   F   F
  0.8908721486578128  0.4428504662563801  0.3044688109844128   T   T   T
  0.7582617220950801  0.5457978610484557  0.3754531006505422   T   T   T
  0.6572802331501020  0.3432125143357449  0.2353195182637720   T   T   T
  0.8899732288911771  0.4448530188569526  0.0748031092991672   F   F   F
  0.0006231501264871  0.6669785750630040  0.9953895306759994   T   T   T
  0.1105583061115259  0.8881625348214246  0.1507873243308114   F   F   F
  0.2201768609871679  0.7767554304931311  0.3018936520798812   T   T   T
  0.1110196971828739  0.8844561628166430  0.3840920136988105   T   T   T
 -0.0033186697586218  0.6650076651199639  0.2294804062192207   T   T   T
  0.2232010434324656  0.7782675217161024  0.0750232309146343   F   F   F
  0.3323113231896015  0.6661454210746798  0.9946811627894554   T   T   T
  0.4465475465458260  0.8899407732729173  0.1493823995389277   F   F   F
  0.5591598784309790  0.7825275561047534  0.3034003544513988   T   T   T
  0.4426831378348806  0.8880085689176019  0.3813109183170317   T   T   T
  0.3371289052863565  0.6695035210508625  0.2285693996329852   T   T   T
  0.5562093258569113  0.7802572917539208  0.0735553893565598   F   F   F
  0.6679842096772614  0.6685088040596189  0.9948757832494106   T   T   T
  0.7747583222747917  0.8821159923528589  0.1511163899558226   F   F   F
  0.8908721486569614  0.7813546823981671  0.3044688109842745   T   T   T
  0.7778553669076250  0.8900173941651038  0.3856995482533914   T   T   T
  0.6572802331523344  0.6474007188170789  0.2353195182633889   T   T   T
  0.8899732288910931  0.7784532100339854  0.0748031092990490   F   F   F
  0.3253737125236625  0.3293533562610378  0.3794540395336736   T   T   T
  0.0053746140094556  0.0034987950027221  0.3437573661884754   T   T   T
  0.2243962536468904  0.1141983431393205  0.1916527655589538   F   F   F
  0.1116499134069062  0.2224914567034243  0.0366880153143536   F   F   F
  0.3316339381103663  0.0004195025072849  0.3415347535630945   T   T   T
  0.5557181145207395  0.1115227428532917  0.1892737472519884   F   F   F
  0.4432395828038223  0.2198183207089386  0.0332266460916690   F   F   F
  0.6674189588311060  0.0003759794158147  0.3438798513925929   T   T   T
  0.8891196977361996  0.1112263488689570  0.1902676708554165   F   F   F
  0.7779449247728888  0.2222382607026954  0.0352031230035621   F   F   F
  0.0053746140078524  0.3352088190104230  0.3437573661881155   T   T   T
  0.2243962536467281  0.4435309105070570  0.1916527655588926   F   F   F
  0.1111353327549261  0.5548832913492951  0.0361766912342262   F   F   F
  0.5518215066144450  0.4425767533041276  0.1807022964587006   F   F   F
  0.4432395828039593  0.5567552620942035  0.0332266460916816   F   F   F
  0.6706926655530163  0.3251583584728071  0.3460283323356840   T   T   T
  0.8882080694473663  0.4449748767481883  0.1901343613892731   F   F   F
  0.7799363893059881  0.5566351946528899  0.0334781040327527   F   F   F
  0.0010833810148432  0.6672086905101320  0.3423133001694990   T   T   T
  0.2229512079599371  0.7781426039807222  0.1884514820751999   F   F   F
  0.1111353327548618  0.8895860414067637  0.0361766912342122   F   F   F
  0.3316339381102578  0.6645484356015604  0.3415347535626756   T   T   T
  0.5557181145238136  0.7775283716665479  0.1892737472519549   F   F   F
  0.4457354217919687  0.8895347108956434  0.0345694299858777   F   F   F
  0.6706926655505913  0.6788673070748262  0.3460283323368171   T   T   T
  0.8882080694504962  0.7765661927047017  0.1901343613893021   F   F   F
  0.7779449247735442  0.8890396640702979  0.0352031230035333   F   F   F
0.3253737125236625 0.3293533562610378 0.479454 T T T
0.446598 0.216020 0.433410 T T T 
 
  0.00000000E+00  0.00000000E+00  0.00000000E+00
  0.00000000E+00  0.00000000E+00  0.00000000E+00
  0.00000000E+00  0.00000000E+00  0.00000000E+00
  0.00000000E+00  0.00000000E+00  0.00000000E+00
  0.00000000E+00  0.00000000E+00  0.00000000E+00
  0.00000000E+00  0.00000000E+00  0.00000000E+00
  0.00000000E+00  0.00000000E+00  0.00000000E+00
  0.00000000E+00  0.00000000E+00  0.00000000E+00
  0.00000000E+00  0.00000000E+00  0.00000000E+00
  0.00000000E+00  0.00000000E+00  0.00000000E+00
  0.00000000E+00  0.00000000E+00  0.00000000E+00
  0.00000000E+00  0.00000000E+00  0.00000000E+00
  0.00000000E+00  0.00000000E+00  0.00000000E+00
  0.00000000E+00  0.00000000E+00  0.00000000E+00
  0.00000000E+00  0.00000000E+00  0.00000000E+00
  0.00000000E+00  0.00000000E+00  0.00000000E+00
  0.00000000E+00  0.00000000E+00  0.00000000E+00
  0.00000000E+00  0.00000000E+00  0.00000000E+00
  0.00000000E+00  0.00000000E+00  0.00000000E+00
  0.00000000E+00  0.00000000E+00  0.00000000E+00
  0.00000000E+00  0.00000000E+00  0.00000000E+00
  0.00000000E+00  0.00000000E+00  0.00000000E+00
  0.00000000E+00  0.00000000E+00  0.00000000E+00
  0.00000000E+00  0.00000000E+00  0.00000000E+00
  0.00000000E+00  0.00000000E+00  0.00000000E+00
  0.00000000E+00  0.00000000E+00  0.00000000E+00
  0.00000000E+00  0.00000000E+00  0.00000000E+00
  0.00000000E+00  0.00000000E+00  0.00000000E+00
  0.00000000E+00  0.00000000E+00  0.00000000E+00
  0.00000000E+00  0.00000000E+00  0.00000000E+00
  0.00000000E+00  0.00000000E+00  0.00000000E+00
  0.00000000E+00  0.00000000E+00  0.00000000E+00
  0.00000000E+00  0.00000000E+00  0.00000000E+00
  0.00000000E+00  0.00000000E+00  0.00000000E+00
  0.00000000E+00  0.00000000E+00  0.00000000E+00
  0.00000000E+00  0.00000000E+00  0.00000000E+00
  0.00000000E+00  0.00000000E+00  0.00000000E+00
  0.00000000E+00  0.00000000E+00  0.00000000E+00
  0.00000000E+00  0.00000000E+00  0.00000000E+00
  0.00000000E+00  0.00000000E+00  0.00000000E+00
  0.00000000E+00  0.00000000E+00  0.00000000E+00
  0.00000000E+00  0.00000000E+00  0.00000000E+00
  0.00000000E+00  0.00000000E+00  0.00000000E+00
  0.00000000E+00  0.00000000E+00  0.00000000E+00
  0.00000000E+00  0.00000000E+00  0.00000000E+00
  0.00000000E+00  0.00000000E+00  0.00000000E+00
  0.00000000E+00  0.00000000E+00  0.00000000E+00
  0.00000000E+00  0.00000000E+00  0.00000000E+00
  0.00000000E+00  0.00000000E+00  0.00000000E+00
  0.00000000E+00  0.00000000E+00  0.00000000E+00
  0.00000000E+00  0.00000000E+00  0.00000000E+00
  0.00000000E+00  0.00000000E+00  0.00000000E+00
  0.00000000E+00  0.00000000E+00  0.00000000E+00
  0.00000000E+00  0.00000000E+00  0.00000000E+00
  0.00000000E+00  0.00000000E+00  0.00000000E+00
  0.00000000E+00  0.00000000E+00  0.00000000E+00
  0.00000000E+00  0.00000000E+00  0.00000000E+00
  0.00000000E+00  0.00000000E+00  0.00000000E+00
  0.00000000E+00  0.00000000E+00  0.00000000E+00
  0.00000000E+00  0.00000000E+00  0.00000000E+00
  0.00000000E+00  0.00000000E+00  0.00000000E+00
  0.00000000E+00  0.00000000E+00  0.00000000E+00
  0.00000000E+00  0.00000000E+00  0.00000000E+00
  0.00000000E+00  0.00000000E+00  0.00000000E+00
  0.00000000E+00  0.00000000E+00  0.00000000E+00
  0.00000000E+00  0.00000000E+00  0.00000000E+00
  0.00000000E+00  0.00000000E+00  0.00000000E+00
  0.00000000E+00  0.00000000E+00  0.00000000E+00
  0.00000000E+00  0.00000000E+00  0.00000000E+00
  0.00000000E+00  0.00000000E+00  0.00000000E+00
  0.00000000E+00  0.00000000E+00  0.00000000E+00
  0.00000000E+00  0.00000000E+00  0.00000000E+00
  0.00000000E+00  0.00000000E+00  0.00000000E+00
  0.00000000E+00  0.00000000E+00  0.00000000E+00
  0.00000000E+00  0.00000000E+00  0.00000000E+00
  0.00000000E+00  0.00000000E+00  0.00000000E+00
  0.00000000E+00  0.00000000E+00  0.00000000E+00
  0.00000000E+00  0.00000000E+00  0.00000000E+00
  0.00000000E+00  0.00000000E+00  0.00000000E+00
  0.00000000E+00  0.00000000E+00  0.00000000E+00
