CeO2-you-111-you-Hf                     
   1.00000000000000     
     9.8467198335468229   -5.7016609576500095   -0.0064601066225050
    -0.0144229917593643   11.3783385555638059    0.0064601055161990
    -0.0073271995853966    0.0126910811685622   21.0113785254497110
   O    Hf   Ce   H 
    53     1    26     1
Selective dynamics
Direct
  0.0000007112918650 -0.0003084125033413  0.9945276990207607   T   T   T
  0.1126598009090874  0.2205000224365835  0.1474222061975417   T   T   T
  0.2358009420056297  0.1190759766047106  0.3028010137104531   T   T   T
  0.1501874893583237  0.2550936642783756  0.3730039973263322   T   T   T
  0.0033826686656163  0.0012822153006901  0.2301680876323523   T   T   T
  0.2234888082038387  0.1102176798415494  0.0736710665482284   T   T   T
  0.3354920167169788  0.0009818735731497  0.9946139657502447   T   T   T
  0.4405186326148970  0.2266182795761263  0.1521062458537583   T   T   T
  0.5584700828631560  0.1186775899827461  0.3051503376035767   T   T   T
  0.4322292122646007  0.2401652333043265  0.3991345465090437   T   T   T
  0.3355763558885860  0.9984843305696953  0.2258210880059279   T   T   T
  0.5552793018446076  0.1120949433651398  0.0774842304557679   T   T   T
  0.6660813921363018  0.0009475437085890  0.9958532725859277   T   T   T
  0.7853634963798931  0.2233651752380889  0.1510668662098831   T   T   T
  0.8885121713765632  0.1049001983408168  0.3059634181539597   T   T   T
  0.7691392195699198  0.2185123053011340  0.3884064391191312   T   T   T
  0.6668331190414496  0.0005571086450440  0.2296907378230359   T   T   T
  0.8895426582383239  0.1091855934326317  0.0749788082627558   T   T   T
  0.9977555968500675  0.3312366381128519  0.9943545004735824   T   T   T
  0.1106518810941284  0.5569053182981585  0.1458220813811013   T   T   T
  0.1057739613229852  0.5614442164459736  0.3864812062339003   T   T   T
  0.0175038239948231  0.3426097438588576  0.2328479080544250   T   T   T
  0.2220560644846989  0.4441862142583743  0.0708379774868030   T   T   T
  0.3336219096353583  0.3321729254739685  0.9933742237326267   T   T   T
  0.4454861393406531  0.5532694062022002  0.1464386046661373   T   T   T
  0.5495714691386135  0.4233622387026815  0.3025454586396318   T   T   T
  0.4218854499422062  0.5211131668952842  0.3706832704065560   T   T   T
  0.3217130608818431  0.3485512673129785  0.2397286662798242   T   T   T
  0.5564027173424849  0.4434067732484563  0.0729315420753887   T   T   T
  0.6660224037346182  0.3312866859204468  0.9943574663191064   T   T   T
  0.7769260045597960  0.5545286042326367  0.1486362217198788   T   T   T
  0.8852910519384776  0.4456487209746405  0.3028826666849598   T   T   T
  0.7728302051701152  0.5542562453572242  0.3833947998326496   T   T   T
  0.6703997920571120  0.3328162665078718  0.2258810078160928   T   T   T
  0.8880467288687076  0.4440273555380319  0.0733977863512335   T   T   T
 -0.0001493311930002  0.6669404241435009  0.9936132768943104   T   T   T
  0.1102414094346646  0.8897402434822653  0.1498782115463689   T   T   T
  0.2176415088779259  0.7780774046520783  0.3032030869709362   T   T   T
  0.0957581324731956  0.8868119099839745  0.3864818421653530   T   T   T
 -0.0006884369954061  0.6654819950366454  0.2279050162092826   T   T   T
  0.2223015728522561  0.7792544548457893  0.0737018789797451   T   T   T
  0.3340670633021134  0.6683864151129052  0.9939569209289923   T   T   T
  0.4436456496605007  0.8820864742539032  0.1509914963068121   T   T   T
  0.5630087036242448  0.7780829929842596  0.3038170015642527   T   T   T
  0.4615600059719286  0.8936142717511232  0.3900312073040813   T   T   T
  0.3250711878015919  0.6498986095883590  0.2323829286276562   T   T   T
  0.5566510232830446  0.7771597174885149  0.0742456119040266   T   T   T
  0.6668287798080880  0.6670900338385943  0.9935973352502495   T   T   T
  0.7773585921705910  0.8874732871353332  0.1516871886671888   T   T   T
  0.8859580053626384  0.7762731549848723  0.3018672368803307   T   T   T
  0.7795043866821391  0.8826381338256004  0.3850742065235774   T   T   T
  0.6626251367747058  0.6587489390847869  0.2299145029345555   T   T   T
  0.8883034470353661  0.7772139139873864  0.0740308814689852   T   T   T
  0.3383978728690387  0.3258837109433660  0.3370951459005008   T   T   T
  0.0019068460035907 -0.0014777985887832  0.3428477737992719   T   T   T
  0.2224956691374183  0.1098519845164701  0.1910888207948214   T   T   T
  0.1104528285353035  0.2195649920872269  0.0331470014676186   T   T   T
  0.3315642983379251 -0.0058276392288025  0.3476730992677824   T   T   T
  0.5563099309703999  0.1100628878718531  0.1909855563734209   T   T   T
  0.4444804765131229  0.2218119898184699  0.0344040355969030   T   T   T
  0.6679323042911078  0.9976183885734599  0.3461520446590676   T   T   T
  0.8915700308926842  0.1121489164657038  0.1919257532876152   T   T   T
  0.7783575112387747  0.2217174123799404  0.0355734438588132   T   T   T
  0.9943804675898049  0.3323110387442071  0.3522659948665973   T   T   T
  0.2213765230938702  0.4454202512949968  0.1808332640124597   T   T   T
  0.1102449896160218  0.5567826702796240  0.0322212275479600   T   T   T
  0.5560207260800621  0.4433040299076289  0.1893852345290429   T   T   T
  0.4465400059459257  0.5561202812098033  0.0324698436082043   T   T   T
  0.6751716773206280  0.3351459176240799  0.3417847859649805   T   T   T
  0.8915467401761712  0.4448057503536337  0.1892884500932527   T   T   T
  0.7772128151684601  0.5544177354517957  0.0340553813766664   T   T   T
  0.0001838429792005  0.6670808583605438  0.3441086137239684   T   T   T
  0.2223467572588663  0.7767517322431506  0.1911377026976836   T   T   T
  0.1121493760796673  0.8893590318539681  0.0349756253508542   T   T   T
  0.3364896881173716  0.6732102590848800  0.3514646073766251   T   T   T
  0.5539851679023776  0.7747689982628496  0.1913603908398343   T   T   T
  0.4444627849626478  0.8885013372119858  0.0357130322479869   T   T   T
  0.6640567974874322  0.6612387255632196  0.3421707421026566   T   T   T
  0.8888087015124514  0.7761083439352330  0.1887653018083287   T   T   T
  0.7775133381752447  0.8887369634178853  0.0356829692853662   T   T   T
  0.4282346550915012  0.2500117458450094  0.4449189115125322   T   T   T
 
  0.00000000E+00  0.00000000E+00  0.00000000E+00
  0.00000000E+00  0.00000000E+00  0.00000000E+00
  0.00000000E+00  0.00000000E+00  0.00000000E+00
  0.00000000E+00  0.00000000E+00  0.00000000E+00
  0.00000000E+00  0.00000000E+00  0.00000000E+00
  0.00000000E+00  0.00000000E+00  0.00000000E+00
  0.00000000E+00  0.00000000E+00  0.00000000E+00
  0.00000000E+00  0.00000000E+00  0.00000000E+00
  0.00000000E+00  0.00000000E+00  0.00000000E+00
  0.00000000E+00  0.00000000E+00  0.00000000E+00
  0.00000000E+00  0.00000000E+00  0.00000000E+00
  0.00000000E+00  0.00000000E+00  0.00000000E+00
  0.00000000E+00  0.00000000E+00  0.00000000E+00
  0.00000000E+00  0.00000000E+00  0.00000000E+00
  0.00000000E+00  0.00000000E+00  0.00000000E+00
  0.00000000E+00  0.00000000E+00  0.00000000E+00
  0.00000000E+00  0.00000000E+00  0.00000000E+00
  0.00000000E+00  0.00000000E+00  0.00000000E+00
  0.00000000E+00  0.00000000E+00  0.00000000E+00
  0.00000000E+00  0.00000000E+00  0.00000000E+00
  0.00000000E+00  0.00000000E+00  0.00000000E+00
  0.00000000E+00  0.00000000E+00  0.00000000E+00
  0.00000000E+00  0.00000000E+00  0.00000000E+00
  0.00000000E+00  0.00000000E+00  0.00000000E+00
  0.00000000E+00  0.00000000E+00  0.00000000E+00
  0.00000000E+00  0.00000000E+00  0.00000000E+00
  0.00000000E+00  0.00000000E+00  0.00000000E+00
  0.00000000E+00  0.00000000E+00  0.00000000E+00
  0.00000000E+00  0.00000000E+00  0.00000000E+00
  0.00000000E+00  0.00000000E+00  0.00000000E+00
  0.00000000E+00  0.00000000E+00  0.00000000E+00
  0.00000000E+00  0.00000000E+00  0.00000000E+00
  0.00000000E+00  0.00000000E+00  0.00000000E+00
  0.00000000E+00  0.00000000E+00  0.00000000E+00
  0.00000000E+00  0.00000000E+00  0.00000000E+00
  0.00000000E+00  0.00000000E+00  0.00000000E+00
  0.00000000E+00  0.00000000E+00  0.00000000E+00
  0.00000000E+00  0.00000000E+00  0.00000000E+00
  0.00000000E+00  0.00000000E+00  0.00000000E+00
  0.00000000E+00  0.00000000E+00  0.00000000E+00
  0.00000000E+00  0.00000000E+00  0.00000000E+00
  0.00000000E+00  0.00000000E+00  0.00000000E+00
  0.00000000E+00  0.00000000E+00  0.00000000E+00
  0.00000000E+00  0.00000000E+00  0.00000000E+00
  0.00000000E+00  0.00000000E+00  0.00000000E+00
  0.00000000E+00  0.00000000E+00  0.00000000E+00
  0.00000000E+00  0.00000000E+00  0.00000000E+00
  0.00000000E+00  0.00000000E+00  0.00000000E+00
  0.00000000E+00  0.00000000E+00  0.00000000E+00
  0.00000000E+00  0.00000000E+00  0.00000000E+00
  0.00000000E+00  0.00000000E+00  0.00000000E+00
  0.00000000E+00  0.00000000E+00  0.00000000E+00
  0.00000000E+00  0.00000000E+00  0.00000000E+00
  0.00000000E+00  0.00000000E+00  0.00000000E+00
  0.00000000E+00  0.00000000E+00  0.00000000E+00
  0.00000000E+00  0.00000000E+00  0.00000000E+00
  0.00000000E+00  0.00000000E+00  0.00000000E+00
  0.00000000E+00  0.00000000E+00  0.00000000E+00
  0.00000000E+00  0.00000000E+00  0.00000000E+00
  0.00000000E+00  0.00000000E+00  0.00000000E+00
  0.00000000E+00  0.00000000E+00  0.00000000E+00
  0.00000000E+00  0.00000000E+00  0.00000000E+00
  0.00000000E+00  0.00000000E+00  0.00000000E+00
  0.00000000E+00  0.00000000E+00  0.00000000E+00
  0.00000000E+00  0.00000000E+00  0.00000000E+00
  0.00000000E+00  0.00000000E+00  0.00000000E+00
  0.00000000E+00  0.00000000E+00  0.00000000E+00
  0.00000000E+00  0.00000000E+00  0.00000000E+00
  0.00000000E+00  0.00000000E+00  0.00000000E+00
  0.00000000E+00  0.00000000E+00  0.00000000E+00
  0.00000000E+00  0.00000000E+00  0.00000000E+00
  0.00000000E+00  0.00000000E+00  0.00000000E+00
  0.00000000E+00  0.00000000E+00  0.00000000E+00
  0.00000000E+00  0.00000000E+00  0.00000000E+00
  0.00000000E+00  0.00000000E+00  0.00000000E+00
  0.00000000E+00  0.00000000E+00  0.00000000E+00
  0.00000000E+00  0.00000000E+00  0.00000000E+00
  0.00000000E+00  0.00000000E+00  0.00000000E+00
  0.00000000E+00  0.00000000E+00  0.00000000E+00
  0.00000000E+00  0.00000000E+00  0.00000000E+00
  0.00000000E+00  0.00000000E+00  0.00000000E+00
