CeO2-you-111-you-Mn                     
   1.00000000000000     
     9.8256311561024159   -5.6778512385821314   -0.0050415227148453
    -0.0043475087942311   11.3481703732133994    0.0050415218632384
    -0.0052628182939600    0.0091154682380279   21.0551596522680882
   O    Mn   Ce H
    53     1    26 1
Selective dynamics
Direct
 -0.0004303455122377 -0.0004396531885886  0.9950627824731707   T   T   T
  0.1083471375423939  0.2199371675660932  0.1470809252274838   T   T   T
  0.2239628262202908  0.1106880886579936  0.3030348791712226   T   T   T
  0.1292075476286739  0.2490757162628223  0.3684356947091535   T   T   T
 -0.0001911935401593  0.0011178280039744  0.2298729316780958   T   T   T
  0.2214278015027331  0.1103868769228576  0.0750574789733840   T   T   T
  0.3345633397597520  0.0009520549734614  0.9963883169658346   T   T   T
  0.4428353160791005  0.2238306839197462  0.1512433517771704   T   T   T
  0.5567642469712903  0.1099027530279567  0.3050465775044304   T   T   T
  0.4453782051222742  0.2212877948781431  0.3831257651370930   T   T   T
  0.3352270158328354  0.0006142430611558  0.2292702398991841   T   T   T
  0.5563888321493305  0.1102781678507802  0.0778300858373959   T   T   T
  0.6659450396905929  0.0007219603099552  0.9955164408723277   T   T   T
  0.7844314965501873  0.2255888990242878  0.1522158728095475   T   T   T
  0.8851038137974576  0.1083541479449892  0.3044962028419578   T   T   T
  0.7773283743128420  0.2193270339345567  0.3875359257920163   T   T   T
  0.6669443952360262 -0.0002773952355882  0.2288781522458101   T   T   T
  0.8873651404706305  0.1100844076157219  0.0746755629034039   T   T   T
 -0.0017714160673675  0.3328458542343820  0.9950037506644883   T   T   T
  0.1107282840482916  0.5559387159505736  0.1481358822484739   T   T   T
  0.1169164247562086  0.5497505752472983  0.3779887065451652   T   T   T
  0.0174580099485221  0.3425668636188738  0.2353415288614118   T   T   T
  0.2224024155245458  0.4442635844765569  0.0723960722929970   T   T   T
  0.3340247730868318  0.3326412269126075  0.9949562669094435   T   T   T
  0.4467288324372015  0.5583198624586334  0.1470809252273361   T   T   T
  0.5559789113427046  0.4427031737797003  0.3030348791712868   T   T   T
  0.4175902837342337  0.5374594523714229  0.3684356947090479   T   T   T
  0.3260083654453072  0.3406576345533328  0.2305083625560046   T   T   T
  0.5562801230768829  0.4452381984968165  0.0750574789734361   T   T   T
  0.6657149450262090  0.3321026602400535  0.9963883169657732   T   T   T
  0.7782966299577049  0.5552058240912576  0.1514048315238152   T   T   T
  0.8846803926863561  0.4430696252936458  0.3051478925040405   T   T   T
  0.7768466739703074  0.5578196718935381  0.3840511356773367   T   T   T
  0.6660527569366470  0.3314389841663513  0.2292702398992313   T   T   T
  0.8883589464922503  0.4447343747865755  0.0753701446074326   T   T   T
 -0.0005205843349200  0.6671875843341688  0.9954203619714402   T   T   T
  0.1114611759075403  0.8883703700404234  0.1514048315238246   T   T   T
  0.2235963747044971  0.7819866073100292  0.3051478925039572   T   T   T
  0.1088473281057835  0.8898203260276347  0.3840511356772753   T   T   T
  0.0010246762340162  0.6656423237642567  0.2304950490966055   T   T   T
  0.2219316252130041  0.7783080535074295  0.0753701446072960   T   T   T
  0.3338201457661162  0.6684384160681570  0.9950037506644182   T   T   T
  0.4410771009765285  0.8822355034494934  0.1522158728097651   T   T   T
  0.5583128520575595  0.7815631862028387  0.3044962028417771   T   T   T
  0.4473389660654520  0.8893386256859873  0.3875359257915437   T   T   T
  0.3240991363819514  0.6492089900568890  0.2353415288612056   T   T   T
  0.5565825923851322  0.7793018595302661  0.0746755629033294   T   T   T
  0.6671066531886473  0.6670973455119242  0.9950627824731644   T   T   T
  0.7776237545989686  0.8890432454013938  0.1505830882907184   T   T   T
  0.8890187241941501  0.7776482758047246  0.3034076023245135   T   T   T
  0.7788989963022882  0.8877680036978851  0.3838423231684175   T   T   T
  0.6655491719961766  0.6668581935408318  0.2298729316780324   T   T   T
  0.8887824205851418  0.7778845794143285  0.0757635649573918   T   T   T
  0.3400055602014283  0.3266604398022548  0.3409184795444823   T   T   T
  0.0048790615453358  0.0043761978380707  0.3422269011954427   T   T   T
  0.2231480374613156  0.1134529163222261  0.1918236940338215   T   T   T
  0.1100277293559290  0.2202051435007554  0.0336634286934387   T   T   T
  0.3345048109186141  0.0058970185900937  0.3451818308621509   T   T   T
  0.5558993616947513  0.1107676383076287  0.1913033583475066   T   T   T
  0.4442333505786921  0.2224326494212534  0.0365219793653424   T   T   T
  0.6674340428830066 -0.0007670428812402  0.3463054276194899   T   T   T
  0.8896347272138152  0.1113306113722282  0.1905774287057966   T   T   T
  0.7778876257188364  0.2223009693256101  0.0359787186694413   T   T   T
 -0.0087281680112818  0.3270824028505451  0.3470476644636283   T   T   T
  0.2235252667727874  0.4431407332214963  0.1822753888284429   T   T   T
  0.1100274792788006  0.5566395207205888  0.0342238268452434   T   T   T
  0.5532140836761567  0.4435179625376675  0.1918236940337595   T   T   T
  0.4464608564989768  0.5566392706436301  0.0336634286934931   T   T   T
  0.6607699814125478  0.3321611890829663  0.3451818308618283   T   T   T
  0.8897434635469804  0.4447342920204381  0.1914236578629284   T   T   T
  0.7773077143788655  0.5549826270936126  0.0363893117722980   T   T   T
 -0.0011464849021751  0.6678134849091977  0.3434380222805950   T   T   T
  0.2219317079826121  0.7769235364600811  0.1914236578629457   T   T   T
  0.1116843729073705  0.8893592856218869  0.0363893117722706   T   T   T
  0.3395835971475979  0.6753951680067372  0.3470476644644920   T   T   T
  0.5553363886226788  0.7770322727852291  0.1905774287058191   T   T   T
  0.4443650306736768  0.8887793742811905  0.0359787186694681   T   T   T
  0.6622908021581412  0.6617879384533727  0.3422269011950630   T   T   T
  0.8889606056476355  0.7777063943543763  0.1897579099167035   T   T   T
  0.7773515420920168  0.8893154579075064  0.0355244864341390   T   T   T
0.446598 0.216020 0.433410 T T T 
 
  0.00000000E+00  0.00000000E+00  0.00000000E+00
  0.00000000E+00  0.00000000E+00  0.00000000E+00
  0.00000000E+00  0.00000000E+00  0.00000000E+00
  0.00000000E+00  0.00000000E+00  0.00000000E+00
  0.00000000E+00  0.00000000E+00  0.00000000E+00
  0.00000000E+00  0.00000000E+00  0.00000000E+00
  0.00000000E+00  0.00000000E+00  0.00000000E+00
  0.00000000E+00  0.00000000E+00  0.00000000E+00
  0.00000000E+00  0.00000000E+00  0.00000000E+00
  0.00000000E+00  0.00000000E+00  0.00000000E+00
  0.00000000E+00  0.00000000E+00  0.00000000E+00
  0.00000000E+00  0.00000000E+00  0.00000000E+00
  0.00000000E+00  0.00000000E+00  0.00000000E+00
  0.00000000E+00  0.00000000E+00  0.00000000E+00
  0.00000000E+00  0.00000000E+00  0.00000000E+00
  0.00000000E+00  0.00000000E+00  0.00000000E+00
  0.00000000E+00  0.00000000E+00  0.00000000E+00
  0.00000000E+00  0.00000000E+00  0.00000000E+00
  0.00000000E+00  0.00000000E+00  0.00000000E+00
  0.00000000E+00  0.00000000E+00  0.00000000E+00
  0.00000000E+00  0.00000000E+00  0.00000000E+00
  0.00000000E+00  0.00000000E+00  0.00000000E+00
  0.00000000E+00  0.00000000E+00  0.00000000E+00
  0.00000000E+00  0.00000000E+00  0.00000000E+00
  0.00000000E+00  0.00000000E+00  0.00000000E+00
  0.00000000E+00  0.00000000E+00  0.00000000E+00
  0.00000000E+00  0.00000000E+00  0.00000000E+00
  0.00000000E+00  0.00000000E+00  0.00000000E+00
  0.00000000E+00  0.00000000E+00  0.00000000E+00
  0.00000000E+00  0.00000000E+00  0.00000000E+00
  0.00000000E+00  0.00000000E+00  0.00000000E+00
  0.00000000E+00  0.00000000E+00  0.00000000E+00
  0.00000000E+00  0.00000000E+00  0.00000000E+00
  0.00000000E+00  0.00000000E+00  0.00000000E+00
  0.00000000E+00  0.00000000E+00  0.00000000E+00
  0.00000000E+00  0.00000000E+00  0.00000000E+00
  0.00000000E+00  0.00000000E+00  0.00000000E+00
  0.00000000E+00  0.00000000E+00  0.00000000E+00
  0.00000000E+00  0.00000000E+00  0.00000000E+00
  0.00000000E+00  0.00000000E+00  0.00000000E+00
  0.00000000E+00  0.00000000E+00  0.00000000E+00
  0.00000000E+00  0.00000000E+00  0.00000000E+00
  0.00000000E+00  0.00000000E+00  0.00000000E+00
  0.00000000E+00  0.00000000E+00  0.00000000E+00
  0.00000000E+00  0.00000000E+00  0.00000000E+00
  0.00000000E+00  0.00000000E+00  0.00000000E+00
  0.00000000E+00  0.00000000E+00  0.00000000E+00
  0.00000000E+00  0.00000000E+00  0.00000000E+00
  0.00000000E+00  0.00000000E+00  0.00000000E+00
  0.00000000E+00  0.00000000E+00  0.00000000E+00
  0.00000000E+00  0.00000000E+00  0.00000000E+00
  0.00000000E+00  0.00000000E+00  0.00000000E+00
  0.00000000E+00  0.00000000E+00  0.00000000E+00
  0.00000000E+00  0.00000000E+00  0.00000000E+00
  0.00000000E+00  0.00000000E+00  0.00000000E+00
  0.00000000E+00  0.00000000E+00  0.00000000E+00
  0.00000000E+00  0.00000000E+00  0.00000000E+00
  0.00000000E+00  0.00000000E+00  0.00000000E+00
  0.00000000E+00  0.00000000E+00  0.00000000E+00
  0.00000000E+00  0.00000000E+00  0.00000000E+00
  0.00000000E+00  0.00000000E+00  0.00000000E+00
  0.00000000E+00  0.00000000E+00  0.00000000E+00
  0.00000000E+00  0.00000000E+00  0.00000000E+00
  0.00000000E+00  0.00000000E+00  0.00000000E+00
  0.00000000E+00  0.00000000E+00  0.00000000E+00
  0.00000000E+00  0.00000000E+00  0.00000000E+00
  0.00000000E+00  0.00000000E+00  0.00000000E+00
  0.00000000E+00  0.00000000E+00  0.00000000E+00
  0.00000000E+00  0.00000000E+00  0.00000000E+00
  0.00000000E+00  0.00000000E+00  0.00000000E+00
  0.00000000E+00  0.00000000E+00  0.00000000E+00
  0.00000000E+00  0.00000000E+00  0.00000000E+00
  0.00000000E+00  0.00000000E+00  0.00000000E+00
  0.00000000E+00  0.00000000E+00  0.00000000E+00
  0.00000000E+00  0.00000000E+00  0.00000000E+00
  0.00000000E+00  0.00000000E+00  0.00000000E+00
  0.00000000E+00  0.00000000E+00  0.00000000E+00
  0.00000000E+00  0.00000000E+00  0.00000000E+00
  0.00000000E+00  0.00000000E+00  0.00000000E+00
  0.00000000E+00  0.00000000E+00  0.00000000E+00
