CeO2-you-111-you-Pt                     
   1.00000000000000     
     9.7957258110299890   -5.6555653059089943    0.0000000000000000
     0.0000000058123272   11.3111286313665111    0.0000000000000000
     0.0000000000000000    0.0000000000000000   21.3668917145341055
   O    Pt   Ce   H 
    54     1    26     1
Selective dynamics
Direct
  0.0004158941909261  0.0001516599356858  0.9968005245219205   T   T   T
  0.1019373568406010  0.2176351784201316  0.1483567725575625   F   F   F
  0.2351049201588723  0.1441112000570676  0.3059277177860421   T   T   T
  0.1300518558265521  0.2376932254048337  0.3857634368412425   T   T   T
  0.0037631560071817  0.0002227819092894  0.2313485852791178   T   T   T
  0.2225936169158871  0.1118542338314796  0.0759165148599692   F   F   F
  0.3333824533830276  0.0001446426673414  0.9967247088609477   T   T   T
  0.4490308215795267  0.2176351784199824  0.1483567725575625   F   F   F
  0.5595115523594741  0.1200952694982262  0.3071554168115166   T   T   T
  0.4271908674302917  0.2457212238858284  0.3973452204249541   T   T   T
  0.3305786331701709  0.0005902637455498  0.2301507141826600   T   T   T
  0.5573887411788476  0.1092782588205665  0.0758137154428482   F   F   F
  0.6668542298394714  0.0000837453332873  0.9954585915520321   T   T   T
  0.7778962515821206  0.2224585031643542  0.1520627684188014   F   F   F
  0.8933245962461039  0.1122232789831506  0.3058408529032162   T   T   T
  0.7815902939690768  0.2250847847161035  0.3838931353547792   T   T   T
  0.6663154087284371  0.0003142075225441  0.2324182651613086   T   T   T
  0.8852235176419043  0.1092782588207513  0.0758137154428482   F   F   F
  0.0000950837421958  0.3334177041704831  0.9967205411377136   T   T   T
  0.1103394858099591  0.5563275141910964  0.1500531118524009   F   F   F
  0.2382474997184439  0.4290567641173603  0.3023093771520140   T   T   T
  0.1146972978486404  0.5501993942441673  0.3807002653536127   T   T   T
  0.0041123022391087  0.3360251088747197  0.2314403702557327   T   T   T
  0.2225936169165195  0.4440723830843964  0.0759165148599692   F   F   F
  0.3332280967438311  0.3331028655440451  0.9964532118766708   T   T   T
  0.4490308215798677  0.5647296431598861  0.1483567725575625   F   F   F
  0.5246522240686149  0.4252685633454021  0.3054283327507091   T   T   T
  0.4337954349389084  0.5384466924814911  0.3845378722631786   T   T   T
  0.3336791822247553  0.3332582080269783  0.2104643719565463   T   T   T
  0.5548127661676006  0.4440723830841122  0.0759165148599692   F   F   F
  0.6667737220972400  0.3336629162168532  0.9969455356123292   T   T   T
  0.7793210283808136  0.5563275141907766  0.1500531118524009   F   F   F
  0.8904201864855532  0.4440606393143152  0.3038992683386103   T   T   T
  0.7718091984286033  0.5497060535610588  0.3799757671863246   T   T   T
  0.6679134843901497  0.3382592764269193  0.2311422102251225   T   T   T
  0.8883470652184045  0.4433601304369290  0.0764626846930199   F   F   F
  0.0000212022503997  0.6666934599951343  0.9973108062282871   T   T   T
  0.1103394858092273  0.8873459716181316  0.1500531118524009   F   F   F
  0.2192185512539072  0.7718386422330134  0.3046025489712000   T   T   T
  0.0989760693213367  0.8855782322879416  0.3825742134361849   T   T   T
 -0.0005164264379033  0.6665694612531640  0.2299832183177654   T   T   T
  0.2233058695634824  0.7783199347815923  0.0764626846930199   F   F   F
  0.3332214801016224  0.6664768157442785  0.9969415742617653   T   T   T
  0.4442074968360217  0.8887707484178762  0.1520627684188014   F   F   F
  0.5554705647505157  0.7717633056339797  0.3038888814432526   T   T   T
  0.4521997183518159  0.8811835849178333  0.3840169465476250   T   T   T
  0.3306232343629965  0.6627267451814448  0.2310714667297447   T   T   T
  0.5573887411792526  0.7814434823586822  0.0758137154428482   F   F   F
  0.6667471259090560  0.6666830006880996  0.9967246597921962   T   T   T
  0.7778962515818577  0.8887707484177625  0.1520627684188014   F   F   F
  0.8863442821953311  0.7756127095450992  0.3035087026320034   T   T   T
  0.7764847876927693  0.8863979734393101  0.3825559687134650   T   T   T
  0.6650384242521178  0.6605330528169568  0.2310799368048057   T   T   T
  0.8883470652181131  0.7783199347814644  0.0764626846930199   F   F   F
  0.3293728837591711  0.3376800880020708  0.3478164222436398   T   T   T
  0.0037107377437837  0.0027303938377955  0.3429818084795681   T   T   T
  0.2234517134530449  0.1135704269071240  0.1880725378605632   F   F   F
  0.1102539174506276  0.2217934587257417  0.0360896119376264   F   F   F
  0.3295304888404432 -0.0025551395422216  0.3445771256280772   T   T   T
  0.5554988949934696  0.1111681050086020  0.1905681586156831   F   F   F
  0.4448725412751102  0.2217934587261183  0.0360896119376264   F   F   F
  0.6669800952495799 -0.0017627560816827  0.3452591497541462   T   T   T
  0.8890032100144936  0.1111681050079625  0.1905681586156831   F   F   F
  0.7774565715996289  0.2215791431990723  0.0364459141710469   F   F   F
  0.0061544226216174  0.3326683697570038  0.3437164965548741   T   T   T
  0.2234517134507144  0.4432142865459170  0.1880725378605632   F   F   F
  0.1109277471074819  0.5557392528908878  0.0371125803079906   F   F   F
  0.5530965730962478  0.4432142865469544  0.1880725378605632   F   F   F
  0.4448725412742576  0.5564130825481470  0.0360896119376264   F   F   F
  0.6728120987152230  0.3356033061604297  0.3410225527514190   T   T   T
  0.8888480025448615  0.4443620050893458  0.1904019928553282   F   F   F
  0.7781445057839065  0.5557392528913923  0.0371125803079906   F   F   F
  0.0004454267237095  0.6672791987660860  0.3414082571737664   T   T   T
  0.2223039949094456  0.7778189974551353  0.1904019928553282   F   F   F
  0.1109277471086116  0.8885224942177317  0.0371125803079906   F   F   F
  0.3350885258708872  0.6623750852949928  0.3431418878824105   T   T   T
  0.5554988949920414  0.7776637899834355  0.1905681586156831   F   F   F
  0.4450868568003230  0.8892104284003679  0.0364459141710469   F   F   F
  0.6612463002710083  0.6605784634600759  0.3421457162875076   T   T   T
  0.8888480025456929  0.7778189974555119  0.1904019928553282   F   F   F
  0.7774565716000410  0.8892104284005526  0.0364459141710469   F   F   F
  0.4195566889950833  0.2617762225796746  0.4415673556167276   T   T   T
 
  0.00000000E+00  0.00000000E+00  0.00000000E+00
  0.00000000E+00  0.00000000E+00  0.00000000E+00
  0.00000000E+00  0.00000000E+00  0.00000000E+00
  0.00000000E+00  0.00000000E+00  0.00000000E+00
  0.00000000E+00  0.00000000E+00  0.00000000E+00
  0.00000000E+00  0.00000000E+00  0.00000000E+00
  0.00000000E+00  0.00000000E+00  0.00000000E+00
  0.00000000E+00  0.00000000E+00  0.00000000E+00
  0.00000000E+00  0.00000000E+00  0.00000000E+00
  0.00000000E+00  0.00000000E+00  0.00000000E+00
  0.00000000E+00  0.00000000E+00  0.00000000E+00
  0.00000000E+00  0.00000000E+00  0.00000000E+00
  0.00000000E+00  0.00000000E+00  0.00000000E+00
  0.00000000E+00  0.00000000E+00  0.00000000E+00
  0.00000000E+00  0.00000000E+00  0.00000000E+00
  0.00000000E+00  0.00000000E+00  0.00000000E+00
  0.00000000E+00  0.00000000E+00  0.00000000E+00
  0.00000000E+00  0.00000000E+00  0.00000000E+00
  0.00000000E+00  0.00000000E+00  0.00000000E+00
  0.00000000E+00  0.00000000E+00  0.00000000E+00
  0.00000000E+00  0.00000000E+00  0.00000000E+00
  0.00000000E+00  0.00000000E+00  0.00000000E+00
  0.00000000E+00  0.00000000E+00  0.00000000E+00
  0.00000000E+00  0.00000000E+00  0.00000000E+00
  0.00000000E+00  0.00000000E+00  0.00000000E+00
  0.00000000E+00  0.00000000E+00  0.00000000E+00
  0.00000000E+00  0.00000000E+00  0.00000000E+00
  0.00000000E+00  0.00000000E+00  0.00000000E+00
  0.00000000E+00  0.00000000E+00  0.00000000E+00
  0.00000000E+00  0.00000000E+00  0.00000000E+00
  0.00000000E+00  0.00000000E+00  0.00000000E+00
  0.00000000E+00  0.00000000E+00  0.00000000E+00
  0.00000000E+00  0.00000000E+00  0.00000000E+00
  0.00000000E+00  0.00000000E+00  0.00000000E+00
  0.00000000E+00  0.00000000E+00  0.00000000E+00
  0.00000000E+00  0.00000000E+00  0.00000000E+00
  0.00000000E+00  0.00000000E+00  0.00000000E+00
  0.00000000E+00  0.00000000E+00  0.00000000E+00
  0.00000000E+00  0.00000000E+00  0.00000000E+00
  0.00000000E+00  0.00000000E+00  0.00000000E+00
  0.00000000E+00  0.00000000E+00  0.00000000E+00
  0.00000000E+00  0.00000000E+00  0.00000000E+00
  0.00000000E+00  0.00000000E+00  0.00000000E+00
  0.00000000E+00  0.00000000E+00  0.00000000E+00
  0.00000000E+00  0.00000000E+00  0.00000000E+00
  0.00000000E+00  0.00000000E+00  0.00000000E+00
  0.00000000E+00  0.00000000E+00  0.00000000E+00
  0.00000000E+00  0.00000000E+00  0.00000000E+00
  0.00000000E+00  0.00000000E+00  0.00000000E+00
  0.00000000E+00  0.00000000E+00  0.00000000E+00
  0.00000000E+00  0.00000000E+00  0.00000000E+00
  0.00000000E+00  0.00000000E+00  0.00000000E+00
  0.00000000E+00  0.00000000E+00  0.00000000E+00
  0.00000000E+00  0.00000000E+00  0.00000000E+00
  0.00000000E+00  0.00000000E+00  0.00000000E+00
  0.00000000E+00  0.00000000E+00  0.00000000E+00
  0.00000000E+00  0.00000000E+00  0.00000000E+00
  0.00000000E+00  0.00000000E+00  0.00000000E+00
  0.00000000E+00  0.00000000E+00  0.00000000E+00
  0.00000000E+00  0.00000000E+00  0.00000000E+00
  0.00000000E+00  0.00000000E+00  0.00000000E+00
  0.00000000E+00  0.00000000E+00  0.00000000E+00
  0.00000000E+00  0.00000000E+00  0.00000000E+00
  0.00000000E+00  0.00000000E+00  0.00000000E+00
  0.00000000E+00  0.00000000E+00  0.00000000E+00
  0.00000000E+00  0.00000000E+00  0.00000000E+00
  0.00000000E+00  0.00000000E+00  0.00000000E+00
  0.00000000E+00  0.00000000E+00  0.00000000E+00
  0.00000000E+00  0.00000000E+00  0.00000000E+00
  0.00000000E+00  0.00000000E+00  0.00000000E+00
  0.00000000E+00  0.00000000E+00  0.00000000E+00
  0.00000000E+00  0.00000000E+00  0.00000000E+00
  0.00000000E+00  0.00000000E+00  0.00000000E+00
  0.00000000E+00  0.00000000E+00  0.00000000E+00
  0.00000000E+00  0.00000000E+00  0.00000000E+00
  0.00000000E+00  0.00000000E+00  0.00000000E+00
  0.00000000E+00  0.00000000E+00  0.00000000E+00
  0.00000000E+00  0.00000000E+00  0.00000000E+00
  0.00000000E+00  0.00000000E+00  0.00000000E+00
  0.00000000E+00  0.00000000E+00  0.00000000E+00
  0.00000000E+00  0.00000000E+00  0.00000000E+00
  0.00000000E+00  0.00000000E+00  0.00000000E+00
