CeO2-you-111-you-Tc                     
   1.00000000000000     
     9.7921491718874432   -5.6535003323472051    0.0000000000000000
     0.0000000060946662   11.3069986854587405    0.0000000000000000
     0.0000000000000000    0.0000000000000000   21.3331055837868071
   O    Tc   Ce   H 
    54     1    26     1
Selective dynamics
Direct
 -0.0001285467968560 -0.0001940107385550  0.9965037298065796   T   T   T
  0.1040433039559900  0.2186881519777160  0.1489273638718558   F   F   F
  0.2444967090860532  0.1534343502592959  0.3058049974192263   T   T   T
  0.1518010217977848  0.2488166342164550  0.3910206867255576   T   T   T
  0.0050227416708440  0.0008321272332918  0.2315378707051462   T   T   T
  0.2225250260476699  0.1117170520952655  0.0757676870439710   F   F   F
  0.3331845016220350 -0.0000428348896906  0.9964397984772859   T   T   T
  0.4479778480217220  0.2186881519774673  0.1489273638718558   F   F   F
  0.5586347637766915  0.1089792167515569  0.3060414305582930   T   T   T
  0.4226746397867771  0.2451387895905635  0.4041065883595926   T   T   T
  0.3300242379812121 -0.0004265448771175  0.2297252804915967   T   T   T
  0.5569929517233163  0.1096740482764531  0.0757578917995829   F   F   F
  0.6667417819070147  0.0000066391725374  0.9955251426272756   T   T   T
  0.7773646495576827  0.2213952991154216  0.1513799380619929   F   F   F
  0.9013088716004407  0.1153438124980153  0.3066204680904845   T   T   T
  0.7892472716181186  0.2175134007794104  0.3856295312665727   T   T   T
  0.6697838660807964 -0.0019093448818115  0.2323783527357195   T   T   T
  0.8860150965532085  0.1096740482765242  0.0757578917995829   F   F   F
  0.0001490578753658  0.3332560753120623  0.9964851394959623   T   T   T
  0.1106177247538866  0.5560492752466075  0.1500242320402663   F   F   F
  0.2360258293116300  0.4323230329244535  0.3039631212788168   T   T   T
  0.1154010245488788  0.5527892102417425  0.3830304958843738   T   T   T
  0.0024653095588957  0.3355756292753352  0.2315099713196100   T   T   T
  0.2225250260478404  0.4441409739524005  0.0757676870439710   F   F   F
  0.3332611827140344  0.3332132665336795  0.9961555015240133   T   T   T
  0.4479778480222834  0.5626236960448239  0.1489273638718558   F   F   F
  0.5141775589591436  0.4224315314813793  0.3055838503556212   T   T   T
  0.4199287619051358  0.5153616631021439  0.3912306494776476   T   T   T
  0.3324193011924956  0.3342009547455421  0.2115051125641502   T   T   T
  0.5549499479044968  0.4441409739523294  0.0757676870439710   F   F   F
  0.6673242395812338  0.3336844920808067  0.9967423375827370   T   T   T
  0.7787645504925678  0.5560492752464583  0.1500242320402663   F   F   F
  0.8943174483837510  0.4477436334673655  0.3053207616173383   T   T   T
  0.7780938604823833  0.5674297802403526  0.3823466861499606   T   T   T
  0.6675734487980860  0.3366283060672196  0.2297470448228343   T   T   T
  0.8884966665148042  0.4436593330296219  0.0762719629585575   F   F   F
  0.0000544068534327  0.6667127833532310  0.9967861826326877   T   T   T
  0.1106177247535456  0.8879024495069388  0.1500242320402663   F   F   F
  0.2191896744013737  0.7728836081942457  0.3049620132061046   T   T   T
  0.1003483057228478  0.8893218131100816  0.3825514136449191   T   T   T
 -0.0006448609044434  0.6670402162386113  0.2297202611893381   T   T   T
  0.2230066669704343  0.7781703334851926  0.0762719629585575   F   F   F
  0.3332502997933518  0.6666574786007535  0.9968192843026185   T   T   T
  0.4452707008847270  0.8893023504423141  0.1513799380619929   F   F   F
  0.5519522114884710  0.7662366972240663  0.3065520737043823   T   T   T
  0.4488031600357992  0.8781544999290656  0.3855034147194074   T   T   T
  0.3315340325305320  0.6646829596020202  0.2314008514238787   T   T   T
  0.5569929517234797  0.7806519034470156  0.0757578917995829   F   F   F
  0.6667561678724654  0.6669337366253388  0.9964784218320482   T   T   T
  0.7773646495575832  0.8893023504422644  0.1513799380619929   F   F   F
  0.8889827722401380  0.7792618225696082  0.3022666421723752   T   T   T
  0.7806307446588800  0.8865522740843402  0.3815959411161934   T   T   T
  0.6661938935727287  0.6619539686380461  0.2315679277294300   T   T   T
  0.8884966665147616  0.7781703334851784  0.0762719629585575   F   F   F
  0.3243112750163050  0.3433288060915912  0.3526004356482456   T   T   T
  0.0052746370454946  0.0013293323442561  0.3418715460001963   T   T   T
  0.2232887070057856  0.1132444140119588  0.1887745812469817   F   F   F
  0.1103930550129277  0.2218630275066147  0.0361142240494843   F   F   F
  0.3330494183018858  0.0018286245129162  0.3448546214236931   T   T   T
  0.5555506294775014  0.1111163705234333  0.1904083672792964   F   F   F
  0.4448029724936831  0.2218630275067497  0.0361142240494843   F   F   F
  0.6685560297724470 -0.0010272722336660  0.3453108026139333   T   T   T
  0.8888997410456483  0.1111163705231490  0.1904083672792964   F   F   F
  0.7774652412360297  0.2215964824720089  0.0363888809190129   F   F   F
  0.0009450508670426  0.3359977731879878  0.3433434184498008   T   T   T
  0.2232887070049117  0.4433772929938229  0.1887745812469817   F   F   F
  0.1110151462296756  0.5556518537697883  0.0367819731690560   F   F   F
  0.5534225859893098  0.4433772929942137  0.1887745812469817   F   F   F
  0.4448029724933846  0.5562739449866427  0.0361142240494843   F   F   F
  0.6655057089890000  0.3343268036244120  0.3447469294491837   T   T   T
  0.8889131612330630  0.4444923224660116  0.1900970229869259   F   F   F
  0.7779697075402794  0.5556518537699588  0.0367819731690560   F   F   F
 -0.0006372332244071  0.6681222951401291  0.3420292933687574   T   T   T
  0.2221736775336112  0.7777538387669338  0.1900970229869259   F   F   F
  0.1110151462300450  0.8886972924602574  0.0367819731690560   F   F   F
  0.3313626465010220  0.6666962032745782  0.3433200906651391   T   T   T
  0.5555506294768549  0.7777672589534177  0.1904083672792964   F   F   F
  0.4450695175278199  0.8892017587639671  0.0363888809190129   F   F   F
  0.6662510148768395  0.6624705607418381  0.3418736196818982   T   T   T
  0.8889131612333259  0.7777538387670475  0.1900970229869259   F   F   F
  0.7774652412361505  0.8892017587640240  0.0363888809190129   F   F   F
  0.4141801936166655  0.2529111334050558  0.4491499873638422   T   T   T
 
  0.00000000E+00  0.00000000E+00  0.00000000E+00
  0.00000000E+00  0.00000000E+00  0.00000000E+00
  0.00000000E+00  0.00000000E+00  0.00000000E+00
  0.00000000E+00  0.00000000E+00  0.00000000E+00
  0.00000000E+00  0.00000000E+00  0.00000000E+00
  0.00000000E+00  0.00000000E+00  0.00000000E+00
  0.00000000E+00  0.00000000E+00  0.00000000E+00
  0.00000000E+00  0.00000000E+00  0.00000000E+00
  0.00000000E+00  0.00000000E+00  0.00000000E+00
  0.00000000E+00  0.00000000E+00  0.00000000E+00
  0.00000000E+00  0.00000000E+00  0.00000000E+00
  0.00000000E+00  0.00000000E+00  0.00000000E+00
  0.00000000E+00  0.00000000E+00  0.00000000E+00
  0.00000000E+00  0.00000000E+00  0.00000000E+00
  0.00000000E+00  0.00000000E+00  0.00000000E+00
  0.00000000E+00  0.00000000E+00  0.00000000E+00
  0.00000000E+00  0.00000000E+00  0.00000000E+00
  0.00000000E+00  0.00000000E+00  0.00000000E+00
  0.00000000E+00  0.00000000E+00  0.00000000E+00
  0.00000000E+00  0.00000000E+00  0.00000000E+00
  0.00000000E+00  0.00000000E+00  0.00000000E+00
  0.00000000E+00  0.00000000E+00  0.00000000E+00
  0.00000000E+00  0.00000000E+00  0.00000000E+00
  0.00000000E+00  0.00000000E+00  0.00000000E+00
  0.00000000E+00  0.00000000E+00  0.00000000E+00
  0.00000000E+00  0.00000000E+00  0.00000000E+00
  0.00000000E+00  0.00000000E+00  0.00000000E+00
  0.00000000E+00  0.00000000E+00  0.00000000E+00
  0.00000000E+00  0.00000000E+00  0.00000000E+00
  0.00000000E+00  0.00000000E+00  0.00000000E+00
  0.00000000E+00  0.00000000E+00  0.00000000E+00
  0.00000000E+00  0.00000000E+00  0.00000000E+00
  0.00000000E+00  0.00000000E+00  0.00000000E+00
  0.00000000E+00  0.00000000E+00  0.00000000E+00
  0.00000000E+00  0.00000000E+00  0.00000000E+00
  0.00000000E+00  0.00000000E+00  0.00000000E+00
  0.00000000E+00  0.00000000E+00  0.00000000E+00
  0.00000000E+00  0.00000000E+00  0.00000000E+00
  0.00000000E+00  0.00000000E+00  0.00000000E+00
  0.00000000E+00  0.00000000E+00  0.00000000E+00
  0.00000000E+00  0.00000000E+00  0.00000000E+00
  0.00000000E+00  0.00000000E+00  0.00000000E+00
  0.00000000E+00  0.00000000E+00  0.00000000E+00
  0.00000000E+00  0.00000000E+00  0.00000000E+00
  0.00000000E+00  0.00000000E+00  0.00000000E+00
  0.00000000E+00  0.00000000E+00  0.00000000E+00
  0.00000000E+00  0.00000000E+00  0.00000000E+00
  0.00000000E+00  0.00000000E+00  0.00000000E+00
  0.00000000E+00  0.00000000E+00  0.00000000E+00
  0.00000000E+00  0.00000000E+00  0.00000000E+00
  0.00000000E+00  0.00000000E+00  0.00000000E+00
  0.00000000E+00  0.00000000E+00  0.00000000E+00
  0.00000000E+00  0.00000000E+00  0.00000000E+00
  0.00000000E+00  0.00000000E+00  0.00000000E+00
  0.00000000E+00  0.00000000E+00  0.00000000E+00
  0.00000000E+00  0.00000000E+00  0.00000000E+00
  0.00000000E+00  0.00000000E+00  0.00000000E+00
  0.00000000E+00  0.00000000E+00  0.00000000E+00
  0.00000000E+00  0.00000000E+00  0.00000000E+00
  0.00000000E+00  0.00000000E+00  0.00000000E+00
  0.00000000E+00  0.00000000E+00  0.00000000E+00
  0.00000000E+00  0.00000000E+00  0.00000000E+00
  0.00000000E+00  0.00000000E+00  0.00000000E+00
  0.00000000E+00  0.00000000E+00  0.00000000E+00
  0.00000000E+00  0.00000000E+00  0.00000000E+00
  0.00000000E+00  0.00000000E+00  0.00000000E+00
  0.00000000E+00  0.00000000E+00  0.00000000E+00
  0.00000000E+00  0.00000000E+00  0.00000000E+00
  0.00000000E+00  0.00000000E+00  0.00000000E+00
  0.00000000E+00  0.00000000E+00  0.00000000E+00
  0.00000000E+00  0.00000000E+00  0.00000000E+00
  0.00000000E+00  0.00000000E+00  0.00000000E+00
  0.00000000E+00  0.00000000E+00  0.00000000E+00
  0.00000000E+00  0.00000000E+00  0.00000000E+00
  0.00000000E+00  0.00000000E+00  0.00000000E+00
  0.00000000E+00  0.00000000E+00  0.00000000E+00
  0.00000000E+00  0.00000000E+00  0.00000000E+00
  0.00000000E+00  0.00000000E+00  0.00000000E+00
  0.00000000E+00  0.00000000E+00  0.00000000E+00
  0.00000000E+00  0.00000000E+00  0.00000000E+00
  0.00000000E+00  0.00000000E+00  0.00000000E+00
  0.00000000E+00  0.00000000E+00  0.00000000E+00
