CeO2-you-111-you-Sr                     
   1.00000000000000     
     9.8775274047593928   -5.7027934763052466   -0.0000000000000000
    -0.0000000036419268   11.4055849391614590    0.0000000000000000
     0.0000000000000000   -0.0000000000000000   21.2143641731939105
   O    Sr   Ce
    54     1    26
Selective dynamics
Direct
  0.0004079258027123 -0.0000971155326996  0.9976770945128581   T   T   T
  0.1108603728493347  0.2220966864247692  0.1499670275341159   T   T   T
  0.2184019345947413  0.1034708691892773  0.3043223055908754   T   T   T
  0.0840151345517054  0.2086740672762468  0.3854097312111295   T   T   T
 -0.0005693795654576 -0.0001446279220047  0.2284580259051244   T   T   T
  0.2223471950556403  0.1113613901112132  0.0762871129804051   T   T   T
  0.3328279586646005 -0.0000971155326686  0.9976770945128581   T   T   T
  0.4445693135754305  0.2220966864248581  0.1499670275341159   T   T   T
  0.5575630297728191  0.1091039702272641  0.3001005439895726   T   T   T
  0.4579919327245375  0.2086740672765952  0.3854097312111295   T   T   T
  0.3337577516435687 -0.0001446279219710  0.2284580259051244   T   T   T
  0.5554991738694777  0.1111678261305492  0.0749560895127343   T   T   T
  0.6666669999999968 -0.0000000000000000  0.9967966025953753   T   T   T
  0.7782059429576974  0.2230778859153713  0.1486096025482023   T   T   T
  0.8848749404544214  0.1091039702272397  0.3001005439895726   T   T   T
  0.7771986212479872  0.2210632424959525  0.3807629479567065   T   T   T
  0.6666669999999968 -0.0000000000000000  0.2257371279476504   T   T   T
  0.8890026522610651  0.1111678261305421  0.0749560895127343   T   T   T
  0.0004079258027331  0.3338380413354851  0.9976770945128581   T   T   T
  0.1111688256807580  0.5554981743196162  0.1503241436692203   T   T   T
  0.2184019345951963  0.4482640654054600  0.3043223055908754   T   T   T
  0.1099264011607911  0.5567405988390014  0.3821610062092131   T   T   T
 -0.0005693795652036  0.3329082483566261  0.2284580259051244   T   T   T
  0.2223471950557851  0.4443188049444232  0.0762871129804051   T   T   T
  0.3333330000000032  0.3333330000000032  0.9979609648290910   T   T   T
  0.4445693135752303  0.5558066271503799  0.1499670275341159   T   T   T
  0.5631961308100696  0.4482640654052580  0.3043223055908754   T   T   T
  0.4579919327237525  0.5826518654471651  0.3854097312111296   T   T   T
  0.3333330000000032  0.3333330000000032  0.2271697617505901   T   T   T
  0.5553056098885817  0.4443188049443590  0.0762871129804051   T   T   T
  0.6667641155327364  0.3338380413355069  0.9976770945128581   T   T   T
  0.7776623486387403  0.5554981743195022  0.1503241436692203   T   T   T
  0.8891336302877368  0.4449332605753507  0.3027727481115445   T   T   T
  0.7801471976782713  0.5567405988390662  0.3821610062092131   T   T   T
  0.6668116279217107  0.3329082483565471  0.2284580259051244   T   T   T
  0.8890708560543338  0.4448077121087033  0.0760136272506491   T   T   T
 -0.0000000000000000  0.6666669999999968  0.9980933142555477   T   T   T
  0.1111688256805016  0.8890046513608860  0.1503241436692203   T   T   T
  0.2217327394242520  0.7775333697122599  0.3027727481115445   T   T   T
  0.1099264011609375  0.8865198023219369  0.3821610062092131   T   T   T
 -0.0000000000000000  0.6666669999999968  0.2289693513339799   T   T   T
  0.2218582878914136  0.7775961439456630  0.0760136272506491   T   T   T
  0.3328279586645513  0.6662590741971929  0.9976770945128581   T   T   T
  0.4435881140845301  0.8884610570422994  0.1486096025482023   T   T   T
  0.5575630297727640  0.7817920595454959  0.3001005439895726   T   T   T
  0.4456027575039551  0.8894683787520096  0.3807629479567065   T   T   T
  0.3337577516437472  0.6672363795654578  0.2284580259051244   T   T   T
  0.5554991738694618  0.7776643477389087  0.0749560895127343   T   T   T
  0.6667641155326665  0.6662590741971836  0.9976770945128581   T   T   T
  0.7782059429577651  0.8884610570423296  0.1486096025482023   T   T   T
  0.8891336302880115  0.7775333697123818  0.3027727481115445   T   T   T
  0.7771986212480506  0.8894683787520379  0.3807629479567065   T   T   T
  0.6668116279216346  0.6672363795653450  0.2284580259051244   T   T   T
  0.8890708560542524  0.7775961439456269  0.0760136272506491   T   T   T
  0.3333330000000032  0.3333330000000032  0.3562891854523191   T   T   T
 -0.0021507381702475  0.0002561286668730  0.3421001323168126   T   T   T
  0.2226783389476743  0.1120236778960371  0.1910683242241531   T   T   T
  0.1118097188647773  0.2225713594324354  0.0372601891790995   T   T   T
  0.3357398668371371  0.0002561286677027  0.3421001323168126   T   T   T
  0.5555561195431579  0.1111108804576526  0.1881154764645492   T   T   T
  0.4440946405676543  0.2225713594324756  0.0372601891790995   T   T   T
  0.6666669999999968 -0.0000000000000000  0.3402169127777777   T   T   T
  0.8888887609142476  0.1111108804574047  0.1881154764645492   T   T   T
  0.7780252532278359  0.2227165064556748  0.0360008535011295   T   T   T
 -0.0021507381702174  0.3309261331647523  0.3421001323168126   T   T   T
  0.2226783389461157  0.4439876610516332  0.1910683242241531   T   T   T
  0.1111981273387754  0.5554688726611080  0.0371984302447412   T   T   T
  0.5546433221062169  0.4439876610523252  0.1910683242241531   T   T   T
  0.4440946405675638  0.5548572811350961  0.0372601891790995   T   T   T
  0.6664108713349499  0.3309261331655686  0.3421001323168126   T   T   T
  0.8888480162928164  0.4443620325855893  0.1893056218436271   T   T   T
  0.7776037453223656  0.5554688726611450  0.0371984302447412   T   T   T
 -0.0000000000000000  0.6666669999999968  0.3428339165840038   T   T   T
  0.2223039674142701  0.7778189837071804  0.1893056218436271   T   T   T
  0.1111981273388589  0.8890632546777517  0.0371984302447412   T   T   T
  0.3357398668352977  0.6688177381675585  0.3421001323168126   T   T   T
  0.5555561195425993  0.7777782390849428  0.1881154764645492   T   T   T
  0.4439494935443155  0.8886417467721609  0.0360008535011295   T   T   T
  0.6664108713330803  0.6688177381675450  0.3421001323168126   T   T   T
  0.8888480162929135  0.7778189837072232  0.1893056218436271   T   T   T
  0.7780252532278417  0.8886417467721639  0.0360008535011295   T   T   T
 
  0.00000000E+00  0.00000000E+00  0.00000000E+00
  0.00000000E+00  0.00000000E+00  0.00000000E+00
  0.00000000E+00  0.00000000E+00  0.00000000E+00
  0.00000000E+00  0.00000000E+00  0.00000000E+00
  0.00000000E+00  0.00000000E+00  0.00000000E+00
  0.00000000E+00  0.00000000E+00  0.00000000E+00
  0.00000000E+00  0.00000000E+00  0.00000000E+00
  0.00000000E+00  0.00000000E+00  0.00000000E+00
  0.00000000E+00  0.00000000E+00  0.00000000E+00
  0.00000000E+00  0.00000000E+00  0.00000000E+00
  0.00000000E+00  0.00000000E+00  0.00000000E+00
  0.00000000E+00  0.00000000E+00  0.00000000E+00
  0.00000000E+00  0.00000000E+00  0.00000000E+00
  0.00000000E+00  0.00000000E+00  0.00000000E+00
  0.00000000E+00  0.00000000E+00  0.00000000E+00
  0.00000000E+00  0.00000000E+00  0.00000000E+00
  0.00000000E+00  0.00000000E+00  0.00000000E+00
  0.00000000E+00  0.00000000E+00  0.00000000E+00
  0.00000000E+00  0.00000000E+00  0.00000000E+00
  0.00000000E+00  0.00000000E+00  0.00000000E+00
  0.00000000E+00  0.00000000E+00  0.00000000E+00
  0.00000000E+00  0.00000000E+00  0.00000000E+00
  0.00000000E+00  0.00000000E+00  0.00000000E+00
  0.00000000E+00  0.00000000E+00  0.00000000E+00
  0.00000000E+00  0.00000000E+00  0.00000000E+00
  0.00000000E+00  0.00000000E+00  0.00000000E+00
  0.00000000E+00  0.00000000E+00  0.00000000E+00
  0.00000000E+00  0.00000000E+00  0.00000000E+00
  0.00000000E+00  0.00000000E+00  0.00000000E+00
  0.00000000E+00  0.00000000E+00  0.00000000E+00
  0.00000000E+00  0.00000000E+00  0.00000000E+00
  0.00000000E+00  0.00000000E+00  0.00000000E+00
  0.00000000E+00  0.00000000E+00  0.00000000E+00
  0.00000000E+00  0.00000000E+00  0.00000000E+00
  0.00000000E+00  0.00000000E+00  0.00000000E+00
  0.00000000E+00  0.00000000E+00  0.00000000E+00
  0.00000000E+00  0.00000000E+00  0.00000000E+00
  0.00000000E+00  0.00000000E+00  0.00000000E+00
  0.00000000E+00  0.00000000E+00  0.00000000E+00
  0.00000000E+00  0.00000000E+00  0.00000000E+00
  0.00000000E+00  0.00000000E+00  0.00000000E+00
  0.00000000E+00  0.00000000E+00  0.00000000E+00
  0.00000000E+00  0.00000000E+00  0.00000000E+00
  0.00000000E+00  0.00000000E+00  0.00000000E+00
  0.00000000E+00  0.00000000E+00  0.00000000E+00
  0.00000000E+00  0.00000000E+00  0.00000000E+00
  0.00000000E+00  0.00000000E+00  0.00000000E+00
  0.00000000E+00  0.00000000E+00  0.00000000E+00
  0.00000000E+00  0.00000000E+00  0.00000000E+00
  0.00000000E+00  0.00000000E+00  0.00000000E+00
  0.00000000E+00  0.00000000E+00  0.00000000E+00
  0.00000000E+00  0.00000000E+00  0.00000000E+00
  0.00000000E+00  0.00000000E+00  0.00000000E+00
  0.00000000E+00  0.00000000E+00  0.00000000E+00
  0.00000000E+00  0.00000000E+00  0.00000000E+00
  0.00000000E+00  0.00000000E+00  0.00000000E+00
  0.00000000E+00  0.00000000E+00  0.00000000E+00
  0.00000000E+00  0.00000000E+00  0.00000000E+00
  0.00000000E+00  0.00000000E+00  0.00000000E+00
  0.00000000E+00  0.00000000E+00  0.00000000E+00
  0.00000000E+00  0.00000000E+00  0.00000000E+00
  0.00000000E+00  0.00000000E+00  0.00000000E+00
  0.00000000E+00  0.00000000E+00  0.00000000E+00
  0.00000000E+00  0.00000000E+00  0.00000000E+00
  0.00000000E+00  0.00000000E+00  0.00000000E+00
  0.00000000E+00  0.00000000E+00  0.00000000E+00
  0.00000000E+00  0.00000000E+00  0.00000000E+00
  0.00000000E+00  0.00000000E+00  0.00000000E+00
  0.00000000E+00  0.00000000E+00  0.00000000E+00
  0.00000000E+00  0.00000000E+00  0.00000000E+00
  0.00000000E+00  0.00000000E+00  0.00000000E+00
  0.00000000E+00  0.00000000E+00  0.00000000E+00
  0.00000000E+00  0.00000000E+00  0.00000000E+00
  0.00000000E+00  0.00000000E+00  0.00000000E+00
  0.00000000E+00  0.00000000E+00  0.00000000E+00
  0.00000000E+00  0.00000000E+00  0.00000000E+00
  0.00000000E+00  0.00000000E+00  0.00000000E+00
  0.00000000E+00  0.00000000E+00  0.00000000E+00
  0.00000000E+00  0.00000000E+00  0.00000000E+00
  0.00000000E+00  0.00000000E+00  0.00000000E+00
  0.00000000E+00  0.00000000E+00  0.00000000E+00
