CeO2-you-111-you-Os                     
   1.00000000000000     
     9.9078975902706254   -5.7045105352930641    0.0025264086139170
    -0.0000000070273173   11.4090190507288263   -0.0000000002411347
     0.0082006571320754   -0.0000000007714027   20.3609244280082713
   O    Os   Ce H
    53     1    26 1
Selective dynamics
Direct
 -0.0023484576880038  0.0010748711949378  0.9903820758374791   T   T   T
  0.1226085131604409  0.2279707565814780  0.1521428226109503   T   T   T
  0.2216633853585472  0.1245684327143133  0.3043874186191410   T   T   T
  0.1694821237511493  0.2514075618785988  0.3955600239285540   T   T   T
 -0.0009938198237719 -0.0013450966305761  0.2270135149348493   T   T   T
  0.2200611717291900  0.1097258911943342  0.0702508912814891   T   T   T
  0.3335116525407370  0.0000874486913021  0.9894957994886961   T   T   T
  0.4403025551915688  0.2230505809940443  0.1469931205971147   T   T   T
  0.5463133051538301  0.1058738328986743  0.3091839859920402   T   T   T
  0.4355086589257440  0.2673154762411044  0.3718893654663037   T   T   T
  0.3292021485341874  0.0000766452883790  0.2296724978219330   T   T   T
  0.5528713282822352  0.1106523920989594  0.0726448335692375   T   T   T
  0.6679641146921673  0.0006485573461862  0.9932713471612655   T   T   T
  0.7714170852616326  0.2227282687331186  0.1514777660208965   T   T   T
  0.8879369796267356  0.1106349898121805  0.3077960433812137   T   T   T
  0.7676915895880351  0.2075314146258353  0.3962045359655879   T   T   T
  0.6631686086756041 -0.0017491956632216  0.2315433104910691   T   T   T
  0.8908801161111142  0.1121065580553931  0.0763699880764958   T   T   T
 -0.0023484576880081  0.3299096711169525  0.9903820758375200   T   T   T
  0.1110875898376626  0.5555064914178270  0.1472686199623681   T   T   T
  0.2216633853515389  0.4304279526341923  0.3043874186215137   T   T   T
  0.1254923314790427  0.5701633830807173  0.3893993858235729   T   T   T
 -0.0009938198218086  0.3336842768071864  0.2270135149345819   T   T   T
  0.2200611717294800  0.4436682805337696  0.0702508912813785   T   T   T
  0.3320425837008251  0.3326877918500102  0.9893722519315430   T   T   T
  0.4403025551883630  0.5505859741978976  0.1469931205974414   T   T   T
  0.4355086589021896  0.5015271826743291  0.3718893654667988   T   T   T
  0.3650083285112368  0.3491706642576979  0.2470728823601899   T   T   T
  0.5565722514610398  0.4449521257307351  0.0684220911045498   T   T   T
  0.6670137576847508  0.3314875061522656  0.9896406873514429   T   T   T
  0.7793845359745802  0.5563592679877005  0.1453121893751236   T   T   T
  0.8940774110798698  0.4471306154799390  0.3066319613815239   T   T   T
  0.7915356040566057  0.5624348020304980  0.3922014389997719   T   T   T
  0.6594165039218923  0.3422172633250850  0.2340060480099251   T   T   T
  0.8893657307005108  0.4437328392467031  0.0708227690142759   T   T   T
 -0.0007273291572393  0.6663033354212439  0.9887990426961261   T   T   T
  0.1110875898372762  0.8889150984189024  0.1472686199621968   T   T   T
  0.2241507410275504  0.7787423705140794  0.3027132270170914   T   T   T
  0.1254923314741669  0.8886629484029412  0.3893993858226122   T   T   T
 -0.0007420948051328  0.6662959525973139  0.2284940234070087   T   T   T
  0.2214604066603176  0.7773972033300972  0.0699326256704953   T   T   T
  0.3335116525408280  0.6667582038496157  0.9894957994887305   T   T   T
  0.4431849373815006  0.8882594686906117  0.1498926762718639   T   T   T
  0.5463133051509556  0.7737724722529770  0.3091839859915855   T   T   T
  0.4334655535868742  0.8833997767920284  0.3898746805477288   T   T   T
  0.3292021485339137  0.6624595032445851  0.2296724978213238   T   T   T
  0.5528713282823730  0.7755519361837643  0.0726448335691197   T   T   T
  0.6670137576849654  0.6688592515336167  0.9896406873517124   T   T   T
  0.7714170852592579  0.8820218165266924  0.1514777660207588   T   T   T
  0.8940774110766622  0.7802797955926675  0.3066319613808368   T   T   T
  0.7676915895842596  0.8934931749524776  0.3962045359663531   T   T   T
  0.6594165039137654  0.6505322405931420  0.2340060480113448   T   T   T
  0.8893657307004846  0.7789658914536840  0.0708227690142971   T   T   T
  0.3169011222849666  0.3251170611525909  0.3404148718454600   T   T   T
 -0.0008313395733536 -0.0017467392776453  0.3517828719536907   T   T   T
  0.2196626447509239  0.1080360519568699  0.1894164618475101   T   T   T
  0.1101171457863637  0.2217250728931812  0.0314157925519986   T   T   T
  0.3288501774197082 -0.0054533024746430  0.3452178498483672   T   T   T
  0.5535421119744212  0.1119465622520453  0.1921117435217008   T   T   T
  0.4428740661038010  0.2202276789179371  0.0292074533596133   T   T   T
  0.6646707980819369 -0.0009981009572506  0.3516692316664311   T   T   T
  0.8873074122775595  0.1103202061398725  0.1935488617783780   T   T   T
  0.7769641697368191  0.2219842915671029  0.0331108342522029   T   T   T
 -0.0008313395748824  0.3342483997003412  0.3517828719539961   T   T   T
  0.2196626447516821  0.4449595927930510  0.1894164618474552   T   T   T
  0.1099905574346015  0.5539855360275634  0.0299310699534167   T   T   T
  0.5602681985700004  0.4468000992835324  0.1815795802183750   T   T   T
  0.4428740661044949  0.5559803871857043  0.0292074533594902   T   T   T
  0.6762199018656109  0.3333526109661211  0.3558265571024674   T   T   T
  0.8877438512452774  0.4441091191067616  0.1910973355198278   T   T   T
  0.7796400317516152  0.5564870158758711  0.0284880290742837   T   T   T
  0.0004683121710677  0.6669011560884218  0.3478792345428274   T   T   T
  0.2198635426070503  0.7765987713040525  0.1869164090281003   T   T   T
  0.1099905574348443  0.8893390214074955  0.0299310699535562   T   T   T
  0.3288501774234254  0.6676374798926544  0.3452178498497402   T   T   T
  0.5535421119793814  0.7749285497225546  0.1921117435214215   T   T   T
  0.4444913246525568  0.8889126623263784  0.0321064152681940   T   T   T
  0.6762199018796041  0.6762002909055034  0.3558265571004259   T   T   T
  0.8877438512492666  0.7769677321448866  0.1910973355200546   T   T   T
  0.7769641697375567  0.8883128781700589  0.0331108342521040   T   T   T
0.446598 0.216020 0.433410 T T T 
 
  0.00000000E+00  0.00000000E+00  0.00000000E+00
  0.00000000E+00  0.00000000E+00  0.00000000E+00
  0.00000000E+00  0.00000000E+00  0.00000000E+00
  0.00000000E+00  0.00000000E+00  0.00000000E+00
  0.00000000E+00  0.00000000E+00  0.00000000E+00
  0.00000000E+00  0.00000000E+00  0.00000000E+00
  0.00000000E+00  0.00000000E+00  0.00000000E+00
  0.00000000E+00  0.00000000E+00  0.00000000E+00
  0.00000000E+00  0.00000000E+00  0.00000000E+00
  0.00000000E+00  0.00000000E+00  0.00000000E+00
  0.00000000E+00  0.00000000E+00  0.00000000E+00
  0.00000000E+00  0.00000000E+00  0.00000000E+00
  0.00000000E+00  0.00000000E+00  0.00000000E+00
  0.00000000E+00  0.00000000E+00  0.00000000E+00
  0.00000000E+00  0.00000000E+00  0.00000000E+00
  0.00000000E+00  0.00000000E+00  0.00000000E+00
  0.00000000E+00  0.00000000E+00  0.00000000E+00
  0.00000000E+00  0.00000000E+00  0.00000000E+00
  0.00000000E+00  0.00000000E+00  0.00000000E+00
  0.00000000E+00  0.00000000E+00  0.00000000E+00
  0.00000000E+00  0.00000000E+00  0.00000000E+00
  0.00000000E+00  0.00000000E+00  0.00000000E+00
  0.00000000E+00  0.00000000E+00  0.00000000E+00
  0.00000000E+00  0.00000000E+00  0.00000000E+00
  0.00000000E+00  0.00000000E+00  0.00000000E+00
  0.00000000E+00  0.00000000E+00  0.00000000E+00
  0.00000000E+00  0.00000000E+00  0.00000000E+00
  0.00000000E+00  0.00000000E+00  0.00000000E+00
  0.00000000E+00  0.00000000E+00  0.00000000E+00
  0.00000000E+00  0.00000000E+00  0.00000000E+00
  0.00000000E+00  0.00000000E+00  0.00000000E+00
  0.00000000E+00  0.00000000E+00  0.00000000E+00
  0.00000000E+00  0.00000000E+00  0.00000000E+00
  0.00000000E+00  0.00000000E+00  0.00000000E+00
  0.00000000E+00  0.00000000E+00  0.00000000E+00
  0.00000000E+00  0.00000000E+00  0.00000000E+00
  0.00000000E+00  0.00000000E+00  0.00000000E+00
  0.00000000E+00  0.00000000E+00  0.00000000E+00
  0.00000000E+00  0.00000000E+00  0.00000000E+00
  0.00000000E+00  0.00000000E+00  0.00000000E+00
  0.00000000E+00  0.00000000E+00  0.00000000E+00
  0.00000000E+00  0.00000000E+00  0.00000000E+00
  0.00000000E+00  0.00000000E+00  0.00000000E+00
  0.00000000E+00  0.00000000E+00  0.00000000E+00
  0.00000000E+00  0.00000000E+00  0.00000000E+00
  0.00000000E+00  0.00000000E+00  0.00000000E+00
  0.00000000E+00  0.00000000E+00  0.00000000E+00
  0.00000000E+00  0.00000000E+00  0.00000000E+00
  0.00000000E+00  0.00000000E+00  0.00000000E+00
  0.00000000E+00  0.00000000E+00  0.00000000E+00
  0.00000000E+00  0.00000000E+00  0.00000000E+00
  0.00000000E+00  0.00000000E+00  0.00000000E+00
  0.00000000E+00  0.00000000E+00  0.00000000E+00
  0.00000000E+00  0.00000000E+00  0.00000000E+00
  0.00000000E+00  0.00000000E+00  0.00000000E+00
  0.00000000E+00  0.00000000E+00  0.00000000E+00
  0.00000000E+00  0.00000000E+00  0.00000000E+00
  0.00000000E+00  0.00000000E+00  0.00000000E+00
  0.00000000E+00  0.00000000E+00  0.00000000E+00
  0.00000000E+00  0.00000000E+00  0.00000000E+00
  0.00000000E+00  0.00000000E+00  0.00000000E+00
  0.00000000E+00  0.00000000E+00  0.00000000E+00
  0.00000000E+00  0.00000000E+00  0.00000000E+00
  0.00000000E+00  0.00000000E+00  0.00000000E+00
  0.00000000E+00  0.00000000E+00  0.00000000E+00
  0.00000000E+00  0.00000000E+00  0.00000000E+00
  0.00000000E+00  0.00000000E+00  0.00000000E+00
  0.00000000E+00  0.00000000E+00  0.00000000E+00
  0.00000000E+00  0.00000000E+00  0.00000000E+00
  0.00000000E+00  0.00000000E+00  0.00000000E+00
  0.00000000E+00  0.00000000E+00  0.00000000E+00
  0.00000000E+00  0.00000000E+00  0.00000000E+00
  0.00000000E+00  0.00000000E+00  0.00000000E+00
  0.00000000E+00  0.00000000E+00  0.00000000E+00
  0.00000000E+00  0.00000000E+00  0.00000000E+00
  0.00000000E+00  0.00000000E+00  0.00000000E+00
  0.00000000E+00  0.00000000E+00  0.00000000E+00
  0.00000000E+00  0.00000000E+00  0.00000000E+00
  0.00000000E+00  0.00000000E+00  0.00000000E+00
  0.00000000E+00  0.00000000E+00  0.00000000E+00
