CeO2-you-111-you-Y                      
   1.00000000000000     
     9.8634206918334737   -5.6833645632431500   -0.0013176301701052
    -0.0000000021365577   11.3667271224971866    0.0000000001604351
    -0.0029977866109228    0.0000000003100426   20.7747371626223511
   O    Y    Ce H
    53     1    26 1
Selective dynamics
Direct
 -0.0010408885254776  0.0007845254295085  0.9938762081647903   T   T   T
  0.1177162729169748  0.2255246364582678  0.1509889442302372   T   T   T
  0.2156440630191187  0.1065356311476558  0.3042828267066118   T   T   T
  0.1071665521267832  0.2202497760639152  0.3876636007534223   T   T   T
 -0.0014401627139491  0.0005214923206439  0.2284567193220653   T   T   T
  0.2215270079527016  0.1099437174387039  0.0729857379885347   T   T   T
  0.3333542637331048 -0.0003109417840283  0.9924684405445994   T   T   T
  0.4435836444541822  0.2208044440422467  0.1468875027983556   T   T   T
  0.5567453667242956  0.1064418452582594  0.3050823654039054   T   T   T
  0.4463701746424073  0.2334963206548269  0.3772438999140956   T   T   T
  0.3342981454534072  0.0019733734566194  0.2301108213412382   T   T   T
  0.5548958073599529  0.1102225579088526  0.0732278741922017   T   T   T
  0.6687378630189292  0.0010354315094454  0.9939972929669135   T   T   T
  0.7740441114300768  0.2253944916817938  0.1509398239224804   T   T   T
  0.8889724799897119  0.1111527399944249  0.3050066279511306   T   T   T
  0.7805133234119572  0.2189301694802315  0.3888331955277705   T   T   T
  0.6688133968013182  0.0010731984004213  0.2284355873221308   T   T   T
  0.8890874823756429  0.1112102411877684  0.0763145413293420   T   T   T
 -0.0010408885250100  0.3315075860451657  0.9938762081647059   T   T   T
  0.1110361790627963  0.5556730161596211  0.1500571970349467   T   T   T
  0.2156440630190182  0.4424414318726675  0.3042828267065650   T   T   T
  0.1134661126105699  0.5583588299544949  0.3870286689164661   T   T   T
 -0.0014401627128891  0.3313713449652212  0.2284567193220887   T   T   T
  0.2215270079527263  0.4449162905139940  0.0729857379885531   T   T   T
  0.3318873189261307  0.3326101594629490  0.9931387064280192   T   T   T
  0.4435836444533121  0.5561132004128641  0.1468875027982902   T   T   T
  0.4463701746414539  0.5462078539889891  0.3772438999143355   T   T   T
  0.3505400393551414  0.3419365196771119  0.2349782642477277   T   T   T
  0.5559393073540975  0.4446356536771781  0.0707684313896057   T   T   T
  0.6673900436987152  0.3326287483594723  0.9929369950164884   T   T   T
  0.7789901307455677  0.5561620653721442  0.1472141095533437   T   T   T
  0.8948937686335633  0.4451275274751718  0.3053460778368504   T   T   T
  0.7702585012916272  0.5517962506458723  0.3810459096476044   T   T   T
  0.6583373667646535  0.3421729065497111  0.2350515100949436   T   T   T
  0.8896119393648294  0.4446354992188991  0.0734308136570402   T   T   T
  0.0004300912975790  0.6668820456486838  0.9927494160310590   T   T   T
  0.1110361790628269  0.8886971629028014  0.1500571970348869   T   T   T
  0.2228570873440741  0.7780955436718712  0.3043905870626147   T   T   T
  0.1134661126094569  0.8884412826550891  0.3870286689163851   T   T   T
 -0.0007003883439351  0.6663168058277358  0.2300012500517822   T   T   T
  0.2226534684855988  0.7779937342428235  0.0733874470096272   T   T   T
  0.3333542637330204  0.6669992055172179  0.9924684405445928   T   T   T
  0.4445945823821592  0.8889642911911796  0.1503071434271766   T   T   T
  0.5567453667226313  0.7836365214664606  0.3050823654038454   T   T   T
  0.4420912676088838  0.8877126338044067  0.3866561610454299   T   T   T
  0.3342981454539137  0.6656587719974492  0.2301108213411469   T   T   T
  0.5548958073601347  0.7780062494512887  0.0732278741921757   T   T   T
  0.6673900436990138  0.6680942953396264  0.9929369950165061   T   T   T
  0.7740441114294651  0.8819826197480399  0.1509398239223999   T   T   T
  0.8948937686323971  0.7830992411547376  0.3053460778369050   T   T   T
  0.7805133234094737  0.8949161539286968  0.3888331955276221   T   T   T
  0.6583373667639579  0.6494974602155474  0.2350515100951949   T   T   T
  0.8896119393652292  0.7783094401459519  0.0734308136570133   T   T   T
  0.3156999791227156  0.3245164895605894  0.3461508143236449   T   T   T
  0.0016243172502310  0.0017349745888435  0.3463413668496478   T   T   T
  0.2231967633820554  0.1120301759475012  0.1910648750973736   T   T   T
  0.1112716109677812  0.2223023054838939  0.0340970292666176   T   T   T
  0.3337422240819090  0.0026204448997164  0.3452069258685267   T   T   T
  0.5553124973296206  0.1120176836262013  0.1907063298272361   T   T   T
  0.4432256385119553  0.2199881695229741  0.0317488490811918   T   T   T
  0.6666128539465079 -0.0000270730263822  0.3463229448027557   T   T   T
  0.8888663274582056  0.1110996637295318  0.1904953480803826   T   T   T
  0.7776352550491999  0.2223938734084379  0.0342000598855045   T   T   T
  0.0016243172477461  0.3332223426623477  0.3463413668495911   T   T   T
  0.2231967633825137  0.4444995874335951  0.1910648750973792   T   T   T
  0.1108530605538545  0.5548852131611905  0.0339793516522601   T   T   T
  0.5549595881711308  0.4441457940845667  0.1819516799716463   T   T   T
  0.4432256385122295  0.5565714689891963  0.0317488490811475   T   T   T
  0.6716184617080684  0.3274416266753713  0.3506832838824087   T   T   T
  0.8882817656683509  0.4449001352642729  0.1909909639684074   T   T   T
  0.7799582222558680  0.5566461111278042  0.0319832203251548   T   T   T
  0.0022774799719716  0.6678057399872959  0.3452085647822630   T   T   T
  0.2223668994653665  0.7778504497329685  0.1895165469462474   T   T   T
  0.1108530605536917  0.8893018473928299  0.0339793516522493   T   T   T
  0.3337422240814601  0.6644557791801476  0.3452069258686231   T   T   T
  0.5553124973317046  0.7766278137032191  0.1907063298272436   T   T   T
  0.4449550837415667  0.8891445418706295  0.0338164620626776   T   T   T
  0.6716184617120718  0.6775098350344578  0.3506832838822512   T   T   T
  0.8882817656695727  0.7767146304072644  0.1909909639684178   T   T   T
  0.7776352550493292  0.8885743816408437  0.0342000598854993   T   T   T
0.446598 0.216020 0.433410 T T T 
 
  0.00000000E+00  0.00000000E+00  0.00000000E+00
  0.00000000E+00  0.00000000E+00  0.00000000E+00
  0.00000000E+00  0.00000000E+00  0.00000000E+00
  0.00000000E+00  0.00000000E+00  0.00000000E+00
  0.00000000E+00  0.00000000E+00  0.00000000E+00
  0.00000000E+00  0.00000000E+00  0.00000000E+00
  0.00000000E+00  0.00000000E+00  0.00000000E+00
  0.00000000E+00  0.00000000E+00  0.00000000E+00
  0.00000000E+00  0.00000000E+00  0.00000000E+00
  0.00000000E+00  0.00000000E+00  0.00000000E+00
  0.00000000E+00  0.00000000E+00  0.00000000E+00
  0.00000000E+00  0.00000000E+00  0.00000000E+00
  0.00000000E+00  0.00000000E+00  0.00000000E+00
  0.00000000E+00  0.00000000E+00  0.00000000E+00
  0.00000000E+00  0.00000000E+00  0.00000000E+00
  0.00000000E+00  0.00000000E+00  0.00000000E+00
  0.00000000E+00  0.00000000E+00  0.00000000E+00
  0.00000000E+00  0.00000000E+00  0.00000000E+00
  0.00000000E+00  0.00000000E+00  0.00000000E+00
  0.00000000E+00  0.00000000E+00  0.00000000E+00
  0.00000000E+00  0.00000000E+00  0.00000000E+00
  0.00000000E+00  0.00000000E+00  0.00000000E+00
  0.00000000E+00  0.00000000E+00  0.00000000E+00
  0.00000000E+00  0.00000000E+00  0.00000000E+00
  0.00000000E+00  0.00000000E+00  0.00000000E+00
  0.00000000E+00  0.00000000E+00  0.00000000E+00
  0.00000000E+00  0.00000000E+00  0.00000000E+00
  0.00000000E+00  0.00000000E+00  0.00000000E+00
  0.00000000E+00  0.00000000E+00  0.00000000E+00
  0.00000000E+00  0.00000000E+00  0.00000000E+00
  0.00000000E+00  0.00000000E+00  0.00000000E+00
  0.00000000E+00  0.00000000E+00  0.00000000E+00
  0.00000000E+00  0.00000000E+00  0.00000000E+00
  0.00000000E+00  0.00000000E+00  0.00000000E+00
  0.00000000E+00  0.00000000E+00  0.00000000E+00
  0.00000000E+00  0.00000000E+00  0.00000000E+00
  0.00000000E+00  0.00000000E+00  0.00000000E+00
  0.00000000E+00  0.00000000E+00  0.00000000E+00
  0.00000000E+00  0.00000000E+00  0.00000000E+00
  0.00000000E+00  0.00000000E+00  0.00000000E+00
  0.00000000E+00  0.00000000E+00  0.00000000E+00
  0.00000000E+00  0.00000000E+00  0.00000000E+00
  0.00000000E+00  0.00000000E+00  0.00000000E+00
  0.00000000E+00  0.00000000E+00  0.00000000E+00
  0.00000000E+00  0.00000000E+00  0.00000000E+00
  0.00000000E+00  0.00000000E+00  0.00000000E+00
  0.00000000E+00  0.00000000E+00  0.00000000E+00
  0.00000000E+00  0.00000000E+00  0.00000000E+00
  0.00000000E+00  0.00000000E+00  0.00000000E+00
  0.00000000E+00  0.00000000E+00  0.00000000E+00
  0.00000000E+00  0.00000000E+00  0.00000000E+00
  0.00000000E+00  0.00000000E+00  0.00000000E+00
  0.00000000E+00  0.00000000E+00  0.00000000E+00
  0.00000000E+00  0.00000000E+00  0.00000000E+00
  0.00000000E+00  0.00000000E+00  0.00000000E+00
  0.00000000E+00  0.00000000E+00  0.00000000E+00
  0.00000000E+00  0.00000000E+00  0.00000000E+00
  0.00000000E+00  0.00000000E+00  0.00000000E+00
  0.00000000E+00  0.00000000E+00  0.00000000E+00
  0.00000000E+00  0.00000000E+00  0.00000000E+00
  0.00000000E+00  0.00000000E+00  0.00000000E+00
  0.00000000E+00  0.00000000E+00  0.00000000E+00
  0.00000000E+00  0.00000000E+00  0.00000000E+00
  0.00000000E+00  0.00000000E+00  0.00000000E+00
  0.00000000E+00  0.00000000E+00  0.00000000E+00
  0.00000000E+00  0.00000000E+00  0.00000000E+00
  0.00000000E+00  0.00000000E+00  0.00000000E+00
  0.00000000E+00  0.00000000E+00  0.00000000E+00
  0.00000000E+00  0.00000000E+00  0.00000000E+00
  0.00000000E+00  0.00000000E+00  0.00000000E+00
  0.00000000E+00  0.00000000E+00  0.00000000E+00
  0.00000000E+00  0.00000000E+00  0.00000000E+00
  0.00000000E+00  0.00000000E+00  0.00000000E+00
  0.00000000E+00  0.00000000E+00  0.00000000E+00
  0.00000000E+00  0.00000000E+00  0.00000000E+00
  0.00000000E+00  0.00000000E+00  0.00000000E+00
  0.00000000E+00  0.00000000E+00  0.00000000E+00
  0.00000000E+00  0.00000000E+00  0.00000000E+00
  0.00000000E+00  0.00000000E+00  0.00000000E+00
  0.00000000E+00  0.00000000E+00  0.00000000E+00
