CeO2-you-111-you-Ir                     
   1.00000000000000     
     9.8148351294761014   -5.6665980718593536    0.0000000002169954
     0.0333011290093344   11.3908733929676185    0.0036899152945411
     0.0036678143132971    0.0063528396269678   20.6215315668968913
   O    Ir   Ce   H 
    53     1    26     1
Selective dynamics
Direct
  0.0024405727105990  0.0001507529617017  0.9899196145662947   T   T   T
  0.1095396687469638  0.2188925717823455  0.1464697265443467   T   T   T
  0.2300063604453622  0.1387145357875710  0.3106266477190212   T   T   T
  0.1153795439374571  0.2132977249401904  0.3937093301569885   T   T   T
  0.0057583729205703  0.0009145486590238  0.2297825298135701   T   T   T
  0.2256541573301268  0.1104627630505964  0.0712028825660099   T   T   T
  0.3355927441662054 -0.0014886163984939  0.9893650887475244   T   T   T
  0.4522132260660902  0.2184795184954185  0.1439073986595346   T   T   T
  0.5622690156058894  0.1195332102037947  0.3086398158985376   T   T   T
  0.4283134615225637  0.2445139037468910  0.3996046467124442   T   T   T
  0.3321216885305317  0.0018161353925226  0.2301691362430206   T   T   T
  0.5597067972495430  0.1076533792256273  0.0705561574636209   T   T   T
  0.6697873667246508 -0.0007692024035901  0.9877205010796120   T   T   T
  0.7761936250197260  0.2243713983645307  0.1512290849771939   T   T   T
  0.8931018372054632  0.1137844724953775  0.3061918826858200   T   T   T
  0.7820229443980172  0.2244389315943944  0.3911798253864287   T   T   T
  0.6684284283270376  0.0009593449552440  0.2300340177246068   T   T   T
  0.8872259359777512  0.1088712193850564  0.0722699955699697   T   T   T
  0.0011751975887729  0.3301054882142773  0.9887872758749833   T   T   T
  0.1120680484114610  0.5546841816886762  0.1463575369805540   T   T   T
  0.2218355271755927  0.4167364595156147  0.3094864534578429   T   T   T
  0.1006850452309996  0.5440106037739292  0.3876285012741732   T   T   T
  0.0060970473273826  0.3352666217934703  0.2285591079533647   T   T   T
  0.2231444453048697  0.4424035867999507  0.0697165929139191   T   T   T
  0.3331472074570959  0.3305396900666260  0.9884287204274002   T   T   T
  0.4490635149075328  0.5621692803931776  0.1419773075041109   T   T   T
  0.4483454141525637  0.4931574537224375  0.3756135869340773   T   T   T
  0.3457101234036094  0.3382164774884091  0.2154616529756268   T   T   T
  0.5572042995802545  0.4429112675253024  0.0664057544282864   T   T   T
  0.6693178884424418  0.3305447655088296  0.9882053810363098   T   T   T
  0.7826370244980557  0.5551540118060553  0.1431461805963689   T   T   T
  0.8900663198779585  0.4359201906570941  0.3037530823468164   T   T   T
  0.7742611027056920  0.5384978162987054  0.3837085226861491   T   T   T
  0.6579341519960972  0.3457987069670018  0.2366681565777240   T   T   T
  0.8908899746229846  0.4414370177241575  0.0697125816000094   T   T   T
  0.0028635436667258  0.6662698804543018  0.9895750075838721   T   T   T
  0.1118696900618831  0.8865179774992480  0.1476978226494735   T   T   T
  0.2207423135394286  0.7721053829855890  0.3055896338711935   T   T   T
  0.0999745341941748  0.8790214924709618  0.3889303711941073   T   T   T
 -0.0003837822804888  0.6612339305869804  0.2286053481420776   T   T   T
  0.2255799130542968  0.7773454197081204  0.0711984514825118   T   T   T
  0.3357389051201563  0.6663274277750326  0.9890688857300848   T   T   T
  0.4459173905127919  0.8881279518269607  0.1505607874901404   T   T   T
  0.5605229066379580  0.7793789417443767  0.3046604377090707   T   T   T
  0.4587631958113896  0.8915350819435540  0.3912979596846850   T   T   T
  0.3304877819763035  0.6564778394629693  0.2291525195542320   T   T   T
  0.5601199996289387  0.7811896306930303  0.0704594591142615   T   T   T
  0.6694080983191674  0.6675510991840522  0.9882172600929624   T   T   T
  0.7781080727768339  0.8847089064684496  0.1509556685754480   T   T   T
  0.8955128883196877  0.7782231906997746  0.3034777466300729   T   T   T
  0.7867953860277909  0.8981045505015751  0.3902515559324447   T   T   T
  0.6610999033628457  0.6479216448090599  0.2311203910262554   T   T   T
  0.8904626308984328  0.7783087446062441  0.0704109148450064   T   T   T
  0.3042637170902595  0.3217565604870500  0.3564254192894904   T   T   T
  0.0024124561188135 -0.0026375360259934  0.3467258344917890   T   T   T
  0.2272403049521037  0.1148657569826812  0.1882802940595962   T   T   T
  0.1124720857113718  0.2206183405670994  0.0298740401315401   T   T   T
  0.3303937678128039  0.9940889373665974  0.3505125999822557   T   T   T
  0.5552493801789459  0.1102174622416813  0.1907615670097049   T   T   T
  0.4461974515667634  0.2185991972788291  0.0281305053501547   T   T   T
  0.6662219601577866 -0.0041998412622975  0.3481678564541872   T   T   T
  0.8907820801366736  0.1104795889045640  0.1899485438560094   T   T   T
  0.7794095673002409  0.2202024944174597  0.0298500763344874   T   T   T
  0.0021399328027602  0.3302385709313272  0.3472097704666233   T   T   T
  0.2259532584936529  0.4411883607133272  0.1860125314413703   T   T   T
  0.1130900980744050  0.5543071701178767  0.0305186623767225   T   T   T
  0.5565356520644285  0.4444443662823405  0.1777241980313640   T   T   T
  0.4462647001508539  0.5567403865838315  0.0274592371826997   T   T   T
  0.6810689089740856  0.3298059254588359  0.3478029092486668   T   T   T
  0.8913971652120859  0.4438726602252355  0.1876258366337691   T   T   T
  0.7821683914559888  0.5558124344524482  0.0278730728301564   T   T   T
  0.0029248615911168  0.6636011872998838  0.3452763114599427   T   T   T
  0.2240018508358295  0.7760912563364156  0.1892594068658507   T   T   T
  0.1134703239352170  0.8885888437350602  0.0317330749988180   T   T   T
  0.3338749019561816  0.6623052380895272  0.3473481761856482   T   T   T
  0.5565973059918684  0.7750183628049225  0.1905837659133986   T   T   T
  0.4481510104609692  0.8889200102743119  0.0310155987116753   T   T   T
  0.6776456908015300  0.6753370281728981  0.3495027886627408   T   T   T
  0.8905512452861838  0.7757311809675388  0.1887678356689903   T   T   T
  0.7794423067260048  0.8888115096293016  0.0305118275069230   T   T   T
  0.4293121729648766  0.2631592413650580  0.4457603594653883   T   T   T
 
  0.00000000E+00  0.00000000E+00  0.00000000E+00
  0.00000000E+00  0.00000000E+00  0.00000000E+00
  0.00000000E+00  0.00000000E+00  0.00000000E+00
  0.00000000E+00  0.00000000E+00  0.00000000E+00
  0.00000000E+00  0.00000000E+00  0.00000000E+00
  0.00000000E+00  0.00000000E+00  0.00000000E+00
  0.00000000E+00  0.00000000E+00  0.00000000E+00
  0.00000000E+00  0.00000000E+00  0.00000000E+00
  0.00000000E+00  0.00000000E+00  0.00000000E+00
  0.00000000E+00  0.00000000E+00  0.00000000E+00
  0.00000000E+00  0.00000000E+00  0.00000000E+00
  0.00000000E+00  0.00000000E+00  0.00000000E+00
  0.00000000E+00  0.00000000E+00  0.00000000E+00
  0.00000000E+00  0.00000000E+00  0.00000000E+00
  0.00000000E+00  0.00000000E+00  0.00000000E+00
  0.00000000E+00  0.00000000E+00  0.00000000E+00
  0.00000000E+00  0.00000000E+00  0.00000000E+00
  0.00000000E+00  0.00000000E+00  0.00000000E+00
  0.00000000E+00  0.00000000E+00  0.00000000E+00
  0.00000000E+00  0.00000000E+00  0.00000000E+00
  0.00000000E+00  0.00000000E+00  0.00000000E+00
  0.00000000E+00  0.00000000E+00  0.00000000E+00
  0.00000000E+00  0.00000000E+00  0.00000000E+00
  0.00000000E+00  0.00000000E+00  0.00000000E+00
  0.00000000E+00  0.00000000E+00  0.00000000E+00
  0.00000000E+00  0.00000000E+00  0.00000000E+00
  0.00000000E+00  0.00000000E+00  0.00000000E+00
  0.00000000E+00  0.00000000E+00  0.00000000E+00
  0.00000000E+00  0.00000000E+00  0.00000000E+00
  0.00000000E+00  0.00000000E+00  0.00000000E+00
  0.00000000E+00  0.00000000E+00  0.00000000E+00
  0.00000000E+00  0.00000000E+00  0.00000000E+00
  0.00000000E+00  0.00000000E+00  0.00000000E+00
  0.00000000E+00  0.00000000E+00  0.00000000E+00
  0.00000000E+00  0.00000000E+00  0.00000000E+00
  0.00000000E+00  0.00000000E+00  0.00000000E+00
  0.00000000E+00  0.00000000E+00  0.00000000E+00
  0.00000000E+00  0.00000000E+00  0.00000000E+00
  0.00000000E+00  0.00000000E+00  0.00000000E+00
  0.00000000E+00  0.00000000E+00  0.00000000E+00
  0.00000000E+00  0.00000000E+00  0.00000000E+00
  0.00000000E+00  0.00000000E+00  0.00000000E+00
  0.00000000E+00  0.00000000E+00  0.00000000E+00
  0.00000000E+00  0.00000000E+00  0.00000000E+00
  0.00000000E+00  0.00000000E+00  0.00000000E+00
  0.00000000E+00  0.00000000E+00  0.00000000E+00
  0.00000000E+00  0.00000000E+00  0.00000000E+00
  0.00000000E+00  0.00000000E+00  0.00000000E+00
  0.00000000E+00  0.00000000E+00  0.00000000E+00
  0.00000000E+00  0.00000000E+00  0.00000000E+00
  0.00000000E+00  0.00000000E+00  0.00000000E+00
  0.00000000E+00  0.00000000E+00  0.00000000E+00
  0.00000000E+00  0.00000000E+00  0.00000000E+00
  0.00000000E+00  0.00000000E+00  0.00000000E+00
  0.00000000E+00  0.00000000E+00  0.00000000E+00
  0.00000000E+00  0.00000000E+00  0.00000000E+00
  0.00000000E+00  0.00000000E+00  0.00000000E+00
  0.00000000E+00  0.00000000E+00  0.00000000E+00
  0.00000000E+00  0.00000000E+00  0.00000000E+00
  0.00000000E+00  0.00000000E+00  0.00000000E+00
  0.00000000E+00  0.00000000E+00  0.00000000E+00
  0.00000000E+00  0.00000000E+00  0.00000000E+00
  0.00000000E+00  0.00000000E+00  0.00000000E+00
  0.00000000E+00  0.00000000E+00  0.00000000E+00
  0.00000000E+00  0.00000000E+00  0.00000000E+00
  0.00000000E+00  0.00000000E+00  0.00000000E+00
  0.00000000E+00  0.00000000E+00  0.00000000E+00
  0.00000000E+00  0.00000000E+00  0.00000000E+00
  0.00000000E+00  0.00000000E+00  0.00000000E+00
  0.00000000E+00  0.00000000E+00  0.00000000E+00
  0.00000000E+00  0.00000000E+00  0.00000000E+00
  0.00000000E+00  0.00000000E+00  0.00000000E+00
  0.00000000E+00  0.00000000E+00  0.00000000E+00
  0.00000000E+00  0.00000000E+00  0.00000000E+00
  0.00000000E+00  0.00000000E+00  0.00000000E+00
  0.00000000E+00  0.00000000E+00  0.00000000E+00
  0.00000000E+00  0.00000000E+00  0.00000000E+00
  0.00000000E+00  0.00000000E+00  0.00000000E+00
  0.00000000E+00  0.00000000E+00  0.00000000E+00
  0.00000000E+00  0.00000000E+00  0.00000000E+00
  0.00000000E+00  0.00000000E+00  0.00000000E+00
