CeO2-you-111-you-Mg                     
   1.00000000000000     
     9.8828738044470139   -5.7058802256271139   -0.0000000010014606
    -0.0350296041297741   11.3510853928573763   -0.0192147653297935
    -0.0214788428026893   -0.0372024407191492   20.4152170502013242
   O    Mg   Ce H
    53     1    26 2
Selective dynamics
Direct
 -0.0002283972513916  0.0004285645896684  0.9888148553609873   T   T   T
  0.1081243296647871  0.2211839707816630  0.1477857871320888   F   F   F
  0.2298647037191663  0.1263964074401157  0.3100811554676212   T   T   T
  0.0764367493969760  0.2074461933879561  0.3969832902951206   T   T   T
  0.0033864990009987  0.0016034390721099  0.2298600894712749   T   T   T
  0.2223100716004139  0.1112871432006950  0.0708063441193044   F   F   F
  0.3339899618409591  0.0004285645895560  0.9888148553609968   T   T   T
  0.4463926411167355  0.2211839707814357  0.1477857871320777   F   F   F
  0.5579398164182360  0.1094142502136041  0.3049241979223154   T   T   T
  0.4643424439927128  0.2074461933903299  0.3969832902963434   T   T   T
  0.3315499400708822  0.0016034390710871  0.2298600894710497   T   T   T
  0.5573343829565200  0.1110500602142675  0.0715900712746007   F   F   F
  0.6663528319206133 -0.0006283361587212  0.9888607063126753   T   T   T
  0.7774975355163339  0.2216610710330214  0.1526399396708491   F   F   F
  0.8848084337958234  0.1094142502142365  0.3049241979222596   T   T   T
  0.7758846512503391  0.2184353025003973  0.3900347820786940   T   T   T
  0.6616309603491307 -0.0100720793019479  0.2323112781859761   T   T   T
  0.8870496772574856  0.1110500602141922  0.0715900712745745   F   F   F
 -0.0000146432830001  0.3331940810496197  0.9897046042176947   T   T   T
  0.1097790377766658  0.5551503848508077  0.1483827698725418   F   F   F
  0.2453760345520520  0.4493238519177706  0.3195470568283360   T   T   T
  0.1118910738240077  0.5610954972555192  0.3889602649958336   T   T   T
  0.0095997754605663  0.3383465212648419  0.2337808193959339   T   T   T
  0.2222702025906591  0.4441701273576061  0.0722812763389477   F   F   F
  0.3336143465969217  0.3338956931936393  0.9895187442135888   T   T   T
  0.4458096282990370  0.5582872565987848  0.1481120649957869   F   F   F
  0.5372818173653066  0.4493238519160497  0.3195470568283653   T   T   T
  0.3344490165369463  0.3355650330750526  0.2240756111169490   T   T   T
  0.5552339247670612  0.4441701273574188  0.0722812763389370   F   F   F
  0.6665427243327252  0.3331940810494912  0.9897046042177079   T   T   T
  0.7787043470738553  0.5551503848504405  0.1483827698725559   F   F   F
  0.8885599160760412  0.4437858321523095  0.3082392833846531   T   T   T
  0.7825374234312281  0.5610954972563651  0.3889602649958337   T   T   T
  0.6620807458042736  0.3383465212645344  0.2337808193960748   T   T   T
  0.8876968063995496  0.4420596127987088  0.0722283329055703   F   F   F
 -0.0007776530520793  0.6651116938955958  0.9897858637903691   T   T   T
  0.1110697995233115  0.8888065990457358  0.1464888073435705   F   F   F
  0.2212704687752211  0.7800871117801447  0.3051819343330582   T   T   T
  0.1122837785670841  0.8912345571333722  0.3883275735181895   T   T   T
  0.0005748681744692  0.6678167363490443  0.2297621152872162   T   T   T
  0.2224849179359192  0.7784603632271633  0.0703708013320162   F   F   F
  0.3329155720453711  0.6656795827177164  0.9900808125766379   T   T   T
  0.4437659763857118  0.8883159532236176  0.1483589546741936   F   F   F
  0.5450182576274587  0.7567025152549548  0.3157081978958909   T   T   T
  0.4429067773716882  0.8885484865766461  0.3884448755532339   T   T   T
  0.3310377700752415  0.6666968158266907  0.2303368335863497   T   T   T
  0.5559877436120763  0.7786414872239903  0.0717671404471228   F   F   F
  0.6660970106722685  0.6656795827176419  0.9900808125766386   T   T   T
  0.7778829768379016  0.8883159532233963  0.1483589546742219   F   F   F
  0.8921496430067960  0.7800871117816314  0.3051819343331124   T   T   T
  0.7789747092059782  0.8885484865769018  0.3884448755530696   T   T   T
  0.6689920457518359  0.6666968158268392  0.2303368335862679   T   T   T
  0.8893084452913914  0.7784603632269063  0.0703708013319699   F   F   F
  0.3315536133842790  0.3297742267722554  0.3237922580480395   T   T   T
  0.0061303105988338  0.0091869632323414  0.3499517842556015   T   T   T
  0.2226739923865590  0.1120149847741397  0.1894036118576821   F   F   F
  0.1105185702145264  0.2217607895418802  0.0305419587735725   F   F   F
  0.3363896526332892  0.0091869632340931  0.3499517842555956   T   T   T
  0.5545532054690323  0.1105437405606468  0.1907916370435020   F   F   F
  0.4445752193274673  0.2217607895418168  0.0305419587735529   F   F   F
  0.6659916143529132 -0.0013507712926231  0.3497206604370755   T   T   T
  0.8893245350910374  0.1105437405596920  0.1907916370434695   F   F   F
  0.7773990611783392  0.2214641223562291  0.0311567000458528   F   F   F
  0.0011853536964651  0.3301401578695665  0.3517846278672146   T   T   T
  0.2227133116582522  0.4442994318670300  0.1893276189924948   F   F   F
  0.1100041877042198  0.5543017155721022  0.0310231225199697   F   F   F
  0.5549201202098519  0.4442994318676788  0.1893276189925666   F   F   F
  0.4442156853835719  0.5550993707674075  0.0304487102906294   F   F   F
  0.6622888041737960  0.3301401578694249  0.3517846278673902   T   T   T
  0.8890041208208310  0.4446742416410612  0.1922536799791493   F   F   F
  0.7776305278678750  0.5543017155722486  0.0310231225200047   F   F   F
  0.0012795931914388  0.6692261863836606  0.3478448734367764   T   T   T
  0.2216566196251826  0.7793063512229353  0.1877464443441441   F   F   F
  0.1111512444254264  0.8889694888509734  0.0292167568554230   F   F   F
  0.3224619695304607  0.6712420737815286  0.3446084225793887   T   T   T
  0.5548357973101781  0.7763375946204414  0.1893335210096502   F   F   F
  0.4446998573282074  0.8886475358890176  0.0302142321151472   F   F   F
  0.6821131042519162  0.6712420737820168  0.3446084225796719   T   T   T
  0.8909827315969757  0.7793063512227547  0.1877464443441818   F   F   F
  0.7772806785608120  0.8886475358890639  0.0302142321151116   F   F   F
0.32115536133842790 0.31197742267722554 0.4013792 T T T
0.446598 0.216020 0.433410 T T T 
 
  0.00000000E+00  0.00000000E+00  0.00000000E+00
  0.00000000E+00  0.00000000E+00  0.00000000E+00
  0.00000000E+00  0.00000000E+00  0.00000000E+00
  0.00000000E+00  0.00000000E+00  0.00000000E+00
  0.00000000E+00  0.00000000E+00  0.00000000E+00
  0.00000000E+00  0.00000000E+00  0.00000000E+00
  0.00000000E+00  0.00000000E+00  0.00000000E+00
  0.00000000E+00  0.00000000E+00  0.00000000E+00
  0.00000000E+00  0.00000000E+00  0.00000000E+00
  0.00000000E+00  0.00000000E+00  0.00000000E+00
  0.00000000E+00  0.00000000E+00  0.00000000E+00
  0.00000000E+00  0.00000000E+00  0.00000000E+00
  0.00000000E+00  0.00000000E+00  0.00000000E+00
  0.00000000E+00  0.00000000E+00  0.00000000E+00
  0.00000000E+00  0.00000000E+00  0.00000000E+00
  0.00000000E+00  0.00000000E+00  0.00000000E+00
  0.00000000E+00  0.00000000E+00  0.00000000E+00
  0.00000000E+00  0.00000000E+00  0.00000000E+00
  0.00000000E+00  0.00000000E+00  0.00000000E+00
  0.00000000E+00  0.00000000E+00  0.00000000E+00
  0.00000000E+00  0.00000000E+00  0.00000000E+00
  0.00000000E+00  0.00000000E+00  0.00000000E+00
  0.00000000E+00  0.00000000E+00  0.00000000E+00
  0.00000000E+00  0.00000000E+00  0.00000000E+00
  0.00000000E+00  0.00000000E+00  0.00000000E+00
  0.00000000E+00  0.00000000E+00  0.00000000E+00
  0.00000000E+00  0.00000000E+00  0.00000000E+00
  0.00000000E+00  0.00000000E+00  0.00000000E+00
  0.00000000E+00  0.00000000E+00  0.00000000E+00
  0.00000000E+00  0.00000000E+00  0.00000000E+00
  0.00000000E+00  0.00000000E+00  0.00000000E+00
  0.00000000E+00  0.00000000E+00  0.00000000E+00
  0.00000000E+00  0.00000000E+00  0.00000000E+00
  0.00000000E+00  0.00000000E+00  0.00000000E+00
  0.00000000E+00  0.00000000E+00  0.00000000E+00
  0.00000000E+00  0.00000000E+00  0.00000000E+00
  0.00000000E+00  0.00000000E+00  0.00000000E+00
  0.00000000E+00  0.00000000E+00  0.00000000E+00
  0.00000000E+00  0.00000000E+00  0.00000000E+00
  0.00000000E+00  0.00000000E+00  0.00000000E+00
  0.00000000E+00  0.00000000E+00  0.00000000E+00
  0.00000000E+00  0.00000000E+00  0.00000000E+00
  0.00000000E+00  0.00000000E+00  0.00000000E+00
  0.00000000E+00  0.00000000E+00  0.00000000E+00
  0.00000000E+00  0.00000000E+00  0.00000000E+00
  0.00000000E+00  0.00000000E+00  0.00000000E+00
  0.00000000E+00  0.00000000E+00  0.00000000E+00
  0.00000000E+00  0.00000000E+00  0.00000000E+00
  0.00000000E+00  0.00000000E+00  0.00000000E+00
  0.00000000E+00  0.00000000E+00  0.00000000E+00
  0.00000000E+00  0.00000000E+00  0.00000000E+00
  0.00000000E+00  0.00000000E+00  0.00000000E+00
  0.00000000E+00  0.00000000E+00  0.00000000E+00
  0.00000000E+00  0.00000000E+00  0.00000000E+00
  0.00000000E+00  0.00000000E+00  0.00000000E+00
  0.00000000E+00  0.00000000E+00  0.00000000E+00
  0.00000000E+00  0.00000000E+00  0.00000000E+00
  0.00000000E+00  0.00000000E+00  0.00000000E+00
  0.00000000E+00  0.00000000E+00  0.00000000E+00
  0.00000000E+00  0.00000000E+00  0.00000000E+00
  0.00000000E+00  0.00000000E+00  0.00000000E+00
  0.00000000E+00  0.00000000E+00  0.00000000E+00
  0.00000000E+00  0.00000000E+00  0.00000000E+00
  0.00000000E+00  0.00000000E+00  0.00000000E+00
  0.00000000E+00  0.00000000E+00  0.00000000E+00
  0.00000000E+00  0.00000000E+00  0.00000000E+00
  0.00000000E+00  0.00000000E+00  0.00000000E+00
  0.00000000E+00  0.00000000E+00  0.00000000E+00
  0.00000000E+00  0.00000000E+00  0.00000000E+00
  0.00000000E+00  0.00000000E+00  0.00000000E+00
  0.00000000E+00  0.00000000E+00  0.00000000E+00
  0.00000000E+00  0.00000000E+00  0.00000000E+00
  0.00000000E+00  0.00000000E+00  0.00000000E+00
  0.00000000E+00  0.00000000E+00  0.00000000E+00
  0.00000000E+00  0.00000000E+00  0.00000000E+00
  0.00000000E+00  0.00000000E+00  0.00000000E+00
  0.00000000E+00  0.00000000E+00  0.00000000E+00
  0.00000000E+00  0.00000000E+00  0.00000000E+00
  0.00000000E+00  0.00000000E+00  0.00000000E+00
  0.00000000E+00  0.00000000E+00  0.00000000E+00
