CeO2-you-111-you-Pt                     
   1.00000000000000     
     9.8194997738855925   -5.6692912080755651    0.0000000008101934
     0.0104111215151144   11.3566130111161350    0.0149700759784374
     0.0153316939422782    0.0265552683133540   21.2692258314980762
   O    Pt   Ce   H 
    53     1    26     1
Selective dynamics
Direct
 -0.0000429435043380  0.0003536606171644  0.9958771262192737   T   T   T
  0.1042795353091601  0.2185806960921997  0.1484391639749244   T   T   T
  0.2076653066548534  0.0897425650934446  0.2963069343525153   T   T   T
  0.1311821487676860  0.2331702451824300  0.3816596734992691   T   T   T
  0.9915276280587955  0.9954069115271937  0.2263759848348702   T   T   T
  0.2228053293186043  0.1112406846554722  0.0750435450793236   T   T   T
  0.3338122671452967  0.0008168611358838  0.9958714594270751   T   T   T
  0.4500507078943788  0.2195506318431197  0.1485669327594352   T   T   T
  0.5602967007864962  0.1211965185226377  0.3077657115342194   T   T   T
  0.4219182783562255  0.2415801812775524  0.3966635128672174   T   T   T
  0.3382002682865072  0.9965801091966348  0.2265902645358563   T   T   T
  0.5578795535588115  0.1100919863921884  0.0752318235679374   T   T   T
  0.6674032541322955  0.0011512015516420  0.9946806858173802   T   T   T
  0.7781219821520147  0.2236704476838151  0.1535497271646045   T   T   T
  0.8930210701078883  0.1124669458448263  0.3058051558379555   T   T   T
  0.7814633465331825  0.2237770333225559  0.3842034361567064   T   T   T
  0.6635087282165668  0.9951589219975678  0.2333973512513960   T   T   T
  0.8851366360255586  0.1102042559758790  0.0754974744769029   T   T   T
  0.0005223948373655  0.3330594320947510  0.9961301627220960   T   T   T
  0.1106869850330860  0.5544569610656941  0.1487458717066457   T   T   T
  0.2511088405289328  0.4489942000576509  0.3088183572581642   T   T   T
  0.1149865956215449  0.5530958376297066  0.3821584044799340   T   T   T
  0.0102277527693309  0.3375063229649895  0.2324399614312216   T   T   T
  0.2234891379731316  0.4439598765595271  0.0751580156628064   T   T   T
  0.3329709274268789  0.3327204570125907  0.9957894526234338   T   T   T
  0.4484113467411553  0.5620792649579440  0.1479732899538476   T   T   T
  0.5292855009263372  0.4479354082747806  0.3152371944302595   T   T   T
  0.3336405196833040  0.3314552196720046  0.2150161021375785   T   T   T
  0.5541149129753153  0.4443290295797283  0.0751801111335084   T   T   T
  0.6669905336119132  0.3344201919666932  0.9964033395806599   T   T   T
  0.7783932025665478  0.5535538209573400  0.1480974562571559   T   T   T
  0.8920051461671995  0.4419702542430642  0.3039965335239908   T   T   T
  0.7789413334224262  0.5513499279195023  0.3809655064410533   T   T   T
  0.6656517223854876  0.3418247737959084  0.2333993792163734   T   T   T
  0.8888497433504986  0.4427094340837908  0.0752572465468281   T   T   T
  0.0001982040713485  0.6670984660779664  0.9961484754085177   T   T   T
  0.1105095753090394  0.8868552498353961  0.1486147065364726   T   T   T
  0.2200430389322376  0.7727173815517819  0.3026227235490781   T   T   T
  0.0955517072402712  0.8752036875515441  0.3861667497847506   T   T   T
  0.9998896673063233  0.6648508719828596  0.2282856663302441   T   T   T
  0.2235763887674156  0.7782352240630210  0.0747327115634478   T   T   T
  0.3319280235111726  0.6656290456448204  0.9951221409000678   T   T   T
  0.4476984192110874  0.8879863706177482  0.1490918873694224   T   T   T
  0.5502986909823252  0.7605547358855602  0.3069790183135567   T   T   T
  0.4519289372650431  0.8806206982712327  0.3833421100665115   T   T   T
  0.3314137028696266  0.6650233334273489  0.2287165138029078   T   T   T
  0.5554573072486904  0.7783206774384631  0.0732295042421252   T   T   T
  0.6671745944138150  0.6664005292649106  0.9954859437476273   T   T   T
  0.7734089360874874  0.8874647579389121  0.1491415646152915   T   T   T
  0.8901166741121914  0.7752336882159802  0.3009640480383424   T   T   T
  0.7777864920044053  0.8849497074236521  0.3812252909611930   T   T   T
  0.6682261030693558  0.6622405987864048  0.2285732372787589   T   T   T
  0.8884399059346989  0.7787129223231984  0.0746283583671402   T   T   T
  0.3353774216581666  0.3517357889066057  0.3540941701505705   T   T   T
  0.0071954969979628  0.0007879299086164  0.3410051006944566   T   T   T
  0.2217269230159481  0.1094568571005469  0.1897546458469868   T   T   T
  0.1106197419460630  0.2216322616997811  0.0360404118317656   T   T   T
  0.3273589393101912 -0.0024995522395843  0.3447778226797112   T   T   T
  0.5549395450257701  0.1102811173192882  0.1909077961446160   T   T   T
  0.4447232459449147  0.2218600929426925  0.0360528607310883   T   T   T
  0.6685169604822829 -0.0014923433527202  0.3448791938164907   T   T   T
  0.8888877625762752  0.1103508871395770  0.1903185064134914   T   T   T
  0.7777602696330873  0.2221584074519863  0.0359139555366402   T   T   T
  0.0103592152264565  0.3321250248161295  0.3441713478785070   T   T   T
  0.2252014502351857  0.4418557351680498  0.1878190752555822   T   T   T
  0.1112152210834969  0.5551666936532728  0.0356114252899521   T   T   T
  0.5512557219461527  0.4419484187283229  0.1875553994254786   T   T   T
  0.4444987468663489  0.5557160658596488  0.0343321319514286   T   T   T
  0.6756559647926549  0.3357550862267411  0.3423429047884059   T   T   T
  0.8912205531310942  0.4457372081226433  0.1899269493180513   T   T   T
  0.7778995550288239  0.5553661086901893  0.0356378416933457   T   T   T
  0.0018598678383428  0.6658598462380979  0.3424948903343640   T   T   T
  0.2230177005599719  0.7774993326318580  0.1876029998277605   T   T   T
  0.1116392956274418  0.8895583368221852  0.0353126777171566   T   T   T
  0.3292620010324431  0.6696223433003581  0.3396416639456172   T   T   T
  0.5552929049519126  0.7764039033384983  0.1888889010647707   T   T   T
  0.4455679563695857  0.8894647601915990  0.0351249333703138   T   T   T
  0.6777581903909276  0.6683843514581712  0.3387142945907985   T   T   T
  0.8887638895489717  0.7764390455416407  0.1869173284367455   T   T   T
  0.7769262823838224  0.8894527263409291  0.0350506540332572   T   T   T
  0.4155004142387080  0.2515793489462189  0.4418341178948724   T   T   T
 
  0.00000000E+00  0.00000000E+00  0.00000000E+00
  0.00000000E+00  0.00000000E+00  0.00000000E+00
  0.00000000E+00  0.00000000E+00  0.00000000E+00
  0.00000000E+00  0.00000000E+00  0.00000000E+00
  0.00000000E+00  0.00000000E+00  0.00000000E+00
  0.00000000E+00  0.00000000E+00  0.00000000E+00
  0.00000000E+00  0.00000000E+00  0.00000000E+00
  0.00000000E+00  0.00000000E+00  0.00000000E+00
  0.00000000E+00  0.00000000E+00  0.00000000E+00
  0.00000000E+00  0.00000000E+00  0.00000000E+00
  0.00000000E+00  0.00000000E+00  0.00000000E+00
  0.00000000E+00  0.00000000E+00  0.00000000E+00
  0.00000000E+00  0.00000000E+00  0.00000000E+00
  0.00000000E+00  0.00000000E+00  0.00000000E+00
  0.00000000E+00  0.00000000E+00  0.00000000E+00
  0.00000000E+00  0.00000000E+00  0.00000000E+00
  0.00000000E+00  0.00000000E+00  0.00000000E+00
  0.00000000E+00  0.00000000E+00  0.00000000E+00
  0.00000000E+00  0.00000000E+00  0.00000000E+00
  0.00000000E+00  0.00000000E+00  0.00000000E+00
  0.00000000E+00  0.00000000E+00  0.00000000E+00
  0.00000000E+00  0.00000000E+00  0.00000000E+00
  0.00000000E+00  0.00000000E+00  0.00000000E+00
  0.00000000E+00  0.00000000E+00  0.00000000E+00
  0.00000000E+00  0.00000000E+00  0.00000000E+00
  0.00000000E+00  0.00000000E+00  0.00000000E+00
  0.00000000E+00  0.00000000E+00  0.00000000E+00
  0.00000000E+00  0.00000000E+00  0.00000000E+00
  0.00000000E+00  0.00000000E+00  0.00000000E+00
  0.00000000E+00  0.00000000E+00  0.00000000E+00
  0.00000000E+00  0.00000000E+00  0.00000000E+00
  0.00000000E+00  0.00000000E+00  0.00000000E+00
  0.00000000E+00  0.00000000E+00  0.00000000E+00
  0.00000000E+00  0.00000000E+00  0.00000000E+00
  0.00000000E+00  0.00000000E+00  0.00000000E+00
  0.00000000E+00  0.00000000E+00  0.00000000E+00
  0.00000000E+00  0.00000000E+00  0.00000000E+00
  0.00000000E+00  0.00000000E+00  0.00000000E+00
  0.00000000E+00  0.00000000E+00  0.00000000E+00
  0.00000000E+00  0.00000000E+00  0.00000000E+00
  0.00000000E+00  0.00000000E+00  0.00000000E+00
  0.00000000E+00  0.00000000E+00  0.00000000E+00
  0.00000000E+00  0.00000000E+00  0.00000000E+00
  0.00000000E+00  0.00000000E+00  0.00000000E+00
  0.00000000E+00  0.00000000E+00  0.00000000E+00
  0.00000000E+00  0.00000000E+00  0.00000000E+00
  0.00000000E+00  0.00000000E+00  0.00000000E+00
  0.00000000E+00  0.00000000E+00  0.00000000E+00
  0.00000000E+00  0.00000000E+00  0.00000000E+00
  0.00000000E+00  0.00000000E+00  0.00000000E+00
  0.00000000E+00  0.00000000E+00  0.00000000E+00
  0.00000000E+00  0.00000000E+00  0.00000000E+00
  0.00000000E+00  0.00000000E+00  0.00000000E+00
  0.00000000E+00  0.00000000E+00  0.00000000E+00
  0.00000000E+00  0.00000000E+00  0.00000000E+00
  0.00000000E+00  0.00000000E+00  0.00000000E+00
  0.00000000E+00  0.00000000E+00  0.00000000E+00
  0.00000000E+00  0.00000000E+00  0.00000000E+00
  0.00000000E+00  0.00000000E+00  0.00000000E+00
  0.00000000E+00  0.00000000E+00  0.00000000E+00
  0.00000000E+00  0.00000000E+00  0.00000000E+00
  0.00000000E+00  0.00000000E+00  0.00000000E+00
  0.00000000E+00  0.00000000E+00  0.00000000E+00
  0.00000000E+00  0.00000000E+00  0.00000000E+00
  0.00000000E+00  0.00000000E+00  0.00000000E+00
  0.00000000E+00  0.00000000E+00  0.00000000E+00
  0.00000000E+00  0.00000000E+00  0.00000000E+00
  0.00000000E+00  0.00000000E+00  0.00000000E+00
  0.00000000E+00  0.00000000E+00  0.00000000E+00
  0.00000000E+00  0.00000000E+00  0.00000000E+00
  0.00000000E+00  0.00000000E+00  0.00000000E+00
  0.00000000E+00  0.00000000E+00  0.00000000E+00
  0.00000000E+00  0.00000000E+00  0.00000000E+00
  0.00000000E+00  0.00000000E+00  0.00000000E+00
  0.00000000E+00  0.00000000E+00  0.00000000E+00
  0.00000000E+00  0.00000000E+00  0.00000000E+00
  0.00000000E+00  0.00000000E+00  0.00000000E+00
  0.00000000E+00  0.00000000E+00  0.00000000E+00
  0.00000000E+00  0.00000000E+00  0.00000000E+00
  0.00000000E+00  0.00000000E+00  0.00000000E+00
  0.00000000E+00  0.00000000E+00  0.00000000E+00
