CeO2-you-111-you-Mn                     
   1.00000000000000     
     9.8306756423332793   -5.6704207768971946   -0.0002292956547150
     0.0000000016106993   11.3408395608094512    0.0000000000258208
    -0.0007638504418016    0.0000000000879288   21.0009507403146891
   O    Mn   Ce
    53     1    26
Selective dynamics
Direct
 -0.0006423973669647  0.0007277251711446  0.9958429648748154   T   T   T
  0.1147806051666225  0.2240568025828679  0.1512121933174298   T   T   T
  0.2194747584118242  0.1100626470226732  0.3035297093137633   T   T   T
  0.1094729880214939  0.2214029940108648  0.3836477001450390   T   T   T
 -0.0014860862543334  0.0007831060931711  0.2293476996603554   T   T   T
  0.2218128888728983  0.1101333901903077  0.0748090717074687   T   T   T
  0.3326487543872984 -0.0008646211043281  0.9943963161786442   T   T   T
  0.4446739516420036  0.2201414001664378  0.1470812773409363   T   T   T
  0.5574505481148926  0.1087336317066998  0.3048672296715196   T   T   T
  0.4535537393028782  0.2502660181148235  0.3679796637994818   T   T   T
  0.3349862379734871  0.0018017240325939  0.2300575185588490   T   T   T
  0.5551556076454436  0.1095526112272722  0.0746141904468725   T   T   T
  0.6683604351402996  0.0008467175700915  0.9952634135446985   T   T   T
  0.7743284835526573  0.2254025228506356  0.1518660555637986   T   T   T
  0.8869801139587576  0.1101565569790233  0.3054040486608846   T   T   T
  0.7765599333191312  0.2197836088260782  0.3880618050666080   T   T   T
  0.6671077841163501  0.0002203920582117  0.2290488320327488   T   T   T
  0.8879931440689361  0.1106630720343981  0.0777263552604990   T   T   T
 -0.0006423973665644  0.3319628774620192  0.9958429648747783   T   T   T
  0.1106648660060584  0.5554702279154599  0.1514324576108590   T   T   T
  0.2194747584114481  0.4427451113893996  0.3035297093138104   T   T   T
  0.1142250858187073  0.5586016893788698  0.3846014453556112   T   T   T
 -0.0014860862533467  0.3310638076518939  0.2293476996603894   T   T   T
  0.2218128888728921  0.4450124986825388  0.0748090717074905   T   T   T
  0.3311439864541738  0.3322384932271056  0.9946450189436187   T   T   T
  0.4446739516400598  0.5578665514761479  0.1470812773408287   T   T   T
  0.4535537393051116  0.5366217211878128  0.3679796637993936   T   T   T
  0.3481671733222853  0.3407500866604848  0.2312161641651481   T   T   T
  0.5550075032610443  0.4441697516308443  0.0717851404022986   T   T   T
  0.6678779471557902  0.3326389407983193  0.9947780447045133   T   T   T
  0.7786464490571051  0.5559902245280144  0.1476730008328526   T   T   T
  0.8910718881708340  0.4426364998735225  0.3053028858251148   T   T   T
  0.7665405580655756  0.5499372790342907  0.3792223448319396   T   T   T
  0.6582838078019262  0.3426539789125592  0.2352883407077830   T   T   T
  0.8900555430420782  0.4446857642508568  0.0750736723468727   T   T   T
  0.0004490235884593  0.6668915117940567  0.9949283189962985   T   T   T
  0.1106648660054577  0.8885286380894439  0.1514324576108355   T   T   T
  0.2220774700509063  0.7777057350251246  0.3033509997044940   T   T   T
  0.1142250858178601  0.8889573964383665  0.3846014453555208   T   T   T
 -0.0021403968084693  0.6655968015952844  0.2305898864988182   T   T   T
  0.2223993265075436  0.7778666632536922  0.0753776639726243   T   T   T
  0.3326487543872392  0.6668473754916610  0.9943963161786227   T   T   T
  0.4445846560104532  0.8889593280053436  0.1507104285324184   T   T   T
  0.5574505481131120  0.7820499164081622  0.3048672296714325   T   T   T
  0.4421981861271808  0.8877660930636341  0.3842607766303387   T   T   T
  0.3349862379739210  0.6665185139413362  0.2300575185588665   T   T   T
  0.5551556076455222  0.7789359964186087  0.0746141904468434   T   T   T
  0.6678779471560204  0.6685720063577266  0.9947780447044841   T   T   T
  0.7743284835516597  0.8822589607018415  0.1518660555639009   T   T   T
  0.8910718881696623  0.7817683882946348  0.3053028858250461   T   T   T
  0.7765599333180490  0.8901093244920394  0.3880618050663158   T   T   T
  0.6582838078051936  0.6489628288933141  0.2352883407076034   T   T   T
  0.8900555430420869  0.7787027787909844  0.0750736723468160   T   T   T
  0.3205333421385040  0.3269331710707655  0.3407337691448021   T   T   T
  0.0047334561276004  0.0059929539371670  0.3458016588604234   T   T   T
  0.2234499082859902  0.1134888642335188  0.1919726197522837   T   T   T
  0.1111995868989885  0.2222662934494235  0.0360859386465193   T   T   T
  0.3327452191730768  0.0041151697820589  0.3425203504595236   T   T   T
  0.5552053690204928  0.1114736016116865  0.1907075081673664   T   T   T
  0.4431567799344701  0.2199119024980977  0.0332949186639449   T   T   T
  0.6659424304408429 -0.0003622847790050  0.3468569544221783   T   T   T
  0.8883912207120656  0.1108621103568573  0.1913123864994749   T   T   T
  0.7777265285130694  0.2222006598906210  0.0356238585410547   T   T   T
  0.0047334561268570  0.3320735021915340  0.3458016588602064   T   T   T
  0.2234499082864795  0.4432940440515529  0.1919726197522402   T   T   T
  0.1106896259178962  0.5547672585082893  0.0358611128630645   T   T   T
  0.5528741807430021  0.4431030903695467  0.1821148526757702   T   T   T
  0.4431567799342561  0.5565788774360081  0.0332949186639788   T   T   T
  0.6696549492902736  0.3274390621774655  0.3475686576279869   T   T   T
  0.8883632905406961  0.4446930403334809  0.1913261897286866   T   T   T
  0.7798372668044637  0.5565856334021272  0.0337449985792098   T   T   T
  0.0020719807182489  0.6677029903614596  0.3438898138129354   T   T   T
  0.2220622196515065  0.7776981098263789  0.1897169645675938   T   T   T
  0.1106896259176993  0.8892563674100264  0.0358611128630514   T   T   T
  0.3327452191750437  0.6619640493902540  0.3425203504592276   T   T   T
  0.5552053690235191  0.7770647674083887  0.1907075081674039   T   T   T
  0.4449213969789015  0.8891276984892268  0.0351915883838138   T   T   T
  0.6696549492882684  0.6755488871097240  0.3475686576286282   T   T   T
  0.8883632905435850  0.7770032502122690  0.1913261897286633   T   T   T
  0.7777265285134862  0.8888588686227167  0.0356238585410844   T   T   T
 
  0.00000000E+00  0.00000000E+00  0.00000000E+00
  0.00000000E+00  0.00000000E+00  0.00000000E+00
  0.00000000E+00  0.00000000E+00  0.00000000E+00
  0.00000000E+00  0.00000000E+00  0.00000000E+00
  0.00000000E+00  0.00000000E+00  0.00000000E+00
  0.00000000E+00  0.00000000E+00  0.00000000E+00
  0.00000000E+00  0.00000000E+00  0.00000000E+00
  0.00000000E+00  0.00000000E+00  0.00000000E+00
  0.00000000E+00  0.00000000E+00  0.00000000E+00
  0.00000000E+00  0.00000000E+00  0.00000000E+00
  0.00000000E+00  0.00000000E+00  0.00000000E+00
  0.00000000E+00  0.00000000E+00  0.00000000E+00
  0.00000000E+00  0.00000000E+00  0.00000000E+00
  0.00000000E+00  0.00000000E+00  0.00000000E+00
  0.00000000E+00  0.00000000E+00  0.00000000E+00
  0.00000000E+00  0.00000000E+00  0.00000000E+00
  0.00000000E+00  0.00000000E+00  0.00000000E+00
  0.00000000E+00  0.00000000E+00  0.00000000E+00
  0.00000000E+00  0.00000000E+00  0.00000000E+00
  0.00000000E+00  0.00000000E+00  0.00000000E+00
  0.00000000E+00  0.00000000E+00  0.00000000E+00
  0.00000000E+00  0.00000000E+00  0.00000000E+00
  0.00000000E+00  0.00000000E+00  0.00000000E+00
  0.00000000E+00  0.00000000E+00  0.00000000E+00
  0.00000000E+00  0.00000000E+00  0.00000000E+00
  0.00000000E+00  0.00000000E+00  0.00000000E+00
  0.00000000E+00  0.00000000E+00  0.00000000E+00
  0.00000000E+00  0.00000000E+00  0.00000000E+00
  0.00000000E+00  0.00000000E+00  0.00000000E+00
  0.00000000E+00  0.00000000E+00  0.00000000E+00
  0.00000000E+00  0.00000000E+00  0.00000000E+00
  0.00000000E+00  0.00000000E+00  0.00000000E+00
  0.00000000E+00  0.00000000E+00  0.00000000E+00
  0.00000000E+00  0.00000000E+00  0.00000000E+00
  0.00000000E+00  0.00000000E+00  0.00000000E+00
  0.00000000E+00  0.00000000E+00  0.00000000E+00
  0.00000000E+00  0.00000000E+00  0.00000000E+00
  0.00000000E+00  0.00000000E+00  0.00000000E+00
  0.00000000E+00  0.00000000E+00  0.00000000E+00
  0.00000000E+00  0.00000000E+00  0.00000000E+00
  0.00000000E+00  0.00000000E+00  0.00000000E+00
  0.00000000E+00  0.00000000E+00  0.00000000E+00
  0.00000000E+00  0.00000000E+00  0.00000000E+00
  0.00000000E+00  0.00000000E+00  0.00000000E+00
  0.00000000E+00  0.00000000E+00  0.00000000E+00
  0.00000000E+00  0.00000000E+00  0.00000000E+00
  0.00000000E+00  0.00000000E+00  0.00000000E+00
  0.00000000E+00  0.00000000E+00  0.00000000E+00
  0.00000000E+00  0.00000000E+00  0.00000000E+00
  0.00000000E+00  0.00000000E+00  0.00000000E+00
  0.00000000E+00  0.00000000E+00  0.00000000E+00
  0.00000000E+00  0.00000000E+00  0.00000000E+00
  0.00000000E+00  0.00000000E+00  0.00000000E+00
  0.00000000E+00  0.00000000E+00  0.00000000E+00
  0.00000000E+00  0.00000000E+00  0.00000000E+00
  0.00000000E+00  0.00000000E+00  0.00000000E+00
  0.00000000E+00  0.00000000E+00  0.00000000E+00
  0.00000000E+00  0.00000000E+00  0.00000000E+00
  0.00000000E+00  0.00000000E+00  0.00000000E+00
  0.00000000E+00  0.00000000E+00  0.00000000E+00
  0.00000000E+00  0.00000000E+00  0.00000000E+00
  0.00000000E+00  0.00000000E+00  0.00000000E+00
  0.00000000E+00  0.00000000E+00  0.00000000E+00
  0.00000000E+00  0.00000000E+00  0.00000000E+00
  0.00000000E+00  0.00000000E+00  0.00000000E+00
  0.00000000E+00  0.00000000E+00  0.00000000E+00
  0.00000000E+00  0.00000000E+00  0.00000000E+00
  0.00000000E+00  0.00000000E+00  0.00000000E+00
  0.00000000E+00  0.00000000E+00  0.00000000E+00
  0.00000000E+00  0.00000000E+00  0.00000000E+00
  0.00000000E+00  0.00000000E+00  0.00000000E+00
  0.00000000E+00  0.00000000E+00  0.00000000E+00
  0.00000000E+00  0.00000000E+00  0.00000000E+00
  0.00000000E+00  0.00000000E+00  0.00000000E+00
  0.00000000E+00  0.00000000E+00  0.00000000E+00
  0.00000000E+00  0.00000000E+00  0.00000000E+00
  0.00000000E+00  0.00000000E+00  0.00000000E+00
  0.00000000E+00  0.00000000E+00  0.00000000E+00
  0.00000000E+00  0.00000000E+00  0.00000000E+00
  0.00000000E+00  0.00000000E+00  0.00000000E+00
