CeO2-you-111-you-Zr                     
   1.00000000000000     
     9.8169881593313750   -5.6678411278461516    0.0000000000000000
     0.0000000031210471   11.3356802662588212   -0.0000000000000000
     0.0000000000000000   -0.0000000000000000   21.1694556899234918
   O    Zr   Ce
    54     1    26
Selective dynamics
Direct
 -0.0004797856188243 -0.0000790217524596  0.9962641879574731   T   T   T
  0.1121154536687495  0.2227242268342459  0.1503159982051605   T   T   T
  0.2235633649591884  0.1137937299192212  0.3013420903880998   T   T   T
  0.1304535504885543  0.2318932752451249  0.3782482932246363   T   T   T
 -0.0009017105568090 -0.0005285702979830  0.2296560183406062   T   T   T
  0.2221177676526963  0.1109025353053822  0.0752919400904275   T   T   T
  0.3337337638663808 -0.0000790217524627  0.9962641879574731   T   T   T
  0.4439417731654925  0.2227242268341302  0.1503159982051605   T   T   T
  0.5542245832313574  0.1124424167682404  0.3051992747742535   T   T   T
  0.4347727247565666  0.2318932752458760  0.3782482932246363   T   T   T
  0.3337061402588266 -0.0005285702980908  0.2296560183406062   T   T   T
  0.5554494393117519  0.1112175606881358  0.0760581694172690   T   T   T
  0.6666669999999968 -0.0000000000000000  0.9965120225329446   T   T   T
  0.7774007292069286  0.2214674584138375  0.1503182578257754   T   T   T
  0.8915518335370085  0.1124424167683653  0.3051992747742535   T   T   T
  0.7776710632608094  0.2220081265216536  0.3833056513332483   T   T   T
  0.6666669999999968 -0.0000000000000000  0.2309796954336280   T   T   T
  0.8891021213764202  0.1112175606881715  0.0760581694172690   T   T   T
 -0.0004797856187951  0.3329322361336315  0.9962641879574731   T   T   T
  0.1110948052553260  0.5555721947446658  0.1501925216725549   T   T   T
  0.2235633649572785  0.4431026350399632  0.3013420903880998   T   T   T
  0.1124452566324151  0.5542217433680316  0.3827042615906037   T   T   T
 -0.0009017105568148  0.3329598597409344  0.2296560183406062   T   T   T
  0.2221177676527127  0.4445482323473103  0.0752919400904275   T   T   T
  0.3333330000000032  0.3333330000000032  0.9960308691323779   T   T   T
  0.4439417731657533  0.5545515463316313  0.1503159982051604   T   T   T
  0.5528732700835404  0.4431026350408111  0.3013420903880998   T   T   T
  0.4347727247548744  0.5362134495090062  0.3782482932246363   T   T   T
  0.3333330000000032  0.3333330000000032  0.2327257371141980   T   T   T
  0.5557644646945979  0.4445482323473029  0.0752919400904275   T   T   T
  0.6667460217524072  0.3329322361336156  0.9962641879574731   T   T   T
  0.7778103894893399  0.5555721947446695  0.1501925216725549   T   T   T
  0.8889659090803442  0.4445978181606664  0.3044465160370146   T   T   T
  0.7751094867354764  0.5542217433678955  0.3827042615906037   T   T   T
  0.6671955702977455  0.3329598597408293  0.2296560183406062   T   T   T
  0.8888951866279953  0.4444563732559893  0.0757698460085572   T   T   T
  0.0000000000000000  0.6666669999999968  0.9961442194119864   T   T   T
  0.1110948052553344  0.8888566105106693  0.1501925216725549   T   T   T
  0.2220681818392631  0.7777010909196526  0.3044465160370146   T   T   T
  0.1124452566321083  0.8915575132640772  0.3827042615906037   T   T   T
  0.0000000000000000  0.6666669999999968  0.2299051766041834   T   T   T
  0.2222096267440077  0.7777718133720015  0.0757698460085572   T   T   T
  0.3337337638664171  0.6671467856188440  0.9962641879574731   T   T   T
  0.4451985415860760  0.8892662707930682  0.1503182578257754   T   T   T
  0.5542245832316390  0.7751151664633943  0.3051992747742535   T   T   T
  0.4446578734784388  0.8889959367391874  0.3833056513332483   T   T   T
  0.3337061402590635  0.6675687105571539  0.2296560183406062   T   T   T
  0.5554494393118324  0.7775648786236927  0.0760581694172690   T   T   T
  0.6667460217524143  0.6671467856188311  0.9962641879574731   T   T   T
  0.7774007292069883  0.8892662707930943  0.1503182578257754   T   T   T
  0.8889659090803925  0.7777010909196737  0.3044465160370146   T   T   T
  0.7776710632607448  0.8889959367391590  0.3833056513332483   T   T   T
  0.6671955702979880  0.6675687105571561  0.2296560183406062   T   T   T
  0.8888951866279970  0.7777718133720021  0.0757698460085572   T   T   T
  0.3333330000000032  0.3333330000000032  0.3349219083470128   T   T   T
  0.0034688569091945  0.0029504671509653  0.3432251956543250   T   T   T
  0.2218331881703877  0.1103333763407135  0.1898048285934639   T   T   T
  0.1109953382367526  0.2221641691183638  0.0358612976255486   T   T   T
  0.3328146102420470  0.0029504671509332  0.3432251956543250   T   T   T
  0.5555741152234317  0.1110928847764686  0.1902840384227286   T   T   T
  0.4445018308816073  0.2221641691183512  0.0358612976255486   T   T   T
  0.6666669999999968 -0.0000000000000000  0.3452632881501401   T   T   T
  0.8888527695530696  0.1110928847765004  0.1902840384227286   T   T   T
  0.7777632190888136  0.2221924381776116  0.0362935244459651   T   T   T
  0.0034688569098093  0.3338513897581600  0.3432251956543250   T   T   T
  0.2218331881705198  0.4448328118296703  0.1898048285934639   T   T   T
  0.1110269697052611  0.5556400302946999  0.0359698849292828   T   T   T
  0.5563336236590996  0.4448328118296117  0.1898048285934639   T   T   T
  0.4445018308816356  0.5556716617632924  0.0358612976255486   T   T   T
  0.6637165328480717  0.3338513897578549  0.3432251956543250   T   T   T
  0.8887861014291619  0.4442382028584029  0.1902363358013125   T   T   T
  0.7779460605894480  0.5556400302947131  0.0359698849292828   T   T   T
  0.0000000000000000  0.6666669999999968  0.3431024804015053   T   T   T
  0.2224277971418554  0.7778808985708349  0.1902363358013125   T   T   T
  0.1110269697052907  0.8887209394105913  0.0359698849292828   T   T   T
  0.3328146102427341  0.6631981430911800  0.3432251956543250   T   T   T
  0.5555741152235033  0.7778142304470309  0.1902840384227286   T   T   T
  0.4444735618223152  0.8889037809111832  0.0362935244459651   T   T   T
  0.6637165328481437  0.6631981430909070  0.3432251956543250   T   T   T
  0.8887861014289827  0.7778808985707548  0.1902363358013125   T   T   T
  0.7777632190888639  0.8889037809112051  0.0362935244459651   T   T   T
 
  0.00000000E+00  0.00000000E+00  0.00000000E+00
  0.00000000E+00  0.00000000E+00  0.00000000E+00
  0.00000000E+00  0.00000000E+00  0.00000000E+00
  0.00000000E+00  0.00000000E+00  0.00000000E+00
  0.00000000E+00  0.00000000E+00  0.00000000E+00
  0.00000000E+00  0.00000000E+00  0.00000000E+00
  0.00000000E+00  0.00000000E+00  0.00000000E+00
  0.00000000E+00  0.00000000E+00  0.00000000E+00
  0.00000000E+00  0.00000000E+00  0.00000000E+00
  0.00000000E+00  0.00000000E+00  0.00000000E+00
  0.00000000E+00  0.00000000E+00  0.00000000E+00
  0.00000000E+00  0.00000000E+00  0.00000000E+00
  0.00000000E+00  0.00000000E+00  0.00000000E+00
  0.00000000E+00  0.00000000E+00  0.00000000E+00
  0.00000000E+00  0.00000000E+00  0.00000000E+00
  0.00000000E+00  0.00000000E+00  0.00000000E+00
  0.00000000E+00  0.00000000E+00  0.00000000E+00
  0.00000000E+00  0.00000000E+00  0.00000000E+00
  0.00000000E+00  0.00000000E+00  0.00000000E+00
  0.00000000E+00  0.00000000E+00  0.00000000E+00
  0.00000000E+00  0.00000000E+00  0.00000000E+00
  0.00000000E+00  0.00000000E+00  0.00000000E+00
  0.00000000E+00  0.00000000E+00  0.00000000E+00
  0.00000000E+00  0.00000000E+00  0.00000000E+00
  0.00000000E+00  0.00000000E+00  0.00000000E+00
  0.00000000E+00  0.00000000E+00  0.00000000E+00
  0.00000000E+00  0.00000000E+00  0.00000000E+00
  0.00000000E+00  0.00000000E+00  0.00000000E+00
  0.00000000E+00  0.00000000E+00  0.00000000E+00
  0.00000000E+00  0.00000000E+00  0.00000000E+00
  0.00000000E+00  0.00000000E+00  0.00000000E+00
  0.00000000E+00  0.00000000E+00  0.00000000E+00
  0.00000000E+00  0.00000000E+00  0.00000000E+00
  0.00000000E+00  0.00000000E+00  0.00000000E+00
  0.00000000E+00  0.00000000E+00  0.00000000E+00
  0.00000000E+00  0.00000000E+00  0.00000000E+00
  0.00000000E+00  0.00000000E+00  0.00000000E+00
  0.00000000E+00  0.00000000E+00  0.00000000E+00
  0.00000000E+00  0.00000000E+00  0.00000000E+00
  0.00000000E+00  0.00000000E+00  0.00000000E+00
  0.00000000E+00  0.00000000E+00  0.00000000E+00
  0.00000000E+00  0.00000000E+00  0.00000000E+00
  0.00000000E+00  0.00000000E+00  0.00000000E+00
  0.00000000E+00  0.00000000E+00  0.00000000E+00
  0.00000000E+00  0.00000000E+00  0.00000000E+00
  0.00000000E+00  0.00000000E+00  0.00000000E+00
  0.00000000E+00  0.00000000E+00  0.00000000E+00
  0.00000000E+00  0.00000000E+00  0.00000000E+00
  0.00000000E+00  0.00000000E+00  0.00000000E+00
  0.00000000E+00  0.00000000E+00  0.00000000E+00
  0.00000000E+00  0.00000000E+00  0.00000000E+00
  0.00000000E+00  0.00000000E+00  0.00000000E+00
  0.00000000E+00  0.00000000E+00  0.00000000E+00
  0.00000000E+00  0.00000000E+00  0.00000000E+00
  0.00000000E+00  0.00000000E+00  0.00000000E+00
  0.00000000E+00  0.00000000E+00  0.00000000E+00
  0.00000000E+00  0.00000000E+00  0.00000000E+00
  0.00000000E+00  0.00000000E+00  0.00000000E+00
  0.00000000E+00  0.00000000E+00  0.00000000E+00
  0.00000000E+00  0.00000000E+00  0.00000000E+00
  0.00000000E+00  0.00000000E+00  0.00000000E+00
  0.00000000E+00  0.00000000E+00  0.00000000E+00
  0.00000000E+00  0.00000000E+00  0.00000000E+00
  0.00000000E+00  0.00000000E+00  0.00000000E+00
  0.00000000E+00  0.00000000E+00  0.00000000E+00
  0.00000000E+00  0.00000000E+00  0.00000000E+00
  0.00000000E+00  0.00000000E+00  0.00000000E+00
  0.00000000E+00  0.00000000E+00  0.00000000E+00
  0.00000000E+00  0.00000000E+00  0.00000000E+00
  0.00000000E+00  0.00000000E+00  0.00000000E+00
  0.00000000E+00  0.00000000E+00  0.00000000E+00
  0.00000000E+00  0.00000000E+00  0.00000000E+00
  0.00000000E+00  0.00000000E+00  0.00000000E+00
  0.00000000E+00  0.00000000E+00  0.00000000E+00
  0.00000000E+00  0.00000000E+00  0.00000000E+00
  0.00000000E+00  0.00000000E+00  0.00000000E+00
  0.00000000E+00  0.00000000E+00  0.00000000E+00
  0.00000000E+00  0.00000000E+00  0.00000000E+00
  0.00000000E+00  0.00000000E+00  0.00000000E+00
  0.00000000E+00  0.00000000E+00  0.00000000E+00
  0.00000000E+00  0.00000000E+00  0.00000000E+00
