CeO2-you-111-you-Re                     
   1.00000000000000     
     9.8574383390581062   -5.6911950451955384    0.0000000008021707
     0.0349891988231736   11.4429911535160898    0.0152387379200071
     0.0161160208337313    0.0279137622267962   21.1402671599840168
   O    Re   Ce
    53     1    26
Selective dynamics
Direct
 -0.0016702256811447  0.0003206380632103  0.9971926869708954   T   T   T
  0.1127332761707748  0.2235758685249814  0.1486794913576925   T   T   T
  0.2253076147643072  0.1172822295231389  0.2972579894667801   T   T   T
  0.1633880112184417  0.2419703243716001  0.3783930011694348   T   T   T
 -0.0003164094560418 -0.0009718055846428  0.2267380908495203   T   T   T
  0.2210186263695618  0.1087042527388504  0.0734591976352637   T   T   T
  0.3353238637443882  0.0003206380631605  0.9971926869708970   T   T   T
  0.4441755923531748  0.2235758685241800  0.1486794913576078   T   T   T
  0.5600909748214624  0.1223184264367668  0.3058296162960510   T   T   T
  0.4119153131607888  0.2419703243874298  0.3783930011714858   T   T   T
  0.3326776038712556 -0.0009718055851873  0.2267380908494911   T   T   T
  0.5571384196778235  0.1119841859082148  0.0776696917463395   T   T   T
  0.6668016658098322  0.0002693316197975  0.9987767570300295   T   T   T
  0.7801755708316952  0.2270171416636508  0.1540812316560874   T   T   T
  0.8955614516148519  0.1223184264373431  0.3058296162959263   T   T   T
  0.7828182920909007  0.2323025841822444  0.3849784431339735   T   T   T
  0.6681966317967787  0.0030592635929262  0.2306271119572939   T   T   T
  0.8881797662304891  0.1119841859084359  0.0776696917463422   T   T   T
 -0.0002823466883764  0.3320428782540595  0.9974195561562492   T   T   T
  0.1095680576350158  0.5540030725571852  0.1482276278177977   T   T   T
  0.2667394712987977  0.4434729477711086  0.3118518604724276   T   T   T
  0.0992738932105351  0.5420601862518046  0.3810377507157021   T   T   T
  0.0151777208469980  0.3421955667230048  0.2322291334960619   T   T   T
  0.2230081119988228  0.4455310694325888  0.0753192125987389   T   T   T
  0.3329094395269273  0.3324858790538068  0.9974041648692680   T   T   T
  0.4430031262652109  0.5526742525302925  0.1501677788324158   T   T   T
  0.5100674764789511  0.4434729477913926  0.3118518604755776   T   T   T
  0.3277146114959457  0.3220962229914435  0.2302820540043780   T   T   T
  0.5558569574333561  0.4455310694323777  0.0753192125987192   T   T   T
  0.6656592249422717  0.3320428782539121  0.9974195561562497   T   T   T
  0.7777680149221510  0.5540030725568682  0.1482276278177563   T   T   T
  0.8858630092267143  0.4383920184528089  0.3001632689968000   T   T   T
  0.7761192930415528  0.5420601862512012  0.3810377507155433   T   T   T
  0.6603518458750672  0.3421955667234440  0.2322291334959479   T   T   T
  0.8885818379077800  0.4438296758155656  0.0748121792778123   T   T   T
  0.0003322292807494  0.6673314585614545  0.9964165350670513   T   T   T
  0.1096403901611584  0.8859477803213494  0.1473293373505865   T   T   T
  0.2184971304284131  0.7743000673401850  0.3013645186916414   T   T   T
  0.1012722072718681  0.8692114145416888  0.3860678102408763   T   T   T
 -0.0009439109780383  0.6647791780429615  0.2270386862785725   T   T   T
  0.2232920243580646  0.7777555116549959  0.0749995259609065   T   T   T
  0.3341431595596669  0.6671915054988619  0.9968356786526864   T   T   T
  0.4470069446669419  0.8902251302334938  0.1512844127866212   T   T   T
  0.5554927337882707  0.7776514675767104  0.3021189874287626   T   T   T
  0.4577616931319994  0.8958116981741092  0.3870785682304613   T   T   T
  0.3284253675213544  0.6613663093259370  0.2264885944441007   T   T   T
  0.5546144097973930  0.7758948195946164  0.0766820865106310   T   T   T
  0.6663813459391643  0.6671915054987325  0.9968356786526877   T   T   T
  0.7765511855669137  0.8902251302339864  0.1512844127865969   T   T   T
  0.8891359369145405  0.7743000673425900  0.3013645186919841   T   T   T
  0.7713830050442364  0.8958116981764072  0.3870785682303605   T   T   T
  0.6662739418049657  0.6613663093260969  0.2264885944440746   T   T   T
  0.8877964872971659  0.7777555116550652  0.0749995259609205   T   T   T
  0.3172820186283710  0.3012310372596535  0.3246361408092618   T   T   T
 -0.0025490371856048 -0.0057402448048093  0.3475723785217459   T   T   T
  0.2183740303933936  0.1034150607863423  0.1842455171469058   T   T   T
  0.1101421971694875  0.2223674010858498  0.0360137386036703   T   T   T
  0.3301417923815476 -0.0057402448010420  0.3475723785218571   T   T   T
  0.5542526379724331  0.1118885102263093  0.1920192997169899   T   T   T
  0.4455582039162315  0.2223674010862005  0.0360137386037185   T   T   T
  0.6667525406101381  0.0001710812230717  0.3456935057182401   T   T   T
  0.8909698722525605  0.1118885102245385  0.1920192997170284   T   T   T
  0.7778431643414287  0.2223523286827676  0.0381661217823592   T   T   T
 -0.0009623351424592  0.3357036728355819  0.3432666832497222   T   T   T
  0.2240849715455526  0.4462843863365261  0.1876444427957901   T   T   T
  0.1117437370730079  0.5559968111312096  0.0359308841308684   T   T   T
  0.5555334147934579  0.4462843863391569  0.1876444427962216   T   T   T
  0.4449199466971197  0.5565078933939960  0.0356580083468223   T   T   T
  0.6700000079775347  0.3357036728344140  0.3432666832496490   T   T   T
  0.8900527764450291  0.4467715528901952  0.1891464602866609   T   T   T
  0.7775860740585078  0.5559968111315887  0.0359308841308513   T   T   T
 -0.0006544904812567  0.6653580190381596  0.3419433181194536   T   T   T
  0.2225854651185016  0.7773870720680621  0.1891636185079464   T   T   T
  0.1106134951523790  0.8878939903048845  0.0348506516024128   T   T   T
  0.3314996186496521  0.6732427558685339  0.3424411573005914   T   T   T
  0.5558381761463846  0.7783423522925130  0.1917278821652759   T   T   T
  0.4455327876613729  0.8894519109637246  0.0377816659009255   T   T   T
  0.6750761372127474  0.6732427558535528  0.3424411572981359   T   T   T
  0.8881346069482497  0.7773870720670391  0.1891636185080455   T   T   T
  0.7772521233023432  0.8894519109637701  0.0377816659008769   T   T   T
 
  0.00000000E+00  0.00000000E+00  0.00000000E+00
  0.00000000E+00  0.00000000E+00  0.00000000E+00
  0.00000000E+00  0.00000000E+00  0.00000000E+00
  0.00000000E+00  0.00000000E+00  0.00000000E+00
  0.00000000E+00  0.00000000E+00  0.00000000E+00
  0.00000000E+00  0.00000000E+00  0.00000000E+00
  0.00000000E+00  0.00000000E+00  0.00000000E+00
  0.00000000E+00  0.00000000E+00  0.00000000E+00
  0.00000000E+00  0.00000000E+00  0.00000000E+00
  0.00000000E+00  0.00000000E+00  0.00000000E+00
  0.00000000E+00  0.00000000E+00  0.00000000E+00
  0.00000000E+00  0.00000000E+00  0.00000000E+00
  0.00000000E+00  0.00000000E+00  0.00000000E+00
  0.00000000E+00  0.00000000E+00  0.00000000E+00
  0.00000000E+00  0.00000000E+00  0.00000000E+00
  0.00000000E+00  0.00000000E+00  0.00000000E+00
  0.00000000E+00  0.00000000E+00  0.00000000E+00
  0.00000000E+00  0.00000000E+00  0.00000000E+00
  0.00000000E+00  0.00000000E+00  0.00000000E+00
  0.00000000E+00  0.00000000E+00  0.00000000E+00
  0.00000000E+00  0.00000000E+00  0.00000000E+00
  0.00000000E+00  0.00000000E+00  0.00000000E+00
  0.00000000E+00  0.00000000E+00  0.00000000E+00
  0.00000000E+00  0.00000000E+00  0.00000000E+00
  0.00000000E+00  0.00000000E+00  0.00000000E+00
  0.00000000E+00  0.00000000E+00  0.00000000E+00
  0.00000000E+00  0.00000000E+00  0.00000000E+00
  0.00000000E+00  0.00000000E+00  0.00000000E+00
  0.00000000E+00  0.00000000E+00  0.00000000E+00
  0.00000000E+00  0.00000000E+00  0.00000000E+00
  0.00000000E+00  0.00000000E+00  0.00000000E+00
  0.00000000E+00  0.00000000E+00  0.00000000E+00
  0.00000000E+00  0.00000000E+00  0.00000000E+00
  0.00000000E+00  0.00000000E+00  0.00000000E+00
  0.00000000E+00  0.00000000E+00  0.00000000E+00
  0.00000000E+00  0.00000000E+00  0.00000000E+00
  0.00000000E+00  0.00000000E+00  0.00000000E+00
  0.00000000E+00  0.00000000E+00  0.00000000E+00
  0.00000000E+00  0.00000000E+00  0.00000000E+00
  0.00000000E+00  0.00000000E+00  0.00000000E+00
  0.00000000E+00  0.00000000E+00  0.00000000E+00
  0.00000000E+00  0.00000000E+00  0.00000000E+00
  0.00000000E+00  0.00000000E+00  0.00000000E+00
  0.00000000E+00  0.00000000E+00  0.00000000E+00
  0.00000000E+00  0.00000000E+00  0.00000000E+00
  0.00000000E+00  0.00000000E+00  0.00000000E+00
  0.00000000E+00  0.00000000E+00  0.00000000E+00
  0.00000000E+00  0.00000000E+00  0.00000000E+00
  0.00000000E+00  0.00000000E+00  0.00000000E+00
  0.00000000E+00  0.00000000E+00  0.00000000E+00
  0.00000000E+00  0.00000000E+00  0.00000000E+00
  0.00000000E+00  0.00000000E+00  0.00000000E+00
  0.00000000E+00  0.00000000E+00  0.00000000E+00
  0.00000000E+00  0.00000000E+00  0.00000000E+00
  0.00000000E+00  0.00000000E+00  0.00000000E+00
  0.00000000E+00  0.00000000E+00  0.00000000E+00
  0.00000000E+00  0.00000000E+00  0.00000000E+00
  0.00000000E+00  0.00000000E+00  0.00000000E+00
  0.00000000E+00  0.00000000E+00  0.00000000E+00
  0.00000000E+00  0.00000000E+00  0.00000000E+00
  0.00000000E+00  0.00000000E+00  0.00000000E+00
  0.00000000E+00  0.00000000E+00  0.00000000E+00
  0.00000000E+00  0.00000000E+00  0.00000000E+00
  0.00000000E+00  0.00000000E+00  0.00000000E+00
  0.00000000E+00  0.00000000E+00  0.00000000E+00
  0.00000000E+00  0.00000000E+00  0.00000000E+00
  0.00000000E+00  0.00000000E+00  0.00000000E+00
  0.00000000E+00  0.00000000E+00  0.00000000E+00
  0.00000000E+00  0.00000000E+00  0.00000000E+00
  0.00000000E+00  0.00000000E+00  0.00000000E+00
  0.00000000E+00  0.00000000E+00  0.00000000E+00
  0.00000000E+00  0.00000000E+00  0.00000000E+00
  0.00000000E+00  0.00000000E+00  0.00000000E+00
  0.00000000E+00  0.00000000E+00  0.00000000E+00
  0.00000000E+00  0.00000000E+00  0.00000000E+00
  0.00000000E+00  0.00000000E+00  0.00000000E+00
  0.00000000E+00  0.00000000E+00  0.00000000E+00
  0.00000000E+00  0.00000000E+00  0.00000000E+00
  0.00000000E+00  0.00000000E+00  0.00000000E+00
  0.00000000E+00  0.00000000E+00  0.00000000E+00
