CeO2-you-111-you-Re                     
   1.00000000000000     
     9.9006876709193179   -5.7298225147641455   -0.0193017039738930
    -0.0118277039704104   11.4391568298638138    0.0193017007924678
    -0.0216393177585385    0.0374803961041634   21.0229901050066488
   O    Re   Ce   H 
    53     1    26     1
Selective dynamics
Direct
  0.9990842691442798  0.0000960627253815  0.9950746846624052   T   T   T
  0.1163791184099800  0.2225607622792776  0.1465852079037530   T   T   T
  0.2523360105709047  0.1363044233753716  0.3000515233769104   T   T   T
  0.1762105810887845  0.2653440794315750  0.3740067047726116   T   T   T
  0.0069668123774586  0.0002975701456687  0.2290733840445514   T   T   T
  0.2218152928843583  0.1082202572373443  0.0728104635954973   T   T   T
  0.3361556358224260  0.0016530887719281  0.9956581091837083   T   T   T
  0.4379183939875201  0.2297691023543389  0.1526942248945615   T   T   T
  0.5583091207105123  0.1097848848261467  0.3038495045039966   T   T   T
  0.4175715062572526  0.2475387269844143  0.4035808097811713   T   T   T
  0.3327132606545798  0.9980787910695218  0.2250198566462523   T   T   T
  0.5534343770927891  0.1127657199939023  0.0788707109345044   T   T   T
  0.6653721495902570  0.0014074021826459  0.9982849470752383   T   T   T
  0.7845639348607056  0.2234876516840662  0.1513120890765728   T   T   T
  0.8979881775218106  0.1068552601752923  0.3043215537421856   T   T   T
  0.7795495452603890  0.2074115708855491  0.3897852844793112   T   T   T
  0.6716262710274740  0.0011995058514745  0.2285135059064883   T   T   T
  0.8895486154941888  0.1092690256110938  0.0756511316677342   T   T   T
  0.9963099659158934  0.3306816361167685  0.9951084455710633   T   T   T
  0.1083505121348501  0.5579113999518530  0.1447069329173774   T   T   T
  0.1086263424241681  0.5583048032265988  0.3851372623360689   T   T   T
  0.0165128447075566  0.3410508980432408  0.2301203188908529   T   T   T
  0.2207162752039221  0.4456337049518649  0.0691820477473959   T   T   T
  0.3331192896341938  0.3319795689174437  0.9950633231165410   T   T   T
  0.4425672432811603  0.5492746607353981  0.1463783619273029   T   T   T
  0.5194035599929814  0.3922867721142246  0.3028719693767259   T   T   T
  0.4056370266128401  0.5024552407662799  0.3689827291500500   T   T   T
  0.3073399949720788  0.3642623414693828  0.2492406395921444   T   T   T
  0.5574403647975521  0.4443831887607065  0.0728310222932619   T   T   T
  0.6647120865151369  0.3305613638337997  0.9955243114494489   T   T   T
  0.7779494452673662  0.5557325418953621  0.1475062676565868   T   T   T
  0.8903096316515584  0.4417333955212610  0.3017957562739104   T   T   T
  0.7908133683689478  0.5597650252601233  0.3855762099942172   T   T   T
  0.6691432872353834  0.3359725784425417  0.2247796860851529   T   T   T
  0.8873894681886358  0.4443690340973814  0.0727233429961299   T   T   T
  0.9998089662976760  0.6673632740663170  0.9932619054569940   T   T   T
  0.1096924508799627  0.8871105048862135  0.1481124122900837   T   T   T
  0.2211070494585694  0.7793764254207877  0.3030599189836369   T   T   T
  0.1003234049664627  0.8902034086890606  0.3834753891938344   T   T   T
 -0.0002095862088215  0.6643548034200544  0.2275985450269297   T   T   T
  0.2225025403126369  0.7792751774296043  0.0733912458480716   T   T   T
  0.3356478434640381  0.6701187923307781  0.9952802217209877   T   T   T
  0.4442816680009472  0.8832844751804599  0.1522521002852505   T   T   T
  0.5609425336673647  0.7803322522478240  0.3032333162324778   T   T   T
  0.4603374736082397  0.8931947355238605  0.3902875732183636   T   T   T
  0.3246144313645569  0.6514728079824240  0.2303466343263720   T   T   T
  0.5568897726748755  0.7765126182245369  0.0759228575327946   T   T   T
  0.6662474068677694  0.6678601564885487  0.9948237024142121   T   T   T
  0.7789771708880291  0.8860345872894725  0.1523954647927492   T   T   T
  0.8896585071635470  0.7776132606489858  0.3000511312155239   T   T   T
  0.7892858230861255  0.8923698540460299  0.3859347446605548   T   T   T
  0.6603526578329140  0.6526788481875188  0.2296079295846813   T   T   T
  0.8888326733652685  0.7772016179947119  0.0731982565417806   T   T   T
  0.3383887150493236  0.3251970389094102  0.3326678427718299   T   T   T
  0.9944803982805460  0.9868346643783591  0.3414406944223810   T   T   T
  0.2196786725379246  0.1043471690869989  0.1867875935728036   T   T   T
  0.1092874354650184  0.2195513387368830  0.0329461981254895   T   T   T
  0.3350070113251089  0.9949697728851132  0.3470696426120867   T   T   T
  0.5570686807684867  0.1108354456302242  0.1929773287438390   T   T   T
  0.4442036717682075  0.2216970498598850  0.0347976214690913   T   T   T
  0.6699293326977758  0.9976075080440929  0.3456162430429980   T   T   T
  0.8930300762322013  0.1120127037636742  0.1913330381640060   T   T   T
  0.7773961379747881  0.2219365368716368  0.0370256253294567   T   T   T
  0.9953189813389672  0.3322945380645693  0.3492688266667652   T   T   T
  0.2179532643754416  0.4489578440711177  0.1780116558204071   T   T   T
  0.1093264454561960  0.5573555349308374  0.0316652748817146   T   T   T
  0.5606737413948435  0.4456228806676891  0.1862674995684880   T   T   T
  0.4464318750184734  0.5572662345493640  0.0331007243661840   T   T   T
  0.6780763339490941  0.3318439588166091  0.3490561304507488   T   T   T
  0.8897917063122707  0.4433706772482349  0.1900597404263218   T   T   T
  0.7775324131175109  0.5548416094768112  0.0336902195056126   T   T   T
  0.0001273869432717  0.6627591105669718  0.3437307529794598   T   T   T
  0.2228039450983683  0.7768392737207943  0.1907857366592870   T   T   T
  0.1116625214180623  0.8887293998773642  0.0340644171773231   T   T   T
  0.3371694527182976  0.6759177003744911  0.3495369391949084   T   T   T
  0.5547322095271259  0.7742131355402895  0.1928762652636832   T   T   T
  0.4447254397257048  0.8891771438699387  0.0376699917852759   T   T   T
  0.6681335100413438  0.6622376187996999  0.3464925062730245   T   T   T
  0.8887308042719613  0.7745820578136433  0.1886304905070084   T   T   T
  0.7771928147120339  0.8885749535680342  0.0370475021602398   T   T   T
  0.4023464551316011  0.2672434601308467  0.4468118251127182   T   T   T
 
  0.00000000E+00  0.00000000E+00  0.00000000E+00
  0.00000000E+00  0.00000000E+00  0.00000000E+00
  0.00000000E+00  0.00000000E+00  0.00000000E+00
  0.00000000E+00  0.00000000E+00  0.00000000E+00
  0.00000000E+00  0.00000000E+00  0.00000000E+00
  0.00000000E+00  0.00000000E+00  0.00000000E+00
  0.00000000E+00  0.00000000E+00  0.00000000E+00
  0.00000000E+00  0.00000000E+00  0.00000000E+00
  0.00000000E+00  0.00000000E+00  0.00000000E+00
  0.00000000E+00  0.00000000E+00  0.00000000E+00
  0.00000000E+00  0.00000000E+00  0.00000000E+00
  0.00000000E+00  0.00000000E+00  0.00000000E+00
  0.00000000E+00  0.00000000E+00  0.00000000E+00
  0.00000000E+00  0.00000000E+00  0.00000000E+00
  0.00000000E+00  0.00000000E+00  0.00000000E+00
  0.00000000E+00  0.00000000E+00  0.00000000E+00
  0.00000000E+00  0.00000000E+00  0.00000000E+00
  0.00000000E+00  0.00000000E+00  0.00000000E+00
  0.00000000E+00  0.00000000E+00  0.00000000E+00
  0.00000000E+00  0.00000000E+00  0.00000000E+00
  0.00000000E+00  0.00000000E+00  0.00000000E+00
  0.00000000E+00  0.00000000E+00  0.00000000E+00
  0.00000000E+00  0.00000000E+00  0.00000000E+00
  0.00000000E+00  0.00000000E+00  0.00000000E+00
  0.00000000E+00  0.00000000E+00  0.00000000E+00
  0.00000000E+00  0.00000000E+00  0.00000000E+00
  0.00000000E+00  0.00000000E+00  0.00000000E+00
  0.00000000E+00  0.00000000E+00  0.00000000E+00
  0.00000000E+00  0.00000000E+00  0.00000000E+00
  0.00000000E+00  0.00000000E+00  0.00000000E+00
  0.00000000E+00  0.00000000E+00  0.00000000E+00
  0.00000000E+00  0.00000000E+00  0.00000000E+00
  0.00000000E+00  0.00000000E+00  0.00000000E+00
  0.00000000E+00  0.00000000E+00  0.00000000E+00
  0.00000000E+00  0.00000000E+00  0.00000000E+00
  0.00000000E+00  0.00000000E+00  0.00000000E+00
  0.00000000E+00  0.00000000E+00  0.00000000E+00
  0.00000000E+00  0.00000000E+00  0.00000000E+00
  0.00000000E+00  0.00000000E+00  0.00000000E+00
  0.00000000E+00  0.00000000E+00  0.00000000E+00
  0.00000000E+00  0.00000000E+00  0.00000000E+00
  0.00000000E+00  0.00000000E+00  0.00000000E+00
  0.00000000E+00  0.00000000E+00  0.00000000E+00
  0.00000000E+00  0.00000000E+00  0.00000000E+00
  0.00000000E+00  0.00000000E+00  0.00000000E+00
  0.00000000E+00  0.00000000E+00  0.00000000E+00
  0.00000000E+00  0.00000000E+00  0.00000000E+00
  0.00000000E+00  0.00000000E+00  0.00000000E+00
  0.00000000E+00  0.00000000E+00  0.00000000E+00
  0.00000000E+00  0.00000000E+00  0.00000000E+00
  0.00000000E+00  0.00000000E+00  0.00000000E+00
  0.00000000E+00  0.00000000E+00  0.00000000E+00
  0.00000000E+00  0.00000000E+00  0.00000000E+00
  0.00000000E+00  0.00000000E+00  0.00000000E+00
  0.00000000E+00  0.00000000E+00  0.00000000E+00
  0.00000000E+00  0.00000000E+00  0.00000000E+00
  0.00000000E+00  0.00000000E+00  0.00000000E+00
  0.00000000E+00  0.00000000E+00  0.00000000E+00
  0.00000000E+00  0.00000000E+00  0.00000000E+00
  0.00000000E+00  0.00000000E+00  0.00000000E+00
  0.00000000E+00  0.00000000E+00  0.00000000E+00
  0.00000000E+00  0.00000000E+00  0.00000000E+00
  0.00000000E+00  0.00000000E+00  0.00000000E+00
  0.00000000E+00  0.00000000E+00  0.00000000E+00
  0.00000000E+00  0.00000000E+00  0.00000000E+00
  0.00000000E+00  0.00000000E+00  0.00000000E+00
  0.00000000E+00  0.00000000E+00  0.00000000E+00
  0.00000000E+00  0.00000000E+00  0.00000000E+00
  0.00000000E+00  0.00000000E+00  0.00000000E+00
  0.00000000E+00  0.00000000E+00  0.00000000E+00
  0.00000000E+00  0.00000000E+00  0.00000000E+00
  0.00000000E+00  0.00000000E+00  0.00000000E+00
  0.00000000E+00  0.00000000E+00  0.00000000E+00
  0.00000000E+00  0.00000000E+00  0.00000000E+00
  0.00000000E+00  0.00000000E+00  0.00000000E+00
  0.00000000E+00  0.00000000E+00  0.00000000E+00
  0.00000000E+00  0.00000000E+00  0.00000000E+00
  0.00000000E+00  0.00000000E+00  0.00000000E+00
  0.00000000E+00  0.00000000E+00  0.00000000E+00
  0.00000000E+00  0.00000000E+00  0.00000000E+00
  0.00000000E+00  0.00000000E+00  0.00000000E+00
