CeO2-you-111-you-Cu                     
   1.00000000000000     
     9.8360088682195066   -5.6788227390755974    0.0000000001973158
    -0.0017100702509544   11.3546815510786985    0.0037587411625093
     0.0039700673338288    0.0068763571650267   21.1804275110266431
   O    Cu   Ce   H 
    53     1    26     2
Selective dynamics
Direct
 -0.0000231658691682  0.0001377334834728  0.9961887464610619   T   T   T
  0.1050101754054609  0.2197826820285229  0.1489947338658837   F   F   F
  0.2424331773450398  0.1305624925386727  0.3084625016551603   T   T   T
  0.1046580499474923  0.2218791409224552  0.3822100727851411   T   T   T
  0.0056351980246196  0.0013093178474897  0.2305166939581310   T   T   T
  0.2225400915051026  0.1117471830101309  0.0752259489246043   F   F   F
  0.3338962720756254  0.0007784649501556  0.9962922739157831   T   T   T
  0.4481055066227597  0.2197826820281747  0.1489947338658837   F   F   F
  0.5524087118718171  0.1127550347304262  0.3041276887637491   T   T   T
  0.4716518106816947  0.1944157170253558  0.4080618580383418   T   T   T
  0.3304320587882756  0.9980377061925000  0.2288796052921711   T   T   T
  0.5586801893450328  0.1108261194217519  0.0758354234770380   F   F   F
  0.6668537851730434  0.0000214979062880  0.9952957190129145   T   T   T
  0.7781901130916253  0.2230462261833068  0.1548639723251384   F   F   F
  0.8874452506220399  0.1082166651923112  0.3033971156385393   T   T   T
  0.7766242208972834  0.2187678407521213  0.3815757465447137   T   T   T
  0.6612259653121016  0.9916033210335913  0.2332510673417545   T   T   T
  0.8854799300767553  0.1108261194219864  0.0758354234770451   F   F   F
  0.0007647130331811  0.3335457956816344  0.9964160989145804   T   T   T
  0.1097326500793798  0.5543829805062188  0.1500473211893336   F   F   F
  0.2206672069055009  0.4543250471729183  0.3008835117109173   T   T   T
  0.1102257887022166  0.5586917800292910  0.3848068354223924   T   T   T
 -0.0005671520034699  0.3308978199228053  0.2301107131257225   T   T   T
  0.2233216824038635  0.4445802876576224  0.0763553970894648   F   F   F
  0.3332575734903461  0.3332304069796719  0.9963346138092857   T   T   T
  0.4472680583816881  0.5612041167636264  0.1497227122869376   F   F   F
  0.5400806605456818  0.4348866131254578  0.3128346626449554   T   T   T
  0.3330631947311881  0.3325045043540604  0.2194321685966378   T   T   T
  0.5545926052534398  0.4445802876573310  0.0763553970894648   F   F   F
  0.6664243554870194  0.3340375283522808  0.9966332359480774   T   T   T
  0.7779833304265154  0.5543829805058706  0.1500473211893478   F   F   F
  0.8903584059387566  0.4463311056655588  0.3046081503600670   T   T   T
  0.7793451430511404  0.5559190955319911  0.3834491056238062   T   T   T
  0.6646324073767115  0.3368703727409544  0.2320710231459415   T   T   T
  0.8875967554225355  0.4418595108451555  0.0766666182949010   F   F   F
  0.9997530788081150  0.6660363173840368  0.9968289228397464   T   T   T
  0.1103301357995505  0.8873272715985578  0.1481158568861289   F   F   F
  0.2187860947469441  0.7759503309896139  0.3027438043481006   T   T   T
  0.1142770294823033  0.8921721030879666  0.3820845942831245   T   T   T
 -0.0005476262216859  0.6682028546588143  0.2289962249017947   T   T   T
  0.2231843680535306  0.7779814586890126  0.0749802054294051   F   F   F
  0.3329387351844564  0.6654228690914477  0.9963622927983685   T   T   T
  0.4459325415747415  0.8887407073124436  0.1496110747578996   F   F   F
  0.5465016154577282  0.7555154350169917  0.3118519016508849   T   T   T
  0.4413852189287603  0.8852823872643019  0.3800797412494235   T   T   T
  0.3360799227967652  0.6726532499771163  0.2282275551870128   T   T   T
  0.5561048640913100  0.7788757281825980  0.0748743717485070   F   F   F
  0.6665518900601458  0.6661069051395182  0.9961494456259105   T   T   T
  0.7761411657379114  0.8887407073126568  0.1496110747578925   F   F   F
  0.8899153371662593  0.7780414172350074  0.3039055753243253   T   T   T
  0.7790595449563743  0.8882019219972507  0.3827159279593855   T   T   T
  0.6682535416126767  0.6645475231592965  0.2303685831091946   T   T   T
  0.8881300906356770  0.7779814586889913  0.0749802054294122   F   F   F
  0.3268808766448466  0.3330512854714711  0.3425143593395361   T   T   T
  0.0093113133831511  0.0104520663002764  0.3438451091341703   T   T   T
  0.2223280792775952  0.1113231585562033  0.1893089526120662   F   F   F
  0.1108759001516688  0.2225041179116687  0.0364546630851237   F   F   F
  0.3315923450737162 -0.0000359738338623  0.3426652181915325   T   T   T
  0.5548104877494211  0.1104723147909112  0.1908137528348277   F   F   F
  0.4449612177600883  0.2225041179118818  0.0364546630851308   F   F   F
  0.6658113186004292 -0.0035825300079053  0.3449244653422672   T   T   T
  0.8889958270403113  0.1104723147897317  0.1908137528348632   F   F   F
  0.7778391844949866  0.2223443689898161  0.0365965221389644   F   F   F
  0.0033084264413748  0.3321798558353360  0.3431025327545168   T   T   T
  0.2249855589817855  0.4429723440109825  0.1900368074277239   F   F   F
  0.1106852416472393  0.5546116489916599  0.0367501486056838   F   F   F
  0.5513207850307396  0.4429723440116007  0.1900368074277523   F   F   F
  0.4444272595407455  0.5555225190812578  0.0354648102931776   F   F   F
  0.6683878716952197  0.3332837859567304  0.3440734049968034   T   T   T
  0.8892280236296628  0.4451220472588204  0.1922217955292993   F   F   F
  0.7772594073445092  0.5546116489919086  0.0367501486056909   F   F   F
  0.0007430147401531  0.6677435194038458  0.3433372323760075   T   T   T
  0.2216554923201812  0.7779898202204123  0.1875474416910592   F   F   F
  0.1112868887939271  0.8892407775880642  0.0352363428628379   F   F   F
  0.3212126978956175  0.6642116764004975  0.3393759255160332   T   T   T
  0.5553547741881246  0.7773755483760638  0.1893407290262843   F   F   F
  0.4454501769199553  0.8892146131235705  0.0354969478477329   F   F   F
  0.6770092071284654  0.6664850903851670  0.3406981079841853   T   T   T
  0.8896673278995735  0.7779898202201991  0.1875474416910663   F   F   F
  0.7770974362035119  0.8892146131235279  0.0354969478477258   F   F   F
  0.3859178358562654  0.4650791450314612  0.3859351645876052   T   T   T
  0.4342667321908843  0.2283047370315481  0.4399333210451891   T   T   T
 
  0.00000000E+00  0.00000000E+00  0.00000000E+00
  0.00000000E+00  0.00000000E+00  0.00000000E+00
  0.00000000E+00  0.00000000E+00  0.00000000E+00
  0.00000000E+00  0.00000000E+00  0.00000000E+00
  0.00000000E+00  0.00000000E+00  0.00000000E+00
  0.00000000E+00  0.00000000E+00  0.00000000E+00
  0.00000000E+00  0.00000000E+00  0.00000000E+00
  0.00000000E+00  0.00000000E+00  0.00000000E+00
  0.00000000E+00  0.00000000E+00  0.00000000E+00
  0.00000000E+00  0.00000000E+00  0.00000000E+00
  0.00000000E+00  0.00000000E+00  0.00000000E+00
  0.00000000E+00  0.00000000E+00  0.00000000E+00
  0.00000000E+00  0.00000000E+00  0.00000000E+00
  0.00000000E+00  0.00000000E+00  0.00000000E+00
  0.00000000E+00  0.00000000E+00  0.00000000E+00
  0.00000000E+00  0.00000000E+00  0.00000000E+00
  0.00000000E+00  0.00000000E+00  0.00000000E+00
  0.00000000E+00  0.00000000E+00  0.00000000E+00
  0.00000000E+00  0.00000000E+00  0.00000000E+00
  0.00000000E+00  0.00000000E+00  0.00000000E+00
  0.00000000E+00  0.00000000E+00  0.00000000E+00
  0.00000000E+00  0.00000000E+00  0.00000000E+00
  0.00000000E+00  0.00000000E+00  0.00000000E+00
  0.00000000E+00  0.00000000E+00  0.00000000E+00
  0.00000000E+00  0.00000000E+00  0.00000000E+00
  0.00000000E+00  0.00000000E+00  0.00000000E+00
  0.00000000E+00  0.00000000E+00  0.00000000E+00
  0.00000000E+00  0.00000000E+00  0.00000000E+00
  0.00000000E+00  0.00000000E+00  0.00000000E+00
  0.00000000E+00  0.00000000E+00  0.00000000E+00
  0.00000000E+00  0.00000000E+00  0.00000000E+00
  0.00000000E+00  0.00000000E+00  0.00000000E+00
  0.00000000E+00  0.00000000E+00  0.00000000E+00
  0.00000000E+00  0.00000000E+00  0.00000000E+00
  0.00000000E+00  0.00000000E+00  0.00000000E+00
  0.00000000E+00  0.00000000E+00  0.00000000E+00
  0.00000000E+00  0.00000000E+00  0.00000000E+00
  0.00000000E+00  0.00000000E+00  0.00000000E+00
  0.00000000E+00  0.00000000E+00  0.00000000E+00
  0.00000000E+00  0.00000000E+00  0.00000000E+00
  0.00000000E+00  0.00000000E+00  0.00000000E+00
  0.00000000E+00  0.00000000E+00  0.00000000E+00
  0.00000000E+00  0.00000000E+00  0.00000000E+00
  0.00000000E+00  0.00000000E+00  0.00000000E+00
  0.00000000E+00  0.00000000E+00  0.00000000E+00
  0.00000000E+00  0.00000000E+00  0.00000000E+00
  0.00000000E+00  0.00000000E+00  0.00000000E+00
  0.00000000E+00  0.00000000E+00  0.00000000E+00
  0.00000000E+00  0.00000000E+00  0.00000000E+00
  0.00000000E+00  0.00000000E+00  0.00000000E+00
  0.00000000E+00  0.00000000E+00  0.00000000E+00
  0.00000000E+00  0.00000000E+00  0.00000000E+00
  0.00000000E+00  0.00000000E+00  0.00000000E+00
  0.00000000E+00  0.00000000E+00  0.00000000E+00
  0.00000000E+00  0.00000000E+00  0.00000000E+00
  0.00000000E+00  0.00000000E+00  0.00000000E+00
  0.00000000E+00  0.00000000E+00  0.00000000E+00
  0.00000000E+00  0.00000000E+00  0.00000000E+00
  0.00000000E+00  0.00000000E+00  0.00000000E+00
  0.00000000E+00  0.00000000E+00  0.00000000E+00
  0.00000000E+00  0.00000000E+00  0.00000000E+00
  0.00000000E+00  0.00000000E+00  0.00000000E+00
  0.00000000E+00  0.00000000E+00  0.00000000E+00
  0.00000000E+00  0.00000000E+00  0.00000000E+00
  0.00000000E+00  0.00000000E+00  0.00000000E+00
  0.00000000E+00  0.00000000E+00  0.00000000E+00
  0.00000000E+00  0.00000000E+00  0.00000000E+00
  0.00000000E+00  0.00000000E+00  0.00000000E+00
  0.00000000E+00  0.00000000E+00  0.00000000E+00
  0.00000000E+00  0.00000000E+00  0.00000000E+00
  0.00000000E+00  0.00000000E+00  0.00000000E+00
  0.00000000E+00  0.00000000E+00  0.00000000E+00
  0.00000000E+00  0.00000000E+00  0.00000000E+00
  0.00000000E+00  0.00000000E+00  0.00000000E+00
  0.00000000E+00  0.00000000E+00  0.00000000E+00
  0.00000000E+00  0.00000000E+00  0.00000000E+00
  0.00000000E+00  0.00000000E+00  0.00000000E+00
  0.00000000E+00  0.00000000E+00  0.00000000E+00
  0.00000000E+00  0.00000000E+00  0.00000000E+00
  0.00000000E+00  0.00000000E+00  0.00000000E+00
  0.00000000E+00  0.00000000E+00  0.00000000E+00
  0.00000000E+00  0.00000000E+00  0.00000000E+00
