CeO2-you-111-you-Tc                     
   1.00000000000000     
     9.9086202594717552   -5.7151863606632274    0.0254611381271145
    -0.0000000066711674   11.4303706982479749   -0.0000000028562683
     0.0571192636307195   -0.0000000056160364   20.6542671700291294
   O    Tc   Ce   H 
    53     1    26     1
Selective dynamics
Direct
  0.9999060432486954  0.0023563101544875  0.9929651113594433   T   T   T
  0.1233792589875661  0.2282101516417650  0.1520269332280165   T   T   T
  0.2288257040318321  0.1225596319028897  0.3030910519127644   T   T   T
  0.1607009859326027  0.2441472300076679  0.3910945885723076   T   T   T
  0.0008648902672005 -0.0000342260852584  0.2270741024816220   T   T   T
  0.2219064226601807  0.1102847349370912  0.0713033033628612   T   T   T
  0.3358570498474918  0.0004643048942189  0.9918602221458116   T   T   T
  0.4421101871517545  0.2219118049666924  0.1469327364127324   T   T   T
  0.5456869083500093  0.1068335282061035  0.3063021343008235   T   T   T
  0.4247757170834336  0.2385381802518870  0.3876969810761981   T   T   T
  0.3298424696929251  0.9980192111831194  0.2284702834618815   T   T   T
  0.5551339055757892  0.1104186962330502  0.0738641333758390   T   T   T
  0.6704827949815867  0.0011431221277064  0.9952624700893814   T   T   T
  0.7734550819631717  0.2233471423891437  0.1523140574455886   T   T   T
  0.8882139630519805  0.1110941810108153  0.3056495961761822   T   T   T
  0.7672109488569758  0.2078760207175307  0.3926349202611802   T   T   T
  0.6641657588971319  0.9976751528227965  0.2307214034988388   T   T   T
  0.8918969575413157  0.1121064636979268  0.0776608900309026   T   T   T
  0.9992898503217829  0.3310348377450555  0.9935593427529729   T   T   T
  0.1117421271185268  0.5555062107479622  0.1476314201218321   T   T   T
  0.2270225504547292  0.4353007296968554  0.3046641569566154   T   T   T
  0.1233574936118929  0.5699356143816092  0.3869629645287938   T   T   T
  0.0021816705963146  0.3353193637166983  0.2270521754159485   T   T   T
  0.2217004256714653  0.4441187823751223  0.0717891245901013   T   T   T
  0.3339050855701999  0.3337135443020630  0.9919630817545682   T   T   T
  0.4412550861486130  0.5515795083282041  0.1470813734794445   T   T   T
  0.4391621441290774  0.4877912314393622  0.3711459218347343   T   T   T
  0.3625476892837294  0.3454022930006394  0.2441438169745699   T   T   T
  0.5570238605313583  0.4450942138184640  0.0698439536795271   T   T   T
  0.6682457255202642  0.3321077899430968  0.9926699329650644   T   T   T
  0.7800334466902311  0.5578398456373670  0.1459476715132697   T   T   T
  0.8936430016069975  0.4470157297483349  0.3048003785932445   T   T   T
  0.7875589863486323  0.5595627363953466  0.3890048972457007   T   T   T
  0.6586838700944591  0.3424090413890641  0.2332382484456272   T   T   T
  0.8891775852136309  0.4436039145470370  0.0727572121737557   T   T   T
  0.0004606048599575  0.6657709306354462  0.9915841889128778   T   T   T
  0.1112730112804878  0.8891517939166231  0.1476019193823076   T   T   T
  0.2227894175392988  0.7767890411457996  0.3011455379023412   T   T   T
  0.1227550546948724  0.8860286944668051  0.3870243012883549   T   T   T
  0.9994817839621385  0.6666504580025207  0.2277950987858006   T   T   T
  0.2224902444007223  0.7783058496864615  0.0716346587261068   T   T   T
  0.3344364184103319  0.6671987649443326  0.9921114393103887   T   T   T
  0.4445286015544986  0.8878498177681881  0.1499132614229562   T   T   T
  0.5443324518552459  0.7716638733043055  0.3076673343273728   T   T   T
  0.4339017872071113  0.8842608460713284  0.3867181913218340   T   T   T
  0.3294120338113156  0.6621263388200641  0.2288154380882072   T   T   T
  0.5541389655020630  0.7762205028606360  0.0736929701074136   T   T   T
  0.6685754028501883  0.6692894720481164  0.9924813535217752   T   T   T
  0.7728475665931861  0.8820825812969871  0.1518676613041276   T   T   T
  0.8930581186790615  0.7793241650811192  0.3047834306751053   T   T   T
  0.7677065749691999  0.8936198734955200  0.3923101439773072   T   T   T
  0.6581879749286046  0.6500842476923968  0.2331653951485301   T   T   T
  0.8906516347895232  0.7798105365839280  0.0716811764315439   T   T   T
  0.3089069259665630  0.3275629054200049  0.3371899851865270   T   T   T
  0.0014940680828546 -0.0003625954806033  0.3490351276200764   T   T   T
  0.2221627986041687  0.1092971623035979  0.1901001195098021   T   T   T
  0.1122451176088581  0.2223535817395931  0.0334924740593154   T   T   T
  0.3269318818368164  0.9929057737560379  0.3430516536538751   T   T   T
  0.5540359225048259  0.1112771911051644  0.1915334512489697   T   T   T
  0.4447226212717266  0.2206180510016982  0.0311626624558698   T   T   T
  0.6651343550832727  0.9987551482521349  0.3482956420362971   T   T   T
  0.8892764545971439  0.1110103797977468  0.1931211299551511   T   T   T
  0.7786109787492261  0.2222771842333814  0.0352092776235463   T   T   T
 -0.0012047870639210  0.3333117840217133  0.3496201128767728   T   T   T
  0.2214355671120637  0.4449645238594165  0.1887199144889849   T   T   T
  0.1109323428831707  0.5544260317389819  0.0322233295167584   T   T   T
  0.5590905188826552  0.4459166198587026  0.1815012879361847   T   T   T
  0.4444344126363923  0.5566232511111845  0.0309784492342613   T   T   T
  0.6758428336226711  0.3317721018081621  0.3523653225822952   T   T   T
  0.8884004792724312  0.4446856177930988  0.1909633621546308   T   T   T
  0.7807668371159935  0.5570044412074624  0.0308928367325340   T   T   T
  0.9984794858838925  0.6658411983379227  0.3456583524839305   T   T   T
  0.2204451325658608  0.7766957155712169  0.1863744277841309   T   T   T
  0.1115428333619533  0.8901715742289958  0.0321374268111942   T   T   T
  0.3272186247055790  0.6705690301402115  0.3428782883687976   T   T   T
  0.5540430695517549  0.7745166680142596  0.1916194382348355   T   T   T
  0.4461649805587394  0.8892884250240152  0.0337879439372090   T   T   T
  0.6761835706549518  0.6763329294584193  0.3526205809758576   T   T   T
  0.8885295075858707  0.7773477894199026  0.1908571923330210   T   T   T
  0.7786645408514434  0.8890843405846229  0.0349081586742455   T   T   T
  0.4145776305916981  0.2568143596004443  0.4328619586725534   T   T   T
 
  0.00000000E+00  0.00000000E+00  0.00000000E+00
  0.00000000E+00  0.00000000E+00  0.00000000E+00
  0.00000000E+00  0.00000000E+00  0.00000000E+00
  0.00000000E+00  0.00000000E+00  0.00000000E+00
  0.00000000E+00  0.00000000E+00  0.00000000E+00
  0.00000000E+00  0.00000000E+00  0.00000000E+00
  0.00000000E+00  0.00000000E+00  0.00000000E+00
  0.00000000E+00  0.00000000E+00  0.00000000E+00
  0.00000000E+00  0.00000000E+00  0.00000000E+00
  0.00000000E+00  0.00000000E+00  0.00000000E+00
  0.00000000E+00  0.00000000E+00  0.00000000E+00
  0.00000000E+00  0.00000000E+00  0.00000000E+00
  0.00000000E+00  0.00000000E+00  0.00000000E+00
  0.00000000E+00  0.00000000E+00  0.00000000E+00
  0.00000000E+00  0.00000000E+00  0.00000000E+00
  0.00000000E+00  0.00000000E+00  0.00000000E+00
  0.00000000E+00  0.00000000E+00  0.00000000E+00
  0.00000000E+00  0.00000000E+00  0.00000000E+00
  0.00000000E+00  0.00000000E+00  0.00000000E+00
  0.00000000E+00  0.00000000E+00  0.00000000E+00
  0.00000000E+00  0.00000000E+00  0.00000000E+00
  0.00000000E+00  0.00000000E+00  0.00000000E+00
  0.00000000E+00  0.00000000E+00  0.00000000E+00
  0.00000000E+00  0.00000000E+00  0.00000000E+00
  0.00000000E+00  0.00000000E+00  0.00000000E+00
  0.00000000E+00  0.00000000E+00  0.00000000E+00
  0.00000000E+00  0.00000000E+00  0.00000000E+00
  0.00000000E+00  0.00000000E+00  0.00000000E+00
  0.00000000E+00  0.00000000E+00  0.00000000E+00
  0.00000000E+00  0.00000000E+00  0.00000000E+00
  0.00000000E+00  0.00000000E+00  0.00000000E+00
  0.00000000E+00  0.00000000E+00  0.00000000E+00
  0.00000000E+00  0.00000000E+00  0.00000000E+00
  0.00000000E+00  0.00000000E+00  0.00000000E+00
  0.00000000E+00  0.00000000E+00  0.00000000E+00
  0.00000000E+00  0.00000000E+00  0.00000000E+00
  0.00000000E+00  0.00000000E+00  0.00000000E+00
  0.00000000E+00  0.00000000E+00  0.00000000E+00
  0.00000000E+00  0.00000000E+00  0.00000000E+00
  0.00000000E+00  0.00000000E+00  0.00000000E+00
  0.00000000E+00  0.00000000E+00  0.00000000E+00
  0.00000000E+00  0.00000000E+00  0.00000000E+00
  0.00000000E+00  0.00000000E+00  0.00000000E+00
  0.00000000E+00  0.00000000E+00  0.00000000E+00
  0.00000000E+00  0.00000000E+00  0.00000000E+00
  0.00000000E+00  0.00000000E+00  0.00000000E+00
  0.00000000E+00  0.00000000E+00  0.00000000E+00
  0.00000000E+00  0.00000000E+00  0.00000000E+00
  0.00000000E+00  0.00000000E+00  0.00000000E+00
  0.00000000E+00  0.00000000E+00  0.00000000E+00
  0.00000000E+00  0.00000000E+00  0.00000000E+00
  0.00000000E+00  0.00000000E+00  0.00000000E+00
  0.00000000E+00  0.00000000E+00  0.00000000E+00
  0.00000000E+00  0.00000000E+00  0.00000000E+00
  0.00000000E+00  0.00000000E+00  0.00000000E+00
  0.00000000E+00  0.00000000E+00  0.00000000E+00
  0.00000000E+00  0.00000000E+00  0.00000000E+00
  0.00000000E+00  0.00000000E+00  0.00000000E+00
  0.00000000E+00  0.00000000E+00  0.00000000E+00
  0.00000000E+00  0.00000000E+00  0.00000000E+00
  0.00000000E+00  0.00000000E+00  0.00000000E+00
  0.00000000E+00  0.00000000E+00  0.00000000E+00
  0.00000000E+00  0.00000000E+00  0.00000000E+00
  0.00000000E+00  0.00000000E+00  0.00000000E+00
  0.00000000E+00  0.00000000E+00  0.00000000E+00
  0.00000000E+00  0.00000000E+00  0.00000000E+00
  0.00000000E+00  0.00000000E+00  0.00000000E+00
  0.00000000E+00  0.00000000E+00  0.00000000E+00
  0.00000000E+00  0.00000000E+00  0.00000000E+00
  0.00000000E+00  0.00000000E+00  0.00000000E+00
  0.00000000E+00  0.00000000E+00  0.00000000E+00
  0.00000000E+00  0.00000000E+00  0.00000000E+00
  0.00000000E+00  0.00000000E+00  0.00000000E+00
  0.00000000E+00  0.00000000E+00  0.00000000E+00
  0.00000000E+00  0.00000000E+00  0.00000000E+00
  0.00000000E+00  0.00000000E+00  0.00000000E+00
  0.00000000E+00  0.00000000E+00  0.00000000E+00
  0.00000000E+00  0.00000000E+00  0.00000000E+00
  0.00000000E+00  0.00000000E+00  0.00000000E+00
  0.00000000E+00  0.00000000E+00  0.00000000E+00
  0.00000000E+00  0.00000000E+00  0.00000000E+00
