CeO2-you-111-you-W                      
   1.00000000000000     
     9.9047966376175278   -5.7076643520298251    0.0082102682896322
    -0.0000000066427706   11.4153266837879279   -0.0000000009964223
     0.0195761561402028   -0.0000000020893177   20.5823851357906555
   O    W    Ce   H 
    53     1    26     1
Selective dynamics
Direct
  0.9986385388947706  0.0020438553922125  0.9916107938023206   T   T   T
  0.1241482272215534  0.2287200872549048  0.1505737073973213   T   T   T
  0.2328244577420893  0.1341905633657416  0.3057028509585492   T   T   T
  0.1611493014845916  0.2473043855480517  0.3950404986708153   T   T   T
  0.0056168577357499  0.0024488288019486  0.2277762401330997   T   T   T
  0.2202426845574584  0.1093093487483481  0.0706310882558160   T   T   T
  0.3352314754022250  0.0006198917316332  0.9908446086448176   T   T   T
  0.4404965159435700  0.2219143523129975  0.1460532072913388   T   T   T
  0.5467806022819529  0.1074306051031967  0.3053283707355198   T   T   T
  0.4206550241276266  0.2315748313317214  0.3897855008560774   T   T   T
  0.3279966936180198  0.0001444540558349  0.2292018735014723   T   T   T
  0.5545496166109620  0.1107922242266314  0.0733201545286421   T   T   T
  0.6694669431670286  0.0013658399848438  0.9945160300397025   T   T   T
  0.7740161845071711  0.2244954017498680  0.1517654378981297   T   T   T
  0.8891510834993369  0.1115053886145670  0.3062180270548107   T   T   T
  0.7668430786266751  0.2090704715874700  0.3938262555202107   T   T   T
  0.6664619781394557  0.0000558040266436  0.2299079422985438   T   T   T
  0.8918272857666828  0.1127422685893492  0.0768266331415411   T   T   T
  0.9982361838889678  0.3305016976049692  0.9916249832326145   T   T   T
  0.1116378759571912  0.5563766558101231  0.1466827096704012   T   T   T
  0.2224330222754473  0.4229826071406594  0.3057484631145203   T   T   T
  0.1053366552172801  0.5624438385492704  0.3907709211117865   T   T   T
  0.0043373564398212  0.3368631949730360  0.2263439314442696   T   T   T
  0.2210967246711141  0.4451945804014755  0.0701143055304845   T   T   T
  0.3328901662379361  0.3329459127758434  0.9907138083107997   T   T   T
  0.4414246149371159  0.5513262162420439  0.1458879723662729   T   T   T
  0.4461688094211024  0.4715839708698176  0.3721386697631635   T   T   T
  0.3616788785279721  0.3476291487547268  0.2436516087824135   T   T   T
  0.5571774723736487  0.4446920693411346  0.0685214862214279   T   T   T
  0.6674635495173538  0.3316689512839907  0.9911289087357716   T   T   T
  0.7804921107313434  0.5577842866615239  0.1451198721173168   T   T   T
  0.8894031667272447  0.4429224873181486  0.3037498250533379   T   T   T
  0.7868009606713409  0.5583217686143007  0.3895899136730389   T   T   T
  0.6568781616310509  0.3425647773530709  0.2324731039676490   T   T   T
  0.8899415259247394  0.4447006160688256  0.0710919372370868   T   T   T
  0.0004233323131760  0.6672303484811751  0.9896359222164709   T   T   T
  0.1113384346782318  0.8887929655678913  0.1471638428369199   T   T   T
  0.2225750192263031  0.7781314737535965  0.3025360610131748   T   T   T
  0.1246057265085709  0.8891788831223593  0.3877073633726685   T   T   T
 -0.0002071623782490  0.6661921868125944  0.2281095924423057   T   T   T
  0.2222598747203264  0.7781402908845630  0.0710165129201247   T   T   T
  0.3350431840222904  0.6679881759442348  0.9906224140377241   T   T   T
  0.4437196611827796  0.8879813788475396  0.1509534780016075   T   T   T
  0.5539672054947473  0.7772995880397989  0.3071177405933277   T   T   T
  0.4418305190476569  0.8962570283135887  0.3903792169090911   T   T   T
  0.3289665671840296  0.6583118287622114  0.2289744638680098   T   T   T
  0.5544572603157657  0.7771627493380767  0.0735754481295406   T   T   T
  0.6674258024793721  0.6693115555322879  0.9915055121744927   T   T   T
  0.7752301159690376  0.8834725622489686  0.1522347865233163   T   T   T
  0.8932080312860563  0.7802894257403303  0.3051229282150966   T   T   T
  0.7716250184733546  0.8947392811812036  0.3946937599432155   T   T   T
  0.6592971820719931  0.6491365729935310  0.2325657969782233   T   T   T
  0.8904018486572939  0.7796405514754875  0.0710550733560801   T   T   T
  0.3018285446917784  0.3212966298874995  0.3362356935636788   T   T   T
  0.9987923679928536  0.9973594251430828  0.3514770352272784   T   T   T
  0.2217452576808537  0.1083543878092977  0.1873762696411902   T   T   T
  0.1108208808794056  0.2219341457661094  0.0316587775699437   T   T   T
  0.3296154304342367  0.9902139714441581  0.3454912731378610   T   T   T
  0.5539447178033627  0.1116875843994970  0.1915500270005195   T   T   T
  0.4440294675581124  0.2202664497009778  0.0297357110598400   T   T   T
  0.6657907370757463  0.9989120455948136  0.3488789848345623   T   T   T
  0.8902812305408887  0.1121599036964878  0.1934272205830445   T   T   T
  0.7781648717547900  0.2224128140423386  0.0342209716448566   T   T   T
  0.9929366195612955  0.3336550037268992  0.3529464124981340   T   T   T
  0.2213068251883122  0.4467129650969160  0.1861583933358917   T   T   T
  0.1105775787852200  0.5553538048042527  0.0306735653402218   T   T   T
  0.5599232167444336  0.4469580521365538  0.1801134724692779   T   T   T
  0.4445896601939817  0.5574313902904222  0.0297828238472210   T   T   T
  0.6739243459199897  0.3318670608347193  0.3523213184357142   T   T   T
  0.8885941074956533  0.4447287170958700  0.1905733224012413   T   T   T
  0.7804863101034250  0.5570453564767804  0.0296837019788004   T   T   T
 -0.0009599135730759  0.6640297321575618  0.3473933729887845   T   T   T
  0.2210158535272308  0.7763828969411749  0.1879887695137177   T   T   T
  0.1107704976393967  0.8893560877386868  0.0310446407032998   T   T   T
  0.3281477461480671  0.6696832329598842  0.3483093667561191   T   T   T
  0.5547060089561351  0.7752355625308646  0.1931479518152159   T   T   T
  0.4456434183571740  0.8891678350845239  0.0336494246942108   T   T   T
  0.6785798741499343  0.6776157273282395  0.3528566874017780   T   T   T
  0.8895057649560647  0.7775971752560998  0.1909993340444413   T   T   T
  0.7781135910004709  0.8895017669651848  0.0346435645540044   T   T   T
  0.4225055827039141  0.2591680458627412  0.4347443583668130   T   T   T
 
  0.00000000E+00  0.00000000E+00  0.00000000E+00
  0.00000000E+00  0.00000000E+00  0.00000000E+00
  0.00000000E+00  0.00000000E+00  0.00000000E+00
  0.00000000E+00  0.00000000E+00  0.00000000E+00
  0.00000000E+00  0.00000000E+00  0.00000000E+00
  0.00000000E+00  0.00000000E+00  0.00000000E+00
  0.00000000E+00  0.00000000E+00  0.00000000E+00
  0.00000000E+00  0.00000000E+00  0.00000000E+00
  0.00000000E+00  0.00000000E+00  0.00000000E+00
  0.00000000E+00  0.00000000E+00  0.00000000E+00
  0.00000000E+00  0.00000000E+00  0.00000000E+00
  0.00000000E+00  0.00000000E+00  0.00000000E+00
  0.00000000E+00  0.00000000E+00  0.00000000E+00
  0.00000000E+00  0.00000000E+00  0.00000000E+00
  0.00000000E+00  0.00000000E+00  0.00000000E+00
  0.00000000E+00  0.00000000E+00  0.00000000E+00
  0.00000000E+00  0.00000000E+00  0.00000000E+00
  0.00000000E+00  0.00000000E+00  0.00000000E+00
  0.00000000E+00  0.00000000E+00  0.00000000E+00
  0.00000000E+00  0.00000000E+00  0.00000000E+00
  0.00000000E+00  0.00000000E+00  0.00000000E+00
  0.00000000E+00  0.00000000E+00  0.00000000E+00
  0.00000000E+00  0.00000000E+00  0.00000000E+00
  0.00000000E+00  0.00000000E+00  0.00000000E+00
  0.00000000E+00  0.00000000E+00  0.00000000E+00
  0.00000000E+00  0.00000000E+00  0.00000000E+00
  0.00000000E+00  0.00000000E+00  0.00000000E+00
  0.00000000E+00  0.00000000E+00  0.00000000E+00
  0.00000000E+00  0.00000000E+00  0.00000000E+00
  0.00000000E+00  0.00000000E+00  0.00000000E+00
  0.00000000E+00  0.00000000E+00  0.00000000E+00
  0.00000000E+00  0.00000000E+00  0.00000000E+00
  0.00000000E+00  0.00000000E+00  0.00000000E+00
  0.00000000E+00  0.00000000E+00  0.00000000E+00
  0.00000000E+00  0.00000000E+00  0.00000000E+00
  0.00000000E+00  0.00000000E+00  0.00000000E+00
  0.00000000E+00  0.00000000E+00  0.00000000E+00
  0.00000000E+00  0.00000000E+00  0.00000000E+00
  0.00000000E+00  0.00000000E+00  0.00000000E+00
  0.00000000E+00  0.00000000E+00  0.00000000E+00
  0.00000000E+00  0.00000000E+00  0.00000000E+00
  0.00000000E+00  0.00000000E+00  0.00000000E+00
  0.00000000E+00  0.00000000E+00  0.00000000E+00
  0.00000000E+00  0.00000000E+00  0.00000000E+00
  0.00000000E+00  0.00000000E+00  0.00000000E+00
  0.00000000E+00  0.00000000E+00  0.00000000E+00
  0.00000000E+00  0.00000000E+00  0.00000000E+00
  0.00000000E+00  0.00000000E+00  0.00000000E+00
  0.00000000E+00  0.00000000E+00  0.00000000E+00
  0.00000000E+00  0.00000000E+00  0.00000000E+00
  0.00000000E+00  0.00000000E+00  0.00000000E+00
  0.00000000E+00  0.00000000E+00  0.00000000E+00
  0.00000000E+00  0.00000000E+00  0.00000000E+00
  0.00000000E+00  0.00000000E+00  0.00000000E+00
  0.00000000E+00  0.00000000E+00  0.00000000E+00
  0.00000000E+00  0.00000000E+00  0.00000000E+00
  0.00000000E+00  0.00000000E+00  0.00000000E+00
  0.00000000E+00  0.00000000E+00  0.00000000E+00
  0.00000000E+00  0.00000000E+00  0.00000000E+00
  0.00000000E+00  0.00000000E+00  0.00000000E+00
  0.00000000E+00  0.00000000E+00  0.00000000E+00
  0.00000000E+00  0.00000000E+00  0.00000000E+00
  0.00000000E+00  0.00000000E+00  0.00000000E+00
  0.00000000E+00  0.00000000E+00  0.00000000E+00
  0.00000000E+00  0.00000000E+00  0.00000000E+00
  0.00000000E+00  0.00000000E+00  0.00000000E+00
  0.00000000E+00  0.00000000E+00  0.00000000E+00
  0.00000000E+00  0.00000000E+00  0.00000000E+00
  0.00000000E+00  0.00000000E+00  0.00000000E+00
  0.00000000E+00  0.00000000E+00  0.00000000E+00
  0.00000000E+00  0.00000000E+00  0.00000000E+00
  0.00000000E+00  0.00000000E+00  0.00000000E+00
  0.00000000E+00  0.00000000E+00  0.00000000E+00
  0.00000000E+00  0.00000000E+00  0.00000000E+00
  0.00000000E+00  0.00000000E+00  0.00000000E+00
  0.00000000E+00  0.00000000E+00  0.00000000E+00
  0.00000000E+00  0.00000000E+00  0.00000000E+00
  0.00000000E+00  0.00000000E+00  0.00000000E+00
  0.00000000E+00  0.00000000E+00  0.00000000E+00
  0.00000000E+00  0.00000000E+00  0.00000000E+00
  0.00000000E+00  0.00000000E+00  0.00000000E+00
