CeO2-you-111-you-Cr                     
   1.00000000000000     
     9.8344047641525556   -5.6950953211830591    0.0293028764663970
     0.0000000016193329   11.3901886407394457   -0.0000000034013756
     0.0640122589146498   -0.0000000064823737   20.8403983577812362
   O    Cr   Ce   H 
    53     1    26     1
Selective dynamics
Direct
  0.0000482490208676  0.0002610606386509  0.9946562023035749   T   T   T
  0.1228019444928305  0.2271441977065339  0.1524569361337168   T   T   T
  0.2089001215089091  0.0970048299789218  0.2999200146994606   T   T   T
  0.1505419296922966  0.2474576134944301  0.3794363152184923   T   T   T
  0.9936514629857018  0.9963949646386810  0.2265498642554711   T   T   T
  0.2222502508051803  0.1090594032182826  0.0728458631448081   T   T   T
  0.3351261157360220 -0.0006440969184060  0.9932395596911580   T   T   T
  0.4423145953644327  0.2226680943607654  0.1490662803352989   T   T   T
  0.5581147745007120  0.1071965511298047  0.3079161196492496   T   T   T
  0.4266867475063928  0.2630336274431891  0.3782057168280507   T   T   T
  0.3355194927721009  0.9976015446730764  0.2279659222208533   T   T   T
  0.5549411859068250  0.1102434081559375  0.0749712713441412   T   T   T
  0.6702699180407899  0.0010100384834994  0.9955094613144660   T   T   T
  0.7747108427339207  0.2242255617248320  0.1520927175832251   T   T   T
  0.8971132011373901  0.1141216639465892  0.3066380598760713   T   T   T
  0.7880785966807610  0.2172928530447390  0.3908196810689964   T   T   T
  0.6699458885465740 -0.0009472318455035  0.2303964408689754   T   T   T
  0.8910272318185870  0.1104635868984944  0.0779554865366396   T   T   T
  0.9994221948128461  0.3295425768700239  0.9946965426593091   T   T   T
  0.1114793093841099  0.5546410742142294  0.1490954270852163   T   T   T
  0.2193034324047460  0.4428457546541883  0.3010929673429543   T   T   T
  0.1150894685530604  0.5539054439547293  0.3870733735048277   T   T   T
 -0.0005955501776571  0.3315590805139247  0.2281796477814066   T   T   T
  0.2221659766605075  0.4442679962989284  0.0725142935334029   T   T   T
  0.3333616756474213  0.3322706541835632  0.9927674601529515   T   T   T
  0.4417966149438713  0.5510996080703146  0.1474783123769786   T   T   T
  0.4236892722168558  0.5051654063058382  0.3713630654186427   T   T   T
  0.3559716716875387  0.3454803130580972  0.2471919400796675   T   T   T
  0.5561642455633584  0.4435166215006568  0.0709626376001931   T   T   T
  0.6687391877338729  0.3315603974279601  0.9934014297332943   T   T   T
  0.7778876774814198  0.5536757226248596  0.1463372115454115   T   T   T
  0.8965102222304473  0.4428266135258679  0.3050489981266014   T   T   T
  0.7847203598797340  0.5572419206874306  0.3871646258731306   T   T   T
  0.6596126871991955  0.3428641040152869  0.2349051936893729   T   T   T
  0.8903134344643945  0.4439676458431630  0.0733752772402339   T   T   T
  0.0023622162440489  0.6665142977720502  0.9926768289682055   T   T   T
  0.1110062516819949  0.8878114514796005  0.1498736830227416   T   T   T
  0.2195123244072942  0.7722722264976618  0.3047207164769459   T   T   T
  0.0967239997794885  0.8797841975059206  0.3897340494669033   T   T   T
  0.9970295868035166  0.6636971365801282  0.2290806297393158   T   T   T
  0.2235266400705197  0.7774130597009442  0.0738235358524224   T   T   T
  0.3343269245351623  0.6669601230776798  0.9928329086571051   T   T   T
  0.4474268794208494  0.8880217166020208  0.1504260009262344   T   T   T
  0.5520261283973884  0.7759405498763917  0.3057048593538275   T   T   T
  0.4464842233221040  0.8753601543776319  0.3899775590282729   T   T   T
  0.3327071205137263  0.6653461514257826  0.2290787794327309   T   T   T
  0.5541129485196713  0.7749551691734984  0.0735800527923335   T   T   T
  0.6684277235255014  0.6674129427238644  0.9927054998623062   T   T   T
  0.7724402150749735  0.8803455527873988  0.1503811213931463   T   T   T
  0.8926142806095414  0.7812637762324871  0.3034271951075213   T   T   T
  0.7834267063468765  0.8972463398059710  0.3887026102817964   T   T   T
  0.6580123342950006  0.6473437596471420  0.2335473746437298   T   T   T
  0.8899157363285429  0.7767884656592111  0.0729209286436357   T   T   T
  0.3078917104525382  0.3481029893744050  0.3345614480963201   T   T   T
  0.0031214223142735 -0.0029230247665920  0.3438084520292510   T   T   T
  0.2215008619019382  0.1067097342215913  0.1923545572080864   T   T   T
  0.1126664155145756  0.2213874325421289  0.0346068819382335   T   T   T
  0.3274794355279913 -0.0039280831315745  0.3475873889306985   T   T   T
  0.5552882768606805  0.1106243850621545  0.1932746112209328   T   T   T
  0.4444966558862096  0.2197730604651403  0.0329341992304904   T   T   T
  0.6672724166655606 -0.0026159797527435  0.3475484059890402   T   T   T
  0.8894447970138932  0.1104094575782479  0.1910609238094657   T   T   T
  0.7785806418385791  0.2218082869332755  0.0355877637719599   T   T   T
  0.0025706410430242  0.3341896852430194  0.3454899530156471   T   T   T
  0.2220257556954726  0.4454824753406532  0.1886502137072318   T   T   T
  0.1118872342621254  0.5548334786814513  0.0333615218527287   T   T   T
  0.5560269848653827  0.4433102719784716  0.1829723268634745   T   T   T
  0.4446202403677850  0.5557349636770426  0.0315969775826075   T   T   T
  0.6774187089664288  0.3297704277996033  0.3518248476015841   T   T   T
  0.8880217643030504  0.4442765006479584  0.1908540636065668   T   T   T
  0.7803494929531795  0.5553956467945111  0.0317681396319516   T   T   T
 -0.0016626610000213  0.6657562939280969  0.3467325189074605   T   T   T
  0.2222539140295570  0.7770878525171147  0.1892856805527368   T   T   T
  0.1123842314529420  0.8889317541989599  0.0339800784118851   T   T   T
  0.3312448904300950  0.6683020498812563  0.3442474041723608   T   T   T
  0.5551093524445763  0.7747788156982897  0.1914700853047739   T   T   T
  0.4463194628864444  0.8889396775116931  0.0350670725187802   T   T   T
  0.6731835897456026  0.6734531887207285  0.3518103134110523   T   T   T
  0.8865924980579193  0.7738971871565669  0.1901698869942197   T   T   T
  0.7783448257098794  0.8875184070954585  0.0349750439207378   T   T   T
  0.4168517699981136  0.2860733891561380  0.4222685892543969   T   T   T
 
  0.00000000E+00  0.00000000E+00  0.00000000E+00
  0.00000000E+00  0.00000000E+00  0.00000000E+00
  0.00000000E+00  0.00000000E+00  0.00000000E+00
  0.00000000E+00  0.00000000E+00  0.00000000E+00
  0.00000000E+00  0.00000000E+00  0.00000000E+00
  0.00000000E+00  0.00000000E+00  0.00000000E+00
  0.00000000E+00  0.00000000E+00  0.00000000E+00
  0.00000000E+00  0.00000000E+00  0.00000000E+00
  0.00000000E+00  0.00000000E+00  0.00000000E+00
  0.00000000E+00  0.00000000E+00  0.00000000E+00
  0.00000000E+00  0.00000000E+00  0.00000000E+00
  0.00000000E+00  0.00000000E+00  0.00000000E+00
  0.00000000E+00  0.00000000E+00  0.00000000E+00
  0.00000000E+00  0.00000000E+00  0.00000000E+00
  0.00000000E+00  0.00000000E+00  0.00000000E+00
  0.00000000E+00  0.00000000E+00  0.00000000E+00
  0.00000000E+00  0.00000000E+00  0.00000000E+00
  0.00000000E+00  0.00000000E+00  0.00000000E+00
  0.00000000E+00  0.00000000E+00  0.00000000E+00
  0.00000000E+00  0.00000000E+00  0.00000000E+00
  0.00000000E+00  0.00000000E+00  0.00000000E+00
  0.00000000E+00  0.00000000E+00  0.00000000E+00
  0.00000000E+00  0.00000000E+00  0.00000000E+00
  0.00000000E+00  0.00000000E+00  0.00000000E+00
  0.00000000E+00  0.00000000E+00  0.00000000E+00
  0.00000000E+00  0.00000000E+00  0.00000000E+00
  0.00000000E+00  0.00000000E+00  0.00000000E+00
  0.00000000E+00  0.00000000E+00  0.00000000E+00
  0.00000000E+00  0.00000000E+00  0.00000000E+00
  0.00000000E+00  0.00000000E+00  0.00000000E+00
  0.00000000E+00  0.00000000E+00  0.00000000E+00
  0.00000000E+00  0.00000000E+00  0.00000000E+00
  0.00000000E+00  0.00000000E+00  0.00000000E+00
  0.00000000E+00  0.00000000E+00  0.00000000E+00
  0.00000000E+00  0.00000000E+00  0.00000000E+00
  0.00000000E+00  0.00000000E+00  0.00000000E+00
  0.00000000E+00  0.00000000E+00  0.00000000E+00
  0.00000000E+00  0.00000000E+00  0.00000000E+00
  0.00000000E+00  0.00000000E+00  0.00000000E+00
  0.00000000E+00  0.00000000E+00  0.00000000E+00
  0.00000000E+00  0.00000000E+00  0.00000000E+00
  0.00000000E+00  0.00000000E+00  0.00000000E+00
  0.00000000E+00  0.00000000E+00  0.00000000E+00
  0.00000000E+00  0.00000000E+00  0.00000000E+00
  0.00000000E+00  0.00000000E+00  0.00000000E+00
  0.00000000E+00  0.00000000E+00  0.00000000E+00
  0.00000000E+00  0.00000000E+00  0.00000000E+00
  0.00000000E+00  0.00000000E+00  0.00000000E+00
  0.00000000E+00  0.00000000E+00  0.00000000E+00
  0.00000000E+00  0.00000000E+00  0.00000000E+00
  0.00000000E+00  0.00000000E+00  0.00000000E+00
  0.00000000E+00  0.00000000E+00  0.00000000E+00
  0.00000000E+00  0.00000000E+00  0.00000000E+00
  0.00000000E+00  0.00000000E+00  0.00000000E+00
  0.00000000E+00  0.00000000E+00  0.00000000E+00
  0.00000000E+00  0.00000000E+00  0.00000000E+00
  0.00000000E+00  0.00000000E+00  0.00000000E+00
  0.00000000E+00  0.00000000E+00  0.00000000E+00
  0.00000000E+00  0.00000000E+00  0.00000000E+00
  0.00000000E+00  0.00000000E+00  0.00000000E+00
  0.00000000E+00  0.00000000E+00  0.00000000E+00
  0.00000000E+00  0.00000000E+00  0.00000000E+00
  0.00000000E+00  0.00000000E+00  0.00000000E+00
  0.00000000E+00  0.00000000E+00  0.00000000E+00
  0.00000000E+00  0.00000000E+00  0.00000000E+00
  0.00000000E+00  0.00000000E+00  0.00000000E+00
  0.00000000E+00  0.00000000E+00  0.00000000E+00
  0.00000000E+00  0.00000000E+00  0.00000000E+00
  0.00000000E+00  0.00000000E+00  0.00000000E+00
  0.00000000E+00  0.00000000E+00  0.00000000E+00
  0.00000000E+00  0.00000000E+00  0.00000000E+00
  0.00000000E+00  0.00000000E+00  0.00000000E+00
  0.00000000E+00  0.00000000E+00  0.00000000E+00
  0.00000000E+00  0.00000000E+00  0.00000000E+00
  0.00000000E+00  0.00000000E+00  0.00000000E+00
  0.00000000E+00  0.00000000E+00  0.00000000E+00
  0.00000000E+00  0.00000000E+00  0.00000000E+00
  0.00000000E+00  0.00000000E+00  0.00000000E+00
  0.00000000E+00  0.00000000E+00  0.00000000E+00
  0.00000000E+00  0.00000000E+00  0.00000000E+00
  0.00000000E+00  0.00000000E+00  0.00000000E+00
