CeO2-you-111-you-Au                     
   1.00000000000000     
     9.8369955734897623   -5.7030992167702079    0.0032575686463099
    -0.0205306882040197   11.3706362335589866   -0.0032575680932753
     0.0037086816359108   -0.0064236246406124   21.2355728781112241
   O    Au   Ce   H 
    53     1    26     1
Selective dynamics
Direct
  0.0000972985141026  0.0001474896084166  0.9955632812516386   T   T   T
  0.1025136228659298  0.2175969233798169  0.1447220857857244   T   T   T
  0.2434829198158776  0.1447295472181505  0.3087158020299182   T   T   T
  0.1302716993449550  0.2549269073817141  0.3756392808676844   T   T   T
  0.0091579662809019  0.0044936769952369  0.2300721282895363   T   T   T
  0.2227779215056169  0.1112650413509783  0.0748355846127452   T   T   T
  0.3349138086957860  0.0010531138178352  0.9961378390393520   T   T   T
  0.4472262373256609  0.2198218844330117  0.1488185166243177   T   T   T
  0.5589828613769797  0.1074996160440087  0.3037259009862104   T   T   T
  0.4717061705988690  0.1953043455828863  0.4175377273817809   T   T   T
  0.3292677405155953  0.0011825110991736  0.2281870894034937   T   T   T
  0.5578148560119780  0.1083924283967526  0.0772159068265217   T   T   T
  0.6661223145343655  0.0008658111423970  0.9945126986335179   T   T   T
  0.7840205501208020  0.2251408613090443  0.1536454241076405   T   T   T
  0.8905289796401678  0.1095915076373502  0.3028127766733766   T   T   T
  0.7875790089204172  0.2151165201460758  0.3867764359010985   T   T   T
  0.6686430076952685  0.9980868873206188  0.2287756249093180   T   T   T
  0.8838981189603434  0.1078141098920852  0.0743775247838904   T   T   T
  0.9980171588838839  0.3316991878747347  0.9954149949944961   T   T   T
  0.1096704939913730  0.5569349232796542  0.1467151283050034   T   T   T
  0.1165468095598951  0.5503908788140759  0.3781722800589846   T   T   T
  0.0201521567864711  0.3432870408982990  0.2342216508777779   T   T   T
  0.2221921900262727  0.4446719394282221  0.0709941697567207   T   T   T
  0.3335530330131851  0.3318908681989968  0.9952598655719396   T   T   T
  0.4487815435824750  0.5643896976983475  0.1447298994032550   T   T   T
  0.5218856849906961  0.4228861700152684  0.3086625547866961   T   T   T
  0.4122241028284441  0.5365356225688658  0.3754834521809627   T   T   T
  0.3282770078753574  0.3381829306760220  0.2130805728618992   T   T   T
  0.5550895239628391  0.4444165312065527  0.0748093018683057   T   T   T
  0.6652787111494268  0.3317670688837085  0.9964878714252935   T   T   T
  0.7797535400322221  0.5566114911457433  0.1488893868959758   T   T   T
  0.8907590891436986  0.4467777300533513  0.3036712906060113   T   T   T
  0.7789864225706775  0.5710159129838803  0.3810521630454345   T   T   T
  0.6654309623530453  0.3374221776883898  0.2284626438228914   T   T   T
  0.8873865987758559  0.4431591985903722  0.0747522835779045   T   T   T
  0.0000424608975836  0.6668794539482128  0.9956647171319909   T   T   T
  0.1101642475198580  0.8867328728171235  0.1486011228425875   T   T   T
  0.2202775103876916  0.7765194438459886  0.3038591316498936   T   T   T
  0.0957896453609016  0.8878226442783159  0.3811056530158073   T   T   T
  0.0000609077186560  0.6670743556597030  0.2289059357946359   T   T   T
  0.2236397867726659  0.7790761170244750  0.0746927970638639   T   T   T
  0.3341590074416659  0.6682593021409710  0.9950794865036986   T   T   T
  0.4415910345264799  0.8826098416657224  0.1535648777591909   T   T   T
  0.5569182327909795  0.7763289714943953  0.3030655246961897   T   T   T
  0.4517686783181757  0.8790370042208168  0.3871046896532526   T   T   T
  0.3229971056125785  0.6465030033164527  0.2343913366324265   T   T   T
  0.5583691216062862  0.7822273982861356  0.0740561584200753   T   T   T
  0.6662625776738775  0.6661418190433782  0.9952311901507805   T   T   T
  0.7788745860471540  0.8875756281382177  0.1515496632137496   T   T   T
  0.8864942701037700  0.7797477144450434  0.2990327589743084   T   T   T
  0.7800258688101150  0.8868737277431519  0.3809374888277779   T   T   T
  0.6615224547228117  0.6575633698591714  0.2300104762087903   T   T   T
  0.8882335546586105  0.7781998859017869  0.0741251222173478   T   T   T
  0.3262871142396886  0.3403141375069140  0.3433793871906693   T   T   T
  0.0025216074954161  0.0027661326053536  0.3405935452121874   T   T   T
  0.2257474257637827  0.1149151032274534  0.1881012522953985   T   T   T
  0.1092430714627499  0.2196893492083719  0.0330845446123948   T   T   T
  0.3350523086559368  0.0033532315224382  0.3491797066784048   T   T   T
  0.5557682940417620  0.1108691201969962  0.1930842217033614   T   T   T
  0.4450408407598172  0.2214323488757090  0.0358445335888789   T   T   T
  0.6680129381732766 -0.0013070310580895  0.3442067541607906   T   T   T
  0.8907691792508771  0.1113408406822448  0.1900226712638338   T   T   T
  0.7770562852960431  0.2209616230962672  0.0362111298890490   T   T   T
  0.9907819040025388  0.3308150100102342  0.3447766819978761   T   T   T
  0.2224748858938865  0.4441422541416673  0.1786321164833840   T   T   T
  0.1097412011898284  0.5568058772971981  0.0338484667311734   T   T   T
  0.5514886848688217  0.4408889386280437  0.1881522037894983   T   T   T
  0.4465955388786234  0.5571826237713371  0.0329284659185997   T   T   T
  0.6635402143497040  0.3317595953264336  0.3489289671127552   T   T   T
  0.8884191217438078  0.4447291435348818  0.1907956968472683   T   T   T
  0.7773653145287449  0.5545966970698025  0.0361293356771276   T   T   T
  0.9975185558967832  0.6694212489928468  0.3403977045043926   T   T   T
  0.2221130369360234  0.7783297854171202  0.1907597384753378   T   T   T
  0.1121317807327241  0.8890193064062816  0.0360941002755871   T   T   T
  0.3358823269488085  0.6761374499756194  0.3449356655443688   T   T   T
  0.5551021354819304  0.7758389960226999  0.1900790790537334   T   T   T
  0.4454688621264305  0.8894131882860890  0.0359829025084015   T   T   T
  0.6636325552299165  0.6639895537492631  0.3405734127152890   T   T   T
  0.8892866668755824  0.7774233213392944  0.1880882655901840   T   T   T
  0.7770284784229968  0.8893345413855005  0.0351113583020339   T   T   T
  0.4401245075341783  0.2271725061929094  0.4525028229744777   T   T   T
 
  0.00000000E+00  0.00000000E+00  0.00000000E+00
  0.00000000E+00  0.00000000E+00  0.00000000E+00
  0.00000000E+00  0.00000000E+00  0.00000000E+00
  0.00000000E+00  0.00000000E+00  0.00000000E+00
  0.00000000E+00  0.00000000E+00  0.00000000E+00
  0.00000000E+00  0.00000000E+00  0.00000000E+00
  0.00000000E+00  0.00000000E+00  0.00000000E+00
  0.00000000E+00  0.00000000E+00  0.00000000E+00
  0.00000000E+00  0.00000000E+00  0.00000000E+00
  0.00000000E+00  0.00000000E+00  0.00000000E+00
  0.00000000E+00  0.00000000E+00  0.00000000E+00
  0.00000000E+00  0.00000000E+00  0.00000000E+00
  0.00000000E+00  0.00000000E+00  0.00000000E+00
  0.00000000E+00  0.00000000E+00  0.00000000E+00
  0.00000000E+00  0.00000000E+00  0.00000000E+00
  0.00000000E+00  0.00000000E+00  0.00000000E+00
  0.00000000E+00  0.00000000E+00  0.00000000E+00
  0.00000000E+00  0.00000000E+00  0.00000000E+00
  0.00000000E+00  0.00000000E+00  0.00000000E+00
  0.00000000E+00  0.00000000E+00  0.00000000E+00
  0.00000000E+00  0.00000000E+00  0.00000000E+00
  0.00000000E+00  0.00000000E+00  0.00000000E+00
  0.00000000E+00  0.00000000E+00  0.00000000E+00
  0.00000000E+00  0.00000000E+00  0.00000000E+00
  0.00000000E+00  0.00000000E+00  0.00000000E+00
  0.00000000E+00  0.00000000E+00  0.00000000E+00
  0.00000000E+00  0.00000000E+00  0.00000000E+00
  0.00000000E+00  0.00000000E+00  0.00000000E+00
  0.00000000E+00  0.00000000E+00  0.00000000E+00
  0.00000000E+00  0.00000000E+00  0.00000000E+00
  0.00000000E+00  0.00000000E+00  0.00000000E+00
  0.00000000E+00  0.00000000E+00  0.00000000E+00
  0.00000000E+00  0.00000000E+00  0.00000000E+00
  0.00000000E+00  0.00000000E+00  0.00000000E+00
  0.00000000E+00  0.00000000E+00  0.00000000E+00
  0.00000000E+00  0.00000000E+00  0.00000000E+00
  0.00000000E+00  0.00000000E+00  0.00000000E+00
  0.00000000E+00  0.00000000E+00  0.00000000E+00
  0.00000000E+00  0.00000000E+00  0.00000000E+00
  0.00000000E+00  0.00000000E+00  0.00000000E+00
  0.00000000E+00  0.00000000E+00  0.00000000E+00
  0.00000000E+00  0.00000000E+00  0.00000000E+00
  0.00000000E+00  0.00000000E+00  0.00000000E+00
  0.00000000E+00  0.00000000E+00  0.00000000E+00
  0.00000000E+00  0.00000000E+00  0.00000000E+00
  0.00000000E+00  0.00000000E+00  0.00000000E+00
  0.00000000E+00  0.00000000E+00  0.00000000E+00
  0.00000000E+00  0.00000000E+00  0.00000000E+00
  0.00000000E+00  0.00000000E+00  0.00000000E+00
  0.00000000E+00  0.00000000E+00  0.00000000E+00
  0.00000000E+00  0.00000000E+00  0.00000000E+00
  0.00000000E+00  0.00000000E+00  0.00000000E+00
  0.00000000E+00  0.00000000E+00  0.00000000E+00
  0.00000000E+00  0.00000000E+00  0.00000000E+00
  0.00000000E+00  0.00000000E+00  0.00000000E+00
  0.00000000E+00  0.00000000E+00  0.00000000E+00
  0.00000000E+00  0.00000000E+00  0.00000000E+00
  0.00000000E+00  0.00000000E+00  0.00000000E+00
  0.00000000E+00  0.00000000E+00  0.00000000E+00
  0.00000000E+00  0.00000000E+00  0.00000000E+00
  0.00000000E+00  0.00000000E+00  0.00000000E+00
  0.00000000E+00  0.00000000E+00  0.00000000E+00
  0.00000000E+00  0.00000000E+00  0.00000000E+00
  0.00000000E+00  0.00000000E+00  0.00000000E+00
  0.00000000E+00  0.00000000E+00  0.00000000E+00
  0.00000000E+00  0.00000000E+00  0.00000000E+00
  0.00000000E+00  0.00000000E+00  0.00000000E+00
  0.00000000E+00  0.00000000E+00  0.00000000E+00
  0.00000000E+00  0.00000000E+00  0.00000000E+00
  0.00000000E+00  0.00000000E+00  0.00000000E+00
  0.00000000E+00  0.00000000E+00  0.00000000E+00
  0.00000000E+00  0.00000000E+00  0.00000000E+00
  0.00000000E+00  0.00000000E+00  0.00000000E+00
  0.00000000E+00  0.00000000E+00  0.00000000E+00
  0.00000000E+00  0.00000000E+00  0.00000000E+00
  0.00000000E+00  0.00000000E+00  0.00000000E+00
  0.00000000E+00  0.00000000E+00  0.00000000E+00
  0.00000000E+00  0.00000000E+00  0.00000000E+00
  0.00000000E+00  0.00000000E+00  0.00000000E+00
  0.00000000E+00  0.00000000E+00  0.00000000E+00
  0.00000000E+00  0.00000000E+00  0.00000000E+00
