CeO2-you-111-you-Ni                     
   1.00000000000000     
     9.8205666401696714   -5.6699071646920896    0.0000000000000000
     0.0000000028007476   11.3398123386687679   -0.0000000000000000
     0.0000000000000000   -0.0000000000000000   20.8125899465341355
   O    Ni   Ce H
    54     1    26 1
Selective dynamics
Direct
 -0.0003019441692710 -0.0002469692169644  0.9931514762272763   T   T   T
  0.1121203617862843  0.2227266808930420  0.1496172103314866   F   F   F
  0.2245409806662832  0.1157489613315023  0.3047653248811008   T   T   T
  0.1252940308986739  0.2293135154479125  0.3805615346766933   T   T   T
  0.0001871370447369  0.0000266490448643  0.2306925449647223   T   T   T
  0.2222705088505428  0.1112080177011239  0.0734662178818419   F   F   F
  0.3333879749523757 -0.0002469692169028  0.9931514762272763   T   T   T
  0.4439393191067536  0.2227266808929514  0.1496172103314866   F   F   F
  0.5548939013326154  0.1117730986672060  0.3067291522632418   T   T   T
  0.4373524845492349  0.2293135154466467  0.3805615346766933   T   T   T
  0.3331725120000115  0.0000266490446516  0.2306925449647223   T   T   T
  0.5555406448607060  0.1111263551395615  0.0741012488483286   F   F   F
  0.6666669999999968 -0.0000000000000000  0.9932655707487127   T   T   T
  0.7776631865374555  0.2219923730751161  0.1498992357575074   F   F   F
  0.8902131973346471  0.1117730986672621  0.3067291522632418   T   T   T
  0.7777277645089650  0.2221215290176692  0.3867130467233749   T   T   T
  0.6666669999999968 -0.0000000000000000  0.2311535528488107   T   T   T
  0.8889197102787754  0.1111263551394804  0.0741012488483286   F   F   F
 -0.0003019441691228  0.3332780250478353  0.9931514762272763   T   T   T
  0.1111200237835763  0.5555469762169317  0.1495990413265470   F   F   F
  0.2245409806686733  0.4421250193347769  0.3047653248811008   T   T   T
  0.1121276105558654  0.5545393894441721  0.3858443967655432   T   T   T
  0.0001871370444686  0.3334934879993965  0.2306925449647223   T   T   T
  0.2222705088504493  0.4443954911494151  0.0734662178818419   F   F   F
  0.3333330000000032  0.3333330000000032  0.9928032776645292   T   T   T
  0.4439393191069576  0.5545466382140142  0.1496172103314866   F   F   F
  0.5509180386650506  0.4421250193337161  0.3047653248811008   T   T   T
  0.4373524845520868  0.5413729691054477  0.3805615346766933   T   T   T
  0.3333330000000032  0.3333330000000032  0.2329196250837478   T   T   T
  0.5554589822990151  0.4443954911494564  0.0734662178818419   F   F   F
  0.6669139692168857  0.3332780250478312  0.9931514762272763   T   T   T
  0.7777599524331965  0.5555469762167766  0.1495990413265470   F   F   F
  0.8891196439290268  0.4449052878582027  0.3059086476748324   T   T   T
  0.7757447788882925  0.5545393894441619  0.3858443967655432   T   T   T
  0.6666403509550407  0.3334934879993028  0.2306925449647223   T   T   T
  0.8888235427293987  0.4443130854587192  0.0737088316276931   F   F   F
 -0.0000000000000000  0.6666669999999968  0.9931726367958790   T   T   T
  0.1111200237832273  0.8889070475662965  0.1495990413265470   F   F   F
  0.2217607121422834  0.7775473560709700  0.3059086476748324   T   T   T
  0.1121276105558423  0.8909222211116711  0.3858443967655432   T   T   T
 -0.0000000000000000  0.6666669999999968  0.2302547417414858   T   T   T
  0.2223529145410283  0.7778434572705981  0.0737088316276931   F   F   F
  0.3333879749523853  0.6669689441691335  0.9931514762272763   T   T   T
  0.4446736269255274  0.8890038134625413  0.1498992357575074   F   F   F
  0.5548939013327420  0.7764538026655319  0.3067291522632418   T   T   T
  0.4445444709814620  0.8889392354910318  0.3867130467233749   T   T   T
  0.3331725120002223  0.6664798629558324  0.2306925449647223   T   T   T
  0.5555406448605238  0.7777472897209582  0.0741012488483286   F   F   F
  0.6669139692167469  0.6669689441690675  0.9931514762272763   T   T   T
  0.7776631865370097  0.8890038134623431  0.1498992357575074   F   F   F
  0.8891196439286895  0.7775473560708202  0.3059086476748324   T   T   T
  0.7777277645095662  0.8889392354912987  0.3867130467233749   T   T   T
  0.6666403509555202  0.6664798629559519  0.2306925449647223   T   T   T
  0.8888235427295730  0.7778434572706755  0.0737088316276931   F   F   F
  0.3333330000000032  0.3333330000000032  0.3346535814922565   T   T   T
  0.0031874866532669  0.0026626720483288  0.3457072969462355   T   T   T
  0.2226344666469119  0.1119359332937205  0.1904723999402343   F   F   F
  0.1112045967245542  0.2222687983623103  0.0334522070749776   F   F   F
  0.3328081853950559  0.0026626720481023  0.3457072969462355   T   T   T
  0.5555393710298315  0.1111276289704852  0.1901588073163641   F   F   F
  0.4443972016377521  0.2222687983623382  0.0334522070749776   F   F   F
  0.6666669999999968 -0.0000000000000000  0.3471947704971856   T   T   T
  0.8889222579405585  0.1111276289703892  0.1901588073163641   F   F   F
  0.7777734327937038  0.2222128655874180  0.0336961176709897   F   F   F
  0.0031874866532459  0.3338578146044309  0.3457072969462355   T   T   T
  0.2226344666471377  0.4440315333531875  0.1904723999402343   F   F   F
  0.1111409945878329  0.5555260054121901  0.0336287246235546   F   F   F
  0.5547310667059573  0.4440315333530875  0.1904723999402343   F   F   F
  0.4443972016376890  0.5554624032753587  0.0334522070749776   F   F   F
  0.6640043279511880  0.3338578146042139  0.3457072969462355   T   T   T
  0.8890038800002061  0.4446737600001470  0.1900332825085727   F   F   F
  0.7777180108243473  0.5555260054121842  0.0336287246235546   F   F   F
 -0.0000000000000000  0.6666669999999968  0.3455940506194456   T   T   T
  0.2219922399989920  0.7776631199997907  0.1900332825085727   F   F   F
  0.1111409945878196  0.8889489891756298  0.0336287246235546   F   F   F
  0.3328081853955453  0.6634795133474573  0.3457072969462355   T   T   T
  0.5555393710296148  0.7777447420591258  0.1901588073163641   F   F   F
  0.4444531344125943  0.8888935672062930  0.0336961176709897   F   F   F
  0.6640043279516982  0.6634795133474666  0.3457072969462355   T   T   T
  0.8890038800008020  0.7776631200000552  0.1900332825085727   F   F   F
  0.7777734327936950  0.8888935672062891  0.0336961176709897   F   F   F
0.446598 0.216020 0.433410 T T T 
 
  0.00000000E+00  0.00000000E+00  0.00000000E+00
  0.00000000E+00  0.00000000E+00  0.00000000E+00
  0.00000000E+00  0.00000000E+00  0.00000000E+00
  0.00000000E+00  0.00000000E+00  0.00000000E+00
  0.00000000E+00  0.00000000E+00  0.00000000E+00
  0.00000000E+00  0.00000000E+00  0.00000000E+00
  0.00000000E+00  0.00000000E+00  0.00000000E+00
  0.00000000E+00  0.00000000E+00  0.00000000E+00
  0.00000000E+00  0.00000000E+00  0.00000000E+00
  0.00000000E+00  0.00000000E+00  0.00000000E+00
  0.00000000E+00  0.00000000E+00  0.00000000E+00
  0.00000000E+00  0.00000000E+00  0.00000000E+00
  0.00000000E+00  0.00000000E+00  0.00000000E+00
  0.00000000E+00  0.00000000E+00  0.00000000E+00
  0.00000000E+00  0.00000000E+00  0.00000000E+00
  0.00000000E+00  0.00000000E+00  0.00000000E+00
  0.00000000E+00  0.00000000E+00  0.00000000E+00
  0.00000000E+00  0.00000000E+00  0.00000000E+00
  0.00000000E+00  0.00000000E+00  0.00000000E+00
  0.00000000E+00  0.00000000E+00  0.00000000E+00
  0.00000000E+00  0.00000000E+00  0.00000000E+00
  0.00000000E+00  0.00000000E+00  0.00000000E+00
  0.00000000E+00  0.00000000E+00  0.00000000E+00
  0.00000000E+00  0.00000000E+00  0.00000000E+00
  0.00000000E+00  0.00000000E+00  0.00000000E+00
  0.00000000E+00  0.00000000E+00  0.00000000E+00
  0.00000000E+00  0.00000000E+00  0.00000000E+00
  0.00000000E+00  0.00000000E+00  0.00000000E+00
  0.00000000E+00  0.00000000E+00  0.00000000E+00
  0.00000000E+00  0.00000000E+00  0.00000000E+00
  0.00000000E+00  0.00000000E+00  0.00000000E+00
  0.00000000E+00  0.00000000E+00  0.00000000E+00
  0.00000000E+00  0.00000000E+00  0.00000000E+00
  0.00000000E+00  0.00000000E+00  0.00000000E+00
  0.00000000E+00  0.00000000E+00  0.00000000E+00
  0.00000000E+00  0.00000000E+00  0.00000000E+00
  0.00000000E+00  0.00000000E+00  0.00000000E+00
  0.00000000E+00  0.00000000E+00  0.00000000E+00
  0.00000000E+00  0.00000000E+00  0.00000000E+00
  0.00000000E+00  0.00000000E+00  0.00000000E+00
  0.00000000E+00  0.00000000E+00  0.00000000E+00
  0.00000000E+00  0.00000000E+00  0.00000000E+00
  0.00000000E+00  0.00000000E+00  0.00000000E+00
  0.00000000E+00  0.00000000E+00  0.00000000E+00
  0.00000000E+00  0.00000000E+00  0.00000000E+00
  0.00000000E+00  0.00000000E+00  0.00000000E+00
  0.00000000E+00  0.00000000E+00  0.00000000E+00
  0.00000000E+00  0.00000000E+00  0.00000000E+00
  0.00000000E+00  0.00000000E+00  0.00000000E+00
  0.00000000E+00  0.00000000E+00  0.00000000E+00
  0.00000000E+00  0.00000000E+00  0.00000000E+00
  0.00000000E+00  0.00000000E+00  0.00000000E+00
  0.00000000E+00  0.00000000E+00  0.00000000E+00
  0.00000000E+00  0.00000000E+00  0.00000000E+00
  0.00000000E+00  0.00000000E+00  0.00000000E+00
  0.00000000E+00  0.00000000E+00  0.00000000E+00
  0.00000000E+00  0.00000000E+00  0.00000000E+00
  0.00000000E+00  0.00000000E+00  0.00000000E+00
  0.00000000E+00  0.00000000E+00  0.00000000E+00
  0.00000000E+00  0.00000000E+00  0.00000000E+00
  0.00000000E+00  0.00000000E+00  0.00000000E+00
  0.00000000E+00  0.00000000E+00  0.00000000E+00
  0.00000000E+00  0.00000000E+00  0.00000000E+00
  0.00000000E+00  0.00000000E+00  0.00000000E+00
  0.00000000E+00  0.00000000E+00  0.00000000E+00
  0.00000000E+00  0.00000000E+00  0.00000000E+00
  0.00000000E+00  0.00000000E+00  0.00000000E+00
  0.00000000E+00  0.00000000E+00  0.00000000E+00
  0.00000000E+00  0.00000000E+00  0.00000000E+00
  0.00000000E+00  0.00000000E+00  0.00000000E+00
  0.00000000E+00  0.00000000E+00  0.00000000E+00
  0.00000000E+00  0.00000000E+00  0.00000000E+00
  0.00000000E+00  0.00000000E+00  0.00000000E+00
  0.00000000E+00  0.00000000E+00  0.00000000E+00
  0.00000000E+00  0.00000000E+00  0.00000000E+00
  0.00000000E+00  0.00000000E+00  0.00000000E+00
  0.00000000E+00  0.00000000E+00  0.00000000E+00
  0.00000000E+00  0.00000000E+00  0.00000000E+00
  0.00000000E+00  0.00000000E+00  0.00000000E+00
  0.00000000E+00  0.00000000E+00  0.00000000E+00
  0.00000000E+00  0.00000000E+00  0.00000000E+00
