CeO2-you-111-you-Ru                     
   1.00000000000000     
     9.7931939021342469   -5.6541035076303876    0.0000000000000000
     0.0000000060060840   11.3082050356593840    0.0000000000000000
     0.0000000000000000    0.0000000000000000   21.3384357948287331
   O    Ru   Ce   H 
    54     1    26     1
Selective dynamics
Direct
  0.9997870087305530  0.9997892008169762  0.9965636390521913   T   T   T
  0.1045401417380205  0.2189365708687561  0.1490511635909684   F   F   F
  0.2390911695843963  0.1361874923811364  0.3051118262959512   T   T   T
  0.1460213611383870  0.2431769389973374  0.3866638048729650   T   T   T
  0.0035146717598320  0.0008070801871599  0.2307229156728053   T   T   T
  0.2225121715825367  0.1116913431649778  0.0757781253736596   F   F   F
  0.3331471420577871  0.0000032546948419  0.9964926734683083   T   T   T
  0.4477294291307317  0.2189365708685287  0.1490511635909684   F   F   F
  0.5478342167684945  0.1083737806903440  0.3067015221605432   T   T   T
  0.4213047410107420  0.2347341985032995  0.3994798841005835   T   T   T
  0.3300085437030601  0.9986028238588662  0.2305942150066679   T   T   T
  0.5568672850190808  0.1097997149807384  0.0759024517470408   F   F   F
  0.6667707225053680 -0.0000024630668729  0.9956067681493721   T   T   T
  0.7775153971478801  0.2216967942957950  0.1514227401481776   F   F   F
  0.8998351141135533  0.1147354250843629  0.3054072670247260   T   T   T
  0.7869461955845257  0.2162051470808626  0.3843066341482804   T   T   T
  0.6676783192431408  0.0005688713320923  0.2327310715013255   T   T   T
  0.8862664299617151  0.1097997149807952  0.0759024517470408   F   F   F
  0.0001748437556519  0.3333264179172059  0.9964902121469223   T   T   T
  0.1105919751309017  0.5560750248696209  0.1500826223855469   F   F   F
  0.2371153207639937  0.4332187710867030  0.3031417924535925   T   T   T
  0.1151376303094151  0.5525523322154041  0.3821688134722656   T   T   T
  0.0028646934393683  0.3359230602332020  0.2312927533968569   T   T   T
  0.2225121715827427  0.4441538284175550  0.0757781253736596   F   F   F
  0.3332721308565589  0.3332032932757353  0.9961769588427039   T   T   T
  0.4477294291312433  0.5621268582627224  0.1490511635909684   F   F   F
  0.5174577515252130  0.4275568531655782  0.3071913771211798   T   T   T
  0.4279867308361013  0.5356991154228121  0.3869409535086842   T   T   T
  0.3325617953054185  0.3330303612593503  0.2126447996142721   T   T   T
  0.5549756568347277  0.4441538284174626  0.0757781253736596   F   F   F
  0.6671003145907297  0.3335343999902050  0.9967911647397734   T   T   T
  0.7788160497385590  0.5560750248694646  0.1500826223855469   F   F   F
  0.8948932882012323  0.4478041635461392  0.3051163522124333   T   T   T
  0.7799111143978308  0.5680795014531594  0.3828223642529661   T   T   T
  0.6668756713930822  0.3362414734472692  0.2300812685411635   T   T   T
  0.8884870732648551  0.4436401465297450  0.0762252237411118   F   F   F
  0.0001047036232897  0.6666941046864918  0.9967471463973998   T   T   T
  0.1105919751305393  0.8878509502609191  0.1500826223855469   F   F   F
  0.2220747886999144  0.7766424372622605  0.3044129116281867   T   T   T
  0.1159045717621309  0.8949415585247554  0.3810936943769210   T   T   T
  0.0001917797440147  0.6672698927450218  0.2299708616945572   T   T   T
  0.2230258534703751  0.7781799267351417  0.0762252237411118   F   F   F
  0.3336768753919052  0.6671531634497523  0.9967967506014835   T   T   T
  0.4449692057043180  0.8891516028521167  0.1514227401481776   F   F   F
  0.5542332101712898  0.7728168575814450  0.3062778130545399   T   T   T
  0.4437754277249509  0.8875425245248283  0.3836787669177519   T   T   T
  0.3317725795346406  0.6648294590840060  0.2313252646644179   T   T   T
  0.5568672850192087  0.7804005700384593  0.0759024517470408   F   F   F
  0.6668353511476429  0.6669104839866554  0.9965064690955500   T   T   T
  0.7775153971478019  0.8891516028520883  0.1514227401481776   F   F   F
  0.8922068846602274  0.7812998786775098  0.3035154773564483   T   T   T
  0.7809242025756852  0.8901587188972858  0.3821647078669128   T   T   T
  0.6664502445864929  0.6625547258159808  0.2319227358526125   T   T   T
  0.8884870732647769  0.7781799267351062  0.0762252237411118   F   F   F
  0.3285573210302948  0.3424031692810928  0.3495765843010262   T   T   T
  0.0085405426134340  0.0047429105769881  0.3415443127384481   T   T   T
  0.2233496994860928  0.1133663989727083  0.1889578695190863   F   F   F
  0.1104820712934682  0.2219075356469205  0.0361081357497284   F   F   F
  0.3315901781007834 -0.0028694261435543  0.3411900597240045   T   T   T
  0.5555367532716033  0.1111302467298358  0.1904301453924688   F   F   F
  0.4447584643534483  0.2219075356470839  0.0361081357497284   F   F   F
  0.6695553762320355  0.0006453819184206  0.3453879408625786   T   T   T
  0.8889274934577927  0.1111302467293953  0.1904301453924688   F   F   F
  0.7775100877418595  0.2216861754836401  0.0364051634888085   F   F   F
  0.0052376325627943  0.3351679906366055  0.3431196305501132   T   T   T
  0.2233496994849062  0.4433163005133807  0.1889578695190863   F   F   F
  0.1110364685820784  0.5556305314171865  0.0367492133542555   F   F   F
  0.5533006010290151  0.4433163005139065  0.1889578695190863   F   F   F
  0.4447584643530789  0.5561849287060028  0.0361081357497284   F   F   F
  0.6669656263479713  0.3364817685312076  0.3458023463924423   T   T   T
  0.8888991901494876  0.4444643802988466  0.1900885408991044   F   F   F
  0.7779270628353316  0.5556305314174139  0.0367492133542555   F   F   F
 -0.0005559414206067  0.6668028125982934  0.3418080353908639   T   T   T
  0.2222016197007548  0.7777678098505092  0.1900885408991044   F   F   F
  0.1110364685825900  0.8887399371654112  0.0367492133542555   F   F   F
  0.3339054875397822  0.6624619051754534  0.3440257768981460   T   T   T
  0.5555367532706086  0.7777395065407759  0.1904301453924688   F   F   F
  0.4449798245160963  0.8891569122581373  0.0364051634888085   F   F   F
  0.6632119847797169  0.6628544385914856  0.3434661925221407   T   T   T
  0.8888991901497576  0.7777678098506300  0.1900885408991044   F   F   F
  0.7775100877420371  0.8891569122582226  0.0364051634888085   F   F   F
  0.4106549801136327  0.2414518125874126  0.4444340910831919   T   T   T
 
  0.00000000E+00  0.00000000E+00  0.00000000E+00
  0.00000000E+00  0.00000000E+00  0.00000000E+00
  0.00000000E+00  0.00000000E+00  0.00000000E+00
  0.00000000E+00  0.00000000E+00  0.00000000E+00
  0.00000000E+00  0.00000000E+00  0.00000000E+00
  0.00000000E+00  0.00000000E+00  0.00000000E+00
  0.00000000E+00  0.00000000E+00  0.00000000E+00
  0.00000000E+00  0.00000000E+00  0.00000000E+00
  0.00000000E+00  0.00000000E+00  0.00000000E+00
  0.00000000E+00  0.00000000E+00  0.00000000E+00
  0.00000000E+00  0.00000000E+00  0.00000000E+00
  0.00000000E+00  0.00000000E+00  0.00000000E+00
  0.00000000E+00  0.00000000E+00  0.00000000E+00
  0.00000000E+00  0.00000000E+00  0.00000000E+00
  0.00000000E+00  0.00000000E+00  0.00000000E+00
  0.00000000E+00  0.00000000E+00  0.00000000E+00
  0.00000000E+00  0.00000000E+00  0.00000000E+00
  0.00000000E+00  0.00000000E+00  0.00000000E+00
  0.00000000E+00  0.00000000E+00  0.00000000E+00
  0.00000000E+00  0.00000000E+00  0.00000000E+00
  0.00000000E+00  0.00000000E+00  0.00000000E+00
  0.00000000E+00  0.00000000E+00  0.00000000E+00
  0.00000000E+00  0.00000000E+00  0.00000000E+00
  0.00000000E+00  0.00000000E+00  0.00000000E+00
  0.00000000E+00  0.00000000E+00  0.00000000E+00
  0.00000000E+00  0.00000000E+00  0.00000000E+00
  0.00000000E+00  0.00000000E+00  0.00000000E+00
  0.00000000E+00  0.00000000E+00  0.00000000E+00
  0.00000000E+00  0.00000000E+00  0.00000000E+00
  0.00000000E+00  0.00000000E+00  0.00000000E+00
  0.00000000E+00  0.00000000E+00  0.00000000E+00
  0.00000000E+00  0.00000000E+00  0.00000000E+00
  0.00000000E+00  0.00000000E+00  0.00000000E+00
  0.00000000E+00  0.00000000E+00  0.00000000E+00
  0.00000000E+00  0.00000000E+00  0.00000000E+00
  0.00000000E+00  0.00000000E+00  0.00000000E+00
  0.00000000E+00  0.00000000E+00  0.00000000E+00
  0.00000000E+00  0.00000000E+00  0.00000000E+00
  0.00000000E+00  0.00000000E+00  0.00000000E+00
  0.00000000E+00  0.00000000E+00  0.00000000E+00
  0.00000000E+00  0.00000000E+00  0.00000000E+00
  0.00000000E+00  0.00000000E+00  0.00000000E+00
  0.00000000E+00  0.00000000E+00  0.00000000E+00
  0.00000000E+00  0.00000000E+00  0.00000000E+00
  0.00000000E+00  0.00000000E+00  0.00000000E+00
  0.00000000E+00  0.00000000E+00  0.00000000E+00
  0.00000000E+00  0.00000000E+00  0.00000000E+00
  0.00000000E+00  0.00000000E+00  0.00000000E+00
  0.00000000E+00  0.00000000E+00  0.00000000E+00
  0.00000000E+00  0.00000000E+00  0.00000000E+00
  0.00000000E+00  0.00000000E+00  0.00000000E+00
  0.00000000E+00  0.00000000E+00  0.00000000E+00
  0.00000000E+00  0.00000000E+00  0.00000000E+00
  0.00000000E+00  0.00000000E+00  0.00000000E+00
  0.00000000E+00  0.00000000E+00  0.00000000E+00
  0.00000000E+00  0.00000000E+00  0.00000000E+00
  0.00000000E+00  0.00000000E+00  0.00000000E+00
  0.00000000E+00  0.00000000E+00  0.00000000E+00
  0.00000000E+00  0.00000000E+00  0.00000000E+00
  0.00000000E+00  0.00000000E+00  0.00000000E+00
  0.00000000E+00  0.00000000E+00  0.00000000E+00
  0.00000000E+00  0.00000000E+00  0.00000000E+00
  0.00000000E+00  0.00000000E+00  0.00000000E+00
  0.00000000E+00  0.00000000E+00  0.00000000E+00
  0.00000000E+00  0.00000000E+00  0.00000000E+00
  0.00000000E+00  0.00000000E+00  0.00000000E+00
  0.00000000E+00  0.00000000E+00  0.00000000E+00
  0.00000000E+00  0.00000000E+00  0.00000000E+00
  0.00000000E+00  0.00000000E+00  0.00000000E+00
  0.00000000E+00  0.00000000E+00  0.00000000E+00
  0.00000000E+00  0.00000000E+00  0.00000000E+00
  0.00000000E+00  0.00000000E+00  0.00000000E+00
  0.00000000E+00  0.00000000E+00  0.00000000E+00
  0.00000000E+00  0.00000000E+00  0.00000000E+00
  0.00000000E+00  0.00000000E+00  0.00000000E+00
  0.00000000E+00  0.00000000E+00  0.00000000E+00
  0.00000000E+00  0.00000000E+00  0.00000000E+00
  0.00000000E+00  0.00000000E+00  0.00000000E+00
  0.00000000E+00  0.00000000E+00  0.00000000E+00
  0.00000000E+00  0.00000000E+00  0.00000000E+00
  0.00000000E+00  0.00000000E+00  0.00000000E+00
  0.00000000E+00  0.00000000E+00  0.00000000E+00
