CeO2-you-111-you-Ba                     
   1.00000000000000     
     9.9505843146359734   -5.7449729071838416   -0.0000000011977279
    -0.0482207415449156   11.4064230234211088   -0.0231388465825700
    -0.0245427452407895   -0.0425092745764979   21.1800511710695005
   O    Ba   Ce   H 
    53     1    26     1
Selective dynamics
Direct
  0.0003065610034502  0.0001606270898076  0.9958680525778619   T   T   T
  0.1093443822995481  0.2223681378753634  0.1488104410977208   T   T   T
  0.2258282344245678  0.1097552305517916  0.3049733084580914   T   T   T
  0.0765640640984665  0.2069001156219756  0.3873816274710085   T   T   T
  0.0033429793055652  0.0035313887999943  0.2271247794113135   T   T   T
  0.2233715399092460  0.1133838653438059  0.0745682017244172   T   T   T
  0.3334446926650720  0.0006955311855676  0.9959259967800577   T   T   T
  0.4459219042166806  0.2225863266673121  0.1499385215453257   T   T   T
  0.5492649142919798  0.1079458758543176  0.3025921153147045   T   T   T
  0.4523215775577015  0.2004761719648442  0.4085465466954668   T   T   T
  0.3310993320382257 -0.0009270326870930  0.2265177705673785   T   T   T
  0.5565146479317324  0.1129964470722439  0.0744985081175119   T   T   T
  0.6666153730677985  0.0002030041261206  0.9958516134621526   T   T   T
  0.7751755497071338  0.2175812933046163  0.1509776403324415   T   T   T
  0.8832067089914208  0.1080273592207303  0.2983837874456518   T   T   T
  0.7795861995752811  0.2099965216638220  0.3827399631818920   T   T   T
  0.6565712203674953  0.9863209100621662  0.2314951311554970   T   T   T
  0.8891210652941410  0.1122418668048295  0.0737629292452402   T   T   T
  0.0008293959822104  0.3347868989201674  0.9964532351987683   T   T   T
  0.1123101210523469  0.5554474043096991  0.1485549518798611   T   T   T
  0.2210205897610598  0.4557866259993897  0.3058723977142269   T   T   T
  0.1118124673512626  0.5639718152765264  0.3852673673429833   T   T   T
  0.0012449167136077  0.3336288542106448  0.2279262108577965   T   T   T
  0.2234727893134988  0.4445610894674989  0.0752847252560550   T   T   T
  0.3338439666369820  0.3339215620279963  0.9959995239877512   T   T   T
  0.4452849369962985  0.5577721876248953  0.1497383344789758   T   T   T
  0.5654678442151494  0.4611177588889680  0.3078257967690642   T   T   T
  0.3339654387595488  0.3360699404323254  0.2245780215374207   T   T   T
  0.5545226495160617  0.4447297281371003  0.0757880004320967   T   T   T
  0.6669516916526410  0.3342467763639386  0.9966281612891726   T   T   T
  0.7767963671979603  0.5565650809606709  0.1491475178273480   T   T   T
  0.8957472916015561  0.4482382915717621  0.3032703238984812   T   T   T
  0.7949763939787378  0.5768235307187592  0.3862905983536755   T   T   T
  0.6671339420288123  0.3353293964195463  0.2277266642552272   T   T   T
  0.8875358166214087  0.4427843393189543  0.0760147188770773   T   T   T
  0.9987675945503210  0.6650508619456663  0.9965520739114710   T   T   T
  0.1112996642390300  0.8907042136348878  0.1469144989216661   T   T   T
  0.2168141869973043  0.7786513784499841  0.2994233859962897   T   T   T
  0.1134290119190080  0.8902149106663283  0.3823598973384371   T   T   T
  0.0000325683701451  0.6674286679168890  0.2252529663470585   T   T   T
  0.2212939346239735  0.7782896245912821  0.0731967039842450   T   T   T
  0.3333784359302018  0.6666783811672757  0.9967095502345390   T   T   T
  0.4440638586186038  0.8901692138020695  0.1467158669256657   T   T   T
  0.5379457167058330  0.7458683602702598  0.3186539791832385   T   T   T
  0.4368178897766327  0.8885209140070877  0.3803853712175675   T   T   T
  0.3359609198752325  0.6744660947450408  0.2271846375342345   T   T   T
  0.5559803035562511  0.7785092979049452  0.0745809761865486   T   T   T
  0.6661363554834225  0.6663896289770117  0.9963074711049755   T   T   T
  0.7786959593722935  0.8908414433310371  0.1473016515488434   T   T   T
  0.8975856614483659  0.7831917145938648  0.2991421528031110   T   T   T
  0.7827456656481693  0.8923240027851751  0.3790111148909907   T   T   T
  0.6717382970829933  0.6755677554206508  0.2269883369180521   T   T   T
  0.8891403705753204  0.7785601360580553  0.0733324398923830   T   T   T
  0.3308982642440628  0.3344409888652787  0.3617075521860153   T   T   T
  0.0021822856643884  0.0056206806419332  0.3406707702448207   T   T   T
  0.2245348317637666  0.1158620318977252  0.1892385347569654   T   T   T
  0.1118656148775477  0.2230600531751682  0.0359476633123340   T   T   T
  0.3284032605332300 -0.0043661094620969  0.3396290731494765   T   T   T
  0.5541539004399506  0.1113184498110930  0.1897980653037749   T   T   T
  0.4446981936197431  0.2230625696339587  0.0364228228082360   T   T   T
  0.6645334212528524  0.9984896284165513  0.3423388161933770   T   T   T
  0.8889575383154297  0.1107793218292886  0.1881781633207424   T   T   T
  0.7772081513103885  0.2219592586564881  0.0362716900916437   T   T   T
  0.9954633859473189  0.3296194834140683  0.3418366197323356   T   T   T
  0.2229941341609107  0.4441821379779287  0.1901621854909313   T   T   T
  0.1105325589918131  0.5542695236777134  0.0356711770229486   T   T   T
  0.5548107979524475  0.4450989480310693  0.1914967347990256   T   T   T
  0.4440711043990092  0.5546073125433361  0.0356939650088922   T   T   T
  0.6748132376398333  0.3377292174304984  0.3450262830593778   T   T   T
  0.8887177684494154  0.4450018230481314  0.1892729373216088   T   T   T
  0.7766203141061299  0.5544306077289110  0.0361381515354853   T   T   T
  0.0011712366920767  0.6692426615511934  0.3436917469470361   T   T   T
  0.2203077940729991  0.7788257762326045  0.1847161456291167   T   T   T
  0.1111606086721660  0.8896915286764895  0.0342115686790872   T   T   T
  0.3177706538574685  0.6729745322603109  0.3372398115914673   T   T   T
  0.5542363107279833  0.7768417706534161  0.1857589794508240   T   T   T
  0.4445549704469949  0.8897624481432096  0.0347015273269994   T   T   T
  0.6904931585352644  0.6775676536532066  0.3370035912169312   T   T   T
  0.8920859313811734  0.7802725701342362  0.1855076818969686   T   T   T
  0.7779312678395330  0.8893221154091401  0.0346191656335408   T   T   T
  0.4546393432083582  0.1793454945305781  0.4527990168111072   T   T   T
 
  0.00000000E+00  0.00000000E+00  0.00000000E+00
  0.00000000E+00  0.00000000E+00  0.00000000E+00
  0.00000000E+00  0.00000000E+00  0.00000000E+00
  0.00000000E+00  0.00000000E+00  0.00000000E+00
  0.00000000E+00  0.00000000E+00  0.00000000E+00
  0.00000000E+00  0.00000000E+00  0.00000000E+00
  0.00000000E+00  0.00000000E+00  0.00000000E+00
  0.00000000E+00  0.00000000E+00  0.00000000E+00
  0.00000000E+00  0.00000000E+00  0.00000000E+00
  0.00000000E+00  0.00000000E+00  0.00000000E+00
  0.00000000E+00  0.00000000E+00  0.00000000E+00
  0.00000000E+00  0.00000000E+00  0.00000000E+00
  0.00000000E+00  0.00000000E+00  0.00000000E+00
  0.00000000E+00  0.00000000E+00  0.00000000E+00
  0.00000000E+00  0.00000000E+00  0.00000000E+00
  0.00000000E+00  0.00000000E+00  0.00000000E+00
  0.00000000E+00  0.00000000E+00  0.00000000E+00
  0.00000000E+00  0.00000000E+00  0.00000000E+00
  0.00000000E+00  0.00000000E+00  0.00000000E+00
  0.00000000E+00  0.00000000E+00  0.00000000E+00
  0.00000000E+00  0.00000000E+00  0.00000000E+00
  0.00000000E+00  0.00000000E+00  0.00000000E+00
  0.00000000E+00  0.00000000E+00  0.00000000E+00
  0.00000000E+00  0.00000000E+00  0.00000000E+00
  0.00000000E+00  0.00000000E+00  0.00000000E+00
  0.00000000E+00  0.00000000E+00  0.00000000E+00
  0.00000000E+00  0.00000000E+00  0.00000000E+00
  0.00000000E+00  0.00000000E+00  0.00000000E+00
  0.00000000E+00  0.00000000E+00  0.00000000E+00
  0.00000000E+00  0.00000000E+00  0.00000000E+00
  0.00000000E+00  0.00000000E+00  0.00000000E+00
  0.00000000E+00  0.00000000E+00  0.00000000E+00
  0.00000000E+00  0.00000000E+00  0.00000000E+00
  0.00000000E+00  0.00000000E+00  0.00000000E+00
  0.00000000E+00  0.00000000E+00  0.00000000E+00
  0.00000000E+00  0.00000000E+00  0.00000000E+00
  0.00000000E+00  0.00000000E+00  0.00000000E+00
  0.00000000E+00  0.00000000E+00  0.00000000E+00
  0.00000000E+00  0.00000000E+00  0.00000000E+00
  0.00000000E+00  0.00000000E+00  0.00000000E+00
  0.00000000E+00  0.00000000E+00  0.00000000E+00
  0.00000000E+00  0.00000000E+00  0.00000000E+00
  0.00000000E+00  0.00000000E+00  0.00000000E+00
  0.00000000E+00  0.00000000E+00  0.00000000E+00
  0.00000000E+00  0.00000000E+00  0.00000000E+00
  0.00000000E+00  0.00000000E+00  0.00000000E+00
  0.00000000E+00  0.00000000E+00  0.00000000E+00
  0.00000000E+00  0.00000000E+00  0.00000000E+00
  0.00000000E+00  0.00000000E+00  0.00000000E+00
  0.00000000E+00  0.00000000E+00  0.00000000E+00
  0.00000000E+00  0.00000000E+00  0.00000000E+00
  0.00000000E+00  0.00000000E+00  0.00000000E+00
  0.00000000E+00  0.00000000E+00  0.00000000E+00
  0.00000000E+00  0.00000000E+00  0.00000000E+00
  0.00000000E+00  0.00000000E+00  0.00000000E+00
  0.00000000E+00  0.00000000E+00  0.00000000E+00
  0.00000000E+00  0.00000000E+00  0.00000000E+00
  0.00000000E+00  0.00000000E+00  0.00000000E+00
  0.00000000E+00  0.00000000E+00  0.00000000E+00
  0.00000000E+00  0.00000000E+00  0.00000000E+00
  0.00000000E+00  0.00000000E+00  0.00000000E+00
  0.00000000E+00  0.00000000E+00  0.00000000E+00
  0.00000000E+00  0.00000000E+00  0.00000000E+00
  0.00000000E+00  0.00000000E+00  0.00000000E+00
  0.00000000E+00  0.00000000E+00  0.00000000E+00
  0.00000000E+00  0.00000000E+00  0.00000000E+00
  0.00000000E+00  0.00000000E+00  0.00000000E+00
  0.00000000E+00  0.00000000E+00  0.00000000E+00
  0.00000000E+00  0.00000000E+00  0.00000000E+00
  0.00000000E+00  0.00000000E+00  0.00000000E+00
  0.00000000E+00  0.00000000E+00  0.00000000E+00
  0.00000000E+00  0.00000000E+00  0.00000000E+00
  0.00000000E+00  0.00000000E+00  0.00000000E+00
  0.00000000E+00  0.00000000E+00  0.00000000E+00
  0.00000000E+00  0.00000000E+00  0.00000000E+00
  0.00000000E+00  0.00000000E+00  0.00000000E+00
  0.00000000E+00  0.00000000E+00  0.00000000E+00
  0.00000000E+00  0.00000000E+00  0.00000000E+00
  0.00000000E+00  0.00000000E+00  0.00000000E+00
  0.00000000E+00  0.00000000E+00  0.00000000E+00
  0.00000000E+00  0.00000000E+00  0.00000000E+00
