CeO2-you-111-you-Rh                     
   1.00000000000000     
     9.8233830256120651   -5.7151154850458745    0.0085572139763985
    -0.0377433497668492   11.3648555634598907   -0.0085572124828213
     0.0091720443586212   -0.0158864459101599   21.1552906720607616
   O    Rh   Ce   H 
    53     1    26     1
Selective dynamics
Direct
  0.9998734423962000 -0.0001308312730044  0.9952720840773818   T   T   T
  0.1068690294545411  0.2192433657951164  0.1460505481055620   T   T   T
  0.2434849089766609  0.1320164214526600  0.3073769555091377   T   T   T
  0.1295557941617314  0.2500443089925318  0.3707669302186093   T   T   T
  0.0076710212363702  0.0044835915810842  0.2302383769124748   T   T   T
  0.2227191474921086  0.1112430484751054  0.0746779688421768   T   T   T
  0.3347445543985996  0.0008847026633135  0.9957960686239828   T   T   T
  0.4441902245756685  0.2220161200637271  0.1506623727830195   T   T   T
  0.5508133103765387  0.1054749025884649  0.3044093143705322   T   T   T
  0.4605683295775682  0.1827869747508883  0.4130290557402617   T   T   T
  0.3302953122733013 -0.0012276456135915  0.2289219742739051   T   T   T
  0.5566025400514619  0.1103637373742076  0.0774080527263784   T   T   T
  0.6655340607372953  0.0003559995066138  0.9950732346972460   T   T   T
  0.7834622230678258  0.2246120751735079  0.1522855547775530   T   T   T
  0.8895967555669132  0.1086839462156985  0.3024175813786866   T   T   T
  0.7854313224372574  0.2135269883609331  0.3865772411838033   T   T   T
  0.6675963444969599  0.0004265563344181  0.2292150609701102   T   T   T
  0.8857090998531791  0.1089799183509309  0.0743766060922215   T   T   T
  0.9986708461895570  0.3322753624208496  0.9951602458445076   T   T   T
  0.1103871496593623  0.5564844354745619  0.1469978666634582   T   T   T
  0.1156953106306106  0.5510145518873913  0.3788712488051786   T   T   T
  0.0160822314355171  0.3428692778643774  0.2334128843151907   T   T   T
  0.2228070010608541  0.4449040234637301  0.0721660758332515   T   T   T
  0.3338397871711389  0.3327878862620136  0.9949027099392515   T   T   T
  0.4482094114668062  0.5601462577559587  0.1470344283633103   T   T   T
  0.5335380162947504  0.4332392767200542  0.3060233728143493   T   T   T
  0.4125213449142021  0.5364867923463991  0.3726524750677914   T   T   T
  0.3251824274763038  0.3379700978274597  0.2244534658999832   T   T   T
  0.5553118694205840  0.4443108581865685  0.0752065920022238   T   T   T
  0.6652456807972598  0.3316211646494165  0.9958710023807967   T   T   T
  0.7791780975868111  0.5560506917114071  0.1501845038388306   T   T   T
  0.8904275567648376  0.4468330668327301  0.3042596255003145   T   T   T
  0.7809506071218627  0.5705450778490162  0.3834183891509018   T   T   T
  0.6660052000670171  0.3344428567383316  0.2286275887691278   T   T   T
  0.8877350612715910  0.4438237048904726  0.0747231645560527   T   T   T
 -0.0000999651331842  0.6672347465757597  0.9956175950729139   T   T   T
  0.1111349507594353  0.8875758422372197  0.1492662486717848   T   T   T
  0.2218650404740224  0.7791853708409304  0.3040351590424814   T   T   T
  0.1116738710276788  0.8933395148991770  0.3811090050789860   T   T   T
  0.0008175342424845  0.6674934888542667  0.2294182000687087   T   T   T
  0.2233387695518294  0.7788598308223016  0.0746791255006165   T   T   T
  0.3339600291773704  0.6679566338065260  0.9949568386907598   T   T   T
  0.4423648017719362  0.8834163485387085  0.1523743682295250   T   T   T
  0.5583354004240092  0.7787109806544833  0.3038660007288310   T   T   T
  0.4442333042957325  0.8845854376913808  0.3849913619970837   T   T   T
  0.3242975767060322  0.6503486728104703  0.2337701065304548   T   T   T
  0.5571719191182851  0.7801843319215246  0.0747368716576383   T   T   T
  0.6669156744507369  0.6668818517038184  0.9950836169866426   T   T   T
  0.7791008401931785  0.8889736431489782  0.1516413620134770   T   T   T
  0.8907621592443089  0.7815547185814148  0.3020182234186313   T   T   T
  0.7813714176064902  0.8901271255331612  0.3828656205269076   T   T   T
  0.6658559485605543  0.6632581916730735  0.2303449363390411   T   T   T
  0.8881363801980379  0.7782495502639508  0.0749711151592820   T   T   T
  0.3245444118777606  0.3459143887307093  0.3322222192195977   T   T   T
  0.0080557836666374  0.0079353963202968  0.3412304494234226   T   T   T
  0.2248784289981245  0.1137018300710132  0.1899838397776364   T   T   T
  0.1100948380873599  0.2201966393556923  0.0334488633217643   T   T   T
  0.3331630464284327 -0.0011423332363551  0.3439833269227721   T   T   T
  0.5559917960286112  0.1113676982892125  0.1918080648949949   T   T   T
  0.4449245948680445  0.2221688950921184  0.0359490932993989   T   T   T
  0.6688489046765697 -0.0005676523519227  0.3451056528200067   T   T   T
  0.8907320251464812  0.1120311097132405  0.1900898455318658   T   T   T
  0.7774665201923885  0.2217903231539586  0.0359041405220930   T   T   T
  0.9935941865613366  0.3300235299444315  0.3448400074850969   T   T   T
  0.2229013931050099  0.4440204213721868  0.1812623450821510   T   T   T
  0.1101589160371523  0.5564223408295854  0.0338031412852353   T   T   T
  0.5532435520479650  0.4425124972257137  0.1917089694349133   T   T   T
  0.4467019778711630  0.5565641677328663  0.0337639678597862   T   T   T
  0.6636113521957392  0.3336517196099215  0.3488541554917180   T   T   T
  0.8886662336493599  0.4446963305968665  0.1911164641279621   T   T   T
  0.7772693592164006  0.5546692127210755  0.0364070828622187   T   T   T
  0.9978622376511275  0.6680124220666448  0.3419559197849116   T   T   T
  0.2217973674949132  0.7768323991545619  0.1898728943945662   T   T   T
  0.1119249600027545  0.8891958801183396  0.0357847552605017   T   T   T
  0.3358531246803120  0.6721538496872728  0.3451699155921040   T   T   T
  0.5556499177813723  0.7767709040647734  0.1905393093851137   T   T   T
  0.4451065437585375  0.8891679053560070  0.0357192175049613   T   T   T
  0.6639043039731504  0.6637264561170660  0.3418147801228871   T   T   T
  0.8899761860854865  0.7780464083082751  0.1892621705052994   T   T   T
  0.7774293768877295  0.8891216655668924  0.0353674618345477   T   T   T
  0.4222839879018649  0.2150657501590723  0.4450995695112369   T   T   T
 
  0.00000000E+00  0.00000000E+00  0.00000000E+00
  0.00000000E+00  0.00000000E+00  0.00000000E+00
  0.00000000E+00  0.00000000E+00  0.00000000E+00
  0.00000000E+00  0.00000000E+00  0.00000000E+00
  0.00000000E+00  0.00000000E+00  0.00000000E+00
  0.00000000E+00  0.00000000E+00  0.00000000E+00
  0.00000000E+00  0.00000000E+00  0.00000000E+00
  0.00000000E+00  0.00000000E+00  0.00000000E+00
  0.00000000E+00  0.00000000E+00  0.00000000E+00
  0.00000000E+00  0.00000000E+00  0.00000000E+00
  0.00000000E+00  0.00000000E+00  0.00000000E+00
  0.00000000E+00  0.00000000E+00  0.00000000E+00
  0.00000000E+00  0.00000000E+00  0.00000000E+00
  0.00000000E+00  0.00000000E+00  0.00000000E+00
  0.00000000E+00  0.00000000E+00  0.00000000E+00
  0.00000000E+00  0.00000000E+00  0.00000000E+00
  0.00000000E+00  0.00000000E+00  0.00000000E+00
  0.00000000E+00  0.00000000E+00  0.00000000E+00
  0.00000000E+00  0.00000000E+00  0.00000000E+00
  0.00000000E+00  0.00000000E+00  0.00000000E+00
  0.00000000E+00  0.00000000E+00  0.00000000E+00
  0.00000000E+00  0.00000000E+00  0.00000000E+00
  0.00000000E+00  0.00000000E+00  0.00000000E+00
  0.00000000E+00  0.00000000E+00  0.00000000E+00
  0.00000000E+00  0.00000000E+00  0.00000000E+00
  0.00000000E+00  0.00000000E+00  0.00000000E+00
  0.00000000E+00  0.00000000E+00  0.00000000E+00
  0.00000000E+00  0.00000000E+00  0.00000000E+00
  0.00000000E+00  0.00000000E+00  0.00000000E+00
  0.00000000E+00  0.00000000E+00  0.00000000E+00
  0.00000000E+00  0.00000000E+00  0.00000000E+00
  0.00000000E+00  0.00000000E+00  0.00000000E+00
  0.00000000E+00  0.00000000E+00  0.00000000E+00
  0.00000000E+00  0.00000000E+00  0.00000000E+00
  0.00000000E+00  0.00000000E+00  0.00000000E+00
  0.00000000E+00  0.00000000E+00  0.00000000E+00
  0.00000000E+00  0.00000000E+00  0.00000000E+00
  0.00000000E+00  0.00000000E+00  0.00000000E+00
  0.00000000E+00  0.00000000E+00  0.00000000E+00
  0.00000000E+00  0.00000000E+00  0.00000000E+00
  0.00000000E+00  0.00000000E+00  0.00000000E+00
  0.00000000E+00  0.00000000E+00  0.00000000E+00
  0.00000000E+00  0.00000000E+00  0.00000000E+00
  0.00000000E+00  0.00000000E+00  0.00000000E+00
  0.00000000E+00  0.00000000E+00  0.00000000E+00
  0.00000000E+00  0.00000000E+00  0.00000000E+00
  0.00000000E+00  0.00000000E+00  0.00000000E+00
  0.00000000E+00  0.00000000E+00  0.00000000E+00
  0.00000000E+00  0.00000000E+00  0.00000000E+00
  0.00000000E+00  0.00000000E+00  0.00000000E+00
  0.00000000E+00  0.00000000E+00  0.00000000E+00
  0.00000000E+00  0.00000000E+00  0.00000000E+00
  0.00000000E+00  0.00000000E+00  0.00000000E+00
  0.00000000E+00  0.00000000E+00  0.00000000E+00
  0.00000000E+00  0.00000000E+00  0.00000000E+00
  0.00000000E+00  0.00000000E+00  0.00000000E+00
  0.00000000E+00  0.00000000E+00  0.00000000E+00
  0.00000000E+00  0.00000000E+00  0.00000000E+00
  0.00000000E+00  0.00000000E+00  0.00000000E+00
  0.00000000E+00  0.00000000E+00  0.00000000E+00
  0.00000000E+00  0.00000000E+00  0.00000000E+00
  0.00000000E+00  0.00000000E+00  0.00000000E+00
  0.00000000E+00  0.00000000E+00  0.00000000E+00
  0.00000000E+00  0.00000000E+00  0.00000000E+00
  0.00000000E+00  0.00000000E+00  0.00000000E+00
  0.00000000E+00  0.00000000E+00  0.00000000E+00
  0.00000000E+00  0.00000000E+00  0.00000000E+00
  0.00000000E+00  0.00000000E+00  0.00000000E+00
  0.00000000E+00  0.00000000E+00  0.00000000E+00
  0.00000000E+00  0.00000000E+00  0.00000000E+00
  0.00000000E+00  0.00000000E+00  0.00000000E+00
  0.00000000E+00  0.00000000E+00  0.00000000E+00
  0.00000000E+00  0.00000000E+00  0.00000000E+00
  0.00000000E+00  0.00000000E+00  0.00000000E+00
  0.00000000E+00  0.00000000E+00  0.00000000E+00
  0.00000000E+00  0.00000000E+00  0.00000000E+00
  0.00000000E+00  0.00000000E+00  0.00000000E+00
  0.00000000E+00  0.00000000E+00  0.00000000E+00
  0.00000000E+00  0.00000000E+00  0.00000000E+00
  0.00000000E+00  0.00000000E+00  0.00000000E+00
  0.00000000E+00  0.00000000E+00  0.00000000E+00
