CeO2-you-111-you-Nb                     
   1.00000000000000     
     9.8470903888776320   -5.6852206576247255    0.0000000000000000
    -0.0000000001710843   11.3704393139969753   -0.0000000000000000
     0.0000000000000000   -0.0000000000000000   21.0541099874070383
   O    Nb   Ce H
    54     1    26 2
Selective dynamics
Direct
 -0.0003420840958600 -0.0000572480348299  0.9959236951421199   T   T   T
  0.1163810300212233  0.2248570150107475  0.1517262494405355   T   T   T
  0.2159550169466249  0.0985770338945225  0.3003207550302431   T   T   T
  0.1558328251652134  0.2445829125891660  0.3767668119801254   T   T   T
 -0.0037855874053844 -0.0021213192137715  0.2284492019880434   T   T   T
  0.2221591465512010  0.1109852931023249  0.0748590007043323   T   T   T
  0.3336178360609873 -0.0000572480349203  0.9959236951421199   T   T   T
  0.4418089849895204  0.2248570150108667  0.1517262494405355   T   T   T
  0.5516476004219781  0.1150193995800518  0.3070908265480823   T   T   T
  0.4220830874239486  0.2445829125949869  0.3767668119801254   T   T   T
  0.3349972681916953 -0.0021213192139523  0.2284492019880434   T   T   T
  0.5542662988386364  0.1124007011618456  0.0758970660562676   T   T   T
  0.6666669999999968  0.0000000000000000  0.9965521458487300   T   T   T
  0.7762968427557737  0.2192596855113868  0.1494753075878147   T   T   T
  0.8967057991574515  0.1150193995794290  0.3070908265480823   T   T   T
  0.7778661510230702  0.2223983020459927  0.3833836310825617   T   T   T
  0.6666669999999968  0.0000000000000000  0.2331270693626977   T   T   T
  0.8914684023230629  0.1124007011616986  0.0758970660562676   T   T   T
 -0.0003420840959636  0.3330481639387693  0.9959236951421199   T   T   T
  0.1116768111184134  0.5549901888821666  0.1494771453016065   T   T   T
  0.2159550169437499  0.4507109830520984  0.3003207550302431   T   T   T
  0.1099576554828389  0.5567093445166809  0.3854466164361017   T   T   T
 -0.0037855874052060  0.3316687318079830  0.2284492019880434   T   T   T
  0.2221591465513673  0.4445068534488722  0.0748590007043323   T   T   T
  0.3333330000000032  0.3333330000000032  0.9958133113928103   T   T   T
  0.4418089849892520  0.5502859699783933  0.1517262494405355   T   T   T
  0.5680899661096322  0.4507109830533745  0.3003207550302431   T   T   T
  0.4220830874108333  0.5108341748158542  0.3767668119801254   T   T   T
  0.3333330000000032  0.3333330000000032  0.2420743300844699   T   T   T
  0.5556817068974389  0.4445068534487983  0.0748590007043323   T   T   T
  0.6667242480347725  0.3330481639387248  0.9959236951421199   T   T   T
  0.7766463777635723  0.5549901888819895  0.1494771453016065   T   T   T
  0.8898712344414030  0.4464084688828061  0.3038202239119586   T   T   T
  0.7800846890339865  0.5567093445168295  0.3854466164361017   T   T   T
  0.6687883192131036  0.3316687318077230  0.2284492019880434   T   T   T
  0.8887540943015296  0.4441741886030732  0.0751935293068841   T   T   T
 -0.0000000000000000  0.6666669999999968  0.9956473102228552   T   T   T
  0.1116768111180145  0.8900206222358492  0.1494771453016065   T   T   T
  0.2202575311171965  0.7767957655585938  0.3038202239119586   T   T   T
  0.1099576554831743  0.8865823109664943  0.3854466164361017   T   T   T
 -0.0000000000000000  0.6666669999999968  0.2281340402711076   T   T   T
  0.2224918113969724  0.7779129056984672  0.0751935293068841   T   T   T
  0.3336178360610875  0.6670090840961052  0.9959236951421199   T   T   T
  0.4474063144880693  0.8903701572442231  0.1494753075878147   T   T   T
  0.5516476004205748  0.7699612008405191  0.3070908265480823   T   T   T
  0.4442676979535035  0.8888008489769266  0.3833836310825617   T   T   T
  0.3349972681922810  0.6704525874060486  0.2284492019880434   T   T   T
  0.5542662988383055  0.7751985976764557  0.0758970660562676   T   T   T
  0.6667242480349762  0.6670090840961508  0.9959236951421199   T   T   T
  0.7762968427561495  0.8903701572443903  0.1494753075878147   T   T   T
  0.8898712344414006  0.7767957655585933  0.3038202239119586   T   T   T
  0.7778661510234187  0.8888008489770808  0.3833836310825617   T   T   T
  0.6687883192135108  0.6704525874059694  0.2284492019880434   T   T   T
  0.8887540943014979  0.7779129056984524  0.0751935293068841   T   T   T
  0.3333330000000032  0.3333330000000032  0.3394802170601188   T   T   T
  0.0021267165785744 -0.0025004205320655  0.3427124183537382   T   T   T
  0.2212653060727695  0.1091976121459970  0.1907423489614120   T   T   T
  0.1117115730562953  0.2225222865283606  0.0359406064738923   T   T   T
  0.3287058628897875 -0.0025004205314043  0.3427124183537382   T   T   T
  0.5554861660882633  0.1111808339130316  0.1904942486383409   T   T   T
  0.4441437134720612  0.2225222865285482  0.0359406064738923   T   T   T
  0.6666669999999968  0.0000000000000000  0.3458085028614686   T   T   T
  0.8890286678243716  0.1111808339126347  0.1904942486383409   T   T   T
  0.7777767875789371  0.2222195751578992  0.0358795147857351   T   T   T
  0.0021267165795302  0.3379601371121331  0.3427124183537382   T   T   T
  0.2212653060717306  0.4454006939267685  0.1907423489614120   T   T   T
  0.1113299828534233  0.5553370171461804  0.0351597726816498   T   T   T
  0.5574693878555070  0.4454006939272296  0.1907423489614120   T   T   T
  0.4441437134716387  0.5549554269430982  0.0359406064738923   T   T   T
  0.6691674205321723  0.3379601371123701  0.3427124183537382   T   T   T
  0.8889649381588011  0.4445958763174748  0.1888666347360444   T   T   T
  0.7773400342928762  0.5553370171463032  0.0351597726816498   T   T   T
 -0.0000000000000000  0.6666669999999968  0.3446163110016774   T   T   T
  0.2220701236821138  0.7777020618411957  0.1888666347360444   T   T   T
  0.1113299828537004  0.8893269657075208  0.0351597726816498   T   T   T
  0.3287058628892534  0.6645402834196953  0.3427124183537382   T   T   T
  0.5554861660873688  0.7776383321743334  0.1904942486383409   T   T   T
  0.4444464248421599  0.8888902124210597  0.0358795147857351   T   T   T
  0.6691674205306825  0.6645402834192711  0.3427124183537382   T   T   T
  0.8889649381590851  0.7777020618413221  0.1888666347360444   T   T   T
  0.7777767875788958  0.8888902124210414  0.0358795147857351   T   T   T
0.3333330000000032 0.3333330000000032 0.43948 T T T
0.446598 0.216020 0.433410 T T T 
 
  0.00000000E+00  0.00000000E+00  0.00000000E+00
  0.00000000E+00  0.00000000E+00  0.00000000E+00
  0.00000000E+00  0.00000000E+00  0.00000000E+00
  0.00000000E+00  0.00000000E+00  0.00000000E+00
  0.00000000E+00  0.00000000E+00  0.00000000E+00
  0.00000000E+00  0.00000000E+00  0.00000000E+00
  0.00000000E+00  0.00000000E+00  0.00000000E+00
  0.00000000E+00  0.00000000E+00  0.00000000E+00
  0.00000000E+00  0.00000000E+00  0.00000000E+00
  0.00000000E+00  0.00000000E+00  0.00000000E+00
  0.00000000E+00  0.00000000E+00  0.00000000E+00
  0.00000000E+00  0.00000000E+00  0.00000000E+00
  0.00000000E+00  0.00000000E+00  0.00000000E+00
  0.00000000E+00  0.00000000E+00  0.00000000E+00
  0.00000000E+00  0.00000000E+00  0.00000000E+00
  0.00000000E+00  0.00000000E+00  0.00000000E+00
  0.00000000E+00  0.00000000E+00  0.00000000E+00
  0.00000000E+00  0.00000000E+00  0.00000000E+00
  0.00000000E+00  0.00000000E+00  0.00000000E+00
  0.00000000E+00  0.00000000E+00  0.00000000E+00
  0.00000000E+00  0.00000000E+00  0.00000000E+00
  0.00000000E+00  0.00000000E+00  0.00000000E+00
  0.00000000E+00  0.00000000E+00  0.00000000E+00
  0.00000000E+00  0.00000000E+00  0.00000000E+00
  0.00000000E+00  0.00000000E+00  0.00000000E+00
  0.00000000E+00  0.00000000E+00  0.00000000E+00
  0.00000000E+00  0.00000000E+00  0.00000000E+00
  0.00000000E+00  0.00000000E+00  0.00000000E+00
  0.00000000E+00  0.00000000E+00  0.00000000E+00
  0.00000000E+00  0.00000000E+00  0.00000000E+00
  0.00000000E+00  0.00000000E+00  0.00000000E+00
  0.00000000E+00  0.00000000E+00  0.00000000E+00
  0.00000000E+00  0.00000000E+00  0.00000000E+00
  0.00000000E+00  0.00000000E+00  0.00000000E+00
  0.00000000E+00  0.00000000E+00  0.00000000E+00
  0.00000000E+00  0.00000000E+00  0.00000000E+00
  0.00000000E+00  0.00000000E+00  0.00000000E+00
  0.00000000E+00  0.00000000E+00  0.00000000E+00
  0.00000000E+00  0.00000000E+00  0.00000000E+00
  0.00000000E+00  0.00000000E+00  0.00000000E+00
  0.00000000E+00  0.00000000E+00  0.00000000E+00
  0.00000000E+00  0.00000000E+00  0.00000000E+00
  0.00000000E+00  0.00000000E+00  0.00000000E+00
  0.00000000E+00  0.00000000E+00  0.00000000E+00
  0.00000000E+00  0.00000000E+00  0.00000000E+00
  0.00000000E+00  0.00000000E+00  0.00000000E+00
  0.00000000E+00  0.00000000E+00  0.00000000E+00
  0.00000000E+00  0.00000000E+00  0.00000000E+00
  0.00000000E+00  0.00000000E+00  0.00000000E+00
  0.00000000E+00  0.00000000E+00  0.00000000E+00
  0.00000000E+00  0.00000000E+00  0.00000000E+00
  0.00000000E+00  0.00000000E+00  0.00000000E+00
  0.00000000E+00  0.00000000E+00  0.00000000E+00
  0.00000000E+00  0.00000000E+00  0.00000000E+00
  0.00000000E+00  0.00000000E+00  0.00000000E+00
  0.00000000E+00  0.00000000E+00  0.00000000E+00
  0.00000000E+00  0.00000000E+00  0.00000000E+00
  0.00000000E+00  0.00000000E+00  0.00000000E+00
  0.00000000E+00  0.00000000E+00  0.00000000E+00
  0.00000000E+00  0.00000000E+00  0.00000000E+00
  0.00000000E+00  0.00000000E+00  0.00000000E+00
  0.00000000E+00  0.00000000E+00  0.00000000E+00
  0.00000000E+00  0.00000000E+00  0.00000000E+00
  0.00000000E+00  0.00000000E+00  0.00000000E+00
  0.00000000E+00  0.00000000E+00  0.00000000E+00
  0.00000000E+00  0.00000000E+00  0.00000000E+00
  0.00000000E+00  0.00000000E+00  0.00000000E+00
  0.00000000E+00  0.00000000E+00  0.00000000E+00
  0.00000000E+00  0.00000000E+00  0.00000000E+00
  0.00000000E+00  0.00000000E+00  0.00000000E+00
  0.00000000E+00  0.00000000E+00  0.00000000E+00
  0.00000000E+00  0.00000000E+00  0.00000000E+00
  0.00000000E+00  0.00000000E+00  0.00000000E+00
  0.00000000E+00  0.00000000E+00  0.00000000E+00
  0.00000000E+00  0.00000000E+00  0.00000000E+00
  0.00000000E+00  0.00000000E+00  0.00000000E+00
  0.00000000E+00  0.00000000E+00  0.00000000E+00
  0.00000000E+00  0.00000000E+00  0.00000000E+00
  0.00000000E+00  0.00000000E+00  0.00000000E+00
  0.00000000E+00  0.00000000E+00  0.00000000E+00
  0.00000000E+00  0.00000000E+00  0.00000000E+00
