CeO2-you-111-you-Al                     
   1.00000000000000     
     9.8308429117684941   -5.6758401728020598    0.0000000000000000
     0.0000000019207148   11.3516783512762771    0.0000000000000000
     0.0000000000000000    0.0000000000000000   20.8176568843594829
   O    Al   Ce   H 
    54     1    26     1
Selective dynamics
Direct
  0.9995189437419212  0.9995306303165761  0.9934130263293086   T   T   T
  0.1169581604333629  0.2251455802175073  0.1512019432832474   F   F   F
  0.2058519393295929  0.0738691553694969  0.2995835290066306   T   T   T
  0.1404499479569428  0.2367900589980780  0.3718551527079893   T   T   T
  0.9938137856911906 -0.0009441532150440  0.2288475858987815   T   T   T
  0.2221680427915587  0.1110030855832989  0.0734562250721851   F   F   F
  0.3332401363990602  0.9994752645927559  0.9932710669610375   T   T   T
  0.4415204197841405  0.2251455802182463  0.1512019432832474   F   F   F
  0.5493618377463821  0.1183039530211029  0.3134213352486503   T   T   T
  0.4076073500658521  0.2594458990919506  0.3786208042693805   T   T   T
  0.3398339297554784  0.9974158110499551  0.2289738731797071   T   T   T
  0.5542697983940315  0.1123972016091415  0.0743610163370008   F   F   F
  0.6670049712173137  0.0000554337442211  0.9942847795040988   T   T   T
  0.7763085370967531  0.2192830741937684  0.1487111242401511   F   F   F
  0.8897306075152506  0.1104934022517103  0.3083970567644920   T   T   T
  0.7807607602399541  0.2241979963896937  0.3870696697527767   T   T   T
  0.6646442681256374  0.0014649720489662  0.2336155854451217   T   T   T
  0.8914614032141444  0.1123972016081680  0.0743610163370008   F   F   F
  0.9996254174706474  0.3334113194921421  0.9932727002858253   T   T   T
  0.1119141390674585  0.5547528609330215  0.1500885784242385   F   F   F
  0.2180313114875553  0.4487160879931044  0.3028247316684219   T   T   T
  0.1126000779310877  0.5550759820314602  0.3876123997404392   T   T   T
  0.9968469841795580  0.3308240595056653  0.2302490263701906   T   T   T
  0.2221680427911537  0.4444979572082559  0.0734562250721851   F   F   F
  0.3332539725609282  0.3333054350095653  0.9930440953516894   T   T   T
  0.4415204197824920  0.5497088395642535  0.1512019432832474   F   F   F
  0.5920770313407216  0.4607616753138689  0.2997106697695352   T   T   T
  0.4290357361558009  0.5262196417171137  0.3726667560169055   T   T   T
  0.3343289316598919  0.3319683839679414  0.2467771032786326   T   T   T
  0.5556639144172948  0.4444979572084407  0.0734562250721851   F   F   F
  0.6672222967617292  0.3335231777727349  0.9933575339636116   T   T   T
  0.7761717218654098  0.5547528609328722  0.1500885784242385   F   F   F
  0.8909956881797643  0.4467902588902492  0.3062159828745876   T   T   T
  0.7817876091256777  0.5557084070845753  0.3914568845054776   T   T   T
  0.6699519212669458  0.3278110600022096  0.2289888904059190   T   T   T
  0.8888671144255085  0.4444002288511726  0.0742190631003226   F   F   F
 -0.0000281537778869  0.6667130653407018  0.9936065274626725   T   T   T
  0.1119141390671317  0.8904952781341109  0.1500885784242385   F   F   F
  0.2203791961398088  0.7764119164884875  0.3059414767791375   T   T   T
  0.1098780228439721  0.8837558555390821  0.3914099158951064   T   T   T
  0.0000363498757827  0.6671580228248274  0.2296162272680828   T   T   T
  0.2222657711493170  0.7777998855744883  0.0742190631003226   F   F   F
  0.3331653516121068  0.6671097226825853  0.9932766426358387   T   T   T
  0.4473829258070481  0.8903584629032437  0.1487111242401511   F   F   F
  0.5554709149050635  0.7768785263440877  0.3087677131525556   T   T   T
  0.4416909857751095  0.8865335800577155  0.3871521216312928   T   T   T
  0.3355208784915673  0.6695413558319797  0.2301839455669950   T   T   T
  0.5542697983918359  0.7752055967826905  0.0743610163370008   F   F   F
  0.6667611860963936  0.6667714410998350  0.9931960649036355   T   T   T
  0.7763085370961917  0.8903584629029879  0.1487111242401511   F   F   F
  0.8892580116592338  0.7763491588225537  0.3066418752913093   T   T   T
  0.7782056164171439  0.8893201095265600  0.3873925222992430   T   T   T
  0.6678782783907631  0.6731460550606566  0.2290168978542799   T   T   T
  0.8888671144251674  0.7777998855743391  0.0742190631003226   F   F   F
  0.3140191908776169  0.3529174975550253  0.3365935853986479   T   T   T
  0.0032038820082152  0.0002528206892478  0.3451686073876045   T   T   T
  0.2222205541693754  0.1111081083389251  0.1914243067567796   F   F   F
  0.1116965834104136  0.2225147917060255  0.0338479398513698   F   F   F
  0.3247159115415708  0.9915048542620161  0.3442024848944163   T   T   T
  0.5558653408905059  0.1108016591122407  0.1902582894868843   F   F   F
  0.4441512082956010  0.2225147917067432  0.0338479398513698   F   F   F
  0.6665549518150290  0.0003485592592700  0.3483971559136951   T   T   T
  0.8882703182208971  0.1108016591114023  0.1902582894868843   F   F   F
  0.7778397519026754  0.2223455038056414  0.0340083127563631   F   F   F
  0.0033740589398602  0.3334423736152145  0.3453733606063239   T   T   T
  0.2222205541689846  0.4444454458304463  0.1914243067567796   F   F   F
  0.1112810508067170  0.5553859491926403  0.0337974330083668   F   F   F
  0.5555588916616472  0.4444454458306240  0.1914243067567796   F   F   F
  0.4441512082939738  0.5549704165872384  0.0338479398513698   F   F   F
  0.6752846824252035  0.3423409235419533  0.3442282537965998   T   T   T
  0.8888567266693101  0.4443794533382572  0.1896096929226232   F   F   F
  0.7774378983861183  0.5553859491928392  0.0337974330083668   F   F   F
 -0.0000015220046270  0.6667634880558336  0.3484869499940941   T   T   T
  0.2222865466605413  0.7778102733306866  0.1896096929226232   F   F   F
  0.1112810508071647  0.8892291016145322  0.0337974330083668   F   F   F
  0.3328865559904793  0.6634653100095984  0.3455313931134025   T   T   T
  0.5558653408886016  0.7783966817763570  0.1902582894868843   F   F   F
  0.4443204961952745  0.8888272480973214  0.0340083127563631   F   F   F
  0.6658490520595651  0.6632800882104449  0.3453042856744101   T   T   T
  0.8888567266701415  0.7778102733310561  0.1896096929226232   F   F   F
  0.7778397519020359  0.8888272480970372  0.0340083127563631   F   F   F
  0.3971401293227215  0.2692186947757561  0.4244922224353760   T   T   T
 
  0.00000000E+00  0.00000000E+00  0.00000000E+00
  0.00000000E+00  0.00000000E+00  0.00000000E+00
  0.00000000E+00  0.00000000E+00  0.00000000E+00
  0.00000000E+00  0.00000000E+00  0.00000000E+00
  0.00000000E+00  0.00000000E+00  0.00000000E+00
  0.00000000E+00  0.00000000E+00  0.00000000E+00
  0.00000000E+00  0.00000000E+00  0.00000000E+00
  0.00000000E+00  0.00000000E+00  0.00000000E+00
  0.00000000E+00  0.00000000E+00  0.00000000E+00
  0.00000000E+00  0.00000000E+00  0.00000000E+00
  0.00000000E+00  0.00000000E+00  0.00000000E+00
  0.00000000E+00  0.00000000E+00  0.00000000E+00
  0.00000000E+00  0.00000000E+00  0.00000000E+00
  0.00000000E+00  0.00000000E+00  0.00000000E+00
  0.00000000E+00  0.00000000E+00  0.00000000E+00
  0.00000000E+00  0.00000000E+00  0.00000000E+00
  0.00000000E+00  0.00000000E+00  0.00000000E+00
  0.00000000E+00  0.00000000E+00  0.00000000E+00
  0.00000000E+00  0.00000000E+00  0.00000000E+00
  0.00000000E+00  0.00000000E+00  0.00000000E+00
  0.00000000E+00  0.00000000E+00  0.00000000E+00
  0.00000000E+00  0.00000000E+00  0.00000000E+00
  0.00000000E+00  0.00000000E+00  0.00000000E+00
  0.00000000E+00  0.00000000E+00  0.00000000E+00
  0.00000000E+00  0.00000000E+00  0.00000000E+00
  0.00000000E+00  0.00000000E+00  0.00000000E+00
  0.00000000E+00  0.00000000E+00  0.00000000E+00
  0.00000000E+00  0.00000000E+00  0.00000000E+00
  0.00000000E+00  0.00000000E+00  0.00000000E+00
  0.00000000E+00  0.00000000E+00  0.00000000E+00
  0.00000000E+00  0.00000000E+00  0.00000000E+00
  0.00000000E+00  0.00000000E+00  0.00000000E+00
  0.00000000E+00  0.00000000E+00  0.00000000E+00
  0.00000000E+00  0.00000000E+00  0.00000000E+00
  0.00000000E+00  0.00000000E+00  0.00000000E+00
  0.00000000E+00  0.00000000E+00  0.00000000E+00
  0.00000000E+00  0.00000000E+00  0.00000000E+00
  0.00000000E+00  0.00000000E+00  0.00000000E+00
  0.00000000E+00  0.00000000E+00  0.00000000E+00
  0.00000000E+00  0.00000000E+00  0.00000000E+00
  0.00000000E+00  0.00000000E+00  0.00000000E+00
  0.00000000E+00  0.00000000E+00  0.00000000E+00
  0.00000000E+00  0.00000000E+00  0.00000000E+00
  0.00000000E+00  0.00000000E+00  0.00000000E+00
  0.00000000E+00  0.00000000E+00  0.00000000E+00
  0.00000000E+00  0.00000000E+00  0.00000000E+00
  0.00000000E+00  0.00000000E+00  0.00000000E+00
  0.00000000E+00  0.00000000E+00  0.00000000E+00
  0.00000000E+00  0.00000000E+00  0.00000000E+00
  0.00000000E+00  0.00000000E+00  0.00000000E+00
  0.00000000E+00  0.00000000E+00  0.00000000E+00
  0.00000000E+00  0.00000000E+00  0.00000000E+00
  0.00000000E+00  0.00000000E+00  0.00000000E+00
  0.00000000E+00  0.00000000E+00  0.00000000E+00
  0.00000000E+00  0.00000000E+00  0.00000000E+00
  0.00000000E+00  0.00000000E+00  0.00000000E+00
  0.00000000E+00  0.00000000E+00  0.00000000E+00
  0.00000000E+00  0.00000000E+00  0.00000000E+00
  0.00000000E+00  0.00000000E+00  0.00000000E+00
  0.00000000E+00  0.00000000E+00  0.00000000E+00
  0.00000000E+00  0.00000000E+00  0.00000000E+00
  0.00000000E+00  0.00000000E+00  0.00000000E+00
  0.00000000E+00  0.00000000E+00  0.00000000E+00
  0.00000000E+00  0.00000000E+00  0.00000000E+00
  0.00000000E+00  0.00000000E+00  0.00000000E+00
  0.00000000E+00  0.00000000E+00  0.00000000E+00
  0.00000000E+00  0.00000000E+00  0.00000000E+00
  0.00000000E+00  0.00000000E+00  0.00000000E+00
  0.00000000E+00  0.00000000E+00  0.00000000E+00
  0.00000000E+00  0.00000000E+00  0.00000000E+00
  0.00000000E+00  0.00000000E+00  0.00000000E+00
  0.00000000E+00  0.00000000E+00  0.00000000E+00
  0.00000000E+00  0.00000000E+00  0.00000000E+00
  0.00000000E+00  0.00000000E+00  0.00000000E+00
  0.00000000E+00  0.00000000E+00  0.00000000E+00
  0.00000000E+00  0.00000000E+00  0.00000000E+00
  0.00000000E+00  0.00000000E+00  0.00000000E+00
  0.00000000E+00  0.00000000E+00  0.00000000E+00
  0.00000000E+00  0.00000000E+00  0.00000000E+00
  0.00000000E+00  0.00000000E+00  0.00000000E+00
  0.00000000E+00  0.00000000E+00  0.00000000E+00
  0.00000000E+00  0.00000000E+00  0.00000000E+00
