CeO2-you-111-you-Au                     
   1.00000000000000     
     9.8423850000000002   -5.6825039999999998    0.0000000000000000
     0.0000000000000000   11.3650059999999993    0.0000000000000000
     0.0000000000000000    0.0000000000000000   21.0000000000000000
   O    Au   Ce H
    53     1    26 1
Selective dynamics
Direct
  0.0000001936496257  0.0001213982699411  0.9946614369553771   T   T   T
  0.1048716516460317  0.2201091428927332  0.1484175569129950   T   T   T
  0.2116254411288627  0.0899178822577221  0.2978843611122134   T   T   T
  0.1151885641799259  0.2232706446266912  0.3833512487030028   T   T   T
 -0.0054897179410624 -0.0020581691642130  0.2274684240267504   T   T   T
  0.2226081075127505  0.1118832150254980  0.0738999186983881   T   T   T
  0.3334542046203189  0.0001213982699411  0.9946614369553771   T   T   T
  0.4485704912466976  0.2201091428927332  0.1484175569129950   T   T   T
  0.5564210739495261  0.1125803251793532  0.3054894157909188   T   T   T
  0.4414150804467615  0.2232706446266912  0.3833512487030028   T   T   T
  0.3367645487768527 -0.0020581691642130  0.2274684240267504   T   T   T
  0.5582282199545545  0.1104123248983343  0.0740743339305535   T   T   T
  0.6665254076213031 -0.0002831847573872  0.9929233667691583   T   T   T
  0.7780928614739515  0.2228517229479090  0.1536014769928424   T   T   T
  0.8894932512298278  0.1125803251793532  0.3054894157909188   T   T   T
  0.7766628611447827  0.2199917222895718  0.3854976652515628   T   T   T
  0.6628501687083759 -0.0076336625832421  0.2331442301112015   T   T   T
  0.8855181049437809  0.1104123248983343  0.0740743339305535   T   T   T
  0.0007251820489537  0.3334384547486325  0.9947654982732739   T   T   T
  0.1099289482299184  0.5542378643267638  0.1493542594254660   T   T   T
  0.2466061800052214  0.4540358045969397  0.3130351941220753   T   T   T
  0.1102876572691761  0.5568557404214756  0.3840375992084343   T   T   T
  0.0089991294203096  0.3380980075023681  0.2333792100822284   T   T   T
  0.2235631233799347  0.4446092938550462  0.0749693816517754   T   T   T
  0.3331408210437352  0.3329486420874669  0.9946219313093564   T   T   T
  0.4475469285987089  0.5617618571974263  0.1491362338360717   T   T   T
  0.5407636245917262  0.4540358045969397  0.3130351941220753   T   T   T
  0.3327886293450588  0.3322442586901143  0.2178950676880489   T   T   T
  0.5543801704751192  0.4446092938550462  0.0749693816517754   T   T   T
  0.6660472726996722  0.3334384547486325  0.9947654982732739   T   T   T
  0.7776419160968420  0.5542378643267638  0.1493542594254660   T   T   T
  0.8879095556519696  0.4424851113039384  0.3054886819715728   T   T   T
  0.7799010831522957  0.5568557404214756  0.3840375992084343   T   T   T
  0.6624328780820522  0.3380980075023681  0.2333792100822284   T   T   T
  0.8877813946194643  0.4422287892389278  0.0748985576781143   T   T   T
 -0.0002995959000611  0.6660678081998745  0.9948953936931887   T   T   T
  0.1107517086593198  0.8881704173186362  0.1478533423401399   T   T   T
  0.2192497514880048  0.7794582047652154  0.3034574598552023   T   T   T
  0.1104953990940191  0.8876577981880349  0.3865818767919445   T   T   T
 -0.0002366760737179  0.6661936478525610  0.2290827653181688   T   T   T
  0.2226386210173470  0.7776163454369002  0.0737603827771051   T   T   T
  0.3323626609206064  0.6655066546792289  0.9943850858956803   T   T   T
  0.4464974828997922  0.8886294179832407  0.1485462724898454   T   T   T
  0.5464960395505539  0.7596580791010997  0.3124436312476763   T   T   T
  0.4427187064913816  0.8893618905619077  0.3836936179504621   T   T   T
  0.3314438490760602  0.6682801865244590  0.2295364552205252   T   T   T
  0.5558878910160754  0.7784417820321422  0.0732873336922831   T   T   T
  0.6664769937586257  0.6655066546792289  0.9943850858956803   T   T   T
  0.7754649350834445  0.8886294179832407  0.1485462724898454   T   T   T
  0.8935414532772136  0.7794582047652154  0.3034574598552023   T   T   T
  0.7799761840705218  0.8893618905619077  0.3836936179504621   T   T   T
  0.6701693374484020  0.6682801865244590  0.2295364552205252   T   T   T
  0.8883107244195562  0.7776163454369002  0.0737603827771051   T   T   T
  0.3358077441182417  0.3382824882364804  0.3540740943836850   T   T   T
  0.0074253823657783  0.0048700669090298  0.3437652296374557   T   T   T
  0.2222821906230928  0.1112313812461824  0.1889291982002244   T   T   T
  0.1106044854215025  0.2220630925589431  0.0348362354832252   T   T   T
  0.3307776845432547  0.0048700669090298  0.3437652296374557   T   T   T
  0.5549649052570278  0.1104655711987311  0.1904675439817143   T   T   T
  0.4447916071374369  0.2220630925589431  0.0348362354832252   T   T   T
  0.6668482861506895  0.0003625723013857  0.3461954614477379   T   T   T
  0.8888346659417039  0.1104655711987311  0.1904675439817143   T   T   T
  0.7775402235678338  0.2217464471356740  0.0347168993469886   T   T   T
  0.0032927152064182  0.3319594784989249  0.3457422140581299   T   T   T
  0.2246206406342288  0.4430251189451408  0.1895390469955019   T   T   T
  0.1106689996908807  0.5546210981585245  0.0349230982947356   T   T   T
  0.5517384783109197  0.4430251189451408  0.1895390469955019   T   T   T
  0.4443964223718506  0.5554608447437097  0.0338703000988406   T   T   T
  0.6620007632925005  0.3319594784989249  0.3457422140581299   T   T   T
  0.8893797474254472  0.4454254948508936  0.1914097218329377   T   T   T
  0.7772850984676398  0.5546210981585245  0.0349230982947356   T   T   T
 -0.0000099402214481  0.6666471195571007  0.3446553399805193   T   T   T
  0.2218320367195596  0.7781179212437738  0.1872529068462968   T   T   T
  0.1112037948957339  0.8890745897914647  0.0336023263149703   T   T   T
  0.3245887045536418  0.6733719204544304  0.3408638662673626   T   T   T
  0.5553534158613798  0.7773728317227517  0.1890219844008380   T   T   T
  0.4455020113526418  0.8890693719395131  0.0337599449096224   T   T   T
  0.6821162159007920  0.6733719204544304  0.3408638662673626   T   T   T
  0.8896188845242174  0.7781179212437738  0.1872529068462968   T   T   T
  0.7769003605868675  0.8890693719395131  0.0337599449096224   T   T   T
0.446598 0.216020 0.433410 T T T 
 
  0.00000000E+00  0.00000000E+00  0.00000000E+00
  0.00000000E+00  0.00000000E+00  0.00000000E+00
  0.00000000E+00  0.00000000E+00  0.00000000E+00
  0.00000000E+00  0.00000000E+00  0.00000000E+00
  0.00000000E+00  0.00000000E+00  0.00000000E+00
  0.00000000E+00  0.00000000E+00  0.00000000E+00
  0.00000000E+00  0.00000000E+00  0.00000000E+00
  0.00000000E+00  0.00000000E+00  0.00000000E+00
  0.00000000E+00  0.00000000E+00  0.00000000E+00
  0.00000000E+00  0.00000000E+00  0.00000000E+00
  0.00000000E+00  0.00000000E+00  0.00000000E+00
  0.00000000E+00  0.00000000E+00  0.00000000E+00
  0.00000000E+00  0.00000000E+00  0.00000000E+00
  0.00000000E+00  0.00000000E+00  0.00000000E+00
  0.00000000E+00  0.00000000E+00  0.00000000E+00
  0.00000000E+00  0.00000000E+00  0.00000000E+00
  0.00000000E+00  0.00000000E+00  0.00000000E+00
  0.00000000E+00  0.00000000E+00  0.00000000E+00
  0.00000000E+00  0.00000000E+00  0.00000000E+00
  0.00000000E+00  0.00000000E+00  0.00000000E+00
  0.00000000E+00  0.00000000E+00  0.00000000E+00
  0.00000000E+00  0.00000000E+00  0.00000000E+00
  0.00000000E+00  0.00000000E+00  0.00000000E+00
  0.00000000E+00  0.00000000E+00  0.00000000E+00
  0.00000000E+00  0.00000000E+00  0.00000000E+00
  0.00000000E+00  0.00000000E+00  0.00000000E+00
  0.00000000E+00  0.00000000E+00  0.00000000E+00
  0.00000000E+00  0.00000000E+00  0.00000000E+00
  0.00000000E+00  0.00000000E+00  0.00000000E+00
  0.00000000E+00  0.00000000E+00  0.00000000E+00
  0.00000000E+00  0.00000000E+00  0.00000000E+00
  0.00000000E+00  0.00000000E+00  0.00000000E+00
  0.00000000E+00  0.00000000E+00  0.00000000E+00
  0.00000000E+00  0.00000000E+00  0.00000000E+00
  0.00000000E+00  0.00000000E+00  0.00000000E+00
  0.00000000E+00  0.00000000E+00  0.00000000E+00
  0.00000000E+00  0.00000000E+00  0.00000000E+00
  0.00000000E+00  0.00000000E+00  0.00000000E+00
  0.00000000E+00  0.00000000E+00  0.00000000E+00
  0.00000000E+00  0.00000000E+00  0.00000000E+00
  0.00000000E+00  0.00000000E+00  0.00000000E+00
  0.00000000E+00  0.00000000E+00  0.00000000E+00
  0.00000000E+00  0.00000000E+00  0.00000000E+00
  0.00000000E+00  0.00000000E+00  0.00000000E+00
  0.00000000E+00  0.00000000E+00  0.00000000E+00
  0.00000000E+00  0.00000000E+00  0.00000000E+00
  0.00000000E+00  0.00000000E+00  0.00000000E+00
  0.00000000E+00  0.00000000E+00  0.00000000E+00
  0.00000000E+00  0.00000000E+00  0.00000000E+00
  0.00000000E+00  0.00000000E+00  0.00000000E+00
  0.00000000E+00  0.00000000E+00  0.00000000E+00
  0.00000000E+00  0.00000000E+00  0.00000000E+00
  0.00000000E+00  0.00000000E+00  0.00000000E+00
  0.00000000E+00  0.00000000E+00  0.00000000E+00
  0.00000000E+00  0.00000000E+00  0.00000000E+00
  0.00000000E+00  0.00000000E+00  0.00000000E+00
  0.00000000E+00  0.00000000E+00  0.00000000E+00
  0.00000000E+00  0.00000000E+00  0.00000000E+00
  0.00000000E+00  0.00000000E+00  0.00000000E+00
  0.00000000E+00  0.00000000E+00  0.00000000E+00
  0.00000000E+00  0.00000000E+00  0.00000000E+00
  0.00000000E+00  0.00000000E+00  0.00000000E+00
  0.00000000E+00  0.00000000E+00  0.00000000E+00
  0.00000000E+00  0.00000000E+00  0.00000000E+00
  0.00000000E+00  0.00000000E+00  0.00000000E+00
  0.00000000E+00  0.00000000E+00  0.00000000E+00
  0.00000000E+00  0.00000000E+00  0.00000000E+00
  0.00000000E+00  0.00000000E+00  0.00000000E+00
  0.00000000E+00  0.00000000E+00  0.00000000E+00
  0.00000000E+00  0.00000000E+00  0.00000000E+00
  0.00000000E+00  0.00000000E+00  0.00000000E+00
  0.00000000E+00  0.00000000E+00  0.00000000E+00
  0.00000000E+00  0.00000000E+00  0.00000000E+00
  0.00000000E+00  0.00000000E+00  0.00000000E+00
  0.00000000E+00  0.00000000E+00  0.00000000E+00
  0.00000000E+00  0.00000000E+00  0.00000000E+00
  0.00000000E+00  0.00000000E+00  0.00000000E+00
  0.00000000E+00  0.00000000E+00  0.00000000E+00
  0.00000000E+00  0.00000000E+00  0.00000000E+00
  0.00000000E+00  0.00000000E+00  0.00000000E+00
