CeO2-you-111-you-Pb                     
   1.00000000000000     
     9.9242270653546534   -5.7297555420333461   -0.0000000010483693
    -0.0432214523086127   11.3846473208958159   -0.0200885188359178
    -0.0214260846419974   -0.0371110609377293   21.1772514930615543
   O    Pb   Ce H
    53     1    26 1
Selective dynamics
Direct
  0.0005249270008324  0.0001751058923207  0.9969803822648790   T   T   T
  0.1098718919129393  0.2223591543843733  0.1500942592717113   T   T   T
  0.2241481174045310  0.1149632348085101  0.3045880493491576   T   T   T
  0.0833578466060260  0.2115126920730996  0.3860040384941163   T   T   T
  0.0023089844682974  0.0017182840691786  0.2283430620405646   T   T   T
  0.2229164313195013  0.1124998626389687  0.0759740570783534   T   T   T
  0.3329831788915144  0.0001751058922507  0.9969803822648760   T   T   T
  0.4458202624713603  0.2223591543842561  0.1500942592717379   T   T   T
  0.5584426975779950  0.1087583810228902  0.3003018792934245   T   T   T
  0.4614878454691633  0.2115126920747299  0.3860040384945964   T   T   T
  0.3327422996012614  0.0017182840689707  0.2283430620405935   T   T   T
  0.5562737780713147  0.1116975062427435  0.0753466396933309   T   T   T
  0.6662235461404065 -0.0008869077192347  0.9968121317427873   T   T   T
  0.7758391571419582  0.2183443142838778  0.1516652317923753   T   T   T
  0.8836496834456430  0.1087583810234613  0.3003018792934423   T   T   T
  0.7751295372349658  0.2169250744692914  0.3808883511798397   T   T   T
  0.6600320074335612 -0.0132699851332635  0.2307960507879479   T   T   T
  0.8887577281715060  0.1116975062428264  0.0753466396933320   T   T   T
  0.0005216903248115  0.3336950451185789  0.9976807577228176   T   T   T
  0.1107614687385253  0.5549170065105421  0.1499567838033861   T   T   T
  0.2236931123697496  0.4546372245446284  0.3055731853500769   T   T   T
  0.1107821825833383  0.5625284731412955  0.3834306876259034   T   T   T
  0.0010582890344704  0.3338977878940780  0.2293216476171225   T   T   T
  0.2232244092720014  0.4447955346145696  0.0763618506508857   T   T   T
  0.3333870802693562  0.3334411605387593  0.9973487625247162   T   T   T
  0.4448197941446458  0.5563075882897873  0.1507209915232655   T   T   T
  0.5642781121720108  0.4546372245454683  0.3055731853503882   T   T   T
  0.3344439650568780  0.3355549301139287  0.2270376233352893   T   T   T
  0.5549051253424837  0.4447955346145461  0.0763618506508900   T   T   T
  0.6665073547937308  0.3336950451185259  0.9976807577228173   T   T   T
  0.7774885377717425  0.5549170065104512  0.1499567838033828   T   T   T
  0.8894159225938365  0.4454978451880609  0.3036472029354660   T   T   T
  0.7850792905572878  0.5625284731419720  0.3834306876258177   T   T   T
  0.6661734988595704  0.3338977878938809  0.2293216476171144   T   T   T
  0.8879808604588443  0.4426277209176750  0.0766971748466765   T   T   T
 -0.0007262540446716  0.6652144919106098  0.9976432412062952   T   T   T
  0.1117726101277282  0.8902122202550220  0.1482264876027709   T   T   T
  0.2194044532799892  0.7805561757302403  0.3010111098937554   T   T   T
  0.1121106692959557  0.8908883385913151  0.3819398180908704   T   T   T
  0.0005019015395348  0.6676708030793130  0.2274866225869007   T   T   T
  0.2218372150165674  0.7778912186390178  0.0748881078255649   T   T   T
  0.3335082428982359  0.6665410640948315  0.9976690306992925   T   T   T
  0.4437336603934292  0.8890985346483635  0.1484840018407143   T   T   T
  0.5413315835988420  0.7493291671956813  0.3137519413366645   T   T   T
  0.4418902847183241  0.8891570121079331  0.3797631807868643   T   T   T
  0.3339850781014360  0.6723471175311366  0.2279322415027380   T   T   T
  0.5556697456467311  0.7780054912934840  0.0761308436935713   T   T   T
  0.6663658211965875  0.6665410640948527  0.9976690306992980   T   T   T
  0.7786978742553278  0.8890985346486343  0.1484840018407189   T   T   T
  0.8944847224517950  0.7805561757314405  0.3010111098937411   T   T   T
  0.7805997273914925  0.8891570121084514  0.3797631807867998   T   T   T
  0.6716950394294509  0.6723471175315339  0.2279322415027213   T   T   T
  0.8893870036224942  0.7778912186390492  0.0748881078255557   T   T   T
  0.3291231778339842  0.3249133556668579  0.3516300814546229   T   T   T
  0.0024643946470823  0.0053947470973014  0.3425427527668201   T   T   T
  0.2241378792886350  0.1149427585779308  0.1899128659405067   T   T   T
  0.1114895664220228  0.2225737785955331  0.0370382192564862   T   T   T
  0.3362633524485591  0.0053947470987318  0.3425427527667933   T   T   T
  0.5543566421390278  0.1098635416939337  0.1893995465305763   T   T   T
  0.4444172121735758  0.2225737785956664  0.0370382192564848   T   T   T
  0.6652739596491798 -0.0027860806988767  0.3420445971392927   T   T   T
  0.8888408995540242  0.1098635416932576  0.1893995465305895   T   T   T
  0.7774048807502063  0.2214757615003966  0.0369365809319793   T   T   T
 -0.0019927683974873  0.3313677122398255  0.3426000429200102   T   T   T
  0.2227580192032778  0.4438923558245094  0.1913155124777928   T   T   T
  0.1106876185001652  0.5543095636932398  0.0370165413167502   T   T   T
  0.5544683366224246  0.4438923558245591  0.1913155124777301   T   T   T
  0.4440570953664196  0.5547821907327075  0.0368704610656174   T   T   T
  0.6666944806380737  0.3313677122399822  0.3426000429198849   T   T   T
  0.8889138843880316  0.4444937687757998  0.1899724029357681   T   T   T
  0.7769549451931013  0.5543095636932889  0.0370165413167410   T   T   T
  0.0013813000634655  0.6694296001267139  0.3432501593884227   T   T   T
  0.2209875347000462  0.7795214939161653  0.1868847723930512   T   T   T
  0.1112944731392444  0.8892559462786789  0.0354605623943535   T   T   T
  0.3198510984092025  0.6726002909935268  0.3378086883234688   T   T   T
  0.5544587946237631  0.7755835892474924  0.1877996618444864   T   T   T
  0.4443819950946727  0.8887070772186172  0.0359736002834012   T   T   T
  0.6860821925847016  0.6726002909930860  0.3378086883241070   T   T   T
  0.8918669592154250  0.7795214939155767  0.1868847723930479   T   T   T
  0.7776580821238661  0.8887070772185849  0.0359736002834023   T   T   T
0.446598 0.216020 0.433410 T T T 
 
  0.00000000E+00  0.00000000E+00  0.00000000E+00
  0.00000000E+00  0.00000000E+00  0.00000000E+00
  0.00000000E+00  0.00000000E+00  0.00000000E+00
  0.00000000E+00  0.00000000E+00  0.00000000E+00
  0.00000000E+00  0.00000000E+00  0.00000000E+00
  0.00000000E+00  0.00000000E+00  0.00000000E+00
  0.00000000E+00  0.00000000E+00  0.00000000E+00
  0.00000000E+00  0.00000000E+00  0.00000000E+00
  0.00000000E+00  0.00000000E+00  0.00000000E+00
  0.00000000E+00  0.00000000E+00  0.00000000E+00
  0.00000000E+00  0.00000000E+00  0.00000000E+00
  0.00000000E+00  0.00000000E+00  0.00000000E+00
  0.00000000E+00  0.00000000E+00  0.00000000E+00
  0.00000000E+00  0.00000000E+00  0.00000000E+00
  0.00000000E+00  0.00000000E+00  0.00000000E+00
  0.00000000E+00  0.00000000E+00  0.00000000E+00
  0.00000000E+00  0.00000000E+00  0.00000000E+00
  0.00000000E+00  0.00000000E+00  0.00000000E+00
  0.00000000E+00  0.00000000E+00  0.00000000E+00
  0.00000000E+00  0.00000000E+00  0.00000000E+00
  0.00000000E+00  0.00000000E+00  0.00000000E+00
  0.00000000E+00  0.00000000E+00  0.00000000E+00
  0.00000000E+00  0.00000000E+00  0.00000000E+00
  0.00000000E+00  0.00000000E+00  0.00000000E+00
  0.00000000E+00  0.00000000E+00  0.00000000E+00
  0.00000000E+00  0.00000000E+00  0.00000000E+00
  0.00000000E+00  0.00000000E+00  0.00000000E+00
  0.00000000E+00  0.00000000E+00  0.00000000E+00
  0.00000000E+00  0.00000000E+00  0.00000000E+00
  0.00000000E+00  0.00000000E+00  0.00000000E+00
  0.00000000E+00  0.00000000E+00  0.00000000E+00
  0.00000000E+00  0.00000000E+00  0.00000000E+00
  0.00000000E+00  0.00000000E+00  0.00000000E+00
  0.00000000E+00  0.00000000E+00  0.00000000E+00
  0.00000000E+00  0.00000000E+00  0.00000000E+00
  0.00000000E+00  0.00000000E+00  0.00000000E+00
  0.00000000E+00  0.00000000E+00  0.00000000E+00
  0.00000000E+00  0.00000000E+00  0.00000000E+00
  0.00000000E+00  0.00000000E+00  0.00000000E+00
  0.00000000E+00  0.00000000E+00  0.00000000E+00
  0.00000000E+00  0.00000000E+00  0.00000000E+00
  0.00000000E+00  0.00000000E+00  0.00000000E+00
  0.00000000E+00  0.00000000E+00  0.00000000E+00
  0.00000000E+00  0.00000000E+00  0.00000000E+00
  0.00000000E+00  0.00000000E+00  0.00000000E+00
  0.00000000E+00  0.00000000E+00  0.00000000E+00
  0.00000000E+00  0.00000000E+00  0.00000000E+00
  0.00000000E+00  0.00000000E+00  0.00000000E+00
  0.00000000E+00  0.00000000E+00  0.00000000E+00
  0.00000000E+00  0.00000000E+00  0.00000000E+00
  0.00000000E+00  0.00000000E+00  0.00000000E+00
  0.00000000E+00  0.00000000E+00  0.00000000E+00
  0.00000000E+00  0.00000000E+00  0.00000000E+00
  0.00000000E+00  0.00000000E+00  0.00000000E+00
  0.00000000E+00  0.00000000E+00  0.00000000E+00
  0.00000000E+00  0.00000000E+00  0.00000000E+00
  0.00000000E+00  0.00000000E+00  0.00000000E+00
  0.00000000E+00  0.00000000E+00  0.00000000E+00
  0.00000000E+00  0.00000000E+00  0.00000000E+00
  0.00000000E+00  0.00000000E+00  0.00000000E+00
  0.00000000E+00  0.00000000E+00  0.00000000E+00
  0.00000000E+00  0.00000000E+00  0.00000000E+00
  0.00000000E+00  0.00000000E+00  0.00000000E+00
  0.00000000E+00  0.00000000E+00  0.00000000E+00
  0.00000000E+00  0.00000000E+00  0.00000000E+00
  0.00000000E+00  0.00000000E+00  0.00000000E+00
  0.00000000E+00  0.00000000E+00  0.00000000E+00
  0.00000000E+00  0.00000000E+00  0.00000000E+00
  0.00000000E+00  0.00000000E+00  0.00000000E+00
  0.00000000E+00  0.00000000E+00  0.00000000E+00
  0.00000000E+00  0.00000000E+00  0.00000000E+00
  0.00000000E+00  0.00000000E+00  0.00000000E+00
  0.00000000E+00  0.00000000E+00  0.00000000E+00
  0.00000000E+00  0.00000000E+00  0.00000000E+00
  0.00000000E+00  0.00000000E+00  0.00000000E+00
  0.00000000E+00  0.00000000E+00  0.00000000E+00
  0.00000000E+00  0.00000000E+00  0.00000000E+00
  0.00000000E+00  0.00000000E+00  0.00000000E+00
  0.00000000E+00  0.00000000E+00  0.00000000E+00
  0.00000000E+00  0.00000000E+00  0.00000000E+00
