CeO2-you-111-you-Fe                     
   1.00000000000000     
     9.8343708279750661   -5.6725500315919355   -0.0147213378880048
     0.0046133042493599   11.3530885434695090    0.0147213354059205
    -0.0159893593243474    0.0276943812637338   20.9933984491606758
   O    Fe   Ce
    53     1    26
Selective dynamics
Direct
 -0.0003611661599499 -0.0001299123028174  0.9950008872798807   T   T   T
  0.1113942298957411  0.2218577806274228  0.1485933210664679   T   T   T
  0.2154178719200297  0.0959329672966362  0.3002608297786665   T   T   T
  0.1497685592835141  0.2558741221373912  0.3650954445427905   T   T   T
 -0.0028304383395622 -0.0009365753213812  0.2287772064728386   T   T   T
  0.2217660886189156  0.1107047272018912  0.0745299418690150   T   T   T
  0.3351088406357050  0.0009645931212999  0.9958250436621850   T   T   T
  0.4417586177128957  0.2249073822860761  0.1514624120723160   T   T   T
  0.5545414700147394  0.1121255299838710  0.3061163210173390   T   T   T
  0.4330511661974780  0.2336148337999149  0.3765734966855479   T   T   T
  0.3370794116378930 -0.0001632507225995  0.2285334976364956   T   T   T
  0.5558484125873955  0.1108185874126612  0.0776483626235953   T   T   T
  0.6659312267079480  0.0007357732927864  0.9957512093749176   T   T   T
  0.7840241567920582  0.2243992474282360  0.1519222698965473   T   T   T
  0.8876706878903603  0.1075652045889280  0.3060313824240773   T   T   T
  0.7718140391984353  0.2180897758835413  0.3875397261895611   T   T   T
  0.6666853417161998 -0.0000183417165849  0.2302684922172878   T   T   T
  0.8893033030984002  0.1110113008306470  0.0749009375527231   T   T   T
 -0.0016798760309322  0.3329287384564020  0.9949743551513974   T   T   T
  0.1111583448569606  0.5555086551402652  0.1482290274426996   T   T   T
  0.1127555376046187  0.5539114623990751  0.3814974849136063   T   T   T
  0.0164156916398467  0.3426537551075561  0.2350105091804633   T   T   T
  0.2223103748245875  0.4443556251761558  0.0728717809651097   T   T   T
  0.3335577812982217  0.3331082187012782  0.9949088331372491   T   T   T
  0.4448082193773794  0.5552727701048064  0.1485933210665340   T   T   T
  0.5707340327042854  0.4512481280788013  0.3002608297797288   T   T   T
  0.4107918778615103  0.5168984407169597  0.3650954445423122   T   T   T
  0.3266508466789088  0.3400151533165741  0.2378837279146115   T   T   T
  0.5559622727981876  0.4448999113806563  0.0745299418690516   T   T   T
  0.6657024068786046  0.3315571593639531  0.9958250436621131   T   T   T
  0.7774241987861925  0.5542754476813074  0.1506931999187052   T   T   T
  0.8833188050998424  0.4451445406423259  0.3051017724122910   T   T   T
  0.7775320048093360  0.5583362645642241  0.3864608124575205   T   T   T
  0.6668302507202463  0.3295865883612878  0.2285334976363859   T   T   T
  0.8883810527533238  0.4444958814161820  0.0750554107580322   T   T   T
 -0.0006351224336801  0.6673021224332981  0.9952609403623058   T   T   T
  0.1123915523182103  0.8892428012125784  0.1506931999187272   T   T   T
  0.2215214593550673  0.7833481948953345  0.3051017724124092   T   T   T
  0.1083307354364691  0.8891349951897519  0.3864608124574992   T   T   T
  0.0007275444435040  0.6659394555551991  0.2296967737021653   T   T   T
  0.2221701185831983  0.7782859472463640  0.0750554107580121   T   T   T
  0.3337372615439435  0.6683468760316996  0.9949743551514805   T   T   T
  0.4422667525721865  0.8826428432070661  0.1519222698964967   T   T   T
  0.5591017954140388  0.7789963121095165  0.3060313824239865   T   T   T
  0.4485762241171546  0.8948529607970810  0.3875397261897784   T   T   T
  0.3240122448945904  0.6502513083634280  0.2350105091808266   T   T   T
  0.5556556991698062  0.7773636969021354  0.0749009375527519   T   T   T
  0.6667969123032470  0.6670281661599153  0.9950008872798947   T   T   T
  0.7767336642925666  0.8899333357082656  0.1502299107455414   T   T   T
  0.8893475549411308  0.7773194450590252  0.3037093396263843   T   T   T
  0.7802449679257674  0.8864220320735454  0.3848855092654037   T   T   T
  0.6676035753225272  0.6694974383408367  0.2287772064729122   T   T   T
  0.8887075807872993  0.7779594192122803  0.0752840742999871   T   T   T
  0.3377233137091001  0.3289426863058577  0.3400413021278926   T   T   T
  0.0038349157180315  0.0002619238843722  0.3422503361580445   T   T   T
  0.2226484323077307  0.1117165039930707  0.1914929083120615   T   T   T
  0.1102177440088000  0.2208407722784458  0.0338806941938304   T   T   T
  0.3322009326092629  0.0044649499283586  0.3443624103696293   T   T   T
  0.5560143368978681  0.1106526631036859  0.1911140630334670   T   T   T
  0.4442576951230963  0.2224083048760932  0.0359576488135753   T   T   T
  0.6671644471861703 -0.0004974471831988  0.3464494940799442   T   T   T
  0.8900399461606506  0.1116612621825094  0.1913382182914713   T   T   T
  0.7781263074630544  0.2224681022614332  0.0359331590833616   T   T   T
 -0.0085293776071472  0.3295850344464257  0.3491161586691028   T   T   T
  0.2234219966831709  0.4432440033148267  0.1841499509233591   T   T   T
  0.1101278775034320  0.5565391224968421  0.0342598118308391   T   T   T
  0.5549504960019989  0.4440175676895106  0.1914929083121045   T   T   T
  0.4458252277212869  0.5564492559914523  0.0338806941938120   T   T   T
  0.6622020500708717  0.3344650673881931  0.3443624103696961   T   T   T
  0.8903598414460043  0.4446886304647903  0.1913571842502934   T   T   T
  0.7771192717761162  0.5548702732577497  0.0356871378097914   T   T   T
 -0.0005739676130193  0.6672409676165740  0.3447640092163519   T   T   T
  0.2219773695382261  0.7763071585607187  0.1913571842502270   T   T   T
  0.1117967267431745  0.8895477282239057  0.0356871378097957   T   T   T
  0.3370809655525391  0.6751963776078819  0.3491161586684016   T   T   T
  0.5550057378132817  0.7766270538414254  0.1913382182913234   T   T   T
  0.4441978977383280  0.8885406925380238  0.0359331590833494   T   T   T
  0.6664050761110948  0.6628320842793312  0.3422503361584611   T   T   T
  0.8890766298394318  0.7775903701603795  0.1889155792687919   T   T   T
  0.7771899464410991  0.8894770535582956  0.0355449335645072   T   T   T
 
  0.00000000E+00  0.00000000E+00  0.00000000E+00
  0.00000000E+00  0.00000000E+00  0.00000000E+00
  0.00000000E+00  0.00000000E+00  0.00000000E+00
  0.00000000E+00  0.00000000E+00  0.00000000E+00
  0.00000000E+00  0.00000000E+00  0.00000000E+00
  0.00000000E+00  0.00000000E+00  0.00000000E+00
  0.00000000E+00  0.00000000E+00  0.00000000E+00
  0.00000000E+00  0.00000000E+00  0.00000000E+00
  0.00000000E+00  0.00000000E+00  0.00000000E+00
  0.00000000E+00  0.00000000E+00  0.00000000E+00
  0.00000000E+00  0.00000000E+00  0.00000000E+00
  0.00000000E+00  0.00000000E+00  0.00000000E+00
  0.00000000E+00  0.00000000E+00  0.00000000E+00
  0.00000000E+00  0.00000000E+00  0.00000000E+00
  0.00000000E+00  0.00000000E+00  0.00000000E+00
  0.00000000E+00  0.00000000E+00  0.00000000E+00
  0.00000000E+00  0.00000000E+00  0.00000000E+00
  0.00000000E+00  0.00000000E+00  0.00000000E+00
  0.00000000E+00  0.00000000E+00  0.00000000E+00
  0.00000000E+00  0.00000000E+00  0.00000000E+00
  0.00000000E+00  0.00000000E+00  0.00000000E+00
  0.00000000E+00  0.00000000E+00  0.00000000E+00
  0.00000000E+00  0.00000000E+00  0.00000000E+00
  0.00000000E+00  0.00000000E+00  0.00000000E+00
  0.00000000E+00  0.00000000E+00  0.00000000E+00
  0.00000000E+00  0.00000000E+00  0.00000000E+00
  0.00000000E+00  0.00000000E+00  0.00000000E+00
  0.00000000E+00  0.00000000E+00  0.00000000E+00
  0.00000000E+00  0.00000000E+00  0.00000000E+00
  0.00000000E+00  0.00000000E+00  0.00000000E+00
  0.00000000E+00  0.00000000E+00  0.00000000E+00
  0.00000000E+00  0.00000000E+00  0.00000000E+00
  0.00000000E+00  0.00000000E+00  0.00000000E+00
  0.00000000E+00  0.00000000E+00  0.00000000E+00
  0.00000000E+00  0.00000000E+00  0.00000000E+00
  0.00000000E+00  0.00000000E+00  0.00000000E+00
  0.00000000E+00  0.00000000E+00  0.00000000E+00
  0.00000000E+00  0.00000000E+00  0.00000000E+00
  0.00000000E+00  0.00000000E+00  0.00000000E+00
  0.00000000E+00  0.00000000E+00  0.00000000E+00
  0.00000000E+00  0.00000000E+00  0.00000000E+00
  0.00000000E+00  0.00000000E+00  0.00000000E+00
  0.00000000E+00  0.00000000E+00  0.00000000E+00
  0.00000000E+00  0.00000000E+00  0.00000000E+00
  0.00000000E+00  0.00000000E+00  0.00000000E+00
  0.00000000E+00  0.00000000E+00  0.00000000E+00
  0.00000000E+00  0.00000000E+00  0.00000000E+00
  0.00000000E+00  0.00000000E+00  0.00000000E+00
  0.00000000E+00  0.00000000E+00  0.00000000E+00
  0.00000000E+00  0.00000000E+00  0.00000000E+00
  0.00000000E+00  0.00000000E+00  0.00000000E+00
  0.00000000E+00  0.00000000E+00  0.00000000E+00
  0.00000000E+00  0.00000000E+00  0.00000000E+00
  0.00000000E+00  0.00000000E+00  0.00000000E+00
  0.00000000E+00  0.00000000E+00  0.00000000E+00
  0.00000000E+00  0.00000000E+00  0.00000000E+00
  0.00000000E+00  0.00000000E+00  0.00000000E+00
  0.00000000E+00  0.00000000E+00  0.00000000E+00
  0.00000000E+00  0.00000000E+00  0.00000000E+00
  0.00000000E+00  0.00000000E+00  0.00000000E+00
  0.00000000E+00  0.00000000E+00  0.00000000E+00
  0.00000000E+00  0.00000000E+00  0.00000000E+00
  0.00000000E+00  0.00000000E+00  0.00000000E+00
  0.00000000E+00  0.00000000E+00  0.00000000E+00
  0.00000000E+00  0.00000000E+00  0.00000000E+00
  0.00000000E+00  0.00000000E+00  0.00000000E+00
  0.00000000E+00  0.00000000E+00  0.00000000E+00
  0.00000000E+00  0.00000000E+00  0.00000000E+00
  0.00000000E+00  0.00000000E+00  0.00000000E+00
  0.00000000E+00  0.00000000E+00  0.00000000E+00
  0.00000000E+00  0.00000000E+00  0.00000000E+00
  0.00000000E+00  0.00000000E+00  0.00000000E+00
  0.00000000E+00  0.00000000E+00  0.00000000E+00
  0.00000000E+00  0.00000000E+00  0.00000000E+00
  0.00000000E+00  0.00000000E+00  0.00000000E+00
  0.00000000E+00  0.00000000E+00  0.00000000E+00
  0.00000000E+00  0.00000000E+00  0.00000000E+00
  0.00000000E+00  0.00000000E+00  0.00000000E+00
  0.00000000E+00  0.00000000E+00  0.00000000E+00
  0.00000000E+00  0.00000000E+00  0.00000000E+00
