CeO2-you-111-you-Ba                     
   1.00000000000000     
     9.9505843146359734   -5.7449729071838416   -0.0000000011977279
    -0.0482207415449156   11.4064230234211088   -0.0231388465825700
    -0.0245427452407895   -0.0425092745764979   21.1800511710695005
   O    Ba   Ce   H 
    53     1    26     2
Selective dynamics
Direct
  0.0008671580710183  0.0006787500632167  0.9971109250764278   T   T   T
  0.1090538331579580  0.2221027772618527  0.1502549463920531   F   F   F
  0.2254060515070460  0.1100686465123906  0.3050452275957437   T   T   T
  0.0783558409550167  0.2091429609675502  0.3884345616064402   T   T   T
  0.0018037329394626  0.0010364155917760  0.2277459741401696   T   T   T
  0.2232207050248007  0.1131084100494704  0.0763315935658113   F   F   F
  0.3328710640980572  0.0010901210168009  0.9968855225783790   T   T   T
  0.4463819441037700  0.2221027772617106  0.1502549463921028   F   F   F
  0.5499399247662917  0.1181800165402164  0.3032271732813249   T   T   T
  0.4631619904332597  0.2099438085975475  0.4065403726697661   T   T   T
  0.3321783603244131 -0.0007034580633325  0.2268348221807565   T   T   T
  0.5562491072378606  0.1116487555114389  0.0750869119928623   F   F   F
  0.6666829219631777  0.9996662313816076  0.9966069229421372   T   T   T
  0.7755912736747064  0.2178485473495613  0.1515032160894734   F   F   F
  0.8874695666001988  0.1118195569326427  0.2995200252138520   T   T   T
  0.7807635529769845  0.2322744975736080  0.3834481212481482   T   T   T
  0.6535116222443098  0.9817826501905902  0.2324641443410820   T   T   T
  0.8887336482736856  0.1116487555116024  0.0750869119928694   F   F   F
  0.0007278484992237  0.3338447745376837  0.9975763174317112   T   T   T
  0.1111067656807734  0.5549015765567233  0.1497829237412560   F   F   F
  0.2178943263811023  0.4543551874037597  0.3059798703050980   T   T   T
  0.1072887408060138  0.5621116401640579  0.3858941489823999   T   T   T
  0.0007705549327669  0.3339669293601300  0.2281111924721856   T   T   T
  0.2233961230296870  0.4448250289921276  0.0765126406875680   F   F   F
  0.3335440996754739  0.3338301101348656  0.9971168378531323   T   T   T
  0.4451827019692374  0.5570334039392435  0.1504621227545044   F   F   F
  0.5706778139326343  0.4507340095875230  0.3077852045538209   T   T   T
  0.3356456735230645  0.3369310700624633  0.2258378429620927   T   T   T
  0.5547629059622210  0.4448250289920210  0.0765126406875893   F   F   F
  0.6667675278976831  0.3337883107371830  0.9976820258709161   T   T   T
  0.7771278108755268  0.5549015765565386  0.1497829237412560   F   F   F
  0.8917919535648098  0.4484449765052560  0.3021395171173726   T   T   T
  0.7889713668448715  0.5605468889272502  0.3862182359846476   T   T   T
  0.6684887106069907  0.3345344399157950  0.2281894458151714   T   T   T
  0.8878085140055632  0.4422830280111683  0.0767786154978651   F   F   F
  0.9986027332307853  0.6644108691586669  0.9975247020695832   T   T   T
  0.1120771685568158  0.8908213371128539  0.1482013662130583   F   F   F
  0.2139947126100080  0.7781499608642009  0.2992597030244677   T   T   T
  0.1117698932492783  0.8894355808905321  0.3830039238706809   T   T   T
 -0.0000028512766969  0.6673059549626169  0.2254014173584797   T   T   T
  0.2215531179444312  0.7781600159566864  0.0744836308151164   F   F   F
  0.3331353572888673  0.6663221912559515  0.9975275100335690   T   T   T
  0.4436544396640514  0.8887012661567226  0.1475963144335353   F   F   F
  0.5261434655281042  0.7193513256525428  0.3348394600277407   T   T   T
  0.4234880357195478  0.8854768776451668  0.3818300042077891   T   T   T
  0.3395789370783880  0.6752860159733578  0.2294794770624411   T   T   T
  0.5556227120642276  0.7779114241284120  0.0754779365516995   F   F   F
  0.6666068069479189  0.6663636086902468  0.9971999344960466   T   T   T
  0.7783798264932358  0.8887012661570637  0.1475963144335353   F   F   F
  0.8964577870587038  0.7782044626583809  0.2999151376148690   T   T   T
  0.7908864494896846  0.8860201973060402  0.3811385730491944   T   T   T
  0.6687359929122725  0.6738314511649507  0.2297095506367297   T   T   T
  0.8899398980123721  0.7781600159567006  0.0744836308151022   F   F   F
  0.3329961873974495  0.3378401861568778  0.3607048760019628   T   T   T
  0.0015405544791967  0.0054989322518988  0.3417992241781647   T   T   T
  0.2243865251781401  0.1154400503577193  0.1908751111451963   F   F   F
  0.1117584722997904  0.2227241284987258  0.0372995189302188   F   F   F
  0.3275602809313843 -0.0036605621231269  0.3403255387130030   T   T   T
  0.5544324141849444  0.1096955474434296  0.1889019665733755   F   F   F
  0.4442986561990310  0.2227241284989319  0.0372995189302188   F   F   F
  0.6627713956862078  0.9965637273918219  0.3476554194160027   T   T   T
  0.8885971332571287  0.1096955474422856  0.1889019665733827   F   F   F
  0.7773889574749191  0.2214439149497380  0.0368909312681325   F   F   F
  0.9957433162076673  0.3294065625233899  0.3423265980875254   T   T   T
  0.2228145621000692  0.4435904231377705  0.1914469607102234   F   F   F
  0.1104468933479765  0.5540648308176017  0.0369621464188157   F   F   F
  0.5541098610402031  0.4435904231387653  0.1914469607101594   F   F   F
  0.4438977592099818  0.5544635184198157  0.0367728568680263   F   F   F
  0.6776752818771650  0.3369612796772208  0.3411735709494566   T   T   T
  0.8890605009823815  0.4447870019641087  0.1896468637865709   F   F   F
  0.7769509374696639  0.5540648308177580  0.0369621464188086   F   F   F
  0.0013600287787957  0.6692370408944653  0.3439714986568808   T   T   T
  0.2207063341286499  0.7795510451576462  0.1861941258152484   F   F   F
  0.1114628944339202  0.8895927888681499  0.0354604241534986   F   F   F
  0.3140697967564808  0.6715434902212484  0.3399170525273963   T   T   T
  0.5542809866465603  0.7752279732930631  0.1868716628346192   F   F   F
  0.4441717704221944  0.8886375710059085  0.0355671435148324   F   F   F
  0.6912848551976986  0.6735265596354555  0.3401467995711945   T   T   T
  0.8921777110278413  0.7795510451569356  0.1861941258152342   F   F   F
  0.7777988005836107  0.8886375710059227  0.0355671435148395   F   F   F
  0.3329520871951147  0.3350122360599318  0.5137295212997288   T   T   T
  0.4755989430803480  0.1932952708571690  0.4503944657115199   T   T   T
 
  0.00000000E+00  0.00000000E+00  0.00000000E+00
  0.00000000E+00  0.00000000E+00  0.00000000E+00
  0.00000000E+00  0.00000000E+00  0.00000000E+00
  0.00000000E+00  0.00000000E+00  0.00000000E+00
  0.00000000E+00  0.00000000E+00  0.00000000E+00
  0.00000000E+00  0.00000000E+00  0.00000000E+00
  0.00000000E+00  0.00000000E+00  0.00000000E+00
  0.00000000E+00  0.00000000E+00  0.00000000E+00
  0.00000000E+00  0.00000000E+00  0.00000000E+00
  0.00000000E+00  0.00000000E+00  0.00000000E+00
  0.00000000E+00  0.00000000E+00  0.00000000E+00
  0.00000000E+00  0.00000000E+00  0.00000000E+00
  0.00000000E+00  0.00000000E+00  0.00000000E+00
  0.00000000E+00  0.00000000E+00  0.00000000E+00
  0.00000000E+00  0.00000000E+00  0.00000000E+00
  0.00000000E+00  0.00000000E+00  0.00000000E+00
  0.00000000E+00  0.00000000E+00  0.00000000E+00
  0.00000000E+00  0.00000000E+00  0.00000000E+00
  0.00000000E+00  0.00000000E+00  0.00000000E+00
  0.00000000E+00  0.00000000E+00  0.00000000E+00
  0.00000000E+00  0.00000000E+00  0.00000000E+00
  0.00000000E+00  0.00000000E+00  0.00000000E+00
  0.00000000E+00  0.00000000E+00  0.00000000E+00
  0.00000000E+00  0.00000000E+00  0.00000000E+00
  0.00000000E+00  0.00000000E+00  0.00000000E+00
  0.00000000E+00  0.00000000E+00  0.00000000E+00
  0.00000000E+00  0.00000000E+00  0.00000000E+00
  0.00000000E+00  0.00000000E+00  0.00000000E+00
  0.00000000E+00  0.00000000E+00  0.00000000E+00
  0.00000000E+00  0.00000000E+00  0.00000000E+00
  0.00000000E+00  0.00000000E+00  0.00000000E+00
  0.00000000E+00  0.00000000E+00  0.00000000E+00
  0.00000000E+00  0.00000000E+00  0.00000000E+00
  0.00000000E+00  0.00000000E+00  0.00000000E+00
  0.00000000E+00  0.00000000E+00  0.00000000E+00
  0.00000000E+00  0.00000000E+00  0.00000000E+00
  0.00000000E+00  0.00000000E+00  0.00000000E+00
  0.00000000E+00  0.00000000E+00  0.00000000E+00
  0.00000000E+00  0.00000000E+00  0.00000000E+00
  0.00000000E+00  0.00000000E+00  0.00000000E+00
  0.00000000E+00  0.00000000E+00  0.00000000E+00
  0.00000000E+00  0.00000000E+00  0.00000000E+00
  0.00000000E+00  0.00000000E+00  0.00000000E+00
  0.00000000E+00  0.00000000E+00  0.00000000E+00
  0.00000000E+00  0.00000000E+00  0.00000000E+00
  0.00000000E+00  0.00000000E+00  0.00000000E+00
  0.00000000E+00  0.00000000E+00  0.00000000E+00
  0.00000000E+00  0.00000000E+00  0.00000000E+00
  0.00000000E+00  0.00000000E+00  0.00000000E+00
  0.00000000E+00  0.00000000E+00  0.00000000E+00
  0.00000000E+00  0.00000000E+00  0.00000000E+00
  0.00000000E+00  0.00000000E+00  0.00000000E+00
  0.00000000E+00  0.00000000E+00  0.00000000E+00
  0.00000000E+00  0.00000000E+00  0.00000000E+00
  0.00000000E+00  0.00000000E+00  0.00000000E+00
  0.00000000E+00  0.00000000E+00  0.00000000E+00
  0.00000000E+00  0.00000000E+00  0.00000000E+00
  0.00000000E+00  0.00000000E+00  0.00000000E+00
  0.00000000E+00  0.00000000E+00  0.00000000E+00
  0.00000000E+00  0.00000000E+00  0.00000000E+00
  0.00000000E+00  0.00000000E+00  0.00000000E+00
  0.00000000E+00  0.00000000E+00  0.00000000E+00
  0.00000000E+00  0.00000000E+00  0.00000000E+00
  0.00000000E+00  0.00000000E+00  0.00000000E+00
  0.00000000E+00  0.00000000E+00  0.00000000E+00
  0.00000000E+00  0.00000000E+00  0.00000000E+00
  0.00000000E+00  0.00000000E+00  0.00000000E+00
  0.00000000E+00  0.00000000E+00  0.00000000E+00
  0.00000000E+00  0.00000000E+00  0.00000000E+00
  0.00000000E+00  0.00000000E+00  0.00000000E+00
  0.00000000E+00  0.00000000E+00  0.00000000E+00
  0.00000000E+00  0.00000000E+00  0.00000000E+00
  0.00000000E+00  0.00000000E+00  0.00000000E+00
  0.00000000E+00  0.00000000E+00  0.00000000E+00
  0.00000000E+00  0.00000000E+00  0.00000000E+00
  0.00000000E+00  0.00000000E+00  0.00000000E+00
  0.00000000E+00  0.00000000E+00  0.00000000E+00
  0.00000000E+00  0.00000000E+00  0.00000000E+00
  0.00000000E+00  0.00000000E+00  0.00000000E+00
  0.00000000E+00  0.00000000E+00  0.00000000E+00
  0.00000000E+00  0.00000000E+00  0.00000000E+00
  0.00000000E+00  0.00000000E+00  0.00000000E+00
