CeO2-you-111-you-Ag                     
   1.00000000000000     
     9.8582940952841156   -5.6916891212466432   -0.0000000001264945
    -0.0085402156232054   11.3685841528536091   -0.0024443338986595
    -0.0027083124120834   -0.0046909339072592   21.1747678366137215
   O    Ag   Ce H
    53     1    26 2
Selective dynamics
Direct
  0.0000810529655459  0.0005967481238233  0.9966192493289001   T   T   T
  0.1052532485171082  0.2198843066128982  0.1490356331826886   F   F   F
  0.2154819169959253  0.0976308339925063  0.2978955345036421   T   T   T
  0.1062752939212824  0.2197701160494850  0.3829351914212695   T   T   T
 -0.0040559945453150 -0.0014971637883087  0.2270529372705533   T   T   T
  0.2225804721089207  0.1118279442177591  0.0751495065327847   F   F   F
  0.3338486951583380  0.0005967481238045  0.9966192493288950   T   T   T
  0.4479640580955510  0.2198843066126820  0.1490356331827062   F   F   F
  0.5569085029537161  0.1121032484600978  0.3033827749362213   T   T   T
  0.4468278221284365  0.2197701160501456  0.3829351914212615   T   T   T
  0.3358918307572171 -0.0014971637885659  0.2270529372705806   T   T   T
  0.5584148171069556  0.1107534247832764  0.0756232261836402   F   F   F
  0.6666214831706767 -0.0000910336586046  0.9953500826590251   T   T   T
  0.7777747478627194  0.2222154957255069  0.1538870120895207   F   F   F
  0.8885287455069387  0.1121032484607333  0.3033827749362071   T   T   T
  0.7762384761564647  0.2191429523126723  0.3829984129093900   T   T   T
  0.6620585637451599 -0.0092168725099255  0.2325381236927772   T   T   T
  0.8856726076764342  0.1107534247835119  0.0756232261836371   F   F   F
  0.0009216302142440  0.3338656120871541  0.9967468206002882   T   T   T
  0.1101946209889149  0.5546623315969387  0.1498127888534377   F   F   F
  0.2430311678251538  0.4539266846683234  0.3117819490914585   T   T   T
  0.1108626961426079  0.5590670475954613  0.3822745751888157   T   T   T
  0.0087119076605068  0.3379637275926582  0.2326205881922354   T   T   T
  0.2234411531742157  0.4445881942009067  0.0764004692199759   F   F   F
  0.3334231483583132  0.3335132967167221  0.9963691442390159   T   T   T
  0.4472199189541928  0.5611078379086174  0.1496855912103634   F   F   F
  0.5442295168422561  0.4539266846671376  0.3117819490913905   T   T   T
  0.3331144837493658  0.3328959674990463  0.2188518652781190   T   T   T
  0.5544810410264609  0.4445881942006859  0.0764004692199691   F   F   F
  0.6662779818727720  0.3338656120870785  0.9967468206002875   T   T   T
  0.7778007106078125  0.5546623315967235  0.1498127888534491   F   F   F
  0.8879497630230883  0.4425655260461088  0.3043583532423706   T   T   T
  0.7815373514529685  0.5590670475962275  0.3822745751888396   T   T   T
  0.6625858199318045  0.3379637275921349  0.2326205881922145   T   T   T
  0.8876659147526809  0.4419978295054186  0.0766010987790604   F   F   F
 -0.0005335940726789  0.6655998118544700  0.9971950739958552   T   T   T
  0.1105390224651958  0.8877450449300233  0.1479151441072511   F   F   F
  0.2194545437234547  0.7793897300616681  0.3015675333484456   T   T   T
  0.1107459821453903  0.8881589642907467  0.3830561934448608   T   T   T
 -0.0002749711820643  0.6661170576356664  0.2284537660459659   T   T   T
  0.2232350960197357  0.7781649725244548  0.0748164739807685   F   F   F
  0.3327166878114468  0.6657585882320791  0.9962483894743943   T   T   T
  0.4460123585241327  0.8885825132071945  0.1490406183715184   F   F   F
  0.5454406748339470  0.7575473496686712  0.3123000540890775   T   T   T
  0.4419170208672601  0.8893672042212251  0.3809861362417115   T   T   T
  0.3318477966843101  0.6683744057154837  0.2291408689686423   T   T   T
  0.5559931443340159  0.7786522886680635  0.0747353170192201   F   F   F
  0.6663749004207106  0.6657585882320270  0.9962483894743959   T   T   T
  0.7759031546832804  0.8885825132075038  0.1490406183715113   F   F   F
  0.8932681863394122  0.7793897300629664  0.3015675333484891   T   T   T
  0.7807831833546531  0.8893672042216777  0.3809861362417271   T   T   T
  0.6698596090312064  0.6683744057160123  0.2291408689686700   T   T   T
  0.8882628765048793  0.7781649725244579  0.0748164739807726   F   F   F
  0.3321489969828137  0.3309649939654132  0.3490112163955874   T   T   T
  0.0070683155682630  0.0055649260674629  0.3416963951515454   T   T   T
  0.2225274367339366  0.1117218734688752  0.1890318616756306   F   F   F
  0.1107772653446532  0.2223417026223671  0.0365482199872354   F   F   F
  0.3318296104990843  0.0055649260687771  0.3416963951515441   T   T   T
  0.5549697843787342  0.1103373803090226  0.1904270544491513   F   F   F
  0.4448974372777287  0.2223417026225124  0.0365482199872405   F   F   F
  0.6669048385724092  0.0004756771470973  0.3443521017284134   T   T   T
  0.8887015959293617  0.1103373803080395  0.1904270544491646   F   F   F
  0.7776456618700610  0.2219573237400382  0.0365806481051895   F   F   F
  0.0036597403393767  0.3320869293781553  0.3441785828797066   T   T   T
  0.2245553174881985  0.4430615803347049  0.1900041496565967   F   F   F
  0.1108555129294218  0.5546897242497063  0.0367521756388735   F   F   F
  0.5518402628480064  0.4430615803354366  0.1900041496566103   F   F   F
  0.4443420954117060  0.5553521908232322  0.0354998511733822   F   F   F
  0.6617611890390663  0.3320869293781806  0.3441785828797221   T   T   T
  0.8892064808001059  0.4450789615998865  0.1915467937525376   F   F   F
  0.7771672113203976  0.5546897242499169  0.0367521756388780   F   F   F
  0.0002066791614826  0.6670803583235556  0.3427678099027725   T   T   T
  0.2217996618792983  0.7781560965902720  0.1871498303147064   F   F   F
  0.1113180458912833  0.8893030917827329  0.0351866533430796   F   F   F
  0.3237290487093543  0.6734040144349391  0.3390856397848990   T   T   T
  0.5551365505641092  0.7769391011280635  0.1887862966522013   F   F   F
  0.4454068263715016  0.8891160206756742  0.0353584749988073   F   F   F
  0.6830079657274402  0.6734040144349965  0.3390856397848529   T   T   T
  0.8896894347103683  0.7781560965900219  0.1871498303147091   F   F   F
  0.7770421943041166  0.8891160206756825  0.0353584749988010   F   F   F
0.3321489969828137 0.3309649939654132 0.4149011 T T T
0.446598 0.216020 0.433410 T T T 
 
  0.00000000E+00  0.00000000E+00  0.00000000E+00
  0.00000000E+00  0.00000000E+00  0.00000000E+00
  0.00000000E+00  0.00000000E+00  0.00000000E+00
  0.00000000E+00  0.00000000E+00  0.00000000E+00
  0.00000000E+00  0.00000000E+00  0.00000000E+00
  0.00000000E+00  0.00000000E+00  0.00000000E+00
  0.00000000E+00  0.00000000E+00  0.00000000E+00
  0.00000000E+00  0.00000000E+00  0.00000000E+00
  0.00000000E+00  0.00000000E+00  0.00000000E+00
  0.00000000E+00  0.00000000E+00  0.00000000E+00
  0.00000000E+00  0.00000000E+00  0.00000000E+00
  0.00000000E+00  0.00000000E+00  0.00000000E+00
  0.00000000E+00  0.00000000E+00  0.00000000E+00
  0.00000000E+00  0.00000000E+00  0.00000000E+00
  0.00000000E+00  0.00000000E+00  0.00000000E+00
  0.00000000E+00  0.00000000E+00  0.00000000E+00
  0.00000000E+00  0.00000000E+00  0.00000000E+00
  0.00000000E+00  0.00000000E+00  0.00000000E+00
  0.00000000E+00  0.00000000E+00  0.00000000E+00
  0.00000000E+00  0.00000000E+00  0.00000000E+00
  0.00000000E+00  0.00000000E+00  0.00000000E+00
  0.00000000E+00  0.00000000E+00  0.00000000E+00
  0.00000000E+00  0.00000000E+00  0.00000000E+00
  0.00000000E+00  0.00000000E+00  0.00000000E+00
  0.00000000E+00  0.00000000E+00  0.00000000E+00
  0.00000000E+00  0.00000000E+00  0.00000000E+00
  0.00000000E+00  0.00000000E+00  0.00000000E+00
  0.00000000E+00  0.00000000E+00  0.00000000E+00
  0.00000000E+00  0.00000000E+00  0.00000000E+00
  0.00000000E+00  0.00000000E+00  0.00000000E+00
  0.00000000E+00  0.00000000E+00  0.00000000E+00
  0.00000000E+00  0.00000000E+00  0.00000000E+00
  0.00000000E+00  0.00000000E+00  0.00000000E+00
  0.00000000E+00  0.00000000E+00  0.00000000E+00
  0.00000000E+00  0.00000000E+00  0.00000000E+00
  0.00000000E+00  0.00000000E+00  0.00000000E+00
  0.00000000E+00  0.00000000E+00  0.00000000E+00
  0.00000000E+00  0.00000000E+00  0.00000000E+00
  0.00000000E+00  0.00000000E+00  0.00000000E+00
  0.00000000E+00  0.00000000E+00  0.00000000E+00
  0.00000000E+00  0.00000000E+00  0.00000000E+00
  0.00000000E+00  0.00000000E+00  0.00000000E+00
  0.00000000E+00  0.00000000E+00  0.00000000E+00
  0.00000000E+00  0.00000000E+00  0.00000000E+00
  0.00000000E+00  0.00000000E+00  0.00000000E+00
  0.00000000E+00  0.00000000E+00  0.00000000E+00
  0.00000000E+00  0.00000000E+00  0.00000000E+00
  0.00000000E+00  0.00000000E+00  0.00000000E+00
  0.00000000E+00  0.00000000E+00  0.00000000E+00
  0.00000000E+00  0.00000000E+00  0.00000000E+00
  0.00000000E+00  0.00000000E+00  0.00000000E+00
  0.00000000E+00  0.00000000E+00  0.00000000E+00
  0.00000000E+00  0.00000000E+00  0.00000000E+00
  0.00000000E+00  0.00000000E+00  0.00000000E+00
  0.00000000E+00  0.00000000E+00  0.00000000E+00
  0.00000000E+00  0.00000000E+00  0.00000000E+00
  0.00000000E+00  0.00000000E+00  0.00000000E+00
  0.00000000E+00  0.00000000E+00  0.00000000E+00
  0.00000000E+00  0.00000000E+00  0.00000000E+00
  0.00000000E+00  0.00000000E+00  0.00000000E+00
  0.00000000E+00  0.00000000E+00  0.00000000E+00
  0.00000000E+00  0.00000000E+00  0.00000000E+00
  0.00000000E+00  0.00000000E+00  0.00000000E+00
  0.00000000E+00  0.00000000E+00  0.00000000E+00
  0.00000000E+00  0.00000000E+00  0.00000000E+00
  0.00000000E+00  0.00000000E+00  0.00000000E+00
  0.00000000E+00  0.00000000E+00  0.00000000E+00
  0.00000000E+00  0.00000000E+00  0.00000000E+00
  0.00000000E+00  0.00000000E+00  0.00000000E+00
  0.00000000E+00  0.00000000E+00  0.00000000E+00
  0.00000000E+00  0.00000000E+00  0.00000000E+00
  0.00000000E+00  0.00000000E+00  0.00000000E+00
  0.00000000E+00  0.00000000E+00  0.00000000E+00
  0.00000000E+00  0.00000000E+00  0.00000000E+00
  0.00000000E+00  0.00000000E+00  0.00000000E+00
  0.00000000E+00  0.00000000E+00  0.00000000E+00
  0.00000000E+00  0.00000000E+00  0.00000000E+00
  0.00000000E+00  0.00000000E+00  0.00000000E+00
  0.00000000E+00  0.00000000E+00  0.00000000E+00
  0.00000000E+00  0.00000000E+00  0.00000000E+00
