CeO2-you-111-you-Co                     
   1.00000000000000     
     9.8945933866637095   -5.7126465305168361   -0.0000000015572387
    -0.0449183006220818   11.3474902766240433   -0.0297441609546280
    -0.0321439100283845   -0.0556748758751002   20.7793442261878951
   O    Co   Ce H
    53     1    26 1
Selective dynamics
Direct
 -0.0001257956964558 -0.0002645458805994  0.9931124813948489   T   T   T
  0.1067099383480540  0.2207492918860885  0.1479829113953672   T   T   T
  0.2361234143477764  0.1389138287012595  0.3095332233859508   T   T   T
  0.0643839132905491  0.2029111772763803  0.3966004490985968   T   T   T
  0.0054783859460578  0.0023579335643474  0.2301589751984033   T   T   T
  0.2224640895529386  0.1115951791057625  0.0733813531802913   T   T   T
  0.3331942498158387 -0.0002645458805779  0.9931124813949410   T   T   T
  0.4473723535387921  0.2207492918861555  0.1479829113955057   T   T   T
  0.5579002851866008  0.1088053113762245  0.3022812853038972   T   T   T
  0.4718602639895306  0.2029111772775771  0.3966004490995422   T   T   T
  0.3302125476186782  0.0023579335638104  0.2301589751983251   T   T   T
  0.5574495389338117  0.1103919427236020  0.0732967891596467   T   T   T
  0.6660810089999321 -0.0011719820004524  0.9920624051402920   T   T   T
  0.7772168021482493  0.2210996042964464  0.1530578999865283   T   T   T
  0.8842390261907936  0.1088053113765340  0.3022812853036929   T   T   T
  0.7752144665583555  0.2170949331159487  0.3862674349618141   T   T   T
  0.6610182025024720 -0.0112975949966546  0.2318519479992260   T   T   T
  0.8862764037894485  0.1103919427229711  0.0732967891594050   T   T   T
 -0.0002411800320387  0.3327198352841489  0.9931894393558586   T   T   T
  0.1090930361987751  0.5552513834576212  0.1491565904371879   T   T   T
  0.2459810689530580  0.4451135603208944  0.3153894635573254   T   T   T
  0.1129889513594580  0.5610354839089493  0.3860116577810244   T   T   T
  0.0082728096084666  0.3381903851980885  0.2328310675366392   T   T   T
  0.2223055793693829  0.4448375774373990  0.0740000171446799   T   T   T
  0.3333932467217013  0.3334534934436643  0.9936824367783638   T   T   T
  0.4468354805423951  0.5603389610868049  0.1478099549506434   T   T   T
  0.5324664913657586  0.4451135603164009  0.3153894635565728   T   T   T
  0.3354489923016472  0.3375649846051051  0.2193160262136915   T   T   T
  0.5558659980678212  0.4448375774370843  0.0740000171446129   T   T   T
  0.6662950153155552  0.3327198352838746  0.9931894393558427   T   T   T
  0.7794913472582828  0.5552513834575457  0.1491565904372687   T   T   T
  0.8888478856116172  0.4443617712231953  0.3069421900759328   T   T   T
  0.7813795325494287  0.5610354839093922  0.3860116577809574   T   T   T
  0.6632515755884584  0.3381903851971205  0.2328310675365182   T   T   T
  0.8874680260063543  0.4416020520121813  0.0742379416424454   T   T   T
 -0.0013825672864557  0.6639018654262869  0.9929427426852117   T   T   T
  0.1106598655817400  0.8879867311625008  0.1472981326810061   T   T   T
  0.2207652240138334  0.7801362285989919  0.3042793486626595   T   T   T
  0.1146169211445915  0.8959008422899046  0.3844967182964410   T   T   T
  0.0006789538117946  0.6680249076239529  0.2296522385315176   T   T   T
  0.2216879711447813  0.7772497454898709  0.0724673944485678   T   T   T
  0.3335305032401843  0.6660895338736347  0.9931626487293794   T   T   T
  0.4429857694692224  0.8884322270639616  0.1492082069396125   T   T   T
  0.5437978047767664  0.7542616095538046  0.3136446491592000   T   T   T
  0.4431864731124655  0.8876484725992450  0.3848035348638777   T   T   T
  0.3310073524414709  0.6677206293925466  0.2298590931108498   T   T   T
  0.5566188386530539  0.7799036773064970  0.0735161507614322   T   T   T
  0.6658920306338091  0.6660895338735202  0.9931626487293421   T   T   T
  0.7787794575949190  0.8884322270636900  0.1492082069396038   T   T   T
  0.8927040045871476  0.7801362286003568  0.3042793486627475   T   T   T
  0.7777949994876424  0.8876484725999416  0.3848035348638958   T   T   T
  0.6700462769513751  0.6677206293928094  0.2298590931106972   T   T   T
  0.8888947743452913  0.7772497454895442  0.0724673944484638   T   T   T
  0.3351763710304650  0.3370197420688488  0.3160163546582158   T   T   T
  0.0063308314774373  0.0111430053219186  0.3479092040189005   T   T   T
  0.2229301282678655  0.1125272565367827  0.1888353574849446   T   T   T
  0.1103187091796045  0.2215341870076962  0.0335357073712587   T   T   T
  0.3381451738431457  0.0111430053228268  0.3479092040188052   T   T   T
  0.5544912625572319  0.1105291371977545  0.1905436036978087   T   T   T
  0.4445484778282660  0.2215341870081147  0.0335357073713438   T   T   T
  0.6652392864842203 -0.0028554270303112  0.3466827274521462   T   T   T
  0.8893718746393517  0.1105291371965740  0.1905436036977523   T   T   T
  0.7771201104387121  0.2209062208777895  0.0337223649481422   T   T   T
 -0.0011267119378233  0.3286012747305972  0.3491213224902329   T   T   T
  0.2219869375667497  0.4452443976418364  0.1884661036588584   T   T   T
  0.1096141987460351  0.5539528671630479  0.0335361815640054   T   T   T
  0.5565914600759717  0.4452443976416433  0.1884661036588188   T   T   T
  0.4445635569015957  0.5557951138026251  0.0328262537049655   T   T   T
  0.6630619866691514  0.3286012747296480  0.3491213224903380   T   T   T
  0.8887017687773268  0.4440695375537158  0.1922024283689595   T   T   T
  0.7776716684172028  0.5539528671629038  0.0335361815640055   T   T   T
  0.0015053325840161  0.6696776651681469  0.3455696557391825   T   T   T
  0.2214680466231095  0.7795232429848530  0.1881457403516427   T   T   T
  0.1107300126787952  0.8881270253576593  0.0323996760990169   T   T   T
  0.3223880666464711  0.6714568001240793  0.3419682062170850   T   T   T
  0.5547004329749590  0.7760668659496133  0.1889665882763907   T   T   T
  0.4446050202393079  0.8884264821390222  0.0328636499310476   T   T   T
  0.6824017334796746  0.6714568001249100  0.3419682062174502   T   T   T
  0.8913881963608311  0.7795232429840747  0.1881457403515465   T   T   T
  0.7771544618991517  0.8884264821382717  0.0328636499308962   T   T   T
0.446598 0.216020 0.433410 T T T 
 
  0.00000000E+00  0.00000000E+00  0.00000000E+00
  0.00000000E+00  0.00000000E+00  0.00000000E+00
  0.00000000E+00  0.00000000E+00  0.00000000E+00
  0.00000000E+00  0.00000000E+00  0.00000000E+00
  0.00000000E+00  0.00000000E+00  0.00000000E+00
  0.00000000E+00  0.00000000E+00  0.00000000E+00
  0.00000000E+00  0.00000000E+00  0.00000000E+00
  0.00000000E+00  0.00000000E+00  0.00000000E+00
  0.00000000E+00  0.00000000E+00  0.00000000E+00
  0.00000000E+00  0.00000000E+00  0.00000000E+00
  0.00000000E+00  0.00000000E+00  0.00000000E+00
  0.00000000E+00  0.00000000E+00  0.00000000E+00
  0.00000000E+00  0.00000000E+00  0.00000000E+00
  0.00000000E+00  0.00000000E+00  0.00000000E+00
  0.00000000E+00  0.00000000E+00  0.00000000E+00
  0.00000000E+00  0.00000000E+00  0.00000000E+00
  0.00000000E+00  0.00000000E+00  0.00000000E+00
  0.00000000E+00  0.00000000E+00  0.00000000E+00
  0.00000000E+00  0.00000000E+00  0.00000000E+00
  0.00000000E+00  0.00000000E+00  0.00000000E+00
  0.00000000E+00  0.00000000E+00  0.00000000E+00
  0.00000000E+00  0.00000000E+00  0.00000000E+00
  0.00000000E+00  0.00000000E+00  0.00000000E+00
  0.00000000E+00  0.00000000E+00  0.00000000E+00
  0.00000000E+00  0.00000000E+00  0.00000000E+00
  0.00000000E+00  0.00000000E+00  0.00000000E+00
  0.00000000E+00  0.00000000E+00  0.00000000E+00
  0.00000000E+00  0.00000000E+00  0.00000000E+00
  0.00000000E+00  0.00000000E+00  0.00000000E+00
  0.00000000E+00  0.00000000E+00  0.00000000E+00
  0.00000000E+00  0.00000000E+00  0.00000000E+00
  0.00000000E+00  0.00000000E+00  0.00000000E+00
  0.00000000E+00  0.00000000E+00  0.00000000E+00
  0.00000000E+00  0.00000000E+00  0.00000000E+00
  0.00000000E+00  0.00000000E+00  0.00000000E+00
  0.00000000E+00  0.00000000E+00  0.00000000E+00
  0.00000000E+00  0.00000000E+00  0.00000000E+00
  0.00000000E+00  0.00000000E+00  0.00000000E+00
  0.00000000E+00  0.00000000E+00  0.00000000E+00
  0.00000000E+00  0.00000000E+00  0.00000000E+00
  0.00000000E+00  0.00000000E+00  0.00000000E+00
  0.00000000E+00  0.00000000E+00  0.00000000E+00
  0.00000000E+00  0.00000000E+00  0.00000000E+00
  0.00000000E+00  0.00000000E+00  0.00000000E+00
  0.00000000E+00  0.00000000E+00  0.00000000E+00
  0.00000000E+00  0.00000000E+00  0.00000000E+00
  0.00000000E+00  0.00000000E+00  0.00000000E+00
  0.00000000E+00  0.00000000E+00  0.00000000E+00
  0.00000000E+00  0.00000000E+00  0.00000000E+00
  0.00000000E+00  0.00000000E+00  0.00000000E+00
  0.00000000E+00  0.00000000E+00  0.00000000E+00
  0.00000000E+00  0.00000000E+00  0.00000000E+00
  0.00000000E+00  0.00000000E+00  0.00000000E+00
  0.00000000E+00  0.00000000E+00  0.00000000E+00
  0.00000000E+00  0.00000000E+00  0.00000000E+00
  0.00000000E+00  0.00000000E+00  0.00000000E+00
  0.00000000E+00  0.00000000E+00  0.00000000E+00
  0.00000000E+00  0.00000000E+00  0.00000000E+00
  0.00000000E+00  0.00000000E+00  0.00000000E+00
  0.00000000E+00  0.00000000E+00  0.00000000E+00
  0.00000000E+00  0.00000000E+00  0.00000000E+00
  0.00000000E+00  0.00000000E+00  0.00000000E+00
  0.00000000E+00  0.00000000E+00  0.00000000E+00
  0.00000000E+00  0.00000000E+00  0.00000000E+00
  0.00000000E+00  0.00000000E+00  0.00000000E+00
  0.00000000E+00  0.00000000E+00  0.00000000E+00
  0.00000000E+00  0.00000000E+00  0.00000000E+00
  0.00000000E+00  0.00000000E+00  0.00000000E+00
  0.00000000E+00  0.00000000E+00  0.00000000E+00
  0.00000000E+00  0.00000000E+00  0.00000000E+00
  0.00000000E+00  0.00000000E+00  0.00000000E+00
  0.00000000E+00  0.00000000E+00  0.00000000E+00
  0.00000000E+00  0.00000000E+00  0.00000000E+00
  0.00000000E+00  0.00000000E+00  0.00000000E+00
  0.00000000E+00  0.00000000E+00  0.00000000E+00
  0.00000000E+00  0.00000000E+00  0.00000000E+00
  0.00000000E+00  0.00000000E+00  0.00000000E+00
  0.00000000E+00  0.00000000E+00  0.00000000E+00
  0.00000000E+00  0.00000000E+00  0.00000000E+00
  0.00000000E+00  0.00000000E+00  0.00000000E+00
