CeO2-you-111-you-Cd                     
   1.00000000000000     
     9.8429070363730968   -5.6719636456314451   -0.0052352207223810
     0.0093892309493896   11.3601879190010813    0.0052352198435961
    -0.0053754749647738    0.0093105953355276   21.1931759225737828
   O    Cd   Ce   H 
    53     1    26     2
Selective dynamics
Direct
  0.0000049927924593 -0.0001699619666239  0.9961435119622780   T   T   T
  0.1078124171511732  0.2198493011455724  0.1468656951737586   F   F   F
  0.2202386179248927  0.1128809773209815  0.3041241053993406   T   T   T
  0.1041914683149156  0.2311230344161889  0.3791660249429099   T   T   T
  0.9995190532930224  0.0003387335656521  0.2290590030043392   T   T   T
  0.2219066724493928  0.1106527457673536  0.0757352155497060   F   F   F
  0.3351516781191419  0.0013541692630908  0.9975063561072819   T   T   T
  0.4427923233267634  0.2238736766721914  0.1513268156030421   F   F   F
  0.5601564170229471  0.1184344605270513  0.3048566289775385   T   T   T
  0.4638536381969744  0.2231386147223093  0.4051050337234178   T   T   T
  0.3344751929176258 -0.0001199901642305  0.2276308983201464   T   T   T
  0.5568405332548565  0.1098264667451261  0.0784871946988304   F   F   F
  0.6659984740694110  0.0009544446377997  0.9961323303267738   T   T   T
  0.7850561110647334  0.2263050740075556  0.1520987447914095   F   F   F
  0.8830649914054801  0.1078451691892383  0.3029023472349908   T   T   T
  0.7783014145165231  0.2228254272120317  0.3862158699824023   T   T   T
  0.6659678569277395  0.0008470905860022  0.2281313962209184   T   T   T
  0.8869518222993165  0.1098624732580333  0.0748313879046876   F   F   F
  0.9985463339599493  0.3324911110117227  0.9960460037544150   T   T   T
  0.1107808366017835  0.5558861633963588  0.1482413588146301   F   F   F
  0.1204822689550556  0.5456408125022092  0.3765828478374181   T   T   T
  0.0192626706325369  0.3417854626474551  0.2353037722416686   T   T   T
  0.2226342268561226  0.4440317731447365  0.0725254348822304   F   F   F
  0.3343097663460110  0.3320608061155197  0.9960185674865376   T   T   T
  0.4468166988578801  0.5588545828499107  0.1468656951735952   F   F   F
  0.5587462617503298  0.4394144608569065  0.3043870254014535   T   T   T
  0.4356132220040719  0.5581768825631904  0.3756584981584183   T   T   T
  0.3275221094328106  0.3429358752066859  0.2289613524804376   T   T   T
  0.5560142542326147  0.4447593275504289  0.0757352155497344   F   F   F
  0.6658530141158890  0.3317839412252035  0.9975170742373807   T   T   T
  0.7786141510504763  0.5556048509161187  0.1514535584938415   F   F   F
  0.8876707930278684  0.4435132469985109  0.3040011699524965   T   T   T
  0.7804328566367297  0.5572027309435572  0.3828299315817434   T   T   T
  0.6687235490610171  0.3339055582544264  0.2280736357524807   T   T   T
  0.8887202100928988  0.4446714462174839  0.0757706998191594   F   F   F
  0.9996919335129537  0.6670778593817586  0.9965012451614470   T   T   T
  0.1110621490826702  0.8880528489480000  0.1514535584938130   F   F   F
  0.2214203282756145  0.7760357485506085  0.3043209573226573   T   T   T
  0.0936950134999697  0.8792392346598983  0.3850797867025092   T   T   T
  0.0001499353874914  0.6654885756819362  0.2296691003715407   T   T   T
  0.2219945537822809  0.7779467899066006  0.0757706998191097   F   F   F
  0.3339103426094721  0.6686101337029715  0.9960891667540244   T   T   T
  0.4403609259930121  0.8816108889352208  0.1520987447915232   F   F   F
  0.5589798912704150  0.7824346735243258  0.3016024813253699   T   T   T
  0.4538335307775729  0.8849108597546647  0.3871334175643108   T   T   T
  0.3250146009718163  0.6475197725141191  0.2348894212791403   T   T   T
  0.5568045267425887  0.7797151777010001  0.0748313879046449   F   F   F
  0.6673044921845120  0.6669853302972123  0.9961238803544169   T   T   T
  0.7777200463856460  0.8889469536147558  0.1500422365010650   F   F   F
  0.8866523579700274  0.7758687493034822  0.3014038151667559   T   T   T
  0.7766285910493600  0.8858869181016931  0.3820013188893281   T   T   T
  0.6634527192446937  0.6642572302993867  0.2295274871193935   T   T   T
  0.8890079120485694  0.7776590879510152  0.0760951563401377   F   F   F
  0.3346010214169464  0.3297783219600025  0.3481205182433920   T   T   T
  0.0003255383423148  0.0001387415987651  0.3421198335620340   T   T   T
  0.2228160109791020  0.1136210008880454  0.1918388681182961   F   F   F
  0.1100717513723737  0.2201744201912774  0.0343116912473249   F   F   F
  0.3299541478901664 -0.0002436429804340  0.3469395259070911   T   T   T
  0.5556340746969539  0.1110329253053095  0.1906456506284897   F   F   F
  0.4443221284447745  0.2223438715551396  0.0375543471129660   F   F   F
  0.6659221937799276 -0.0005980525120925  0.3438857792289630   T   T   T
  0.8895683715935121  0.1112971344139311  0.1898344232101934   F   F   F
  0.7777113748222320  0.2222252244709537  0.0365726760688005   F   F   F
  0.9892509447260174  0.3253602062872248  0.3467315182988384   T   T   T
  0.2237479143641039  0.4429180856296071  0.1816323432526090   F   F   F
  0.1100197016956059  0.5566472983041777  0.0348967841234611   F   F   F
  0.5530459991106866  0.4438499890196823  0.1918388681182321   F   F   F
  0.4464915798081748  0.5565952486270902  0.0343116912473818   F   F   F
  0.6714936842619397  0.3374025507015520  0.3423170607695211   T   T   T
  0.8899718793640332  0.4448712411565197  0.1910109379091267   F   F   F
  0.7772946511062528  0.5548594795878330  0.0375130798640626   F   F   F
  0.0000430852973380  0.6686486943512097  0.3423645860191706   T   T   T
  0.2217947588465066  0.7766951206427350  0.1910109379091338   F   F   F
  0.1118075204131372  0.8893723488944687  0.0375130798640555   F   F   F
  0.3418643244864302  0.6783259548818110  0.3457690061185426   T   T   T
  0.5553698655814046  0.7770986284055894  0.1898344232102289   F   F   F
  0.4444407755285269  0.8889556251779496  0.0365726760688148   F   F   F
  0.6645751093845641  0.6643095474955827  0.3416026869112500   T   T   T
  0.8887626002639166  0.7779043997378281  0.1892097585584267   F   F   F
  0.7772382438301477  0.8894287561692664  0.0360885898091468   F   F   F
  0.3182076231219703  0.3380239647638490  0.4408007132712333   T   T   T
  0.4592843317110324  0.2425032501014275  0.4494190036685461   T   T   T
 
  0.00000000E+00  0.00000000E+00  0.00000000E+00
  0.00000000E+00  0.00000000E+00  0.00000000E+00
  0.00000000E+00  0.00000000E+00  0.00000000E+00
  0.00000000E+00  0.00000000E+00  0.00000000E+00
  0.00000000E+00  0.00000000E+00  0.00000000E+00
  0.00000000E+00  0.00000000E+00  0.00000000E+00
  0.00000000E+00  0.00000000E+00  0.00000000E+00
  0.00000000E+00  0.00000000E+00  0.00000000E+00
  0.00000000E+00  0.00000000E+00  0.00000000E+00
  0.00000000E+00  0.00000000E+00  0.00000000E+00
  0.00000000E+00  0.00000000E+00  0.00000000E+00
  0.00000000E+00  0.00000000E+00  0.00000000E+00
  0.00000000E+00  0.00000000E+00  0.00000000E+00
  0.00000000E+00  0.00000000E+00  0.00000000E+00
  0.00000000E+00  0.00000000E+00  0.00000000E+00
  0.00000000E+00  0.00000000E+00  0.00000000E+00
  0.00000000E+00  0.00000000E+00  0.00000000E+00
  0.00000000E+00  0.00000000E+00  0.00000000E+00
  0.00000000E+00  0.00000000E+00  0.00000000E+00
  0.00000000E+00  0.00000000E+00  0.00000000E+00
  0.00000000E+00  0.00000000E+00  0.00000000E+00
  0.00000000E+00  0.00000000E+00  0.00000000E+00
  0.00000000E+00  0.00000000E+00  0.00000000E+00
  0.00000000E+00  0.00000000E+00  0.00000000E+00
  0.00000000E+00  0.00000000E+00  0.00000000E+00
  0.00000000E+00  0.00000000E+00  0.00000000E+00
  0.00000000E+00  0.00000000E+00  0.00000000E+00
  0.00000000E+00  0.00000000E+00  0.00000000E+00
  0.00000000E+00  0.00000000E+00  0.00000000E+00
  0.00000000E+00  0.00000000E+00  0.00000000E+00
  0.00000000E+00  0.00000000E+00  0.00000000E+00
  0.00000000E+00  0.00000000E+00  0.00000000E+00
  0.00000000E+00  0.00000000E+00  0.00000000E+00
  0.00000000E+00  0.00000000E+00  0.00000000E+00
  0.00000000E+00  0.00000000E+00  0.00000000E+00
  0.00000000E+00  0.00000000E+00  0.00000000E+00
  0.00000000E+00  0.00000000E+00  0.00000000E+00
  0.00000000E+00  0.00000000E+00  0.00000000E+00
  0.00000000E+00  0.00000000E+00  0.00000000E+00
  0.00000000E+00  0.00000000E+00  0.00000000E+00
  0.00000000E+00  0.00000000E+00  0.00000000E+00
  0.00000000E+00  0.00000000E+00  0.00000000E+00
  0.00000000E+00  0.00000000E+00  0.00000000E+00
  0.00000000E+00  0.00000000E+00  0.00000000E+00
  0.00000000E+00  0.00000000E+00  0.00000000E+00
  0.00000000E+00  0.00000000E+00  0.00000000E+00
  0.00000000E+00  0.00000000E+00  0.00000000E+00
  0.00000000E+00  0.00000000E+00  0.00000000E+00
  0.00000000E+00  0.00000000E+00  0.00000000E+00
  0.00000000E+00  0.00000000E+00  0.00000000E+00
  0.00000000E+00  0.00000000E+00  0.00000000E+00
  0.00000000E+00  0.00000000E+00  0.00000000E+00
  0.00000000E+00  0.00000000E+00  0.00000000E+00
  0.00000000E+00  0.00000000E+00  0.00000000E+00
  0.00000000E+00  0.00000000E+00  0.00000000E+00
  0.00000000E+00  0.00000000E+00  0.00000000E+00
  0.00000000E+00  0.00000000E+00  0.00000000E+00
  0.00000000E+00  0.00000000E+00  0.00000000E+00
  0.00000000E+00  0.00000000E+00  0.00000000E+00
  0.00000000E+00  0.00000000E+00  0.00000000E+00
  0.00000000E+00  0.00000000E+00  0.00000000E+00
  0.00000000E+00  0.00000000E+00  0.00000000E+00
  0.00000000E+00  0.00000000E+00  0.00000000E+00
  0.00000000E+00  0.00000000E+00  0.00000000E+00
  0.00000000E+00  0.00000000E+00  0.00000000E+00
  0.00000000E+00  0.00000000E+00  0.00000000E+00
  0.00000000E+00  0.00000000E+00  0.00000000E+00
  0.00000000E+00  0.00000000E+00  0.00000000E+00
  0.00000000E+00  0.00000000E+00  0.00000000E+00
  0.00000000E+00  0.00000000E+00  0.00000000E+00
  0.00000000E+00  0.00000000E+00  0.00000000E+00
  0.00000000E+00  0.00000000E+00  0.00000000E+00
  0.00000000E+00  0.00000000E+00  0.00000000E+00
  0.00000000E+00  0.00000000E+00  0.00000000E+00
  0.00000000E+00  0.00000000E+00  0.00000000E+00
  0.00000000E+00  0.00000000E+00  0.00000000E+00
  0.00000000E+00  0.00000000E+00  0.00000000E+00
  0.00000000E+00  0.00000000E+00  0.00000000E+00
  0.00000000E+00  0.00000000E+00  0.00000000E+00
  0.00000000E+00  0.00000000E+00  0.00000000E+00
  0.00000000E+00  0.00000000E+00  0.00000000E+00
  0.00000000E+00  0.00000000E+00  0.00000000E+00
