CeO2-you-111-you-Ce                     
   1.00000000000000     
     9.8446160961585392   -5.6837921239532694    0.0000000000000000
    -0.0000000001922008   11.3675822471202714    0.0000000000000000
     0.0000000000000000    0.0000000000000000   21.3038601004774790
   O    Ce   Ce   H 
    54     1    26     1
Selective dynamics
Direct
 -0.0000064610632190 -0.0000132973104584  0.9976750807971865   T   T   T
  0.1111111652554584  0.2222220826277379  0.1501494177078015   F   F   F
  0.2316765110769144  0.1167442789113995  0.3049951479682540   T   T   T
  0.1135932812867867  0.2242474116500708  0.3810495615775580   T   T   T
  0.0036005990130008  0.0017732818482080  0.2293826039770039   T   T   T
  0.2221880310104538  0.1110430620209115  0.0763119210027980   F   F   F
  0.3331875774944415  0.0000622494371552  0.9976734296041603   T   T   T
  0.4444439173722685  0.2222220826277379  0.1501494177078015   F   F   F
  0.5483835108418257  0.1064409716213127  0.3045714967697850   T   T   T
  0.4370490165508145  0.2167544266997415  0.4006048498617234   T   T   T
  0.3312250566684992 -0.0020474505721870  0.2288556357971382   T   T   T
  0.5555162333003594  0.1111507666996232  0.0763095763333865   F   F   F
  0.6668370184270328 -0.0001769144997011  0.9976879133760282   T   T   T
  0.7777741031144600  0.2222142062289265  0.1501592476898423   F   F   F
  0.8905541690260463  0.1098095117657449  0.3021299608870404   T   T   T
  0.7853517802347139  0.2145079671521921  0.3836922424041139   T   T   T
  0.6665765530157731  0.0003360123507247  0.2293747590155977   T   T   T
  0.8889685333992716  0.1111507666996303  0.0763095763333865   F   F   F
 -0.0000158588077652  0.3330231167548316  0.9976778761715711   T   T   T
  0.1111227128855816  0.5555442871144294  0.1501555836410802   F   F   F
  0.2227421383749238  0.4450755588511409  0.3031559389450215   T   T   T
  0.1129377511567725  0.5563199350184432  0.3829804578237486   T   T   T
  0.0002573877156045  0.3327093135057910  0.2289512974180424   T   T   T
  0.2221880310104396  0.4444779689895384  0.0763119210027980   F   F   F
  0.3331140395759230  0.3330212889424284  0.9976781925245592   T   T   T
  0.4444439173722614  0.5555558347445313  0.1501494177078015   F   F   F
  0.5457408236827445  0.4401067695988378  0.3052282106939220   T   T   T
  0.4404074338236560  0.5541105243780516  0.3829581301094660   T   T   T
  0.3312009225531286  0.3333815767240081  0.2286525759952907   T   T   T
  0.5556239379791137  0.4444779689895455  0.0763119210027980   F   F   F
  0.6666772448323058  0.3333128664650440  0.9974301958508848   T   T   T
  0.7777545742288368  0.5555442871144223  0.1501555836410802   F   F   F
  0.8952011992061685  0.4478605014931527  0.3032645606874840   T   T   T
  0.7843600485364819  0.5703984767467341  0.3834985236617975   T   T   T
  0.6670390046278224  0.3338564315579317  0.2279750993163649   T   T   T
  0.8888438432228654  0.4443536864457371  0.0763062132218195   F   F   F
  0.0000361319016901  0.6669479914182544  0.9977220680612160   T   T   T
  0.1111227128855816  0.8889124257711529  0.1501555836410802   F   F   F
  0.2220377607351560  0.7759489876867248  0.3030077087858993   T   T   T
  0.1128582373744519  0.8896020153654358  0.3813819527557886   T   T   T
  0.0000330706925405  0.6676658767462413  0.2288363631220231   T   T   T
  0.2223123135542906  0.7778231567771314  0.0763062132218195   F   F   F
  0.3334713647680400  0.6667374326750558  0.9974579440986471   T   T   T
  0.4444517937710728  0.8888928968855367  0.1501592476898423   F   F   F
  0.5558411457989705  0.7778803933395759  0.3040520570613418   T   T   T
  0.4416643372149242  0.8863064228531427  0.3833298282528722   T   T   T
  0.3345276586827759  0.6670085254627314  0.2292229573405541   T   T   T
  0.5555162333003736  0.7776984666007536  0.0763095763333865   F   F   F
  0.6667824008990176  0.6670191318256437  0.9976881822611611   T   T   T
  0.7777741031144600  0.8888928968855367  0.1501592476898423   F   F   F
  0.8904318083161987  0.7807792832676679  0.3020998775605116   T   T   T
  0.7807271141669284  0.8903389489685747  0.3814305019698656   T   T   T
  0.6662163454066686  0.6655365851780299  0.2295942212644306   T   T   T
  0.8888438432228440  0.7778231567771243  0.0763062132218195   F   F   F
  0.3299716006715672  0.3392909466877631  0.3410769030608815   T   T   T
  0.0015325200767741  0.0008873433319276  0.3416602729876136   T   T   T
  0.2223370400937270  0.1113410801874295  0.1896887479266880   F   F   F
  0.1111042861730667  0.2222186430865349  0.0371192550133301   F   F   F
  0.3305798620626272 -0.0082733794699899  0.3411600886796336   T   T   T
  0.5555485966658011  0.1111184033341956  0.1895963452040164   F   F   F
  0.4444473569134644  0.2222186430865349  0.0371192550133301   F   F   F
  0.6682544918168387  0.0002908733130845  0.3426556928105429   T   T   T
  0.8889038066683952  0.1111184033341956  0.1895963452040164   F   F   F
  0.7777899362442540  0.2222458724885144  0.0371184524554309   F   F   F
 -0.0005934897333406  0.3328091226953438  0.3425699365733419   T   T   T
  0.2223370400937767  0.4443289599062936  0.1896887479266880   F   F   F
  0.1111280727691479  0.5555389272308560  0.0371338505831815   F   F   F
  0.5553259198125033  0.4443289599062723  0.1896887479266880   F   F   F
  0.4444473569134644  0.5555627138269301  0.0371192550133301   F   F   F
  0.6725269299828649  0.3361701645102365  0.3452759638168745   T   T   T
  0.8889042904636923  0.4444745809273769  0.1895913490184640   F   F   F
  0.7777438544617041  0.5555389272308560  0.0371338505831815   F   F   F
 -0.0007495658182141  0.6666139923785822  0.3424942067750850   T   T   T
  0.2221914190726153  0.7777627095363044  0.1895913490184640   F   F   F
  0.1111280727691479  0.8889231455382927  0.0371338505831815   F   F   F
  0.3330223953038882  0.6664740029828671  0.3434937745816222   T   T   T
  0.5555485966658082  0.7777631933316087  0.1895963452040164   F   F   F
  0.4444201275114779  0.8888770637557428  0.0371184524554309   F   F   F
  0.6678535037121632  0.6675956129627660  0.3425938881018828   T   T   T
  0.8889042904636923  0.7777627095363115  0.1895913490184640   F   F   F
  0.7777899362442611  0.8888770637557428  0.0371184524554309   F   F   F
  0.4336442680321141  0.2143902200243554  0.4462866579380236   T   T   T
 
  0.00000000E+00  0.00000000E+00  0.00000000E+00
  0.00000000E+00  0.00000000E+00  0.00000000E+00
  0.00000000E+00  0.00000000E+00  0.00000000E+00
  0.00000000E+00  0.00000000E+00  0.00000000E+00
  0.00000000E+00  0.00000000E+00  0.00000000E+00
  0.00000000E+00  0.00000000E+00  0.00000000E+00
  0.00000000E+00  0.00000000E+00  0.00000000E+00
  0.00000000E+00  0.00000000E+00  0.00000000E+00
  0.00000000E+00  0.00000000E+00  0.00000000E+00
  0.00000000E+00  0.00000000E+00  0.00000000E+00
  0.00000000E+00  0.00000000E+00  0.00000000E+00
  0.00000000E+00  0.00000000E+00  0.00000000E+00
  0.00000000E+00  0.00000000E+00  0.00000000E+00
  0.00000000E+00  0.00000000E+00  0.00000000E+00
  0.00000000E+00  0.00000000E+00  0.00000000E+00
  0.00000000E+00  0.00000000E+00  0.00000000E+00
  0.00000000E+00  0.00000000E+00  0.00000000E+00
  0.00000000E+00  0.00000000E+00  0.00000000E+00
  0.00000000E+00  0.00000000E+00  0.00000000E+00
  0.00000000E+00  0.00000000E+00  0.00000000E+00
  0.00000000E+00  0.00000000E+00  0.00000000E+00
  0.00000000E+00  0.00000000E+00  0.00000000E+00
  0.00000000E+00  0.00000000E+00  0.00000000E+00
  0.00000000E+00  0.00000000E+00  0.00000000E+00
  0.00000000E+00  0.00000000E+00  0.00000000E+00
  0.00000000E+00  0.00000000E+00  0.00000000E+00
  0.00000000E+00  0.00000000E+00  0.00000000E+00
  0.00000000E+00  0.00000000E+00  0.00000000E+00
  0.00000000E+00  0.00000000E+00  0.00000000E+00
  0.00000000E+00  0.00000000E+00  0.00000000E+00
  0.00000000E+00  0.00000000E+00  0.00000000E+00
  0.00000000E+00  0.00000000E+00  0.00000000E+00
  0.00000000E+00  0.00000000E+00  0.00000000E+00
  0.00000000E+00  0.00000000E+00  0.00000000E+00
  0.00000000E+00  0.00000000E+00  0.00000000E+00
  0.00000000E+00  0.00000000E+00  0.00000000E+00
  0.00000000E+00  0.00000000E+00  0.00000000E+00
  0.00000000E+00  0.00000000E+00  0.00000000E+00
  0.00000000E+00  0.00000000E+00  0.00000000E+00
  0.00000000E+00  0.00000000E+00  0.00000000E+00
  0.00000000E+00  0.00000000E+00  0.00000000E+00
  0.00000000E+00  0.00000000E+00  0.00000000E+00
  0.00000000E+00  0.00000000E+00  0.00000000E+00
  0.00000000E+00  0.00000000E+00  0.00000000E+00
  0.00000000E+00  0.00000000E+00  0.00000000E+00
  0.00000000E+00  0.00000000E+00  0.00000000E+00
  0.00000000E+00  0.00000000E+00  0.00000000E+00
  0.00000000E+00  0.00000000E+00  0.00000000E+00
  0.00000000E+00  0.00000000E+00  0.00000000E+00
  0.00000000E+00  0.00000000E+00  0.00000000E+00
  0.00000000E+00  0.00000000E+00  0.00000000E+00
  0.00000000E+00  0.00000000E+00  0.00000000E+00
  0.00000000E+00  0.00000000E+00  0.00000000E+00
  0.00000000E+00  0.00000000E+00  0.00000000E+00
  0.00000000E+00  0.00000000E+00  0.00000000E+00
  0.00000000E+00  0.00000000E+00  0.00000000E+00
  0.00000000E+00  0.00000000E+00  0.00000000E+00
  0.00000000E+00  0.00000000E+00  0.00000000E+00
  0.00000000E+00  0.00000000E+00  0.00000000E+00
  0.00000000E+00  0.00000000E+00  0.00000000E+00
  0.00000000E+00  0.00000000E+00  0.00000000E+00
  0.00000000E+00  0.00000000E+00  0.00000000E+00
  0.00000000E+00  0.00000000E+00  0.00000000E+00
  0.00000000E+00  0.00000000E+00  0.00000000E+00
  0.00000000E+00  0.00000000E+00  0.00000000E+00
  0.00000000E+00  0.00000000E+00  0.00000000E+00
  0.00000000E+00  0.00000000E+00  0.00000000E+00
  0.00000000E+00  0.00000000E+00  0.00000000E+00
  0.00000000E+00  0.00000000E+00  0.00000000E+00
  0.00000000E+00  0.00000000E+00  0.00000000E+00
  0.00000000E+00  0.00000000E+00  0.00000000E+00
  0.00000000E+00  0.00000000E+00  0.00000000E+00
  0.00000000E+00  0.00000000E+00  0.00000000E+00
  0.00000000E+00  0.00000000E+00  0.00000000E+00
  0.00000000E+00  0.00000000E+00  0.00000000E+00
  0.00000000E+00  0.00000000E+00  0.00000000E+00
  0.00000000E+00  0.00000000E+00  0.00000000E+00
  0.00000000E+00  0.00000000E+00  0.00000000E+00
  0.00000000E+00  0.00000000E+00  0.00000000E+00
  0.00000000E+00  0.00000000E+00  0.00000000E+00
  0.00000000E+00  0.00000000E+00  0.00000000E+00
  0.00000000E+00  0.00000000E+00  0.00000000E+00
