CeO2-you-111-you-Co                     
   1.00000000000000     
     9.8945933866637095   -5.7126465305168361   -0.0000000015572387
    -0.0449183006220818   11.3474902766240433   -0.0297441609546280
    -0.0321439100283845   -0.0556748758751002   20.7793442261878951
   O    Co   Ce   H 
    53     1    26     2
Selective dynamics
Direct
  0.9998540670732177  0.9997689125672728  0.9929926620661617   T   T   T
  0.1067099383480539  0.2207492918860865  0.1479829113953670   F   F   F
  0.2426407186624552  0.1434052384704832  0.3115458737399525   T   T   T
  0.0660801911520713  0.2009597690728366  0.3969549046839657   T   T   T
  0.0092378739765022  0.0044570957000437  0.2304652012352005   T   T   T
  0.2224640895529362  0.1115951791057626  0.0733813531802880   F   F   F
  0.3332501530982097  0.0001612439607324  0.9930077400758500   T   T   T
  0.4473723535387890  0.2207492918861576  0.1479829113955091   F   F   F
  0.5485667025148868  0.1065039836547652  0.3051580425578495   T   T   T
  0.4592011737074301  0.1839755556050892  0.4155000141831280   T   T   T
  0.3277653845838754  0.0010667499279480  0.2296656578819198   T   T   T
  0.5574495389338097  0.1103919427236022  0.0732967891596488   F   F   F
  0.6658979414909834  0.9987993226843411  0.9919494085198322   T   T   T
  0.7772168021482457  0.2210996042964481  0.1530578999865284   F   F   F
  0.8858167765679332  0.1081594378174366  0.3016382180092645   T   T   T
  0.7816987894008190  0.2142851319117000  0.3872503863298026   T   T   T
  0.6625680865791423  0.9957955059455276  0.2301153992411699   T   T   T
  0.8862764037894451  0.1103919427229698  0.0732967891594072   F   F   F
 -0.0000044585061580  0.3327013679020464  0.9931442446545325   T   T   T
  0.1090930361987716  0.5552513834576231  0.1491565904371868   F   F   F
  0.2402067499908514  0.4344926628825185  0.3126068982677956   T   T   T
  0.1173573380031184  0.5590691796280641  0.3853988520496554   T   T   T
  0.0085902955068406  0.3380542817146143  0.2318942299963871   T   T   T
  0.2223055793693831  0.4448375774373972  0.0740000171446766   F   F   F
  0.3333302680480293  0.3334593176396466  0.9935380270692037   T   T   T
  0.4468354805423971  0.5603389610868064  0.1478099549506453   F   F   F
  0.5205710087932571  0.4333609692111374  0.3191075478709458   T   T   T
  0.3352507232534944  0.3363117240156698  0.2214679074866132   T   T   T
  0.5558659980678229  0.4448375774370845  0.0740000171446127   F   F   F
  0.6662563777564762  0.3326849234631608  0.9932110176146391   T   T   T
  0.7794913472582863  0.5552513834575450  0.1491565904372720   F   F   F
  0.8948553963702390  0.4481162701681070  0.3068829598522403   T   T   T
  0.7848258817741931  0.5725125256219823  0.3866771677766579   T   T   T
  0.6630921893552894  0.3391101340762883  0.2315840543078016   T   T   T
  0.8874680260063528  0.4416020520121791  0.0742379416424441   F   F   F
  0.9985074155190271  0.6641289028952723  0.9928329024778713   T   T   T
  0.1106598655817379  0.8879867311624992  0.1472981326810086   F   F   F
  0.2220423637218294  0.7780668862366389  0.3041872512369974   T   T   T
  0.1175917748912311  0.8954460960164347  0.3842375464386652   T   T   T
  0.0005801596541416  0.6697423078489079  0.2293071977088905   T   T   T
  0.2216879711447817  0.7772497454898684  0.0724673944485659   F   F   F
  0.3332233240124731  0.6657632632611986  0.9931071781793350   T   T   T
  0.4429857694692245  0.8884322270639586  0.1492082069396119   F   F   F
  0.5531386683720230  0.7702092877647672  0.3058504877190115   T   T   T
  0.4417546990077283  0.8845771555138519  0.3849854912595818   T   T   T
  0.3301671082746119  0.6632658770441566  0.2303443386376261   T   T   T
  0.5566188386530513  0.7799036773064998  0.0735161507614350   F   F   F
  0.6656368345231897  0.6659041198283223  0.9930674354720681   T   T   T
  0.7787794575949221  0.8884322270636886  0.1492082069396048   F   F   F
  0.8921241962700572  0.7838007004104250  0.3041998149908874   T   T   T
  0.7786518381594106  0.8912400996960702  0.3865181436161964   T   T   T
  0.6662562010948623  0.6606591487672822  0.2312065932628179   T   T   T
  0.8888947743452889  0.7772497454895415  0.0724673944484664   F   F   F
  0.3381924593615948  0.3424416691232560  0.3157533005861199   T   T   T
  0.0050437966581226  0.0106601907713624  0.3481446501554519   T   T   T
  0.2229301282678620  0.1125272565367794  0.1888353574849475   F   F   F
  0.1103187091796016  0.2215341870076983  0.0335357073712572   F   F   F
  0.3322853389134461 -0.0009382206975384  0.3462971058750121   T   T   T
  0.5544912625572351  0.1105291371977515  0.1905436036978116   F   F   F
  0.4445484778282633  0.2215341870081176  0.0335357073713425   F   F   F
  0.6661470421048473  0.0001570096253018  0.3459739722990605   T   T   T
  0.8893718746393517  0.1105291371965720  0.1905436036977548   F   F   F
  0.7771201104387089  0.2209062208777866  0.0337223649481402   F   F   F
  0.9998056366733530  0.3287074165094377  0.3494749093713957   T   T   T
  0.2219869375667471  0.4452443976418365  0.1884661036588611   F   F   F
  0.1096141987460371  0.5539528671630478  0.0335361815640027   F   F   F
  0.5565914600759712  0.4452443976416447  0.1884661036588184   F   F   F
  0.4445635569015991  0.5557951138026240  0.0328262537049682   F   F   F
  0.6686464459785834  0.3337640232920762  0.3529271587863064   T   T   T
  0.8887017687773238  0.4440695375537160  0.1922024283689581   F   F   F
  0.7776716684172058  0.5539528671629057  0.0335361815640027   F   F   F
  0.0012067095131978  0.6692143205394596  0.3447357365660305   T   T   T
  0.2214680466231087  0.7795232429848511  0.1881457403516436   F   F   F
  0.1107300126787933  0.8881270253576616  0.0323996760990184   F   F   F
  0.3312360166815619  0.6690804203183555  0.3454056582792148   T   T   T
  0.5547004329749612  0.7760668659496162  0.1889665882763936   F   F   F
  0.4446050202393081  0.8884264821390246  0.0328636499310448   F   F   F
  0.6772830259827181  0.6769679302925016  0.3465173670073645   T   T   T
  0.8913881963608290  0.7795232429840766  0.1881457403515441   F   F   F
  0.7771544618991513  0.8884264821382715  0.0328636499308956   F   F   F
  0.4727539231290551  0.6098518317027616  0.3992733227817309   T   T   T
  0.4179947126439200  0.2120514809140691  0.4485601354545750   T   T   T
 
  0.00000000E+00  0.00000000E+00  0.00000000E+00
  0.00000000E+00  0.00000000E+00  0.00000000E+00
  0.00000000E+00  0.00000000E+00  0.00000000E+00
  0.00000000E+00  0.00000000E+00  0.00000000E+00
  0.00000000E+00  0.00000000E+00  0.00000000E+00
  0.00000000E+00  0.00000000E+00  0.00000000E+00
  0.00000000E+00  0.00000000E+00  0.00000000E+00
  0.00000000E+00  0.00000000E+00  0.00000000E+00
  0.00000000E+00  0.00000000E+00  0.00000000E+00
  0.00000000E+00  0.00000000E+00  0.00000000E+00
  0.00000000E+00  0.00000000E+00  0.00000000E+00
  0.00000000E+00  0.00000000E+00  0.00000000E+00
  0.00000000E+00  0.00000000E+00  0.00000000E+00
  0.00000000E+00  0.00000000E+00  0.00000000E+00
  0.00000000E+00  0.00000000E+00  0.00000000E+00
  0.00000000E+00  0.00000000E+00  0.00000000E+00
  0.00000000E+00  0.00000000E+00  0.00000000E+00
  0.00000000E+00  0.00000000E+00  0.00000000E+00
  0.00000000E+00  0.00000000E+00  0.00000000E+00
  0.00000000E+00  0.00000000E+00  0.00000000E+00
  0.00000000E+00  0.00000000E+00  0.00000000E+00
  0.00000000E+00  0.00000000E+00  0.00000000E+00
  0.00000000E+00  0.00000000E+00  0.00000000E+00
  0.00000000E+00  0.00000000E+00  0.00000000E+00
  0.00000000E+00  0.00000000E+00  0.00000000E+00
  0.00000000E+00  0.00000000E+00  0.00000000E+00
  0.00000000E+00  0.00000000E+00  0.00000000E+00
  0.00000000E+00  0.00000000E+00  0.00000000E+00
  0.00000000E+00  0.00000000E+00  0.00000000E+00
  0.00000000E+00  0.00000000E+00  0.00000000E+00
  0.00000000E+00  0.00000000E+00  0.00000000E+00
  0.00000000E+00  0.00000000E+00  0.00000000E+00
  0.00000000E+00  0.00000000E+00  0.00000000E+00
  0.00000000E+00  0.00000000E+00  0.00000000E+00
  0.00000000E+00  0.00000000E+00  0.00000000E+00
  0.00000000E+00  0.00000000E+00  0.00000000E+00
  0.00000000E+00  0.00000000E+00  0.00000000E+00
  0.00000000E+00  0.00000000E+00  0.00000000E+00
  0.00000000E+00  0.00000000E+00  0.00000000E+00
  0.00000000E+00  0.00000000E+00  0.00000000E+00
  0.00000000E+00  0.00000000E+00  0.00000000E+00
  0.00000000E+00  0.00000000E+00  0.00000000E+00
  0.00000000E+00  0.00000000E+00  0.00000000E+00
  0.00000000E+00  0.00000000E+00  0.00000000E+00
  0.00000000E+00  0.00000000E+00  0.00000000E+00
  0.00000000E+00  0.00000000E+00  0.00000000E+00
  0.00000000E+00  0.00000000E+00  0.00000000E+00
  0.00000000E+00  0.00000000E+00  0.00000000E+00
  0.00000000E+00  0.00000000E+00  0.00000000E+00
  0.00000000E+00  0.00000000E+00  0.00000000E+00
  0.00000000E+00  0.00000000E+00  0.00000000E+00
  0.00000000E+00  0.00000000E+00  0.00000000E+00
  0.00000000E+00  0.00000000E+00  0.00000000E+00
  0.00000000E+00  0.00000000E+00  0.00000000E+00
  0.00000000E+00  0.00000000E+00  0.00000000E+00
  0.00000000E+00  0.00000000E+00  0.00000000E+00
  0.00000000E+00  0.00000000E+00  0.00000000E+00
  0.00000000E+00  0.00000000E+00  0.00000000E+00
  0.00000000E+00  0.00000000E+00  0.00000000E+00
  0.00000000E+00  0.00000000E+00  0.00000000E+00
  0.00000000E+00  0.00000000E+00  0.00000000E+00
  0.00000000E+00  0.00000000E+00  0.00000000E+00
  0.00000000E+00  0.00000000E+00  0.00000000E+00
  0.00000000E+00  0.00000000E+00  0.00000000E+00
  0.00000000E+00  0.00000000E+00  0.00000000E+00
  0.00000000E+00  0.00000000E+00  0.00000000E+00
  0.00000000E+00  0.00000000E+00  0.00000000E+00
  0.00000000E+00  0.00000000E+00  0.00000000E+00
  0.00000000E+00  0.00000000E+00  0.00000000E+00
  0.00000000E+00  0.00000000E+00  0.00000000E+00
  0.00000000E+00  0.00000000E+00  0.00000000E+00
  0.00000000E+00  0.00000000E+00  0.00000000E+00
  0.00000000E+00  0.00000000E+00  0.00000000E+00
  0.00000000E+00  0.00000000E+00  0.00000000E+00
  0.00000000E+00  0.00000000E+00  0.00000000E+00
  0.00000000E+00  0.00000000E+00  0.00000000E+00
  0.00000000E+00  0.00000000E+00  0.00000000E+00
  0.00000000E+00  0.00000000E+00  0.00000000E+00
  0.00000000E+00  0.00000000E+00  0.00000000E+00
  0.00000000E+00  0.00000000E+00  0.00000000E+00
  0.00000000E+00  0.00000000E+00  0.00000000E+00
  0.00000000E+00  0.00000000E+00  0.00000000E+00
