CeO2-you-111-you-Co                     
   1.00000000000000     
     9.8251019935621891   -5.6688690845164036   -0.0060933432773853
     0.0031666819258298   11.3432210274887062    0.0060933422472463
    -0.0063576088724889    0.0110117010449115   21.0600758742251379
   O    Co   Ce   H 
    53     1    26     2
Selective dynamics
Direct
 -0.0002725543024449 -0.0001845100853118  0.9952314440125334   T   T   T
  0.1092508746749843  0.2204356018935343  0.1474052448846379   F   F   F
  0.2186305407116178  0.0959501972259551  0.3048753047070745   T   T   T
  0.1732956921557877  0.3097819028962451  0.3510658198354081   T   T   T
 -0.0000121880769305  0.0005930102465282  0.2289385988996339   T   T   T
  0.2217137810513350  0.1105053736922770  0.0751548287902750   F   F   F
  0.3345144847538601  0.0005288756226092  0.9962043595326062   T   T   T
  0.4418714160728925  0.2247945839256147  0.1516256692397633   F   F   F
  0.5507970571738918  0.1045708554733902  0.3056335145535006   T   T   T
  0.4559872608250731  0.1769811472463747  0.4136433965439961   T   T   T
  0.3346600217236926 -0.0012558741799202  0.2279867030192607   T   T   T
  0.5558833757068840  0.1107836242930489  0.0780371299348133   F   F   F
  0.6657963478562872  0.0007713057131414  0.9957257056510097   T   T   T
  0.7844127759483754  0.2258973838711498  0.1520004211408192   F   F   F
  0.8944005417062532  0.1101693365455204  0.3058323507391852   T   T   T
  0.7847948721096345  0.2131802158015543  0.3880796669692859   T   T   T
  0.6698429071253944  0.0023828949073172  0.2293881030179273   T   T   T
  0.8876073251875312  0.1101456717306064  0.0749316468325745   F   F   F
  0.9980631765280631  0.3323945834151128  0.9950696167798685   T   T   T
  0.1109169929615632  0.5557500070373749  0.1482522893610465   F   F   F
  0.1174260937802191  0.5529940436312927  0.3803440223245608   T   T   T
  0.0146229099738111  0.3424665049917774  0.2333644104992544   T   T   T
  0.2223829977523621  0.4442830022490014  0.0725657826218509   F   F   F
  0.3338842234291152  0.3324144073592485  0.9949600462093412   T   T   T
  0.4462303981102025  0.5574161253262560  0.1474052448844887   F   F   F
  0.5359926198691060  0.4344626281787301  0.3088664987310334   T   T   T
  0.4406541149460891  0.5654880270037748  0.3792262179219308   T   T   T
  0.3254517568928777  0.3410708313802057  0.2310814794447960   T   T   T
  0.5561616263074072  0.4449522189482380  0.0751548287903248   F   F   F
  0.6656114949164991  0.3317380097185657  0.9962302101025226   T   T   T
  0.7780482207335098  0.5554170088799637  0.1516241324319481   F   F   F
  0.8891654968559689  0.4451529927072229  0.3055517882811278   T   T   T
  0.7831313313847317  0.5700074113823038  0.3856082435625291   T   T   T
  0.6647128878098605  0.3328747108430377  0.2292828693846012   T   T   T
  0.8885730954206963  0.4448540121566111  0.0755150675093645   F   F   F
  0.9994295525822681  0.6672193273705563  0.9955510016268408   T   T   T
  0.1112499911184770  0.8886187792641849  0.1516241324319267   F   F   F
  0.2228011128468128  0.7789265724380563  0.3048188638478460   T   T   T
  0.1064556541553393  0.8832617638071246  0.3868112127365416   T   T   T
  0.0009357370399219  0.6663358683009578  0.2304320986992806   T   T   T
  0.2218119878430826  0.7780939045788386  0.0755150675092793   F   F   F
  0.3339413464477919  0.6683605249208088  0.9952332825829676   T   T   T
  0.4407686161295032  0.8822542240514224  0.1520004211409329   F   F   F
  0.5605006361445448  0.7848073156394594  0.3034767959789322   T   T   T
  0.4444763498634002  0.8849416218727418  0.3871453239306913   T   T   T
  0.3256226952129777  0.6493380053151308  0.2355440116998319   T   T   T
  0.5565213282704207  0.7790596748134035  0.0749316468325603   F   F   F
  0.6672350669809384  0.6673205824694621  0.9951508644653222   T   T   T
  0.7775286319065202  0.8891383680938603  0.1507854591137701   F   F   F
  0.8921663803182566  0.7812192907165434  0.3028177423279804   T   T   T
  0.7826710904688308  0.8882131723847447  0.3843577186099126   T   T   T
  0.6652504757271266  0.6637979973909285  0.2316230126944961   T   T   T
  0.8888446930339740  0.7778223069653833  0.0759003742810265   F   F   F
  0.3534953117013440  0.3783587338768379  0.3329580120273942   T   T   T
  0.0040931979507299 -0.0055214326138774  0.3404268121474461   T   T   T
  0.2227419355197924  0.1130952821544327  0.1919310520864812   F   F   F
  0.1100345012145709  0.2202131429204641  0.0338080598209842   F   F   F
  0.3306429667997888 -0.0050290711250414  0.3451897235290229   T   T   T
  0.5557222960027772  0.1109447040001967  0.1912632979035962   F   F   F
  0.4440997599527350  0.2225662400472004  0.0365784188828187   F   F   F
  0.6700053067147698  0.0018006120703748  0.3459186617316899   T   T   T
  0.8894550662626557  0.1114588365176346  0.1905823785191103   F   F   F
  0.7777757088635937  0.2224233759216858  0.0361419051395302   F   F   F
  0.9939799801416017  0.3324784871659226  0.3450949347741457   T   T   T
  0.2234846849137213  0.4431813150792863  0.1826863177805649   F   F   F
  0.1100538684608026  0.5566131315384553  0.0343840308826486   F   F   F
  0.5535717178437451  0.4439240644789564  0.1919310520864173   F   F   F
  0.4464528570795281  0.5566324987848219  0.0338080598210553   F   F   F
  0.6628409728667005  0.3326079597775120  0.3500580348471108   T   T   T
  0.8899963988720572  0.4449197458764260  0.1914491698721292   F   F   F
  0.7773859306034581  0.5551564952158472  0.0365495807962830   F   F   F
  0.9983068400881543  0.6648251410928689  0.3447606608461025   T   T   T
  0.2217462541269839  0.7766706011363169  0.1914491698721363   F   F   F
  0.1115105047851301  0.8892810693972137  0.0365495807962688   F   F   F
  0.3401551990571595  0.6761003954746092  0.3475670235939940   T   T   T
  0.5552081634764576  0.7772119337359769  0.1905823785191956   F   F   F
  0.4442426240777309  0.8888912911366091  0.0361419051395657   F   F   F
  0.6657677610732988  0.6670328097174896  0.3448286253034621   T   T   T
  0.8888301818378679  0.7778368181646940  0.1901682205979540   F   F   F
  0.7774477201726313  0.8892192798267615  0.0357326705337471   F   F   F
  0.3701716238715936  0.3407046747639626  0.3967285180448267   T   T   T
  0.4111031094385145  0.2160163694245283  0.4382707139933828   T   T   T
 
  0.00000000E+00  0.00000000E+00  0.00000000E+00
  0.00000000E+00  0.00000000E+00  0.00000000E+00
  0.00000000E+00  0.00000000E+00  0.00000000E+00
  0.00000000E+00  0.00000000E+00  0.00000000E+00
  0.00000000E+00  0.00000000E+00  0.00000000E+00
  0.00000000E+00  0.00000000E+00  0.00000000E+00
  0.00000000E+00  0.00000000E+00  0.00000000E+00
  0.00000000E+00  0.00000000E+00  0.00000000E+00
  0.00000000E+00  0.00000000E+00  0.00000000E+00
  0.00000000E+00  0.00000000E+00  0.00000000E+00
  0.00000000E+00  0.00000000E+00  0.00000000E+00
  0.00000000E+00  0.00000000E+00  0.00000000E+00
  0.00000000E+00  0.00000000E+00  0.00000000E+00
  0.00000000E+00  0.00000000E+00  0.00000000E+00
  0.00000000E+00  0.00000000E+00  0.00000000E+00
  0.00000000E+00  0.00000000E+00  0.00000000E+00
  0.00000000E+00  0.00000000E+00  0.00000000E+00
  0.00000000E+00  0.00000000E+00  0.00000000E+00
  0.00000000E+00  0.00000000E+00  0.00000000E+00
  0.00000000E+00  0.00000000E+00  0.00000000E+00
  0.00000000E+00  0.00000000E+00  0.00000000E+00
  0.00000000E+00  0.00000000E+00  0.00000000E+00
  0.00000000E+00  0.00000000E+00  0.00000000E+00
  0.00000000E+00  0.00000000E+00  0.00000000E+00
  0.00000000E+00  0.00000000E+00  0.00000000E+00
  0.00000000E+00  0.00000000E+00  0.00000000E+00
  0.00000000E+00  0.00000000E+00  0.00000000E+00
  0.00000000E+00  0.00000000E+00  0.00000000E+00
  0.00000000E+00  0.00000000E+00  0.00000000E+00
  0.00000000E+00  0.00000000E+00  0.00000000E+00
  0.00000000E+00  0.00000000E+00  0.00000000E+00
  0.00000000E+00  0.00000000E+00  0.00000000E+00
  0.00000000E+00  0.00000000E+00  0.00000000E+00
  0.00000000E+00  0.00000000E+00  0.00000000E+00
  0.00000000E+00  0.00000000E+00  0.00000000E+00
  0.00000000E+00  0.00000000E+00  0.00000000E+00
  0.00000000E+00  0.00000000E+00  0.00000000E+00
  0.00000000E+00  0.00000000E+00  0.00000000E+00
  0.00000000E+00  0.00000000E+00  0.00000000E+00
  0.00000000E+00  0.00000000E+00  0.00000000E+00
  0.00000000E+00  0.00000000E+00  0.00000000E+00
  0.00000000E+00  0.00000000E+00  0.00000000E+00
  0.00000000E+00  0.00000000E+00  0.00000000E+00
  0.00000000E+00  0.00000000E+00  0.00000000E+00
  0.00000000E+00  0.00000000E+00  0.00000000E+00
  0.00000000E+00  0.00000000E+00  0.00000000E+00
  0.00000000E+00  0.00000000E+00  0.00000000E+00
  0.00000000E+00  0.00000000E+00  0.00000000E+00
  0.00000000E+00  0.00000000E+00  0.00000000E+00
  0.00000000E+00  0.00000000E+00  0.00000000E+00
  0.00000000E+00  0.00000000E+00  0.00000000E+00
  0.00000000E+00  0.00000000E+00  0.00000000E+00
  0.00000000E+00  0.00000000E+00  0.00000000E+00
  0.00000000E+00  0.00000000E+00  0.00000000E+00
  0.00000000E+00  0.00000000E+00  0.00000000E+00
  0.00000000E+00  0.00000000E+00  0.00000000E+00
  0.00000000E+00  0.00000000E+00  0.00000000E+00
  0.00000000E+00  0.00000000E+00  0.00000000E+00
  0.00000000E+00  0.00000000E+00  0.00000000E+00
  0.00000000E+00  0.00000000E+00  0.00000000E+00
  0.00000000E+00  0.00000000E+00  0.00000000E+00
  0.00000000E+00  0.00000000E+00  0.00000000E+00
  0.00000000E+00  0.00000000E+00  0.00000000E+00
  0.00000000E+00  0.00000000E+00  0.00000000E+00
  0.00000000E+00  0.00000000E+00  0.00000000E+00
  0.00000000E+00  0.00000000E+00  0.00000000E+00
  0.00000000E+00  0.00000000E+00  0.00000000E+00
  0.00000000E+00  0.00000000E+00  0.00000000E+00
  0.00000000E+00  0.00000000E+00  0.00000000E+00
  0.00000000E+00  0.00000000E+00  0.00000000E+00
  0.00000000E+00  0.00000000E+00  0.00000000E+00
  0.00000000E+00  0.00000000E+00  0.00000000E+00
  0.00000000E+00  0.00000000E+00  0.00000000E+00
  0.00000000E+00  0.00000000E+00  0.00000000E+00
  0.00000000E+00  0.00000000E+00  0.00000000E+00
  0.00000000E+00  0.00000000E+00  0.00000000E+00
  0.00000000E+00  0.00000000E+00  0.00000000E+00
  0.00000000E+00  0.00000000E+00  0.00000000E+00
  0.00000000E+00  0.00000000E+00  0.00000000E+00
  0.00000000E+00  0.00000000E+00  0.00000000E+00
  0.00000000E+00  0.00000000E+00  0.00000000E+00
  0.00000000E+00  0.00000000E+00  0.00000000E+00
