CeO2-you-111-you-Y                      
   1.00000000000000     
     9.8634396836856819   -5.6946599257103383    0.0000000002539930
     0.0104594922566310   11.4074342179786150    0.0048333759215423
     0.0052045299893471    0.0090145088382767   21.2075270147286830
   O    Y    Ce   H 
    53     1    26     2
Selective dynamics
Direct
  0.0000167600262394  0.0002079250094833  0.9975345677972769   T   T   T
  0.1096611221446508  0.2224344129313138  0.1496062678376617   F   F   F
  0.2285241503395902  0.1112324077505043  0.3036110831398912   T   T   T
  0.1064792058858027  0.2170659446395596  0.3810664413202983   T   T   T
  0.0017374834879033  0.0007178106186229  0.2286412756533756   T   T   T
  0.2221255155896671  0.1109180311793168  0.0757228265304661   F   F   F
  0.3336679024589975  0.0004704211849256  0.9971601055850525   T   T   T
  0.4461062907864530  0.2224344129310722  0.1496062678376617   F   F   F
  0.5507788290695553  0.1192140032307946  0.3042517721837111   T   T   T
  0.4408479621517793  0.2276524690905213  0.3965886457401946   T   T   T
  0.3324894954134358  0.9980940772693572  0.2274429494666785   T   T   T
  0.5563869685036451  0.1113536357568492  0.0760784845389324   F   F   F
  0.6665285688130425  0.9992347200243291  0.9974381774825221   T   T   T
  0.7780313192139516  0.2227286384279239  0.1520616578488472   F   F   F
  0.8867134213489749  0.1096141376698509  0.3029553087479778   T   T   T
  0.7760652718646269  0.2235792382781851  0.3810120051803554   T   T   T
  0.6624715079893950  0.9982873847986588  0.2309827372322489   T   T   T
  0.8883006672532332  0.1113536357569131  0.0760784845389324   F   F   F
  0.0002845729374978  0.3328858876070207  0.9977276762655132   T   T   T
  0.1100926325163201  0.5544754826840972  0.1498678368289177   F   F   F
  0.2243116221270506  0.4420700538456043  0.3044453774684262   T   T   T
  0.0954408900206091  0.5485879048093507  0.3835691539811845   T   T   T
  0.0009917444236174  0.3332910697875622  0.2297954688954844   T   T   T
  0.2229344412572090  0.4448475904246010  0.0767135237125487   F   F   F
  0.3329224792068932  0.3328533834871329  0.9978843994501899   T   T   T
  0.4445214939482511  0.5557109878967381  0.1512957537923469   F   F   F
  0.5512201005232759  0.4438166863919874  0.3060947923063126   T   T   T
  0.3314709183517402  0.3300668425322673  0.2273991845517540   T   T   T
  0.5552471491673288  0.4448475904245583  0.0767135237125558   F   F   F
  0.6664997869372246  0.3336195204176326  0.9976775583951630   T   T   T
  0.7777158501677377  0.5544754826840332  0.1498678368289177   F   F   F
  0.8872597738220300  0.4446511805270547  0.3018706523673255   T   T   T
  0.7791834991793657  0.5571074014552543  0.3817360528057644   T   T   T
  0.6664249919422864  0.3356779448572524  0.2295131014605473   T   T   T
  0.8885472683695568  0.4437605367391129  0.0760850706608096   F   F   F
  0.0001245723125626  0.6669662447471164  0.9974599818048685   T   T   T
  0.1108895744993106  0.8884461489983480  0.1484809635645945   F   F   F
  0.2182190188704125  0.7803127328366573  0.3027890907989194   T   T   T
  0.1117186361904682  0.8895157804165967  0.3837952205219967   T   T   T
 -0.0006172745440849  0.6676504287391598  0.2281841241060917   T   T   T
  0.2224406265651737  0.7777728783814695  0.0756605825359102   F   F   F
  0.3337263073019549  0.6665722788468231  0.9977492595967743   T   T   T
  0.4456573755849220  0.8899505462123614  0.1495167388100427   F   F   F
  0.5593948632404457  0.7730273117901916  0.3060474610357563   T   T   T
  0.4509757774155242  0.9039133828283139  0.3831185932591101   T   T   T
  0.3338570403602804  0.6688053780863528  0.2271879574365200   T   T   T
  0.5551176158714242  0.7769012317428121  0.0767294568559365   F   F   F
  0.6669051664934444  0.6673701225692457  0.9977779094129192   T   T   T
  0.7776261706276273  0.8899505462125461  0.1495167388100427   F   F   F
  0.8912788674306433  0.7799174633322432  0.3029288923668647   T   T   T
  0.7803310971392123  0.8900070269074247  0.3827863585872556   T   T   T
  0.6696328980835178  0.6671189155604110  0.2288008853812769   T   T   T
  0.8886652518163629  0.7777728783814979  0.0756605825359102   F   F   F
  0.3235570586579358  0.3266157960975729  0.3354906831718307   T   T   T
  0.0023000386961171  0.0028379336819506  0.3433390984004198   T   T   T
  0.2212403903266207  0.1091477806535792  0.1878466238326126   F   F   F
  0.1109603010538791  0.2226119112882685  0.0371083761790416   F   F   F
  0.3284193248130879 -0.0061550027645900  0.3415767263410485   T   T   T
  0.5549354896616876  0.1108295131753820  0.1900630931424558   F   F   F
  0.4449846102344353  0.2226119112883467  0.0371083761790416   F   F   F
  0.6658627832930463  0.0004377858884426  0.3432152538976871   T   T   T
  0.8892280235133185  0.1108295131748704  0.1900630931424558   F   F   F
  0.7778427748267092  0.2223515496533963  0.0373061686664471   F   F   F
  0.0015530514158776  0.3327522460797662  0.3426526925745963   T   T   T
  0.2232756318502425  0.4446190110936357  0.1905078187213149   F   F   F
  0.1110629371159888  0.5551628335631520  0.0372803787085374   F   F   F
  0.5546773792442252  0.4446190110940336  0.1905078187213149   F   F   F
  0.4444341936850194  0.5555363873700045  0.0371844237623620   F   F   F
  0.6727894771435021  0.3390645199158840  0.3407055992769242   T   T   T
  0.8892871767754471  0.4452403535508154  0.1904923624997679   F   F   F
  0.7774328964471877  0.5551628335632230  0.0372803787085374   F   F   F
  0.0006627667576122  0.6668438600481894  0.3428052100506204   T   T   T
  0.2217315601539767  0.7785152274749620  0.1878836124429810   F   F   F
  0.1111768396959363  0.8890206793919404  0.0356039706421853   F   F   F
  0.3287088336297797  0.6673899510894742  0.3444585132338447   T   T   T
  0.5553931882425971  0.7774523764852788  0.1896971344165479   F   F   F
  0.4449475476771596  0.8891825650425886  0.0369271513798850   F   F   F
  0.6755038686711293  0.6713802718791689  0.3402945213427156   T   T   T
  0.8901166673205196  0.7785152274746352  0.1878836124429739   F   F   F
  0.7775680173654180  0.8891825650425815  0.0369271513798850   F   F   F
  0.4488230641497894  0.5474872102062391  0.3883643709728995   T   T   T
  0.4408602432263463  0.2334116678069286  0.4423381438330188   T   T   T
 
  0.00000000E+00  0.00000000E+00  0.00000000E+00
  0.00000000E+00  0.00000000E+00  0.00000000E+00
  0.00000000E+00  0.00000000E+00  0.00000000E+00
  0.00000000E+00  0.00000000E+00  0.00000000E+00
  0.00000000E+00  0.00000000E+00  0.00000000E+00
  0.00000000E+00  0.00000000E+00  0.00000000E+00
  0.00000000E+00  0.00000000E+00  0.00000000E+00
  0.00000000E+00  0.00000000E+00  0.00000000E+00
  0.00000000E+00  0.00000000E+00  0.00000000E+00
  0.00000000E+00  0.00000000E+00  0.00000000E+00
  0.00000000E+00  0.00000000E+00  0.00000000E+00
  0.00000000E+00  0.00000000E+00  0.00000000E+00
  0.00000000E+00  0.00000000E+00  0.00000000E+00
  0.00000000E+00  0.00000000E+00  0.00000000E+00
  0.00000000E+00  0.00000000E+00  0.00000000E+00
  0.00000000E+00  0.00000000E+00  0.00000000E+00
  0.00000000E+00  0.00000000E+00  0.00000000E+00
  0.00000000E+00  0.00000000E+00  0.00000000E+00
  0.00000000E+00  0.00000000E+00  0.00000000E+00
  0.00000000E+00  0.00000000E+00  0.00000000E+00
  0.00000000E+00  0.00000000E+00  0.00000000E+00
  0.00000000E+00  0.00000000E+00  0.00000000E+00
  0.00000000E+00  0.00000000E+00  0.00000000E+00
  0.00000000E+00  0.00000000E+00  0.00000000E+00
  0.00000000E+00  0.00000000E+00  0.00000000E+00
  0.00000000E+00  0.00000000E+00  0.00000000E+00
  0.00000000E+00  0.00000000E+00  0.00000000E+00
  0.00000000E+00  0.00000000E+00  0.00000000E+00
  0.00000000E+00  0.00000000E+00  0.00000000E+00
  0.00000000E+00  0.00000000E+00  0.00000000E+00
  0.00000000E+00  0.00000000E+00  0.00000000E+00
  0.00000000E+00  0.00000000E+00  0.00000000E+00
  0.00000000E+00  0.00000000E+00  0.00000000E+00
  0.00000000E+00  0.00000000E+00  0.00000000E+00
  0.00000000E+00  0.00000000E+00  0.00000000E+00
  0.00000000E+00  0.00000000E+00  0.00000000E+00
  0.00000000E+00  0.00000000E+00  0.00000000E+00
  0.00000000E+00  0.00000000E+00  0.00000000E+00
  0.00000000E+00  0.00000000E+00  0.00000000E+00
  0.00000000E+00  0.00000000E+00  0.00000000E+00
  0.00000000E+00  0.00000000E+00  0.00000000E+00
  0.00000000E+00  0.00000000E+00  0.00000000E+00
  0.00000000E+00  0.00000000E+00  0.00000000E+00
  0.00000000E+00  0.00000000E+00  0.00000000E+00
  0.00000000E+00  0.00000000E+00  0.00000000E+00
  0.00000000E+00  0.00000000E+00  0.00000000E+00
  0.00000000E+00  0.00000000E+00  0.00000000E+00
  0.00000000E+00  0.00000000E+00  0.00000000E+00
  0.00000000E+00  0.00000000E+00  0.00000000E+00
  0.00000000E+00  0.00000000E+00  0.00000000E+00
  0.00000000E+00  0.00000000E+00  0.00000000E+00
  0.00000000E+00  0.00000000E+00  0.00000000E+00
  0.00000000E+00  0.00000000E+00  0.00000000E+00
  0.00000000E+00  0.00000000E+00  0.00000000E+00
  0.00000000E+00  0.00000000E+00  0.00000000E+00
  0.00000000E+00  0.00000000E+00  0.00000000E+00
  0.00000000E+00  0.00000000E+00  0.00000000E+00
  0.00000000E+00  0.00000000E+00  0.00000000E+00
  0.00000000E+00  0.00000000E+00  0.00000000E+00
  0.00000000E+00  0.00000000E+00  0.00000000E+00
  0.00000000E+00  0.00000000E+00  0.00000000E+00
  0.00000000E+00  0.00000000E+00  0.00000000E+00
  0.00000000E+00  0.00000000E+00  0.00000000E+00
  0.00000000E+00  0.00000000E+00  0.00000000E+00
  0.00000000E+00  0.00000000E+00  0.00000000E+00
  0.00000000E+00  0.00000000E+00  0.00000000E+00
  0.00000000E+00  0.00000000E+00  0.00000000E+00
  0.00000000E+00  0.00000000E+00  0.00000000E+00
  0.00000000E+00  0.00000000E+00  0.00000000E+00
  0.00000000E+00  0.00000000E+00  0.00000000E+00
  0.00000000E+00  0.00000000E+00  0.00000000E+00
  0.00000000E+00  0.00000000E+00  0.00000000E+00
  0.00000000E+00  0.00000000E+00  0.00000000E+00
  0.00000000E+00  0.00000000E+00  0.00000000E+00
  0.00000000E+00  0.00000000E+00  0.00000000E+00
  0.00000000E+00  0.00000000E+00  0.00000000E+00
  0.00000000E+00  0.00000000E+00  0.00000000E+00
  0.00000000E+00  0.00000000E+00  0.00000000E+00
  0.00000000E+00  0.00000000E+00  0.00000000E+00
  0.00000000E+00  0.00000000E+00  0.00000000E+00
  0.00000000E+00  0.00000000E+00  0.00000000E+00
  0.00000000E+00  0.00000000E+00  0.00000000E+00
