CeO2-you-111-you-Tl                     
   1.00000000000000     
     9.8670171573878367   -5.6954562409622760   -0.0018441814574059
    -0.0000000025115781   11.3909104730147295    0.0000000002229343
    -0.0041156216026602    0.0000000004323999   20.7721687515011908
   O    Tl   Ce   H 
    53     1    26     1
Selective dynamics
Direct
  0.9990612954819156  0.0008755049530850  0.9927082987742315   T   T   T
  0.1172395081033996  0.2246725010365115  0.1496134136899036   T   T   T
  0.2286821370913562  0.1125385100943454  0.3064865402667845   T   T   T
  0.0977868114163433  0.2146782271192123  0.3910799740578352   T   T   T
  0.0035754003798918  0.0023637522983583  0.2289875854398110   T   T   T
  0.2218095637146987  0.1104376802687387  0.0717939030980169   T   T   T
  0.3336905677614477  0.9995134459334732  0.9917949357948261   T   T   T
  0.4434384305001857  0.2197895315136367  0.1463324223027963   T   T   T
  0.5483921488234156  0.1052482229628845  0.3065963298268046   T   T   T
  0.4440140954092028  0.2265671221493167  0.4010971019982215   T   T   T
  0.3304834208757888 -0.0016181928403180  0.2290746071203504   T   T   T
  0.5552325003336948  0.1107613577719639  0.0726588518429742   T   T   T
  0.6678529450818724  0.0006172684420601  0.9930417356157236   T   T   T
  0.7730654570423930  0.2238402914554179  0.1505221924932328   T   T   T
  0.8903913309388372  0.1108728390308440  0.3035779290036610   T   T   T
  0.7832538653620467  0.2164372433855625  0.3882130584412353   T   T   T
  0.6675797035187993  0.0013524227874952  0.2293614119561925   T   T   T
  0.8886094978412018  0.1109757497317154  0.0751713040080645   T   T   T
  0.9990738685682647  0.3319249348731535  0.9928299239056205   T   T   T
  0.1110476452430029  0.5554061152308342  0.1486122961250816   T   T   T
  0.2135816273935865  0.4465130446144368  0.3017798413611373   T   T   T
  0.1147849726612043  0.5577709391125240  0.3872373563541879   T   T   T
  0.9982222816241475  0.3305993875827814  0.2264946019498643   T   T   T
  0.2217699245137907  0.4442411665104790  0.0719605950429651   T   T   T
  0.3324623868632608  0.3329984969463143  0.9916338520253530   T   T   T
  0.4445797480274596  0.5573469427356404  0.1457746178590746   T   T   T
  0.4417448354359811  0.5409061730866773  0.3821074283650785   T   T   T
  0.3504878060554497  0.3422234161310280  0.2319375789702704   T   T   T
  0.5557383307476561  0.4437253519860744  0.0700511717603547   T   T   T
  0.6671928788082121  0.3325122137235467  0.9917601585237340   T   T   T
  0.7797618753372473  0.5575505470923604  0.1459630707730309   T   T   T
  0.8974564435291609  0.4443767484525721  0.3039446895827903   T   T   T
  0.7871387824722084  0.5587079507873008  0.3857574374902361   T   T   T
  0.6586777140214036  0.3424638136172546  0.2338078803924035   T   T   T
  0.8888363932104529  0.4436025060461059  0.0726302850966427   T   T   T
  0.0000146603506233  0.6659445229103148  0.9919912726786626   T   T   T
  0.1105936830779412  0.8889242955430479  0.1482094175332051   T   T   T
  0.2220317963134393  0.7746144182072484  0.3032623104409312   T   T   T
  0.1156273720433409  0.8877643435205643  0.3863110202504345   T   T   T
  0.9988675986522461  0.6662663604090479  0.2286565713699896   T   T   T
  0.2224584319650764  0.7778656597456147  0.0723914006253878   T   T   T
  0.3333663303796235  0.6666642282039077  0.9919989278513099   T   T   T
  0.4453978996137594  0.8900161076511498  0.1495661601317079   T   T   T
  0.5526763238819796  0.7822019732001747  0.3061435852968633   T   T   T
  0.4382322072372418  0.8846434287493511  0.3876316006711935   T   T   T
  0.3346155795097100  0.6663335770371924  0.2282840237463488   T   T   T
  0.5563231905076098  0.7791324113162184  0.0727497660480178   T   T   T
  0.6666091960072748  0.6674801319130854  0.9919702541136723   T   T   T
  0.7754473606237123  0.8833314370483407  0.1514430548438898   T   T   T
  0.8976424498649079  0.7854878062818917  0.3047747503335791   T   T   T
  0.7845590774715018  0.9026086674941596  0.3889988903814527   T   T   T
  0.6586722500848657  0.6495165302257996  0.2342612491419913   T   T   T
  0.8893348237017513  0.7788036874103816  0.0719862096438533   T   T   T
  0.3142251980977382  0.3266878899770693  0.3497142953394745   T   T   T
  0.0012578404751433  0.0015956199985716  0.3457725756016416   T   T   T
  0.2246223274961842  0.1129627213625790  0.1897716295771606   T   T   T
  0.1115001983594230  0.2222552015152409  0.0329416994340049   T   T   T
  0.3286634781358932  0.9886176776502856  0.3443770621211119   T   T   T
  0.5543099524261481  0.1117134721373472  0.1906831167384436   T   T   T
  0.4435323795104132  0.2200472565532540  0.0307406838091232   T   T   T
  0.6669404904841421 -0.0002256406415392  0.3457080671061287   T   T   T
  0.8893892494819174  0.1112460646708881  0.1897285598908681   T   T   T
  0.7771466445823787  0.2220579208087000  0.0334248199177374   T   T   T
  0.0013651516667560  0.3325098265262613  0.3453590730762853   T   T   T
  0.2235507624156451  0.4446251396495549  0.1893538305600304   T   T   T
  0.1106400062308591  0.5544364768202011  0.0326859201438730   T   T   T
  0.5557030150197119  0.4451686538403173  0.1811930242127779   T   T   T
  0.4437672743525978  0.5567029332872300  0.0309087464446033   T   T   T
  0.6791639279080228  0.3314436790941919  0.3511895542812452   T   T   T
  0.8880288553363768  0.4445379528821849  0.1896773666359299   T   T   T
  0.7796563964795001  0.5564731307566170  0.0310599642089855   T   T   T
  0.0000064568382677  0.6652573503382803  0.3455186274121486   T   T   T
  0.2216031751239130  0.7769771161186469  0.1874078476970727   T   T   T
  0.1106246294737363  0.8892495095186366  0.0328908010849417   T   T   T
  0.3307783514833035  0.6630448736880528  0.3444722404914811   T   T   T
  0.5553279761305551  0.7763739837337701  0.1910368021400692   T   T   T
  0.4455458972916630  0.8894378894734982  0.0332214069577891   T   T   T
  0.6749890625066158  0.6782768652307110  0.3529876693518789   T   T   T
  0.8888926003616828  0.7768591907019869  0.1907647331865690   T   T   T
  0.7775680755203871  0.8885257422005618  0.0335497875784374   T   T   T
  0.4330562013354390  0.2343246886160277  0.4471692485893414   T   T   T
 
  0.00000000E+00  0.00000000E+00  0.00000000E+00
  0.00000000E+00  0.00000000E+00  0.00000000E+00
  0.00000000E+00  0.00000000E+00  0.00000000E+00
  0.00000000E+00  0.00000000E+00  0.00000000E+00
  0.00000000E+00  0.00000000E+00  0.00000000E+00
  0.00000000E+00  0.00000000E+00  0.00000000E+00
  0.00000000E+00  0.00000000E+00  0.00000000E+00
  0.00000000E+00  0.00000000E+00  0.00000000E+00
  0.00000000E+00  0.00000000E+00  0.00000000E+00
  0.00000000E+00  0.00000000E+00  0.00000000E+00
  0.00000000E+00  0.00000000E+00  0.00000000E+00
  0.00000000E+00  0.00000000E+00  0.00000000E+00
  0.00000000E+00  0.00000000E+00  0.00000000E+00
  0.00000000E+00  0.00000000E+00  0.00000000E+00
  0.00000000E+00  0.00000000E+00  0.00000000E+00
  0.00000000E+00  0.00000000E+00  0.00000000E+00
  0.00000000E+00  0.00000000E+00  0.00000000E+00
  0.00000000E+00  0.00000000E+00  0.00000000E+00
  0.00000000E+00  0.00000000E+00  0.00000000E+00
  0.00000000E+00  0.00000000E+00  0.00000000E+00
  0.00000000E+00  0.00000000E+00  0.00000000E+00
  0.00000000E+00  0.00000000E+00  0.00000000E+00
  0.00000000E+00  0.00000000E+00  0.00000000E+00
  0.00000000E+00  0.00000000E+00  0.00000000E+00
  0.00000000E+00  0.00000000E+00  0.00000000E+00
  0.00000000E+00  0.00000000E+00  0.00000000E+00
  0.00000000E+00  0.00000000E+00  0.00000000E+00
  0.00000000E+00  0.00000000E+00  0.00000000E+00
  0.00000000E+00  0.00000000E+00  0.00000000E+00
  0.00000000E+00  0.00000000E+00  0.00000000E+00
  0.00000000E+00  0.00000000E+00  0.00000000E+00
  0.00000000E+00  0.00000000E+00  0.00000000E+00
  0.00000000E+00  0.00000000E+00  0.00000000E+00
  0.00000000E+00  0.00000000E+00  0.00000000E+00
  0.00000000E+00  0.00000000E+00  0.00000000E+00
  0.00000000E+00  0.00000000E+00  0.00000000E+00
  0.00000000E+00  0.00000000E+00  0.00000000E+00
  0.00000000E+00  0.00000000E+00  0.00000000E+00
  0.00000000E+00  0.00000000E+00  0.00000000E+00
  0.00000000E+00  0.00000000E+00  0.00000000E+00
  0.00000000E+00  0.00000000E+00  0.00000000E+00
  0.00000000E+00  0.00000000E+00  0.00000000E+00
  0.00000000E+00  0.00000000E+00  0.00000000E+00
  0.00000000E+00  0.00000000E+00  0.00000000E+00
  0.00000000E+00  0.00000000E+00  0.00000000E+00
  0.00000000E+00  0.00000000E+00  0.00000000E+00
  0.00000000E+00  0.00000000E+00  0.00000000E+00
  0.00000000E+00  0.00000000E+00  0.00000000E+00
  0.00000000E+00  0.00000000E+00  0.00000000E+00
  0.00000000E+00  0.00000000E+00  0.00000000E+00
  0.00000000E+00  0.00000000E+00  0.00000000E+00
  0.00000000E+00  0.00000000E+00  0.00000000E+00
  0.00000000E+00  0.00000000E+00  0.00000000E+00
  0.00000000E+00  0.00000000E+00  0.00000000E+00
  0.00000000E+00  0.00000000E+00  0.00000000E+00
  0.00000000E+00  0.00000000E+00  0.00000000E+00
  0.00000000E+00  0.00000000E+00  0.00000000E+00
  0.00000000E+00  0.00000000E+00  0.00000000E+00
  0.00000000E+00  0.00000000E+00  0.00000000E+00
  0.00000000E+00  0.00000000E+00  0.00000000E+00
  0.00000000E+00  0.00000000E+00  0.00000000E+00
  0.00000000E+00  0.00000000E+00  0.00000000E+00
  0.00000000E+00  0.00000000E+00  0.00000000E+00
  0.00000000E+00  0.00000000E+00  0.00000000E+00
  0.00000000E+00  0.00000000E+00  0.00000000E+00
  0.00000000E+00  0.00000000E+00  0.00000000E+00
  0.00000000E+00  0.00000000E+00  0.00000000E+00
  0.00000000E+00  0.00000000E+00  0.00000000E+00
  0.00000000E+00  0.00000000E+00  0.00000000E+00
  0.00000000E+00  0.00000000E+00  0.00000000E+00
  0.00000000E+00  0.00000000E+00  0.00000000E+00
  0.00000000E+00  0.00000000E+00  0.00000000E+00
  0.00000000E+00  0.00000000E+00  0.00000000E+00
  0.00000000E+00  0.00000000E+00  0.00000000E+00
  0.00000000E+00  0.00000000E+00  0.00000000E+00
  0.00000000E+00  0.00000000E+00  0.00000000E+00
  0.00000000E+00  0.00000000E+00  0.00000000E+00
  0.00000000E+00  0.00000000E+00  0.00000000E+00
  0.00000000E+00  0.00000000E+00  0.00000000E+00
  0.00000000E+00  0.00000000E+00  0.00000000E+00
  0.00000000E+00  0.00000000E+00  0.00000000E+00
