CeO2-you-111-you-Sn                     
   1.00000000000000     
     9.8566926187027928   -5.7035769000262535   -0.0076315529427243
    -0.0110958555657416   11.3879332081374720    0.0076315516352933
    -0.0086330062662853    0.0149528045082338   21.1781210706499827
   O    Sn   Ce   H 
    53     1    26     1
Selective dynamics
Direct
 -0.0001312713034924 -0.0001012236720827  0.9955872998330886   T   T   T
  0.1119813828402192  0.2200380969467571  0.1464592319403669   T   T   T
  0.2483661507355351  0.1225088493881092  0.3021598139255221   T   T   T
  0.1442665767299332  0.2438582351616819  0.3700365414088189   T   T   T
  0.0091295214589842  0.0039951955182230  0.2300563868766740   T   T   T
  0.2234975921469602  0.1106218820007420  0.0738633025677834   T   T   T
  0.3353093088164175  0.0006559301406099  0.9960942989747028   T   T   T
  0.4404063262289160  0.2260348078417933  0.1519826388968598   T   T   T
  0.5478346662530266  0.1080733371917103  0.3044837998340533   T   T   T
  0.4268281219438896  0.2330576887133831  0.3995627167141834   T   T   T
  0.3329530878554695 -0.0035342521128136  0.2258269860843719   T   T   T
  0.5555570927233784  0.1119535909066734  0.0781870114703801   T   T   T
  0.6656633787337318  0.0002480647389448  0.9968414836875011   T   T   T
  0.7847231235021720  0.2231157089461687  0.1515270750203848   T   T   T
  0.8884889231940375  0.1033459264449540  0.3034479207382764   T   T   T
  0.7725216857379527  0.2053080494059374  0.3884738804130419   T   T   T
  0.6662604032172569  0.0005001420539505  0.2295559669618879   T   T   T
  0.8889229370329131  0.1093155043246751  0.0751857864080158   T   T   T
  0.9974319296902412  0.3317928736752873  0.9956286684595513   T   T   T
  0.1097529620380623  0.5563038809393739  0.1459852573734623   T   T   T
  0.1050862538636602  0.5613359331670054  0.3846402545923880   T   T   T
  0.0167624215587943  0.3404834958696305  0.2318513969273572   T   T   T
  0.2221599872927786  0.4444642757558832  0.0715819398692480   T   T   T
  0.3338968055117607  0.3325946524110597  0.9952790097918255   T   T   T
  0.4467672755688298  0.5542805706689159  0.1474708603037577   T   T   T
  0.5432412156612579  0.4270734687572577  0.3020822045298925   T   T   T
  0.4162824491650137  0.5201089842463161  0.3728168339984820   T   T   T
  0.3175859333752177  0.3447350673613620  0.2369254286474572   T   T   T
  0.5567408223419229  0.4436844008058974  0.0742343466374624   T   T   T
  0.6655512714697841  0.3311379703938406  0.9960242448991408   T   T   T
  0.7776126719472143  0.5557335026242067  0.1500387065276544   T   T   T
  0.8889016314399323  0.4483482588065664  0.3018166056755749   T   T   T
  0.7802214304353180  0.5704068069115383  0.3837039930867191   T   T   T
  0.6676854236184905  0.3310878378448172  0.2255023756580823   T   T   T
  0.8871456619807955  0.4436275326181376  0.0744810893256146   T   T   T
 -0.0000582983287772  0.6670308918664133  0.9956605194496029   T   T   T
  0.1113370431390588  0.8890610869235976  0.1487813706843127   T   T   T
  0.2223233514158604  0.7816448600452625  0.3018564305111414   T   T   T
  0.1117580721410478  0.8937986046221781  0.3805170045139291   T   T   T
  0.0019199312828837  0.6673778829789476  0.2275874437207113   T   T   T
  0.2230475592102456  0.7786569615154495  0.0744498337119545   T   T   T
  0.3350500096865684  0.6687575366605402  0.9957591507190099   T   T   T
  0.4435611536813349  0.8822185425670869  0.1514127691467211   T   T   T
  0.5622285529505086  0.7791923834525779  0.3051936017829581   T   T   T
  0.4485815080247703  0.8979966215590608  0.3873541451182423   T   T   T
  0.3249616110661683  0.6490869603784825  0.2323149830051851   T   T   T
  0.5573483743373248  0.7778179800538699  0.0759902003749316   T   T   T
  0.6671513779879545  0.6672346738200726  0.9957819452192834   T   T   T
  0.7789734092997485  0.8889106141373665  0.1526931723928271   T   T   T
  0.8900680820866524  0.7805609627477323  0.3004778156919116   T   T   T
  0.7840179572619996  0.8863590916523852  0.3836907749758622   T   T   T
  0.6650189102909853  0.6615014418806804  0.2301773910562044   T   T   T
  0.8885435308374392  0.7780550939018923  0.0750550399699803   T   T   T
  0.3405447910605074  0.3276786883946453  0.3370147037849329   T   T   T
  0.0036438167692241  0.0009582329901809  0.3409210634995860   T   T   T
  0.2235073557878067  0.1114623653159481  0.1889771417282714   T   T   T
  0.1101847793778151  0.2198367824377088  0.0337368328040735   T   T   T
  0.3322933075073497 -0.0081476024701456  0.3407292219064679   T   T   T
  0.5566253824339581  0.1106944807957248  0.1909246104880163   T   T   T
  0.4448658516822733  0.2222604714243781  0.0354362393529625   T   T   T
  0.6688347669163006 -0.0008952241542578  0.3451347416991806   T   T   T
  0.8919114868695509  0.1124882227579433  0.1914397557942652   T   T   T
  0.7779960711096932  0.2218808615176341  0.0368513868248789   T   T   T
  0.9930100705682922  0.3301610655750726  0.3500577177844274   T   T   T
  0.2211454661460725  0.4449564347436286  0.1806836000396304   T   T   T
  0.1097614552187610  0.5562666330442302  0.0335557250346977   T   T   T
  0.5560310390492784  0.4436367844004256  0.1905190621951724   T   T   T
  0.4469625523177081  0.5564789201306368  0.0342874960379798   T   T   T
  0.6720989404799597  0.3348793942540344  0.3464809503110922   T   T   T
  0.8898836976472636  0.4438575170792833  0.1909088551998838   T   T   T
  0.7772019217731585  0.5543783142113045  0.0361557033686343   T   T   T
 -0.0000707873948606  0.6660396497691268  0.3421558614002810   T   T   T
  0.2222005697135582  0.7753266233608223  0.1892277702288680   T   T   T
  0.1122078474027700  0.8893735106548178  0.0356098182409157   T   T   T
  0.3349720576586878  0.6726171314173806  0.3509430557266263   T   T   T
  0.5544843138120320  0.7749996658601839  0.1919583996287866   T   T   T
  0.4450190135462908  0.8884908900948625  0.0367383456913226   T   T   T
  0.6683923240504874  0.6653958795124743  0.3417741075903087   T   T   T
  0.8904142407242218  0.7771777277264189  0.1887110303094904   T   T   T
  0.7775952935859655  0.8889850487589792  0.0369049289249179   T   T   T
  0.4114210830076945  0.2388802928364427  0.4443469243000894   T   T   T
 
  0.00000000E+00  0.00000000E+00  0.00000000E+00
  0.00000000E+00  0.00000000E+00  0.00000000E+00
  0.00000000E+00  0.00000000E+00  0.00000000E+00
  0.00000000E+00  0.00000000E+00  0.00000000E+00
  0.00000000E+00  0.00000000E+00  0.00000000E+00
  0.00000000E+00  0.00000000E+00  0.00000000E+00
  0.00000000E+00  0.00000000E+00  0.00000000E+00
  0.00000000E+00  0.00000000E+00  0.00000000E+00
  0.00000000E+00  0.00000000E+00  0.00000000E+00
  0.00000000E+00  0.00000000E+00  0.00000000E+00
  0.00000000E+00  0.00000000E+00  0.00000000E+00
  0.00000000E+00  0.00000000E+00  0.00000000E+00
  0.00000000E+00  0.00000000E+00  0.00000000E+00
  0.00000000E+00  0.00000000E+00  0.00000000E+00
  0.00000000E+00  0.00000000E+00  0.00000000E+00
  0.00000000E+00  0.00000000E+00  0.00000000E+00
  0.00000000E+00  0.00000000E+00  0.00000000E+00
  0.00000000E+00  0.00000000E+00  0.00000000E+00
  0.00000000E+00  0.00000000E+00  0.00000000E+00
  0.00000000E+00  0.00000000E+00  0.00000000E+00
  0.00000000E+00  0.00000000E+00  0.00000000E+00
  0.00000000E+00  0.00000000E+00  0.00000000E+00
  0.00000000E+00  0.00000000E+00  0.00000000E+00
  0.00000000E+00  0.00000000E+00  0.00000000E+00
  0.00000000E+00  0.00000000E+00  0.00000000E+00
  0.00000000E+00  0.00000000E+00  0.00000000E+00
  0.00000000E+00  0.00000000E+00  0.00000000E+00
  0.00000000E+00  0.00000000E+00  0.00000000E+00
  0.00000000E+00  0.00000000E+00  0.00000000E+00
  0.00000000E+00  0.00000000E+00  0.00000000E+00
  0.00000000E+00  0.00000000E+00  0.00000000E+00
  0.00000000E+00  0.00000000E+00  0.00000000E+00
  0.00000000E+00  0.00000000E+00  0.00000000E+00
  0.00000000E+00  0.00000000E+00  0.00000000E+00
  0.00000000E+00  0.00000000E+00  0.00000000E+00
  0.00000000E+00  0.00000000E+00  0.00000000E+00
  0.00000000E+00  0.00000000E+00  0.00000000E+00
  0.00000000E+00  0.00000000E+00  0.00000000E+00
  0.00000000E+00  0.00000000E+00  0.00000000E+00
  0.00000000E+00  0.00000000E+00  0.00000000E+00
  0.00000000E+00  0.00000000E+00  0.00000000E+00
  0.00000000E+00  0.00000000E+00  0.00000000E+00
  0.00000000E+00  0.00000000E+00  0.00000000E+00
  0.00000000E+00  0.00000000E+00  0.00000000E+00
  0.00000000E+00  0.00000000E+00  0.00000000E+00
  0.00000000E+00  0.00000000E+00  0.00000000E+00
  0.00000000E+00  0.00000000E+00  0.00000000E+00
  0.00000000E+00  0.00000000E+00  0.00000000E+00
  0.00000000E+00  0.00000000E+00  0.00000000E+00
  0.00000000E+00  0.00000000E+00  0.00000000E+00
  0.00000000E+00  0.00000000E+00  0.00000000E+00
  0.00000000E+00  0.00000000E+00  0.00000000E+00
  0.00000000E+00  0.00000000E+00  0.00000000E+00
  0.00000000E+00  0.00000000E+00  0.00000000E+00
  0.00000000E+00  0.00000000E+00  0.00000000E+00
  0.00000000E+00  0.00000000E+00  0.00000000E+00
  0.00000000E+00  0.00000000E+00  0.00000000E+00
  0.00000000E+00  0.00000000E+00  0.00000000E+00
  0.00000000E+00  0.00000000E+00  0.00000000E+00
  0.00000000E+00  0.00000000E+00  0.00000000E+00
  0.00000000E+00  0.00000000E+00  0.00000000E+00
  0.00000000E+00  0.00000000E+00  0.00000000E+00
  0.00000000E+00  0.00000000E+00  0.00000000E+00
  0.00000000E+00  0.00000000E+00  0.00000000E+00
  0.00000000E+00  0.00000000E+00  0.00000000E+00
  0.00000000E+00  0.00000000E+00  0.00000000E+00
  0.00000000E+00  0.00000000E+00  0.00000000E+00
  0.00000000E+00  0.00000000E+00  0.00000000E+00
  0.00000000E+00  0.00000000E+00  0.00000000E+00
  0.00000000E+00  0.00000000E+00  0.00000000E+00
  0.00000000E+00  0.00000000E+00  0.00000000E+00
  0.00000000E+00  0.00000000E+00  0.00000000E+00
  0.00000000E+00  0.00000000E+00  0.00000000E+00
  0.00000000E+00  0.00000000E+00  0.00000000E+00
  0.00000000E+00  0.00000000E+00  0.00000000E+00
  0.00000000E+00  0.00000000E+00  0.00000000E+00
  0.00000000E+00  0.00000000E+00  0.00000000E+00
  0.00000000E+00  0.00000000E+00  0.00000000E+00
  0.00000000E+00  0.00000000E+00  0.00000000E+00
  0.00000000E+00  0.00000000E+00  0.00000000E+00
  0.00000000E+00  0.00000000E+00  0.00000000E+00
