CeO2-you-111-you-Ce                     
   1.00000000000000     
     9.8730338617399802   -5.7153992135775313   -0.0008467631552613
    -0.0131636601738234   11.4079962887754522    0.0008467630109045
    -0.0010598497435064    0.0018357134735640   20.6301491986248138
   O    Ce   Ce   H 
    53     1    26     2
Selective dynamics
Direct
  0.9994473101240390 -0.0002310433035370  0.9914515883840140   T   T   T
  0.1103189031182339  0.2201301401182718  0.1461341530663915   F   F   F
  0.2278727952099988  0.1099574066083784  0.3056945880672560   T   T   T
  0.1283000830056661  0.2328014299760455  0.3812002414720708   T   T   T
  0.0027930571151592  0.0018087020226332  0.2298638406466407   T   T   T
  0.2216684275346026  0.1101126873239195  0.0719691241173521   F   F   F
  0.3350408963120875  0.0010359293593547  0.9923743226714394   T   T   T
  0.4410446641742425  0.2256213358255081  0.1499986570115155   F   F   F
  0.5561918047381592  0.1120312226157247  0.3045299183376938   T   T   T
  0.4480276737637341  0.2196746935113962  0.3895521905118918   T   T   T
  0.3347388953455085  0.0016275319347026  0.2278757458759632   T   T   T
  0.5556446969013820  0.1110223030986788  0.0754275319065485   F   F   F
  0.6656278516749868  0.0010054021613479  0.9927740924499512   T   T   T
  0.7845538305094308  0.2250332465362419  0.1511914918920496   F   F   F
  0.8853743856465490  0.1044165262822256  0.3066674574476652   T   T   T
  0.7655121534965788  0.2154348317805175  0.3913365892914233   T   T   T
  0.6670539905981548  0.0004224880971219  0.2291572123668156   T   T   T
  0.8879032817048724  0.1101479073333778  0.0725896170167886   F   F   F
  0.9984866555177914  0.3326704159319997  0.9916048739719230   T   T   T
  0.1100525789631703  0.5566144210369828  0.1461485424129094   F   F   F
  0.1066057543770528  0.5610956460992816  0.3874457341542187   T   T   T
  0.0181553583396966  0.3429197397258080  0.2348357999128638   T   T   T
  0.2221284444901954  0.4445375555100313  0.0698593015214328   F   F   F
  0.3338186649506434  0.3329065800613094  0.9913603913047031   T   T   T
  0.4465358598819975  0.5563480968815497  0.1461341530666047   F   F   F
  0.5577280719042985  0.4395942951790792  0.3057565028821482   T   T   T
  0.4338029499881797  0.5380910565436532  0.3814273568992997   T   T   T
  0.3240553357111350  0.3426107553706748  0.2357987789213291   T   T   T
  0.5565543126761412  0.4449975724651622  0.0719691241176008   F   F   F
  0.6654759977423363  0.3315113198420273  0.9924483814110245   T   T   T
  0.7776325030516702  0.5551793765550954  0.1490725738017531   F   F   F
  0.8812560530723651  0.4444830609702199  0.3054745802172283   T   T   T
  0.7771665886803536  0.5595035667550554  0.3878360575399037   T   T   T
  0.6656622009194125  0.3320310425081665  0.2277921885725680   T   T   T
  0.8878533904255761  0.4443828303142681  0.0722739184158385   F   F   F
  0.9997521183102862  0.6666896232049954  0.9913911294390746   T   T   T
  0.1114876234445319  0.8890344969484403  0.1490725738018170   F   F   F
  0.2218437227720553  0.7848595658439674  0.3048414806325935   T   T   T
  0.1095499045928735  0.8907776837537362  0.3877255416837966   T   T   T
  0.0003269150907204  0.6661058659255800  0.2295538969866884   T   T   T
  0.2222831696855820  0.7788136095744989  0.0722739184158314   F   F   F
  0.3340209618488764  0.6683410061518911  0.9916140053531147   T   T   T
  0.4416327534638995  0.8821131694905233  0.1511914918920425   F   F   F
  0.5627476229195294  0.7815893272047424  0.3059550920418088   T   T   T
  0.4511378608182703  0.9011309511639125  0.3904614698285372   T   T   T
  0.3237600472467150  0.6479309583014540  0.2344840250565697   T   T   T
  0.5565190926665906  0.7787637182958136  0.0725896170167033   F   F   F
  0.6666467007612461  0.6670519249626156  0.9914579842445813   T   T   T
  0.7780310266319219  0.8886359733681743  0.1502151338796338   F   F   F
  0.8893167429293654  0.7792537688165387  0.3045453302110140   T   T   T
  0.7803293094716498  0.8865037385419596  0.3885983726411310   T   T   T
  0.6652470002117771  0.6634902374030789  0.2302101445799524   T   T   T
  0.8887218053072985  0.7779451946926059  0.0726505601157257   F   F   F
  0.3424350219527336  0.3247142245814313  0.3506140308536947   T   T   T
  0.0011642864037822 -0.0002952466283078  0.3460834851547444   T   T   T
  0.2221090096971210  0.1115956655485988  0.1897212365654681   F   F   F
  0.1096844401543606  0.2200919118391980  0.0306143605121605   F   F   F
  0.3348179449890188 -0.0006568872574936  0.3463594121107268   T   T   T
  0.5557340241489683  0.1109329758508437  0.1899367875910443   F   F   F
  0.4442620850880346  0.2224039149123200  0.0323786344660562   F   F   F
  0.6676151742424522 -0.0004878756076629  0.3471052429931455   T   T   T
  0.8907069996190771  0.1120110537266399  0.1913781015845686   F   F   F
  0.7782222084795691  0.2223087765835459  0.0331962917834758   F   F   F
  0.9884739182978975  0.3298413890023164  0.3548921840491412   T   T   T
  0.2220364057952864  0.4446295942053169  0.1812577083996061   F   F   F
  0.1098216786889594  0.5568453213097015  0.0309537073053079   F   F   F
  0.5550713344483782  0.4445569903028286  0.1897212365652337   F   F   F
  0.4465740881616043  0.5569825598459985  0.0306143605120752   F   F   F
  0.6677042026785197  0.3323899893056596  0.3466653862568622   T   T   T
  0.8902231198453379  0.4448617962853305  0.1908946717603257   F   F   F
  0.7775044646080858  0.5550235697113592  0.0327150064275870   F   F   F
 -0.0000638726013006  0.6673802231520690  0.3470835534122337   T   T   T
  0.2218042037164167  0.7764438801563713  0.1908946717602831   F   F   F
  0.1116434302889573  0.8891625353920460  0.0327150064275443   F   F   F
  0.3370536503025102  0.6779181692652591  0.3544752178865247   T   T   T
  0.5546559462715948  0.7759600003815734  0.1913781015844478   F   F   F
  0.4443572234165245  0.8884447915202998  0.0331962917834119   F   F   F
  0.6679084277106698  0.6661670799123025  0.3460401408571778   T   T   T
  0.8892612867247394  0.7774057132751437  0.1891209376860559   F   F   F
  0.7773374316191592  0.8893295683806386  0.0332912119556994   F   F   F
  0.3415113229998294  0.3233749175595729  0.5046034170713843   T   T   T
  0.3773588245503398  0.2875001333083741  0.4921632770314566   T   T   T
 
  0.00000000E+00  0.00000000E+00  0.00000000E+00
  0.00000000E+00  0.00000000E+00  0.00000000E+00
  0.00000000E+00  0.00000000E+00  0.00000000E+00
  0.00000000E+00  0.00000000E+00  0.00000000E+00
  0.00000000E+00  0.00000000E+00  0.00000000E+00
  0.00000000E+00  0.00000000E+00  0.00000000E+00
  0.00000000E+00  0.00000000E+00  0.00000000E+00
  0.00000000E+00  0.00000000E+00  0.00000000E+00
  0.00000000E+00  0.00000000E+00  0.00000000E+00
  0.00000000E+00  0.00000000E+00  0.00000000E+00
  0.00000000E+00  0.00000000E+00  0.00000000E+00
  0.00000000E+00  0.00000000E+00  0.00000000E+00
  0.00000000E+00  0.00000000E+00  0.00000000E+00
  0.00000000E+00  0.00000000E+00  0.00000000E+00
  0.00000000E+00  0.00000000E+00  0.00000000E+00
  0.00000000E+00  0.00000000E+00  0.00000000E+00
  0.00000000E+00  0.00000000E+00  0.00000000E+00
  0.00000000E+00  0.00000000E+00  0.00000000E+00
  0.00000000E+00  0.00000000E+00  0.00000000E+00
  0.00000000E+00  0.00000000E+00  0.00000000E+00
  0.00000000E+00  0.00000000E+00  0.00000000E+00
  0.00000000E+00  0.00000000E+00  0.00000000E+00
  0.00000000E+00  0.00000000E+00  0.00000000E+00
  0.00000000E+00  0.00000000E+00  0.00000000E+00
  0.00000000E+00  0.00000000E+00  0.00000000E+00
  0.00000000E+00  0.00000000E+00  0.00000000E+00
  0.00000000E+00  0.00000000E+00  0.00000000E+00
  0.00000000E+00  0.00000000E+00  0.00000000E+00
  0.00000000E+00  0.00000000E+00  0.00000000E+00
  0.00000000E+00  0.00000000E+00  0.00000000E+00
  0.00000000E+00  0.00000000E+00  0.00000000E+00
  0.00000000E+00  0.00000000E+00  0.00000000E+00
  0.00000000E+00  0.00000000E+00  0.00000000E+00
  0.00000000E+00  0.00000000E+00  0.00000000E+00
  0.00000000E+00  0.00000000E+00  0.00000000E+00
  0.00000000E+00  0.00000000E+00  0.00000000E+00
  0.00000000E+00  0.00000000E+00  0.00000000E+00
  0.00000000E+00  0.00000000E+00  0.00000000E+00
  0.00000000E+00  0.00000000E+00  0.00000000E+00
  0.00000000E+00  0.00000000E+00  0.00000000E+00
  0.00000000E+00  0.00000000E+00  0.00000000E+00
  0.00000000E+00  0.00000000E+00  0.00000000E+00
  0.00000000E+00  0.00000000E+00  0.00000000E+00
  0.00000000E+00  0.00000000E+00  0.00000000E+00
  0.00000000E+00  0.00000000E+00  0.00000000E+00
  0.00000000E+00  0.00000000E+00  0.00000000E+00
  0.00000000E+00  0.00000000E+00  0.00000000E+00
  0.00000000E+00  0.00000000E+00  0.00000000E+00
  0.00000000E+00  0.00000000E+00  0.00000000E+00
  0.00000000E+00  0.00000000E+00  0.00000000E+00
  0.00000000E+00  0.00000000E+00  0.00000000E+00
  0.00000000E+00  0.00000000E+00  0.00000000E+00
  0.00000000E+00  0.00000000E+00  0.00000000E+00
  0.00000000E+00  0.00000000E+00  0.00000000E+00
  0.00000000E+00  0.00000000E+00  0.00000000E+00
  0.00000000E+00  0.00000000E+00  0.00000000E+00
  0.00000000E+00  0.00000000E+00  0.00000000E+00
  0.00000000E+00  0.00000000E+00  0.00000000E+00
  0.00000000E+00  0.00000000E+00  0.00000000E+00
  0.00000000E+00  0.00000000E+00  0.00000000E+00
  0.00000000E+00  0.00000000E+00  0.00000000E+00
  0.00000000E+00  0.00000000E+00  0.00000000E+00
  0.00000000E+00  0.00000000E+00  0.00000000E+00
  0.00000000E+00  0.00000000E+00  0.00000000E+00
  0.00000000E+00  0.00000000E+00  0.00000000E+00
  0.00000000E+00  0.00000000E+00  0.00000000E+00
  0.00000000E+00  0.00000000E+00  0.00000000E+00
  0.00000000E+00  0.00000000E+00  0.00000000E+00
  0.00000000E+00  0.00000000E+00  0.00000000E+00
  0.00000000E+00  0.00000000E+00  0.00000000E+00
  0.00000000E+00  0.00000000E+00  0.00000000E+00
  0.00000000E+00  0.00000000E+00  0.00000000E+00
  0.00000000E+00  0.00000000E+00  0.00000000E+00
  0.00000000E+00  0.00000000E+00  0.00000000E+00
  0.00000000E+00  0.00000000E+00  0.00000000E+00
  0.00000000E+00  0.00000000E+00  0.00000000E+00
  0.00000000E+00  0.00000000E+00  0.00000000E+00
  0.00000000E+00  0.00000000E+00  0.00000000E+00
  0.00000000E+00  0.00000000E+00  0.00000000E+00
  0.00000000E+00  0.00000000E+00  0.00000000E+00
  0.00000000E+00  0.00000000E+00  0.00000000E+00
  0.00000000E+00  0.00000000E+00  0.00000000E+00
