CeO2-you-111-you-Ta                     
   1.00000000000000     
     9.8662205681143238   -5.7033363587452612    0.0201248596265449
    -0.0000000022614761   11.4066707063026254   -0.0000000023869641
     0.0444283012517038   -0.0000000045765252   20.9288465998143813
   O    Ta   Ce H
    53     1    26 2
Selective dynamics
Direct
  0.0000120108622777  0.0010025048016302  0.9945594047943501   T   T   T
  0.1195722157841066  0.2264526078931561  0.1518732189297152   F   F   F
  0.2153036012968216  0.1089838893250812  0.3026239757178779   T   T   T
  0.1391882944991826  0.2362606472564145  0.3820106574656467   T   T   T
 -0.0022565432958199 -0.0005488054632681  0.2280388747650793   T   T   T
  0.2196097231474908  0.1091775385838126  0.0735689260173691   F   F   F
  0.3344573968684361  0.0002195669944133  0.9949259214920014   T   T   T
  0.4378352996682698  0.2131758317583453  0.1479462028401373   F   F   F
  0.5474840225215402  0.1020969548796680  0.3083655409825567   T   T   T
  0.4324097960857792  0.2608528889647823  0.3677527288432751   T   T   T
  0.3308436576642804 -0.0013859389249848  0.2305623327587166   T   T   T
  0.5558733775357703  0.1100558320978578  0.0749013405866950   F   F   F
  0.6692656791354467  0.0012993395676990  0.9953030688506468   T   T   T
  0.7746154362893296  0.2222509657070492  0.1510692502053704   F   F   F
  0.8953005246497542  0.1143167623261049  0.3053697421726795   T   T   T
  0.7840695754630295  0.2160411717405878  0.3875456396996574   T   T   T
  0.6683640153757925  0.0008485076882119  0.2317121645528950   T   T   T
  0.8909126836428188  0.1121228418215843  0.0768981743127938   F   F   F
  0.0000120108621656  0.3323425060604613  0.9945594047943112   T   T   T
  0.1110809972702597  0.5556587916950854  0.1497369398705781   F   F   F
  0.2153036012753976  0.4396527119645613  0.3026239757202095   T   T   T
  0.1159327900814942  0.5568501573566450  0.3852777955819948   T   T   T
 -0.0022565432972768  0.3316252621666944  0.2280388747650434   T   T   T
  0.2196097231471968  0.4437651845625890  0.0735689260174381   F   F   F
  0.3309372196022687  0.3321351098007033  0.9947103428479990   T   T   T
  0.4378352996730155  0.5579934679104569  0.1479462028398220   F   F   F
  0.4324097960496061  0.5048909070972541  0.3677527288451097   T   T   T
  0.3431605315932235  0.3382467657983073  0.2430733912931629   T   T   T
  0.5552667987777617  0.4442993993887898  0.0704987573632125   F   F   F
  0.6680834715029509  0.3317348138761764  0.9950417706165486   T   T   T
  0.7856608119402756  0.5594974059715829  0.1467351227056367   F   F   F
  0.8979191633438084  0.4459009942628235  0.3051753070373832   T   T   T
  0.7870198106055338  0.5601769053018134  0.3846067125690989   T   T   T
  0.6647176442939858  0.3348620130347946  0.2343778812941639   T   T   T
  0.8899266653268152  0.4431193275831945  0.0742981564280320   F   F   F
  0.0007756059886306  0.6670548029945148  0.9947954206199747   T   T   T
  0.1110809972711389  0.8887562055758981  0.1497369398705939   F   F   F
  0.2216333028121651  0.7774836514069315  0.3041519230840106   T   T   T
  0.1159327900834747  0.8924166327280978  0.3852777955818708   T   T   T
 -0.0007953270563935  0.6662693364720047  0.2298227708719945   T   T   T
  0.2228536488028870  0.7780938244015378  0.0746975782798628   F   F   F
  0.3344573968689202  0.6675718298742901  0.9949259214920420   T   T   T
  0.4453350823903141  0.8893345411954776  0.1517012783760907   F   F   F
  0.5474840225231802  0.7787200676394078  0.3083655409821767   T   T   T
  0.4349939463143871  0.8841639731563642  0.3869261482031215   T   T   T
  0.3308436576629636  0.6655635965884127  0.2305623327587502   T   T   T
  0.5558733775363048  0.7791505454383566  0.0749013405867157   F   F   F
  0.6680834715038424  0.6696816576273346  0.9950417706166151   T   T   T
  0.7746154362902508  0.8856974705822961  0.1510692502052953   F   F   F
  0.8979191633443518  0.7853511690823121  0.3051753070375575   T   T   T
  0.7840695754618338  0.9013614037213363  0.3875456396998496   T   T   T
  0.6647176442909273  0.6631886312557677  0.2343778812943114   T   T   T
  0.8899266653277648  0.7801403377444439  0.0742981564280742   F   F   F
  0.3127310514596982  0.3230320257226110  0.3368447063563463   T   T   T
  0.0008651691757606 -0.0004827299021491  0.3432993781907027   T   T   T
  0.2207910529570099  0.1080212035955496  0.1889728906204154   F   F   F
  0.1118733982396175  0.2226031991202294  0.0341811058354774   F   F   F
  0.3283663050345891 -0.0038857281038020  0.3426218004552060   T   T   T
  0.5551931158913161  0.1122320842645363  0.1917982499009757   F   F   F
  0.4441076437658906  0.2204668592048047  0.0340154899937763   F   F   F
  0.6654108068138962 -0.0006280965922223  0.3464074032934600   T   T   T
  0.8883583548906356  0.1108456774451975  0.1900036960390637   F   F   F
  0.7781535209242335  0.2223738427582033  0.0352151218287308   F   F   F
  0.0008651691817819  0.3346808990770510  0.3432993781900172   T   T   T
  0.2207910529622904  0.4461028493636265  0.1889728906199506   F   F   F
  0.1109292053268387  0.5548866654756058  0.0343753091413289   F   F   F
  0.5566500722356340  0.4449910361185727  0.1836923096722339   F   F   F
  0.4441076437641313  0.5569747845605844  0.0340154899939393   F   F   F
  0.6742107358268269  0.3309443325474868  0.3505928433428436   T   T   T
  0.8865835885693483  0.4439592947514472  0.1903496860203117   F   F   F
  0.7794002773947689  0.5563671386970566  0.0339353857144796   F   F   F
 -0.0009104149768290  0.6662117925121237  0.3447578085758178   T   T   T
  0.2208870800506030  0.7771105400245996  0.1884809747725720   F   F   F
  0.1109292053267596  0.8893765398509088  0.0343753091414362   F   F   F
  0.3283663050455229  0.6655860331400253  0.3426218004547463   T   T   T
  0.5551931158904515  0.7762940316259095  0.1917982499011148   F   F   F
  0.4463616822593772  0.8898478411298094  0.0357166191877609   F   F   F
  0.6742107358413969  0.6765994032955557  0.3505928433420223   T   T   T
  0.8865835885657991  0.7759572938165661  0.1903496860204993   F   F   F
  0.7781535209229165  0.8891126781652532  0.0352151218287687   F   F   F
0.3127310514596982 0.3230320257226110 0.436845 T T T
0.446598 0.216020 0.433410 T T T 
 
  0.00000000E+00  0.00000000E+00  0.00000000E+00
  0.00000000E+00  0.00000000E+00  0.00000000E+00
  0.00000000E+00  0.00000000E+00  0.00000000E+00
  0.00000000E+00  0.00000000E+00  0.00000000E+00
  0.00000000E+00  0.00000000E+00  0.00000000E+00
  0.00000000E+00  0.00000000E+00  0.00000000E+00
  0.00000000E+00  0.00000000E+00  0.00000000E+00
  0.00000000E+00  0.00000000E+00  0.00000000E+00
  0.00000000E+00  0.00000000E+00  0.00000000E+00
  0.00000000E+00  0.00000000E+00  0.00000000E+00
  0.00000000E+00  0.00000000E+00  0.00000000E+00
  0.00000000E+00  0.00000000E+00  0.00000000E+00
  0.00000000E+00  0.00000000E+00  0.00000000E+00
  0.00000000E+00  0.00000000E+00  0.00000000E+00
  0.00000000E+00  0.00000000E+00  0.00000000E+00
  0.00000000E+00  0.00000000E+00  0.00000000E+00
  0.00000000E+00  0.00000000E+00  0.00000000E+00
  0.00000000E+00  0.00000000E+00  0.00000000E+00
  0.00000000E+00  0.00000000E+00  0.00000000E+00
  0.00000000E+00  0.00000000E+00  0.00000000E+00
  0.00000000E+00  0.00000000E+00  0.00000000E+00
  0.00000000E+00  0.00000000E+00  0.00000000E+00
  0.00000000E+00  0.00000000E+00  0.00000000E+00
  0.00000000E+00  0.00000000E+00  0.00000000E+00
  0.00000000E+00  0.00000000E+00  0.00000000E+00
  0.00000000E+00  0.00000000E+00  0.00000000E+00
  0.00000000E+00  0.00000000E+00  0.00000000E+00
  0.00000000E+00  0.00000000E+00  0.00000000E+00
  0.00000000E+00  0.00000000E+00  0.00000000E+00
  0.00000000E+00  0.00000000E+00  0.00000000E+00
  0.00000000E+00  0.00000000E+00  0.00000000E+00
  0.00000000E+00  0.00000000E+00  0.00000000E+00
  0.00000000E+00  0.00000000E+00  0.00000000E+00
  0.00000000E+00  0.00000000E+00  0.00000000E+00
  0.00000000E+00  0.00000000E+00  0.00000000E+00
  0.00000000E+00  0.00000000E+00  0.00000000E+00
  0.00000000E+00  0.00000000E+00  0.00000000E+00
  0.00000000E+00  0.00000000E+00  0.00000000E+00
  0.00000000E+00  0.00000000E+00  0.00000000E+00
  0.00000000E+00  0.00000000E+00  0.00000000E+00
  0.00000000E+00  0.00000000E+00  0.00000000E+00
  0.00000000E+00  0.00000000E+00  0.00000000E+00
  0.00000000E+00  0.00000000E+00  0.00000000E+00
  0.00000000E+00  0.00000000E+00  0.00000000E+00
  0.00000000E+00  0.00000000E+00  0.00000000E+00
  0.00000000E+00  0.00000000E+00  0.00000000E+00
  0.00000000E+00  0.00000000E+00  0.00000000E+00
  0.00000000E+00  0.00000000E+00  0.00000000E+00
  0.00000000E+00  0.00000000E+00  0.00000000E+00
  0.00000000E+00  0.00000000E+00  0.00000000E+00
  0.00000000E+00  0.00000000E+00  0.00000000E+00
  0.00000000E+00  0.00000000E+00  0.00000000E+00
  0.00000000E+00  0.00000000E+00  0.00000000E+00
  0.00000000E+00  0.00000000E+00  0.00000000E+00
  0.00000000E+00  0.00000000E+00  0.00000000E+00
  0.00000000E+00  0.00000000E+00  0.00000000E+00
  0.00000000E+00  0.00000000E+00  0.00000000E+00
  0.00000000E+00  0.00000000E+00  0.00000000E+00
  0.00000000E+00  0.00000000E+00  0.00000000E+00
  0.00000000E+00  0.00000000E+00  0.00000000E+00
  0.00000000E+00  0.00000000E+00  0.00000000E+00
  0.00000000E+00  0.00000000E+00  0.00000000E+00
  0.00000000E+00  0.00000000E+00  0.00000000E+00
  0.00000000E+00  0.00000000E+00  0.00000000E+00
  0.00000000E+00  0.00000000E+00  0.00000000E+00
  0.00000000E+00  0.00000000E+00  0.00000000E+00
  0.00000000E+00  0.00000000E+00  0.00000000E+00
  0.00000000E+00  0.00000000E+00  0.00000000E+00
  0.00000000E+00  0.00000000E+00  0.00000000E+00
  0.00000000E+00  0.00000000E+00  0.00000000E+00
  0.00000000E+00  0.00000000E+00  0.00000000E+00
  0.00000000E+00  0.00000000E+00  0.00000000E+00
  0.00000000E+00  0.00000000E+00  0.00000000E+00
  0.00000000E+00  0.00000000E+00  0.00000000E+00
  0.00000000E+00  0.00000000E+00  0.00000000E+00
  0.00000000E+00  0.00000000E+00  0.00000000E+00
  0.00000000E+00  0.00000000E+00  0.00000000E+00
  0.00000000E+00  0.00000000E+00  0.00000000E+00
  0.00000000E+00  0.00000000E+00  0.00000000E+00
  0.00000000E+00  0.00000000E+00  0.00000000E+00
