CeO2-you-111-you-Cu                     
   1.00000000000000     
     9.8211826437460985   -5.7153982406844754    0.0090528617177749
    -0.0390884138999806   11.3630913554210906   -0.0090528601635984
     0.0100878417317085   -0.0174726534100434   21.0850369688647135
   O    Cu   Ce   H 
    53     1    26     1
Selective dynamics
Direct
  0.9999737055089604  0.9999442951241266  0.9942045410448183   T   T   T
  0.1055429055347814  0.2182283557273511  0.1452264405199004   T   T   T
  0.2440079738002286  0.1284685218259575  0.3077485334915184   T   T   T
  0.1347724606300350  0.2554649188620872  0.3663662164107671   T   T   T
  0.0078064563472879  0.0052190059973446  0.2307728799096426   T   T   T
  0.2228907289682382  0.1114346196473911  0.0743989547602213   T   T   T
  0.3344245411635738  0.0007358436977242  0.9953313088669308   T   T   T
  0.4450252361356049  0.2217554990271016  0.1503399397511182   T   T   T
  0.5502906002112397  0.1054810451944209  0.3051004146412236   T   T   T
  0.4577054608669135  0.1846121754175358  0.4137857847629975   T   T   T
  0.3307885666349628 -0.0013545588108371  0.2286042380093062   T   T   T
  0.5567352330971765  0.1097059367244581  0.0769394435102408   T   T   T
  0.6657337745543545  0.0013095715910586  0.9936839551323305   T   T   T
  0.7839742942563419  0.2251357040657150  0.1523914359773829   T   T   T
  0.8889825717314880  0.1087123636583914  0.3033542717666462   T   T   T
  0.7851018502172727  0.2137403743391850  0.3878143039601710   T   T   T
  0.6679820723791898  0.0009460750894025  0.2294318943211339   T   T   T
  0.8851064516779170  0.1085011639602210  0.0738203330992664   T   T   T
  0.9978831741095394  0.3322425384752408  0.9941715598896960   T   T   T
  0.1098163067534619  0.5562377978176519  0.1465682074715908   T   T   T
  0.1169568336326707  0.5508177887056889  0.3790052019597241   T   T   T
  0.0181105579806430  0.3426669095962716  0.2339571264886792   T   T   T
  0.2223471791782476  0.4446220766143361  0.0709192569567213   T   T   T
  0.3342932520377948  0.3326376585209129  0.9940411242168303   T   T   T
  0.4489998598266189  0.5620417893705556  0.1461202447046779   T   T   T
  0.5322157031875261  0.4296568868281572  0.3082365268827592   T   T   T
  0.4113472478760449  0.5367952833100428  0.3705338190031029   T   T   T
  0.3252231457539608  0.3394306042398481  0.2217122187462163   T   T   T
  0.5549180437290281  0.4444903603931040  0.0749083007343841   T   T   T
  0.6650056349962141  0.3318642683992443  0.9953620617922281   T   T   T
  0.7787258903851217  0.5562363341797089  0.1504226307261892   T   T   T
  0.8905018182282576  0.4465440924394014  0.3047336363339814   T   T   T
  0.7813723936490801  0.5708654070252017  0.3842376980253971   T   T   T
  0.6657432753915582  0.3345565155070316  0.2288986847009437   T   T   T
  0.8872194552180910  0.4439973516480807  0.0742861237136532   T   T   T
  0.9998812803477882  0.6675667275640662  0.9950440537619423   T   T   T
  0.1106902052033588  0.8878528070896838  0.1494838206714997   T   T   T
  0.2224339790146965  0.7802334206185397  0.3044218339871661   T   T   T
  0.1102951337592685  0.8924069220670648  0.3825308274038906   T   T   T
  0.0008686002584300  0.6674437471252190  0.2295753141162227   T   T   T
  0.2231102116200976  0.7788028933118379  0.0743689955728180   T   T   T
  0.3339222232998864  0.6682024317624948  0.9941919687079211   T   T   T
  0.4421164184402434  0.8823724615045896  0.1523411158936693   T   T   T
  0.5586049111025037  0.7798991373953629  0.3042964883212113   T   T   T
  0.4451335419249511  0.8853485648575244  0.3865639552236227   T   T   T
  0.3233735543042565  0.6480252034927130  0.2346261831149896   T   T   T
  0.5580519565688908  0.7813604594330660  0.0737934079188610   T   T   T
  0.6667795666796602  0.6664688055722856  0.9943207693054785   T   T   T
  0.7786838343920688  0.8885925235424309  0.1519778650697248   T   T   T
  0.8907352042240647  0.7816246304597373  0.3021860542369703   T   T   T
  0.7816281351984712  0.8900006806588574  0.3833222136360029   T   T   T
  0.6639718664029507  0.6616810706219201  0.2312319952155178   T   T   T
  0.8879816951356132  0.7787163408411890  0.0746552288559174   T   T   T
  0.3317105506681967  0.3430001778066463  0.3374191603224675   T   T   T
  0.0094209215077048  0.0088345961843895  0.3413818981018631   T   T   T
  0.2257415328225373  0.1152202891909774  0.1904732106526749   T   T   T
  0.1098151773401404  0.2197770163941487  0.0324852238810364   T   T   T
  0.3325977369301390 -0.0005562909799847  0.3446010412479290   T   T   T
  0.5560802732538941  0.1112450337601582  0.1919102392037607   T   T   T
  0.4447864676245351  0.2222095079896692  0.0355002314411400   T   T   T
  0.6690617149016688  0.9994670707257500  0.3459344096138384   T   T   T
  0.8906936132725284  0.1120669598892100  0.1901690231599126   T   T   T
  0.7771869825688618  0.2216935899466017  0.0351736585488253   T   T   T
  0.9926484897449277  0.3293159720054348  0.3455756923695086   T   T   T
  0.2229801346374544  0.4436012780893303  0.1797119770338522   T   T   T
  0.1096207575832553  0.5566356983276309  0.0329704728294433   T   T   T
  0.5513804098457663  0.4415525143123271  0.1921858551338740   T   T   T
  0.4469833252367778  0.5568181945393165  0.0327955737577961   T   T   T
  0.6629650673779411  0.3334182643739863  0.3495152480256573   T   T   T
  0.8883927043056752  0.4446530648723743  0.1911858069825831   T   T   T
  0.7767475905896271  0.5546579877697938  0.0361902422579141   T   T   T
  0.9974893633514825  0.6683285825978638  0.3424199617424041   T   T   T
  0.2216575953832274  0.7768290864382189  0.1898831826041367   T   T   T
  0.1118667027148117  0.8893718167681671  0.0355941759413936   T   T   T
  0.3370963297465402  0.6742733087669223  0.3462612012881199   T   T   T
  0.5554027040720431  0.7766777528548120  0.1906399694733985   T   T   T
  0.4451005112349148  0.8892246263460595  0.0349728507113127   T   T   T
  0.6620826507248306  0.6621964677485003  0.3423558110724925   T   T   T
  0.8895860722932663  0.7779192970790361  0.1893998168552108   T   T   T
  0.7772419781407108  0.8893279234862835  0.0346103690556036   T   T   T
  0.4222516685999132  0.2134728105886954  0.4486562933961052   T   T   T
 
  0.00000000E+00  0.00000000E+00  0.00000000E+00
  0.00000000E+00  0.00000000E+00  0.00000000E+00
  0.00000000E+00  0.00000000E+00  0.00000000E+00
  0.00000000E+00  0.00000000E+00  0.00000000E+00
  0.00000000E+00  0.00000000E+00  0.00000000E+00
  0.00000000E+00  0.00000000E+00  0.00000000E+00
  0.00000000E+00  0.00000000E+00  0.00000000E+00
  0.00000000E+00  0.00000000E+00  0.00000000E+00
  0.00000000E+00  0.00000000E+00  0.00000000E+00
  0.00000000E+00  0.00000000E+00  0.00000000E+00
  0.00000000E+00  0.00000000E+00  0.00000000E+00
  0.00000000E+00  0.00000000E+00  0.00000000E+00
  0.00000000E+00  0.00000000E+00  0.00000000E+00
  0.00000000E+00  0.00000000E+00  0.00000000E+00
  0.00000000E+00  0.00000000E+00  0.00000000E+00
  0.00000000E+00  0.00000000E+00  0.00000000E+00
  0.00000000E+00  0.00000000E+00  0.00000000E+00
  0.00000000E+00  0.00000000E+00  0.00000000E+00
  0.00000000E+00  0.00000000E+00  0.00000000E+00
  0.00000000E+00  0.00000000E+00  0.00000000E+00
  0.00000000E+00  0.00000000E+00  0.00000000E+00
  0.00000000E+00  0.00000000E+00  0.00000000E+00
  0.00000000E+00  0.00000000E+00  0.00000000E+00
  0.00000000E+00  0.00000000E+00  0.00000000E+00
  0.00000000E+00  0.00000000E+00  0.00000000E+00
  0.00000000E+00  0.00000000E+00  0.00000000E+00
  0.00000000E+00  0.00000000E+00  0.00000000E+00
  0.00000000E+00  0.00000000E+00  0.00000000E+00
  0.00000000E+00  0.00000000E+00  0.00000000E+00
  0.00000000E+00  0.00000000E+00  0.00000000E+00
  0.00000000E+00  0.00000000E+00  0.00000000E+00
  0.00000000E+00  0.00000000E+00  0.00000000E+00
  0.00000000E+00  0.00000000E+00  0.00000000E+00
  0.00000000E+00  0.00000000E+00  0.00000000E+00
  0.00000000E+00  0.00000000E+00  0.00000000E+00
  0.00000000E+00  0.00000000E+00  0.00000000E+00
  0.00000000E+00  0.00000000E+00  0.00000000E+00
  0.00000000E+00  0.00000000E+00  0.00000000E+00
  0.00000000E+00  0.00000000E+00  0.00000000E+00
  0.00000000E+00  0.00000000E+00  0.00000000E+00
  0.00000000E+00  0.00000000E+00  0.00000000E+00
  0.00000000E+00  0.00000000E+00  0.00000000E+00
  0.00000000E+00  0.00000000E+00  0.00000000E+00
  0.00000000E+00  0.00000000E+00  0.00000000E+00
  0.00000000E+00  0.00000000E+00  0.00000000E+00
  0.00000000E+00  0.00000000E+00  0.00000000E+00
  0.00000000E+00  0.00000000E+00  0.00000000E+00
  0.00000000E+00  0.00000000E+00  0.00000000E+00
  0.00000000E+00  0.00000000E+00  0.00000000E+00
  0.00000000E+00  0.00000000E+00  0.00000000E+00
  0.00000000E+00  0.00000000E+00  0.00000000E+00
  0.00000000E+00  0.00000000E+00  0.00000000E+00
  0.00000000E+00  0.00000000E+00  0.00000000E+00
  0.00000000E+00  0.00000000E+00  0.00000000E+00
  0.00000000E+00  0.00000000E+00  0.00000000E+00
  0.00000000E+00  0.00000000E+00  0.00000000E+00
  0.00000000E+00  0.00000000E+00  0.00000000E+00
  0.00000000E+00  0.00000000E+00  0.00000000E+00
  0.00000000E+00  0.00000000E+00  0.00000000E+00
  0.00000000E+00  0.00000000E+00  0.00000000E+00
  0.00000000E+00  0.00000000E+00  0.00000000E+00
  0.00000000E+00  0.00000000E+00  0.00000000E+00
  0.00000000E+00  0.00000000E+00  0.00000000E+00
  0.00000000E+00  0.00000000E+00  0.00000000E+00
  0.00000000E+00  0.00000000E+00  0.00000000E+00
  0.00000000E+00  0.00000000E+00  0.00000000E+00
  0.00000000E+00  0.00000000E+00  0.00000000E+00
  0.00000000E+00  0.00000000E+00  0.00000000E+00
  0.00000000E+00  0.00000000E+00  0.00000000E+00
  0.00000000E+00  0.00000000E+00  0.00000000E+00
  0.00000000E+00  0.00000000E+00  0.00000000E+00
  0.00000000E+00  0.00000000E+00  0.00000000E+00
  0.00000000E+00  0.00000000E+00  0.00000000E+00
  0.00000000E+00  0.00000000E+00  0.00000000E+00
  0.00000000E+00  0.00000000E+00  0.00000000E+00
  0.00000000E+00  0.00000000E+00  0.00000000E+00
  0.00000000E+00  0.00000000E+00  0.00000000E+00
  0.00000000E+00  0.00000000E+00  0.00000000E+00
  0.00000000E+00  0.00000000E+00  0.00000000E+00
  0.00000000E+00  0.00000000E+00  0.00000000E+00
  0.00000000E+00  0.00000000E+00  0.00000000E+00
