CeO2-you-111-you-Hg                     
   1.00000000000000     
     9.8870981045714288   -5.7083191246888063   -0.0000000010907595
    -0.0212771082965533   11.3797832100701672   -0.0208275181647438
    -0.0229696929559311   -0.0397846684894554   20.5827210216179708
   O    Hg   Ce   H 
    53     1    26     2
Selective dynamics
Direct
  0.9996075608342895  0.9995313911041610  0.9909431530707691   T   T   T
  0.1062951411785065  0.2202355948070860  0.1480587743342241   F   F   F
  0.2373470503192512  0.1303513482691219  0.3176590031831549   T   T   T
  0.0638446251768282  0.2013492565142407  0.3978998396690149   T   T   T
  0.0064797853648298  0.0023102710990984  0.2315903505174690   T   T   T
  0.2222583509280085  0.1111837018559640  0.0715585145540842   F   F   F
  0.3336878923895874 -0.0003416932441081  0.9911286685580281   T   T   T
  0.4472734536283198  0.2202355948069368  0.1480587743342525   F   F   F
  0.5506671384627536  0.1127086661885833  0.3068272832294867   T   T   T
  0.4791589115447214  0.1963367351849171  0.4147960430894331   T   T   T
  0.3286705396070041  0.0002022886552753  0.2305508479244498   T   T   T
  0.5577714244656349  0.1110533709078254  0.0721918426565722   F   F   F
  0.6663356163466726  0.9987127732316666  0.9900337834954671   T   T   T
  0.7771470999507457  0.2209601999015689  0.1522006611897737   F   F   F
  0.8820540427917585  0.1061464661886440  0.3036045126797368   T   T   T
  0.7756746452926953  0.2196553006931229  0.3854294313404510   T   T   T
  0.6575459502297106  0.9894545898114746  0.2341546637467497   T   T   T
  0.8866159464421699  0.1110533709078467  0.0721918426566006   F   F   F
  0.0001384244000410  0.3332038965955058  0.9915631554261709   T   T   T
  0.1103830898083942  0.5546809091076454  0.1488358510980916   F   F   F
  0.2195283424217929  0.4533643818718535  0.3074032627779679   T   T   T
  0.1094870500673883  0.5616819010372331  0.3893591728457904   T   T   T
  0.0000578088362563  0.3322167076026448  0.2305911688540377   T   T   T
  0.2227357033493504  0.4440075022160812  0.0733205070186926   F   F   F
  0.3333713182853686  0.3330984128886696  0.9914759627974863   T   T   T
  0.4461439737307842  0.5589559474619961  0.1489940853108251   F   F   F
  0.5710235829056871  0.4526317622759178  0.3083130316659594   T   T   T
  0.3330913331340795  0.3324645239285288  0.2207891581198383   T   T   T
  0.5546057988666178  0.4440075022159604  0.0733205070186784   F   F   F
  0.6665693211872786  0.3333241193352076  0.9916376067890039   T   T   T
  0.7776308192991337  0.5546809091075815  0.1488358510981058   F   F   F
  0.8902338340608021  0.4470085451292274  0.3069170009867936   T   T   T
  0.7854679904127861  0.5602167554726454  0.3907641501547341   T   T   T
  0.6671203953113424  0.3324331523925798  0.2305887931831190   T   T   T
  0.8875900579770430  0.4418461159541351  0.0735459149477435   F   F   F
  0.9992675695912173  0.6644139298995746  0.9917637821579842   T   T   T
  0.1110754292581149  0.8888178585158784  0.1469137479187452   F   F   F
  0.2199479330987114  0.7791173333398804  0.3050109904232137   T   T   T
  0.1132068599802657  0.8909231827401290  0.3878860023841746   T   T   T
  0.0007008064978188  0.6694503011245684  0.2292263177314605   T   T   T
  0.2222643538275904  0.7777637491777227  0.0714811821022039   F   F   F
  0.3328293055072382  0.6655063478089800  0.9915302870820534   T   T   T
  0.4456435692841723  0.8890842751859864  0.1475351717184523   F   F   F
  0.5427297195059315  0.7516901290862796  0.3173576057714562   T   T   T
  0.4399401409539044  0.8869150052937840  0.3859329267118282   T   T   T
  0.3347028471273780  0.6723662775696135  0.2292238307437759   T   T   T
  0.5556903912639299  0.7780467825277526  0.0720200127451704   F   F   F
  0.6652797001876680  0.6647721353209678  0.9915559376803871   T   T   T
  0.7767737059021300  0.8890842751863133  0.1475351717184665   F   F   F
  0.8913096172179369  0.7792135988333166  0.3057988956395294   T   T   T
  0.7779942739683895  0.8886025574710159  0.3871491964020360   T   T   T
  0.6706529421485687  0.6719129656452557  0.2293640648964321   T   T   T
  0.8888323953501427  0.7777637491776375  0.0714811821022039   F   F   F
  0.3206080824320061  0.3198945990871658  0.3732025379253331   T   T   T
  0.0004943721632624  0.0063192373759332  0.3493104359573113   T   T   T
  0.2228012980832901  0.1122695961675149  0.1891069365609894   F   F   F
  0.1105870804514311  0.2218874800784789  0.0323607291447203   F   F   F
  0.3311544948182909 -0.0006997522116106  0.3477794121812289   T   T   T
  0.5549500958755331  0.1104095203191093  0.1901624277120817   F   F   F
  0.4446333996270795  0.2218874800785500  0.0323607291446990   F   F   F
  0.6635974907390078 -0.0031727089947987  0.3480985571386168   T   T   T
  0.8887934244428379  0.1104095203183704  0.1901624277121030   F   F   F
  0.7772852743360374  0.2212365486720529  0.0323796389744544   F   F   F
 -0.0007583226985520  0.3306395168514215  0.3474985028022564   T   T   T
  0.2239255115412249  0.4434101300232385  0.1906842596108973   F   F   F
  0.1104009380157080  0.5538146591961493  0.0326291141167658   F   F   F
  0.5528186184833714  0.4434101300236577  0.1906842596108689   F   F   F
  0.4438091812065110  0.5542863624128600  0.0318861742189327   F   F   F
  0.6735293015150264  0.3375488022738237  0.3463710277185979   T   T   T
  0.8894105622859954  0.4454871245715566  0.1909560235736905   F   F   F
  0.7767467211805652  0.5538146591963056  0.0326291141167658   F   F   F
  0.0015085819637211  0.6692936881851769  0.3478092322112752   T   T   T
  0.2220095017543358  0.7789934135963890  0.1868670092016558   F   F   F
  0.1109480752285137  0.8885631504571876  0.0307124531421294   F   F   F
  0.3191351123334651  0.6664459547522086  0.3427563890032388   T   T   T
  0.5550704457910456  0.7768068915820976  0.1882903702022958   F   F   F
  0.4448203275488538  0.8884253693010109  0.0310898470225780   F   F   F
  0.6816105462574286  0.6685757557895836  0.3432379322008062   T   T   T
  0.8903169118413814  0.7789934135959911  0.1868670092016487   F   F   F
  0.7769380417520324  0.8884253693009541  0.0310898470225638   F   F   F
  0.3966785559328779  0.4546566310714689  0.4215096877924920   T   T   T
  0.4626438563311119  0.2193747446995282  0.4580388094782797   T   T   T
 
  0.00000000E+00  0.00000000E+00  0.00000000E+00
  0.00000000E+00  0.00000000E+00  0.00000000E+00
  0.00000000E+00  0.00000000E+00  0.00000000E+00
  0.00000000E+00  0.00000000E+00  0.00000000E+00
  0.00000000E+00  0.00000000E+00  0.00000000E+00
  0.00000000E+00  0.00000000E+00  0.00000000E+00
  0.00000000E+00  0.00000000E+00  0.00000000E+00
  0.00000000E+00  0.00000000E+00  0.00000000E+00
  0.00000000E+00  0.00000000E+00  0.00000000E+00
  0.00000000E+00  0.00000000E+00  0.00000000E+00
  0.00000000E+00  0.00000000E+00  0.00000000E+00
  0.00000000E+00  0.00000000E+00  0.00000000E+00
  0.00000000E+00  0.00000000E+00  0.00000000E+00
  0.00000000E+00  0.00000000E+00  0.00000000E+00
  0.00000000E+00  0.00000000E+00  0.00000000E+00
  0.00000000E+00  0.00000000E+00  0.00000000E+00
  0.00000000E+00  0.00000000E+00  0.00000000E+00
  0.00000000E+00  0.00000000E+00  0.00000000E+00
  0.00000000E+00  0.00000000E+00  0.00000000E+00
  0.00000000E+00  0.00000000E+00  0.00000000E+00
  0.00000000E+00  0.00000000E+00  0.00000000E+00
  0.00000000E+00  0.00000000E+00  0.00000000E+00
  0.00000000E+00  0.00000000E+00  0.00000000E+00
  0.00000000E+00  0.00000000E+00  0.00000000E+00
  0.00000000E+00  0.00000000E+00  0.00000000E+00
  0.00000000E+00  0.00000000E+00  0.00000000E+00
  0.00000000E+00  0.00000000E+00  0.00000000E+00
  0.00000000E+00  0.00000000E+00  0.00000000E+00
  0.00000000E+00  0.00000000E+00  0.00000000E+00
  0.00000000E+00  0.00000000E+00  0.00000000E+00
  0.00000000E+00  0.00000000E+00  0.00000000E+00
  0.00000000E+00  0.00000000E+00  0.00000000E+00
  0.00000000E+00  0.00000000E+00  0.00000000E+00
  0.00000000E+00  0.00000000E+00  0.00000000E+00
  0.00000000E+00  0.00000000E+00  0.00000000E+00
  0.00000000E+00  0.00000000E+00  0.00000000E+00
  0.00000000E+00  0.00000000E+00  0.00000000E+00
  0.00000000E+00  0.00000000E+00  0.00000000E+00
  0.00000000E+00  0.00000000E+00  0.00000000E+00
  0.00000000E+00  0.00000000E+00  0.00000000E+00
  0.00000000E+00  0.00000000E+00  0.00000000E+00
  0.00000000E+00  0.00000000E+00  0.00000000E+00
  0.00000000E+00  0.00000000E+00  0.00000000E+00
  0.00000000E+00  0.00000000E+00  0.00000000E+00
  0.00000000E+00  0.00000000E+00  0.00000000E+00
  0.00000000E+00  0.00000000E+00  0.00000000E+00
  0.00000000E+00  0.00000000E+00  0.00000000E+00
  0.00000000E+00  0.00000000E+00  0.00000000E+00
  0.00000000E+00  0.00000000E+00  0.00000000E+00
  0.00000000E+00  0.00000000E+00  0.00000000E+00
  0.00000000E+00  0.00000000E+00  0.00000000E+00
  0.00000000E+00  0.00000000E+00  0.00000000E+00
  0.00000000E+00  0.00000000E+00  0.00000000E+00
  0.00000000E+00  0.00000000E+00  0.00000000E+00
  0.00000000E+00  0.00000000E+00  0.00000000E+00
  0.00000000E+00  0.00000000E+00  0.00000000E+00
  0.00000000E+00  0.00000000E+00  0.00000000E+00
  0.00000000E+00  0.00000000E+00  0.00000000E+00
  0.00000000E+00  0.00000000E+00  0.00000000E+00
  0.00000000E+00  0.00000000E+00  0.00000000E+00
  0.00000000E+00  0.00000000E+00  0.00000000E+00
  0.00000000E+00  0.00000000E+00  0.00000000E+00
  0.00000000E+00  0.00000000E+00  0.00000000E+00
  0.00000000E+00  0.00000000E+00  0.00000000E+00
  0.00000000E+00  0.00000000E+00  0.00000000E+00
  0.00000000E+00  0.00000000E+00  0.00000000E+00
  0.00000000E+00  0.00000000E+00  0.00000000E+00
  0.00000000E+00  0.00000000E+00  0.00000000E+00
  0.00000000E+00  0.00000000E+00  0.00000000E+00
  0.00000000E+00  0.00000000E+00  0.00000000E+00
  0.00000000E+00  0.00000000E+00  0.00000000E+00
  0.00000000E+00  0.00000000E+00  0.00000000E+00
  0.00000000E+00  0.00000000E+00  0.00000000E+00
  0.00000000E+00  0.00000000E+00  0.00000000E+00
  0.00000000E+00  0.00000000E+00  0.00000000E+00
  0.00000000E+00  0.00000000E+00  0.00000000E+00
  0.00000000E+00  0.00000000E+00  0.00000000E+00
  0.00000000E+00  0.00000000E+00  0.00000000E+00
  0.00000000E+00  0.00000000E+00  0.00000000E+00
  0.00000000E+00  0.00000000E+00  0.00000000E+00
  0.00000000E+00  0.00000000E+00  0.00000000E+00
  0.00000000E+00  0.00000000E+00  0.00000000E+00
