CeO2-you-111-you-Ge                     
   1.00000000000000     
     9.9226737757821670   -5.7288587508534503   -0.0000000012377476
    -0.0512787102112422   11.3688981597340444   -0.0235440349574658
    -0.0259165893218115   -0.0448888418254432   20.2363011238330479
   O    Ge   Ce   H 
    53     1    26     2
Selective dynamics
Direct
  0.0003832278495467  0.0002470185453559  0.9878932864403120   T   T   T
  0.1123632982655494  0.2236634074037198  0.1486014754347451   F   F   F
  0.2283151588122161  0.1171579356359146  0.3107823506179110   T   T   T
  0.0765224039685867  0.2053942819650084  0.3956868243665598   T   T   T
  0.0025510218092370  0.0012874087004089  0.2304686441701788   T   T   T
  0.2224307037034592  0.1115284074069649  0.0705292630819159   F   F   F
  0.3330988260401533  0.0002759502140456  0.9877933382353599   T   T   T
  0.4446331091378113  0.2236634074031585  0.1486014754347167   F   F   F
  0.5520393209447425  0.1132728408548597  0.3085573940694902   T   T   T
  0.4698402089555478  0.2005667818226874  0.4132690607553099   T   T   T
  0.3311868350333191 -0.0003955100903450  0.2300820260656957   T   T   T
  0.5552544150738825  0.1115676087092652  0.0704774244110098   F   F   F
  0.6667437983495142  0.9991836702609410  0.9884860372671380   T   T   T
  0.7760316444631101  0.2187292889259993  0.1497466970960062   F   F   F
  0.8820367414483421  0.1065268193917834  0.3052642367771817   T   T   T
  0.7771655575954549  0.2209978785077879  0.3896033110598774   T   T   T
  0.6609920422498270  0.9948012898437569  0.2313089433029157   T   T   T
  0.8896471936354544  0.1115676087093931  0.0704774244110240   F   F   F
  0.0002077368713351  0.3328971361187555  0.9885619726037522   T   T   T
  0.1106291416326073  0.5552825270351960  0.1484921564946049   F   F   F
  0.2297949206945374  0.4433140526189643  0.3116382329669754   T   T   T
  0.1128170775095133  0.5577109927179276  0.3903687294464361   T   T   T
  0.0022772790491963  0.3346761543946326  0.2322241035802256   T   T   T
  0.2226474200769673  0.4452009860097661  0.0715295566561807   F   F   F
  0.3333640198166897  0.3333670833771150  0.9885518965230095   T   T   T
  0.4438348730373249  0.5543377460750989  0.1496523396941498   F   F   F
  0.5573067021874094  0.4461728749373101  0.3120378047664909   T   T   T
  0.3344447014194604  0.3347336912013902  0.2331923701307829   T   T   T
  0.5558875659328422  0.4452009860098229  0.0715295566562020   F   F   F
  0.6663921591590957  0.3329149769327199  0.9885303373235014   T   T   T
  0.7779863854022437  0.5552825270348549  0.1484921564946120   F   F   F
  0.8897217141153028  0.4457343805281269  0.3088521504964007   T   T   T
  0.7819747564087979  0.5573131238811395  0.3925645065661262   T   T   T
  0.6676143149688287  0.3345873077080515  0.2314955361326090   T   T   T
  0.8879089831320641  0.4424839662641205  0.0713599860284262   F   F   F
  0.9987519370197367  0.6646358923144181  0.9881155774253444   T   T   T
  0.1115380099276138  0.8897430198550751  0.1462597161511070   F   F   F
  0.2208426631924954  0.7780298888638458  0.3075918082624593   T   T   T
  0.1141943961145780  0.8894744811439663  0.3916725692667317   T   T   T
  0.0007346693900594  0.6682694011816033  0.2299824534227017   T   T   T
  0.2215533393906242  0.7779645797921546  0.0696289944711168   F   F   F
  0.3334262705442528  0.6662756661193610  0.9886023491389840   T   T   T
  0.4431572628026004  0.8890888185311141  0.1468283698328605   F   F   F
  0.5508707318579978  0.7683387627367705  0.3099857995161046   T   T   T
  0.4419799800253919  0.8871586764173411  0.3890925771571300   T   T   T
  0.3317591278357509  0.6682134860474375  0.2307337175595071   T   T   T
  0.5552000897379799  0.7770661794759306  0.0716255808784751   F   F   F
  0.6663559119206152  0.6665159648976262  0.9886610116309499   T   T   T
  0.7792645557289148  0.8890888185314481  0.1468283698327824   F   F   F
  0.8915963801501917  0.7785530500022113  0.3087398914105486   T   T   T
  0.7761122683243185  0.8881224505223829  0.3900182779641076   T   T   T
  0.6704238911749136  0.6696462614600033  0.2303477585403348   T   T   T
  0.8897442404015976  0.7779645797922754  0.0696289944710884   F   F   F
  0.3250999694613003  0.3334793226404772  0.3347111786122172   T   T   T
  0.0013188080566497  0.0045354675009865  0.3506378867740088   T   T   T
  0.2231068543212942  0.1128807086431465  0.1891017679382045   F   F   F
  0.1114616384057925  0.2224878155629710  0.0298520297911935   F   F   F
  0.3294358220939048 -0.0026460273345234  0.3492187588401616   T   T   T
  0.5543035861097607  0.1100047426772335  0.1897078083029768   F   F   F
  0.4443591771571391  0.2224878155629710  0.0298520297911438   F   F   F
  0.6644851969258943  0.9985037146828737  0.3489136417367159   T   T   T
  0.8890351565666776  0.1100047426764448  0.1897078083029484   F   F   F
  0.7772727291531325  0.2212114583063212  0.0302156981878383   F   F   F
 -0.0006109945671852  0.3291555370733544  0.3515371318590091   T   T   T
  0.2215567317732194  0.4453770029329078  0.1917767462836153   F   F   F
  0.1104276658854531  0.5541210705356931  0.0299099828694409   F   F   F
  0.5571542711605417  0.4453770029328012  0.1917767462835300   F   F   F
  0.4439468617146289  0.5545617234292095  0.0303641000466541   F   F   F
  0.6728458840119098  0.3376568626230773  0.3500658347746041   T   T   T
  0.8888993168450057  0.4444646336896696  0.1908082489389287   F   F   F
  0.7770264046502504  0.5541210705356718  0.0299099828694622   F   F   F
  0.0016047837534203  0.6680864507994804  0.3501045360971148   T   T   T
  0.2210338988657412  0.7796755978964143  0.1874169920614648   F   F   F
  0.1111324187806275  0.8889318375614081  0.0278043353988622   F   F   F
  0.3294709922437687  0.6692629450336635  0.3481076829921044   T   T   T
  0.5544189760340785  0.7755039520680569  0.1886878289834328   F   F   F
  0.4437124717243321  0.8882298468924574  0.0291349200338331   F   F   F
  0.6749797770451705  0.6703800763864579  0.3480411522033621   T   T   T
  0.8919746990298947  0.7796755978957961  0.1874169920614435   F   F   F
  0.7778503751679864  0.8882298468924361  0.0291349200337834   F   F   F
  0.4588879095598470  0.5832984116452986  0.3960733993033927   T   T   T
  0.4371483236115719  0.2337243352421733  0.4490534622861265   T   T   T
 
  0.00000000E+00  0.00000000E+00  0.00000000E+00
  0.00000000E+00  0.00000000E+00  0.00000000E+00
  0.00000000E+00  0.00000000E+00  0.00000000E+00
  0.00000000E+00  0.00000000E+00  0.00000000E+00
  0.00000000E+00  0.00000000E+00  0.00000000E+00
  0.00000000E+00  0.00000000E+00  0.00000000E+00
  0.00000000E+00  0.00000000E+00  0.00000000E+00
  0.00000000E+00  0.00000000E+00  0.00000000E+00
  0.00000000E+00  0.00000000E+00  0.00000000E+00
  0.00000000E+00  0.00000000E+00  0.00000000E+00
  0.00000000E+00  0.00000000E+00  0.00000000E+00
  0.00000000E+00  0.00000000E+00  0.00000000E+00
  0.00000000E+00  0.00000000E+00  0.00000000E+00
  0.00000000E+00  0.00000000E+00  0.00000000E+00
  0.00000000E+00  0.00000000E+00  0.00000000E+00
  0.00000000E+00  0.00000000E+00  0.00000000E+00
  0.00000000E+00  0.00000000E+00  0.00000000E+00
  0.00000000E+00  0.00000000E+00  0.00000000E+00
  0.00000000E+00  0.00000000E+00  0.00000000E+00
  0.00000000E+00  0.00000000E+00  0.00000000E+00
  0.00000000E+00  0.00000000E+00  0.00000000E+00
  0.00000000E+00  0.00000000E+00  0.00000000E+00
  0.00000000E+00  0.00000000E+00  0.00000000E+00
  0.00000000E+00  0.00000000E+00  0.00000000E+00
  0.00000000E+00  0.00000000E+00  0.00000000E+00
  0.00000000E+00  0.00000000E+00  0.00000000E+00
  0.00000000E+00  0.00000000E+00  0.00000000E+00
  0.00000000E+00  0.00000000E+00  0.00000000E+00
  0.00000000E+00  0.00000000E+00  0.00000000E+00
  0.00000000E+00  0.00000000E+00  0.00000000E+00
  0.00000000E+00  0.00000000E+00  0.00000000E+00
  0.00000000E+00  0.00000000E+00  0.00000000E+00
  0.00000000E+00  0.00000000E+00  0.00000000E+00
  0.00000000E+00  0.00000000E+00  0.00000000E+00
  0.00000000E+00  0.00000000E+00  0.00000000E+00
  0.00000000E+00  0.00000000E+00  0.00000000E+00
  0.00000000E+00  0.00000000E+00  0.00000000E+00
  0.00000000E+00  0.00000000E+00  0.00000000E+00
  0.00000000E+00  0.00000000E+00  0.00000000E+00
  0.00000000E+00  0.00000000E+00  0.00000000E+00
  0.00000000E+00  0.00000000E+00  0.00000000E+00
  0.00000000E+00  0.00000000E+00  0.00000000E+00
  0.00000000E+00  0.00000000E+00  0.00000000E+00
  0.00000000E+00  0.00000000E+00  0.00000000E+00
  0.00000000E+00  0.00000000E+00  0.00000000E+00
  0.00000000E+00  0.00000000E+00  0.00000000E+00
  0.00000000E+00  0.00000000E+00  0.00000000E+00
  0.00000000E+00  0.00000000E+00  0.00000000E+00
  0.00000000E+00  0.00000000E+00  0.00000000E+00
  0.00000000E+00  0.00000000E+00  0.00000000E+00
  0.00000000E+00  0.00000000E+00  0.00000000E+00
  0.00000000E+00  0.00000000E+00  0.00000000E+00
  0.00000000E+00  0.00000000E+00  0.00000000E+00
  0.00000000E+00  0.00000000E+00  0.00000000E+00
  0.00000000E+00  0.00000000E+00  0.00000000E+00
  0.00000000E+00  0.00000000E+00  0.00000000E+00
  0.00000000E+00  0.00000000E+00  0.00000000E+00
  0.00000000E+00  0.00000000E+00  0.00000000E+00
  0.00000000E+00  0.00000000E+00  0.00000000E+00
  0.00000000E+00  0.00000000E+00  0.00000000E+00
  0.00000000E+00  0.00000000E+00  0.00000000E+00
  0.00000000E+00  0.00000000E+00  0.00000000E+00
  0.00000000E+00  0.00000000E+00  0.00000000E+00
  0.00000000E+00  0.00000000E+00  0.00000000E+00
  0.00000000E+00  0.00000000E+00  0.00000000E+00
  0.00000000E+00  0.00000000E+00  0.00000000E+00
  0.00000000E+00  0.00000000E+00  0.00000000E+00
  0.00000000E+00  0.00000000E+00  0.00000000E+00
  0.00000000E+00  0.00000000E+00  0.00000000E+00
  0.00000000E+00  0.00000000E+00  0.00000000E+00
  0.00000000E+00  0.00000000E+00  0.00000000E+00
  0.00000000E+00  0.00000000E+00  0.00000000E+00
  0.00000000E+00  0.00000000E+00  0.00000000E+00
  0.00000000E+00  0.00000000E+00  0.00000000E+00
  0.00000000E+00  0.00000000E+00  0.00000000E+00
  0.00000000E+00  0.00000000E+00  0.00000000E+00
  0.00000000E+00  0.00000000E+00  0.00000000E+00
  0.00000000E+00  0.00000000E+00  0.00000000E+00
  0.00000000E+00  0.00000000E+00  0.00000000E+00
  0.00000000E+00  0.00000000E+00  0.00000000E+00
  0.00000000E+00  0.00000000E+00  0.00000000E+00
  0.00000000E+00  0.00000000E+00  0.00000000E+00
