CeO2-you-111-you-Mn                     
   1.00000000000000     
     9.8306756423332793   -5.6704207768971946   -0.0002292956547150
     0.0000000016106993   11.3408395608094512    0.0000000000258208
    -0.0007638504418016    0.0000000000879288   21.0009507403146891
   O    Mn   Ce   H 
    53     1    26     1
Selective dynamics
Direct
 -0.0003687989033229  0.0006517242845287  0.9949443621865516   T   T   T
  0.1164598780313826  0.2255691964845709  0.1503692722953271   T   T   T
  0.2339430320793403  0.1213941799888789  0.3070605656516300   T   T   T
  0.1133059690331556  0.2266601399173227  0.3820968380585466   T   T   T
  0.0044327524095715  0.0037690904078011  0.2299880846177859   T   T   T
  0.2233665107913194  0.1114394172824228  0.0737476466911211   T   T   T
  0.3333001237092789 -0.0006370087761088  0.9932532757070698   T   T   T
  0.4442491823331366  0.2209256428700437  0.1475124046593654   T   T   T
  0.5512041418284643  0.1057719283825793  0.3056942491628764   T   T   T
  0.4511311720449529  0.1983910516180455  0.4061697494197059   T   T   T
  0.3310615298298873 -0.0013355405870221  0.2294779600894368   T   T   T
  0.5553953964008177  0.1109198900299148  0.0739078182924504   T   T   T
  0.6694343373838676  0.0018744606270845  0.9946743141253030   T   T   T
  0.7733514796629708  0.2248111791150102  0.1519416166180529   T   T   T
  0.8889527759302063  0.1099901620888911  0.3044794031428490   T   T   T
  0.7834344574997762  0.2154530190638411  0.3885553912345047   T   T   T
  0.6673994798467330  0.0005586288382990  0.2295604289763199   T   T   T
  0.8888017958829586  0.1111264462304729  0.0773966427809838   T   T   T
  0.9991955973810481  0.3309466274997896  0.9949666751796971   T   T   T
  0.1097294972347897  0.5554846814032106  0.1499858843193092   T   T   T
  0.2162820985434779  0.4477058468081128  0.3011857829784225   T   T   T
  0.1154794391620982  0.5587664859695267  0.3864806895652994   T   T   T
  0.9977927087637555  0.3313486376313448  0.2281768354634644   T   T   T
  0.2226624632654077  0.4457859759342752  0.0732079244259383   T   T   T
  0.3325305261457607  0.3332451080085261  0.9932792186986897   T   T   T
  0.4452344307651427  0.5584602436491012  0.1462116576645487   T   T   T
  0.4557993348629635  0.5223149916223139  0.3636380281075038   T   T   T
  0.3476407496085496  0.3437004695030291  0.2319896715902621   T   T   T
  0.5559212925061083  0.4441208241983960  0.0713674496478638   T   T   T
  0.6679644976187600  0.3330309231217454  0.9934876992813725   T   T   T
  0.7790735414133771  0.5564771187704465  0.1473518857836106   T   T   T
  0.8953953366623890  0.4463315692591247  0.3054853270142163   T   T   T
  0.7763772591119551  0.5635563534498764  0.3820974041235674   T   T   T
  0.6569395772764886  0.3428835711117647  0.2354580177843232   T   T   T
  0.8893934810813617  0.4444210218582609  0.0742104116736816   T   T   T
  0.0011659580358926  0.6668986860321671  0.9936732992804429   T   T   T
  0.1102670077603406  0.8900310595993441  0.1498750927612795   T   T   T
  0.2212488525017991  0.7732366723431503  0.3030356038352817   T   T   T
  0.1135049850205379  0.8885424743279197  0.3842132554823084   T   T   T
  0.9983154026131122  0.6669785529030202  0.2296859177654217   T   T   T
  0.2230766775468585  0.7780867796711926  0.0742959397989984   T   T   T
  0.3336934434010038  0.6674671809747036  0.9933149287589904   T   T   T
  0.4456589742407834  0.8906005267739439  0.1501072127980627   T   T   T
  0.5569395874075395  0.7797146221746752  0.3051671757062842   T   T   T
  0.4403423550022850  0.8803308357953250  0.3847485263312908   T   T   T
  0.3362477776954067  0.6684125155191801  0.2285681915037892   T   T   T
  0.5562503195035822  0.7799625531221981  0.0737593545643879   T   T   T
  0.6683805641142090  0.6691674019742112  0.9942118563772531   T   T   T
  0.7759791894476068  0.8837749944891768  0.1517749200314978   T   T   T
  0.8928061150446590  0.7845357337231859  0.3040668825257842   T   T   T
  0.7792987115137663  0.8918364743772060  0.3871665870084718   T   T   T
  0.6599448754331650  0.6506163567026865  0.2344547906977187   T   T   T
  0.8900250436501163  0.7782688593159480  0.0741445008450474   T   T   T
  0.2994821459688044  0.3329662933722886  0.3320443564821176   T   T   T
  0.0075937074699393  0.0078589701874214  0.3446364660922577   T   T   T
  0.2254210522834976  0.1146130599880843  0.1917989398316025   T   T   T
  0.1119689122848773  0.2224231265535412  0.0350107411751251   T   T   T
  0.3301709385582545 -0.0061409470594665  0.3442232788436813   T   T   T
  0.5546157989783030  0.1124157855285646  0.1919506982358173   T   T   T
  0.4439047911335287  0.2205532256499157  0.0324783208850951   T   T   T
  0.6672007969502740 -0.0006283338495446  0.3458536631800077   T   T   T
  0.8894698001670590  0.1122730073922564  0.1907921968212174   T   T   T
  0.7776634628977843  0.2225053387343607  0.0353365008471619   T   T   T
  0.0015790012497768  0.3331709282082737  0.3457011580402773   T   T   T
  0.2231422975824614  0.4455955286709128  0.1890261754931106   T   T   T
  0.1106850606681969  0.5548949576873388  0.0343197180715246   T   T   T
  0.5544579898552447  0.4442139934771787  0.1820174419757760   T   T   T
  0.4442411372530203  0.5572792178576322  0.0322174720680630   T   T   T
  0.6721203204777785  0.3280827972258904  0.3535125928972427   T   T   T
  0.8868581363069687  0.4446132953860150  0.1918062945090757   T   T   T
  0.7801830511930050  0.5564818365832458  0.0330120739617176   T   T   T
  0.0005009357268384  0.6668219274323469  0.3442474757698080   T   T   T
  0.2220070098498997  0.7782045574943984  0.1883913609432046   T   T   T
  0.1114470851204690  0.8897389483832646  0.0349006197754885   T   T   T
  0.3317168353958416  0.6624907560930383  0.3421209374897891   T   T   T
  0.5556674204182299  0.7776517724065282  0.1901540309316463   T   T   T
  0.4457411785171707  0.8901765619772932  0.0344629179376630   T   T   T
  0.6725690829987144  0.6762083662620717  0.3467855585708861   T   T   T
  0.8895741367171519  0.7776633860741083  0.1906495225041658   T   T   T
  0.7784293558498894  0.8894281908107194  0.0352139343497965   T   T   T
  0.4072176709964571  0.2256431139876692  0.4379949292328514   T   T   T
 
  0.00000000E+00  0.00000000E+00  0.00000000E+00
  0.00000000E+00  0.00000000E+00  0.00000000E+00
  0.00000000E+00  0.00000000E+00  0.00000000E+00
  0.00000000E+00  0.00000000E+00  0.00000000E+00
  0.00000000E+00  0.00000000E+00  0.00000000E+00
  0.00000000E+00  0.00000000E+00  0.00000000E+00
  0.00000000E+00  0.00000000E+00  0.00000000E+00
  0.00000000E+00  0.00000000E+00  0.00000000E+00
  0.00000000E+00  0.00000000E+00  0.00000000E+00
  0.00000000E+00  0.00000000E+00  0.00000000E+00
  0.00000000E+00  0.00000000E+00  0.00000000E+00
  0.00000000E+00  0.00000000E+00  0.00000000E+00
  0.00000000E+00  0.00000000E+00  0.00000000E+00
  0.00000000E+00  0.00000000E+00  0.00000000E+00
  0.00000000E+00  0.00000000E+00  0.00000000E+00
  0.00000000E+00  0.00000000E+00  0.00000000E+00
  0.00000000E+00  0.00000000E+00  0.00000000E+00
  0.00000000E+00  0.00000000E+00  0.00000000E+00
  0.00000000E+00  0.00000000E+00  0.00000000E+00
  0.00000000E+00  0.00000000E+00  0.00000000E+00
  0.00000000E+00  0.00000000E+00  0.00000000E+00
  0.00000000E+00  0.00000000E+00  0.00000000E+00
  0.00000000E+00  0.00000000E+00  0.00000000E+00
  0.00000000E+00  0.00000000E+00  0.00000000E+00
  0.00000000E+00  0.00000000E+00  0.00000000E+00
  0.00000000E+00  0.00000000E+00  0.00000000E+00
  0.00000000E+00  0.00000000E+00  0.00000000E+00
  0.00000000E+00  0.00000000E+00  0.00000000E+00
  0.00000000E+00  0.00000000E+00  0.00000000E+00
  0.00000000E+00  0.00000000E+00  0.00000000E+00
  0.00000000E+00  0.00000000E+00  0.00000000E+00
  0.00000000E+00  0.00000000E+00  0.00000000E+00
  0.00000000E+00  0.00000000E+00  0.00000000E+00
  0.00000000E+00  0.00000000E+00  0.00000000E+00
  0.00000000E+00  0.00000000E+00  0.00000000E+00
  0.00000000E+00  0.00000000E+00  0.00000000E+00
  0.00000000E+00  0.00000000E+00  0.00000000E+00
  0.00000000E+00  0.00000000E+00  0.00000000E+00
  0.00000000E+00  0.00000000E+00  0.00000000E+00
  0.00000000E+00  0.00000000E+00  0.00000000E+00
  0.00000000E+00  0.00000000E+00  0.00000000E+00
  0.00000000E+00  0.00000000E+00  0.00000000E+00
  0.00000000E+00  0.00000000E+00  0.00000000E+00
  0.00000000E+00  0.00000000E+00  0.00000000E+00
  0.00000000E+00  0.00000000E+00  0.00000000E+00
  0.00000000E+00  0.00000000E+00  0.00000000E+00
  0.00000000E+00  0.00000000E+00  0.00000000E+00
  0.00000000E+00  0.00000000E+00  0.00000000E+00
  0.00000000E+00  0.00000000E+00  0.00000000E+00
  0.00000000E+00  0.00000000E+00  0.00000000E+00
  0.00000000E+00  0.00000000E+00  0.00000000E+00
  0.00000000E+00  0.00000000E+00  0.00000000E+00
  0.00000000E+00  0.00000000E+00  0.00000000E+00
  0.00000000E+00  0.00000000E+00  0.00000000E+00
  0.00000000E+00  0.00000000E+00  0.00000000E+00
  0.00000000E+00  0.00000000E+00  0.00000000E+00
  0.00000000E+00  0.00000000E+00  0.00000000E+00
  0.00000000E+00  0.00000000E+00  0.00000000E+00
  0.00000000E+00  0.00000000E+00  0.00000000E+00
  0.00000000E+00  0.00000000E+00  0.00000000E+00
  0.00000000E+00  0.00000000E+00  0.00000000E+00
  0.00000000E+00  0.00000000E+00  0.00000000E+00
  0.00000000E+00  0.00000000E+00  0.00000000E+00
  0.00000000E+00  0.00000000E+00  0.00000000E+00
  0.00000000E+00  0.00000000E+00  0.00000000E+00
  0.00000000E+00  0.00000000E+00  0.00000000E+00
  0.00000000E+00  0.00000000E+00  0.00000000E+00
  0.00000000E+00  0.00000000E+00  0.00000000E+00
  0.00000000E+00  0.00000000E+00  0.00000000E+00
  0.00000000E+00  0.00000000E+00  0.00000000E+00
  0.00000000E+00  0.00000000E+00  0.00000000E+00
  0.00000000E+00  0.00000000E+00  0.00000000E+00
  0.00000000E+00  0.00000000E+00  0.00000000E+00
  0.00000000E+00  0.00000000E+00  0.00000000E+00
  0.00000000E+00  0.00000000E+00  0.00000000E+00
  0.00000000E+00  0.00000000E+00  0.00000000E+00
  0.00000000E+00  0.00000000E+00  0.00000000E+00
  0.00000000E+00  0.00000000E+00  0.00000000E+00
  0.00000000E+00  0.00000000E+00  0.00000000E+00
  0.00000000E+00  0.00000000E+00  0.00000000E+00
  0.00000000E+00  0.00000000E+00  0.00000000E+00
