CeO2-you-111-you-Hf                     
   1.00000000000000     
     9.8467198335468229   -5.7016609576500095   -0.0064601066225050
    -0.0144229917593643   11.3783385555638059    0.0064601055161990
    -0.0073271995853966    0.0126910811685622   21.0113785254497110
   O    Hf   Ce H
    53     1    26 1
Selective dynamics
Direct
 -0.0003609641855441 -0.0001721409195671  0.9950630500823457   T   T   T
  0.1123834699536363  0.2212185686732288  0.1478934058576412   T   T   T
  0.2292895413755142  0.1104881601549607  0.3007708103674064   T   T   T
  0.1476853653239187  0.2484533467123359  0.3697311408135153   T   T   T
  0.0017287873387189  0.0011254207648469  0.2297372229007013   T   T   T
  0.2219331764617074  0.1100570984885702  0.0741405873083486   T   T   T
  0.3352073180890267  0.0011248849256570  0.9956451390238217   T   T   T
  0.4406343471938738  0.2260316528073639  0.1513551893448021   T   T   T
  0.5537760302329713  0.1128909697673685  0.3037176195994113   T   T   T
  0.4372658996649698  0.2294001003385532  0.3823083978539348   T   T   T
  0.3353074144788027 -0.0004226245748581  0.2270188678315740   T   T   T
  0.5550899384735866  0.1115770615264585  0.0775568837672023   T   T   T
  0.6658613104829385  0.0008056895172358  0.9963353641262311   T   T   T
  0.7844547820882888  0.2239806551587061  0.1516030911815290   T   T   T
  0.8867815388672714  0.1055273440617380  0.3051608091008762   T   T   T
  0.7648044292959337  0.2153315105945156  0.3877877342040460   T   T   T
  0.6662275501274449  0.0004394498717296  0.2295867930838939   T   T   T
  0.8891036326139705  0.1100889947620229  0.0753383069118140   T   T   T
 -0.0020184247164812  0.3320733392968054  0.9952110734074611   T   T   T
  0.1104339479081915  0.5562330520908375  0.1471312056072200   T   T   T
  0.1047260220314032  0.5619409779651580  0.3855344005628183   T   T   T
  0.0174058551486740  0.3431658566983793  0.2337357807454528   T   T   T
  0.2219810716490691  0.4446849283505506  0.0722749702707658   T   T   T
  0.3339012779790239  0.3327647220202968  0.9948329352513922   T   T   T
  0.4454474313280219  0.5542835300468506  0.1478934058576840   T   T   T
  0.5561788398550557  0.4373764586225617  0.3007708103691248   T   T   T
  0.4182126532965683  0.5189816346680451  0.3697311408147027   T   T   T
  0.3241230899358567  0.3425429100653413  0.2385620314267621   T   T   T
  0.5566099015114441  0.4447328235377082  0.0741405873083649   T   T   T
  0.6655421150743629  0.3314586819106252  0.9956451390237375   T   T   T
  0.7779676268344070  0.5554167268217248  0.1501827249453217   T   T   T
  0.8815981790649930  0.4448736141134739  0.3039503201210600   T   T   T
  0.7723932769459139  0.5564986932580983  0.3842471684029906   T   T   T
  0.6670896245749208  0.3313585855206697  0.2270188678314375   T   T   T
  0.8882373279457433  0.4444497330318050  0.0745641239286333   T   T   T
 -0.0005507854431799  0.6672177854431012  0.9950641420909485   T   T   T
  0.1112502731779652  0.8886993731663874  0.1501827249453294   T   T   T
  0.2217923858840929  0.7850688209318514  0.3039503201212431   T   T   T
  0.1101683067438636  0.8942737230562928  0.3842471684030498   T   T   T
  0.0005510049035517  0.6661159950962768  0.2293584915190640   T   T   T
  0.2222162669677791  0.7784296720540850  0.0745641239286890   T   T   T
  0.3345926607032786  0.6686854247167474  0.9952110734075942   T   T   T
  0.4426853448405041  0.8822122179114058  0.1516030911812277   T   T   T
  0.5611396559383360  0.7798854611323116  0.3051608091003236   T   T   T
  0.4513344894043613  0.9018625706987107  0.3877877342044080   T   T   T
  0.3235001433018991  0.6492611448475045  0.2337357807456142   T   T   T
  0.5565780052382843  0.7775633673860659  0.0753383069118272   T   T   T
  0.6668391409197757  0.6670279641856387  0.9950630500823737   T   T   T
  0.7776453471921072  0.8890216528086933  0.1516734844366018   T   T   T
  0.8883452717988648  0.7783217282021039  0.3034798775333646   T   T   T
  0.7801135972258099  0.8865534027732989  0.3849811356405021   T   T   T
  0.6655415792370716  0.6649382126617726  0.2297372229005511   T   T   T
  0.8887156358546411  0.7779513641454120  0.0752167706665716   T   T   T
  0.3440718061296535  0.3225941938651244  0.3377192583134571   T   T   T
  0.0038393001589658  0.0024114749433812  0.3424976741092988   T   T   T
  0.2219995558608453  0.1102732038690069  0.1897719292689714   T   T   T
  0.1098928028477355  0.2201254644293325  0.0337031105637904   T   T   T
  0.3337523372199814  0.0013257622500759  0.3439728905299364   T   T   T
  0.5561207995529891  0.1105462004469128  0.1903987974145344   T   T   T
  0.4443048719466875  0.2223611280537414  0.0351278730601815   T   T   T
  0.6670225548458211 -0.0003555548428693  0.3457359351768429   T   T   T
  0.8907941382504516  0.1123157500189541  0.1920089810423473   T   T   T
  0.7782156226877165  0.2222648633107016  0.0362314101008065   T   T   T
 -0.0082942079600565  0.3311023357111750  0.3522772906051832   T   T   T
  0.2218721718480796  0.4447938281549363  0.1824895564535994   T   T   T
  0.1100009261969067  0.5566660738026461  0.0338780257660425   T   T   T
  0.5563937961241109  0.4446664441390379  0.1897719292685845   T   T   T
  0.4465405355714068  0.5567741971526431  0.0337031105637284   T   T   T
  0.6653412377438181  0.3329136627760415  0.3439728905292412   T   T   T
  0.8906727920862542  0.4445796837433477  0.1913741627517595   T   T   T
  0.7775210018793035  0.5549490094828582  0.0354034863601160   T   T   T
 -0.0007833936561247  0.6674503936576224  0.3445873193270479   T   T   T
  0.2220863162598846  0.7759942079160619  0.1913741627518188   T   T   T
  0.1117179905176566  0.8891459981202646  0.0354034863601815   T   T   T
  0.3355636642912673  0.6749612079737136  0.3522772906043435   T   T   T
  0.5543512499789786  0.7758728617513984  0.1920089810420282   T   T   T
  0.4444011366897274  0.8884513773120591  0.0362314101007292   T   T   T
  0.6642555250488344  0.6628276998422536  0.3424976741092945   T   T   T
  0.8891783436466448  0.7774886563519227  0.1896084275402078   T   T   T
  0.7774834160992531  0.8891835839001971  0.0363645292327296   T   T   T
0.446598 0.216020 0.433410 T T T 
 
  0.00000000E+00  0.00000000E+00  0.00000000E+00
  0.00000000E+00  0.00000000E+00  0.00000000E+00
  0.00000000E+00  0.00000000E+00  0.00000000E+00
  0.00000000E+00  0.00000000E+00  0.00000000E+00
  0.00000000E+00  0.00000000E+00  0.00000000E+00
  0.00000000E+00  0.00000000E+00  0.00000000E+00
  0.00000000E+00  0.00000000E+00  0.00000000E+00
  0.00000000E+00  0.00000000E+00  0.00000000E+00
  0.00000000E+00  0.00000000E+00  0.00000000E+00
  0.00000000E+00  0.00000000E+00  0.00000000E+00
  0.00000000E+00  0.00000000E+00  0.00000000E+00
  0.00000000E+00  0.00000000E+00  0.00000000E+00
  0.00000000E+00  0.00000000E+00  0.00000000E+00
  0.00000000E+00  0.00000000E+00  0.00000000E+00
  0.00000000E+00  0.00000000E+00  0.00000000E+00
  0.00000000E+00  0.00000000E+00  0.00000000E+00
  0.00000000E+00  0.00000000E+00  0.00000000E+00
  0.00000000E+00  0.00000000E+00  0.00000000E+00
  0.00000000E+00  0.00000000E+00  0.00000000E+00
  0.00000000E+00  0.00000000E+00  0.00000000E+00
  0.00000000E+00  0.00000000E+00  0.00000000E+00
  0.00000000E+00  0.00000000E+00  0.00000000E+00
  0.00000000E+00  0.00000000E+00  0.00000000E+00
  0.00000000E+00  0.00000000E+00  0.00000000E+00
  0.00000000E+00  0.00000000E+00  0.00000000E+00
  0.00000000E+00  0.00000000E+00  0.00000000E+00
  0.00000000E+00  0.00000000E+00  0.00000000E+00
  0.00000000E+00  0.00000000E+00  0.00000000E+00
  0.00000000E+00  0.00000000E+00  0.00000000E+00
  0.00000000E+00  0.00000000E+00  0.00000000E+00
  0.00000000E+00  0.00000000E+00  0.00000000E+00
  0.00000000E+00  0.00000000E+00  0.00000000E+00
  0.00000000E+00  0.00000000E+00  0.00000000E+00
  0.00000000E+00  0.00000000E+00  0.00000000E+00
  0.00000000E+00  0.00000000E+00  0.00000000E+00
  0.00000000E+00  0.00000000E+00  0.00000000E+00
  0.00000000E+00  0.00000000E+00  0.00000000E+00
  0.00000000E+00  0.00000000E+00  0.00000000E+00
  0.00000000E+00  0.00000000E+00  0.00000000E+00
  0.00000000E+00  0.00000000E+00  0.00000000E+00
  0.00000000E+00  0.00000000E+00  0.00000000E+00
  0.00000000E+00  0.00000000E+00  0.00000000E+00
  0.00000000E+00  0.00000000E+00  0.00000000E+00
  0.00000000E+00  0.00000000E+00  0.00000000E+00
  0.00000000E+00  0.00000000E+00  0.00000000E+00
  0.00000000E+00  0.00000000E+00  0.00000000E+00
  0.00000000E+00  0.00000000E+00  0.00000000E+00
  0.00000000E+00  0.00000000E+00  0.00000000E+00
  0.00000000E+00  0.00000000E+00  0.00000000E+00
  0.00000000E+00  0.00000000E+00  0.00000000E+00
  0.00000000E+00  0.00000000E+00  0.00000000E+00
  0.00000000E+00  0.00000000E+00  0.00000000E+00
  0.00000000E+00  0.00000000E+00  0.00000000E+00
  0.00000000E+00  0.00000000E+00  0.00000000E+00
  0.00000000E+00  0.00000000E+00  0.00000000E+00
  0.00000000E+00  0.00000000E+00  0.00000000E+00
  0.00000000E+00  0.00000000E+00  0.00000000E+00
  0.00000000E+00  0.00000000E+00  0.00000000E+00
  0.00000000E+00  0.00000000E+00  0.00000000E+00
  0.00000000E+00  0.00000000E+00  0.00000000E+00
  0.00000000E+00  0.00000000E+00  0.00000000E+00
  0.00000000E+00  0.00000000E+00  0.00000000E+00
  0.00000000E+00  0.00000000E+00  0.00000000E+00
  0.00000000E+00  0.00000000E+00  0.00000000E+00
  0.00000000E+00  0.00000000E+00  0.00000000E+00
  0.00000000E+00  0.00000000E+00  0.00000000E+00
  0.00000000E+00  0.00000000E+00  0.00000000E+00
  0.00000000E+00  0.00000000E+00  0.00000000E+00
  0.00000000E+00  0.00000000E+00  0.00000000E+00
  0.00000000E+00  0.00000000E+00  0.00000000E+00
  0.00000000E+00  0.00000000E+00  0.00000000E+00
  0.00000000E+00  0.00000000E+00  0.00000000E+00
  0.00000000E+00  0.00000000E+00  0.00000000E+00
  0.00000000E+00  0.00000000E+00  0.00000000E+00
  0.00000000E+00  0.00000000E+00  0.00000000E+00
  0.00000000E+00  0.00000000E+00  0.00000000E+00
  0.00000000E+00  0.00000000E+00  0.00000000E+00
  0.00000000E+00  0.00000000E+00  0.00000000E+00
  0.00000000E+00  0.00000000E+00  0.00000000E+00
  0.00000000E+00  0.00000000E+00  0.00000000E+00
