CeO2-you-111-you-Cd                     
   1.00000000000000     
     9.8426606583409644   -5.6826631514948218   -0.0000000000000000
     0.0000000001308912   11.3653243031603406    0.0000000000000000
    -0.0000000000000000    0.0000000000000000   21.0740785747475030
   O    Cd   Ce
    54     1    26
Selective dynamics
Direct
  0.0003122772444704  0.0002602318223665  0.9956243324869837   T   T   T
  0.1065029644200251  0.2199179822102821  0.1485816882191905   T   T   T
  0.2257073280924289  0.1180816561850454  0.3050382010609655   T   T   T
  0.1070301508670688  0.2201815754340676  0.3863289240187896   T   T   T
  0.0021459474546702  0.0006779763143010  0.2301406110036607   T   T   T
  0.2225590872607233  0.1117851745213802  0.0750842477091698   T   T   T
  0.3332809545779337  0.0002602318223867  0.9956243324869837   T   T   T
  0.4467480177902531  0.2199179822105198  0.1485816882191905   T   T   T
  0.5550609687158011  0.1116060312840105  0.3041058242258227   T   T   T
  0.4464844245669948  0.2201815754345394  0.3863289240187896   T   T   T
  0.3318650288596185  0.0006779763141680  0.2301406110036607   T   T   T
  0.5568732596493060  0.1097937403506606  0.0746609145655810   T   T   T
  0.6666669999999968  0.0000000000000000  0.9942871963994981   T   T   T
  0.7778216627429870  0.2223093254859917  0.1506388476061892   T   T   T
  0.8898790625682691  0.1116060312840696  0.3041058242258227   T   T   T
  0.7775581509589318  0.2217823019179467  0.3832723451451933   T   T   T
  0.6666669999999968  0.0000000000000000  0.2300584004645242   T   T   T
  0.8862544807013673  0.1097937403506722  0.0746609145655810   T   T   T
  0.0003122772445478  0.3333850454221527  0.9956243324869837   T   T   T
  0.1108403739836765  0.5558266260162099  0.1494897655110184   T   T   T
  0.2257073280919992  0.4409586719073795  0.3050382010609655   T   T   T
  0.1113944747939912  0.5552725252058812  0.3819277214411503   T   T   T
  0.0021459474546347  0.3348009711400727  0.2301406110036607   T   T   T
  0.2225590872608655  0.4441069127393391  0.0750842477091698   T   T   T
  0.3333330000000032  0.3333330000000032  0.9953800172840911   T   T   T
  0.4467480177897173  0.5601640355792056  0.1485816882191905   T   T   T
  0.5485853438155787  0.4409586719075703  0.3050382010609655   T   T   T
  0.4464844245659316  0.5596368491314001  0.3863289240187896   T   T   T
  0.3333330000000032  0.3333330000000032  0.2206287493171805   T   T   T
  0.5548818254784181  0.4441069127392760  0.0750842477091698   T   T   T
  0.6664067681775637  0.3333850454221386  0.9956243324869837   T   T   T
  0.7783192520325656  0.5558266260162461  0.1494897655110184   T   T   T
  0.8887331047579948  0.4441322095159506  0.3039420458523915   T   T   T
  0.7772110504119263  0.5552725252059214  0.3819277214411503   T   T   T
  0.6659890236854472  0.3348009711399552  0.2301406110036607   T   T   T
  0.8883733681672965  0.4434127363346752  0.0750706185068331   T   T   T
  0.0000000000000000  0.6666669999999968  0.9961518888555354   T   T   T
  0.1108403739837577  0.8883477479675486  0.1494897655110184   T   T   T
  0.2225337904839229  0.7779338952420020  0.3039420458523915   T   T   T
  0.1113944747940824  0.8894559495882021  0.3819277214411503   T   T   T
  0.0000000000000000  0.6666669999999968  0.2296671136362241   T   T   T
  0.2232532636655928  0.7782936318327003  0.0750706185068331   T   T   T
  0.3332809545779655  0.6663547227554946  0.9956243324869837   T   T   T
  0.4443566745140446  0.8888453372570098  0.1506388476061892   T   T   T
  0.5550609687159342  0.7767879374319201  0.3041058242258227   T   T   T
  0.4448836980823035  0.8891088490410650  0.3832723451451933   T   T   T
  0.3318650288598827  0.6645210525457437  0.2301406110036607   T   T   T
  0.5568732596493317  0.7804125192986670  0.0746609145655810   T   T   T
  0.6664067681775185  0.6663547227554605  0.9956243324869837   T   T   T
  0.7778216627429613  0.8888453372569982  0.1506388476061892   T   T   T
  0.8887331047580822  0.7779338952420404  0.3039420458523915   T   T   T
  0.7775581509587579  0.8891088490409886  0.3832723451451933   T   T   T
  0.6659890236857470  0.6645210525457594  0.2301406110036607   T   T   T
  0.8883733681671109  0.7782936318326173  0.0750706185068331   T   T   T
  0.3333330000000032  0.3333330000000032  0.3494756335950964   T   T   T
  0.0007730225733206  0.0007999727875793  0.3436400583461449   T   T   T
  0.2234984195192963  0.1136638390382261  0.1891099624219041   T   T   T
  0.1107112120593805  0.2220221060296599  0.0349450215495330   T   T   T
  0.3333599502142033  0.0007999727876380  0.3436400583461449   T   T   T
  0.5555021849424359  0.1111648150573851  0.1897578978989231   T   T   T
  0.4446438939702754  0.2220221060296317  0.0349450215495330   T   T   T
  0.6666669999999968 -0.0000000000000000  0.3439927195053457   T   T   T
  0.8889966301150064  0.1111648150574413  0.1897578978989231   T   T   T
  0.7775145541705393  0.2216951083410866  0.0350056252266960   T   T   T
  0.0007730225731882  0.3333060497858766  0.3436400583461449   T   T   T
  0.2234984195201145  0.4431675804810661  0.1891099624219041   T   T   T
  0.1111772485997831  0.5554897514003388  0.0357461951364576   T   T   T
  0.5530031609605967  0.4431675804807030  0.1891099624219041   T   T   T
  0.4446438939703393  0.5559557879407155  0.0349450215495330   T   T   T
  0.6658670272127406  0.3333060497859940  0.3436400583461449   T   T   T
  0.8888493601334643  0.4443647202668783  0.1895244143758958   T   T   T
  0.7776455028005157  0.5554897514003025  0.0357461951364576   T   T   T
 -0.0000000000000000  0.6666669999999968  0.3426234885067654   T   T   T
  0.2223012797329585  0.7778176398665325  0.1895244143758958   T   T   T
  0.1111772485997012  0.8890214971993629  0.0357461951364576   T   T   T
  0.3333599502139387  0.6658939774264269  0.3436400583461449   T   T   T
  0.5555021849425624  0.7776703698851738  0.1897578978989231   T   T   T
  0.4449708916589182  0.8891524458294575  0.0350056252266960   T   T   T
  0.6658670272126085  0.6658939774264859  0.3436400583461449   T   T   T
  0.8888493601335768  0.7778176398665824  0.1895244143758958   T   T   T
  0.7775145541705356  0.8891524458294557  0.0350056252266960   T   T   T
 
  0.00000000E+00  0.00000000E+00  0.00000000E+00
  0.00000000E+00  0.00000000E+00  0.00000000E+00
  0.00000000E+00  0.00000000E+00  0.00000000E+00
  0.00000000E+00  0.00000000E+00  0.00000000E+00
  0.00000000E+00  0.00000000E+00  0.00000000E+00
  0.00000000E+00  0.00000000E+00  0.00000000E+00
  0.00000000E+00  0.00000000E+00  0.00000000E+00
  0.00000000E+00  0.00000000E+00  0.00000000E+00
  0.00000000E+00  0.00000000E+00  0.00000000E+00
  0.00000000E+00  0.00000000E+00  0.00000000E+00
  0.00000000E+00  0.00000000E+00  0.00000000E+00
  0.00000000E+00  0.00000000E+00  0.00000000E+00
  0.00000000E+00  0.00000000E+00  0.00000000E+00
  0.00000000E+00  0.00000000E+00  0.00000000E+00
  0.00000000E+00  0.00000000E+00  0.00000000E+00
  0.00000000E+00  0.00000000E+00  0.00000000E+00
  0.00000000E+00  0.00000000E+00  0.00000000E+00
  0.00000000E+00  0.00000000E+00  0.00000000E+00
  0.00000000E+00  0.00000000E+00  0.00000000E+00
  0.00000000E+00  0.00000000E+00  0.00000000E+00
  0.00000000E+00  0.00000000E+00  0.00000000E+00
  0.00000000E+00  0.00000000E+00  0.00000000E+00
  0.00000000E+00  0.00000000E+00  0.00000000E+00
  0.00000000E+00  0.00000000E+00  0.00000000E+00
  0.00000000E+00  0.00000000E+00  0.00000000E+00
  0.00000000E+00  0.00000000E+00  0.00000000E+00
  0.00000000E+00  0.00000000E+00  0.00000000E+00
  0.00000000E+00  0.00000000E+00  0.00000000E+00
  0.00000000E+00  0.00000000E+00  0.00000000E+00
  0.00000000E+00  0.00000000E+00  0.00000000E+00
  0.00000000E+00  0.00000000E+00  0.00000000E+00
  0.00000000E+00  0.00000000E+00  0.00000000E+00
  0.00000000E+00  0.00000000E+00  0.00000000E+00
  0.00000000E+00  0.00000000E+00  0.00000000E+00
  0.00000000E+00  0.00000000E+00  0.00000000E+00
  0.00000000E+00  0.00000000E+00  0.00000000E+00
  0.00000000E+00  0.00000000E+00  0.00000000E+00
  0.00000000E+00  0.00000000E+00  0.00000000E+00
  0.00000000E+00  0.00000000E+00  0.00000000E+00
  0.00000000E+00  0.00000000E+00  0.00000000E+00
  0.00000000E+00  0.00000000E+00  0.00000000E+00
  0.00000000E+00  0.00000000E+00  0.00000000E+00
  0.00000000E+00  0.00000000E+00  0.00000000E+00
  0.00000000E+00  0.00000000E+00  0.00000000E+00
  0.00000000E+00  0.00000000E+00  0.00000000E+00
  0.00000000E+00  0.00000000E+00  0.00000000E+00
  0.00000000E+00  0.00000000E+00  0.00000000E+00
  0.00000000E+00  0.00000000E+00  0.00000000E+00
  0.00000000E+00  0.00000000E+00  0.00000000E+00
  0.00000000E+00  0.00000000E+00  0.00000000E+00
  0.00000000E+00  0.00000000E+00  0.00000000E+00
  0.00000000E+00  0.00000000E+00  0.00000000E+00
  0.00000000E+00  0.00000000E+00  0.00000000E+00
  0.00000000E+00  0.00000000E+00  0.00000000E+00
  0.00000000E+00  0.00000000E+00  0.00000000E+00
  0.00000000E+00  0.00000000E+00  0.00000000E+00
  0.00000000E+00  0.00000000E+00  0.00000000E+00
  0.00000000E+00  0.00000000E+00  0.00000000E+00
  0.00000000E+00  0.00000000E+00  0.00000000E+00
  0.00000000E+00  0.00000000E+00  0.00000000E+00
  0.00000000E+00  0.00000000E+00  0.00000000E+00
  0.00000000E+00  0.00000000E+00  0.00000000E+00
  0.00000000E+00  0.00000000E+00  0.00000000E+00
  0.00000000E+00  0.00000000E+00  0.00000000E+00
  0.00000000E+00  0.00000000E+00  0.00000000E+00
  0.00000000E+00  0.00000000E+00  0.00000000E+00
  0.00000000E+00  0.00000000E+00  0.00000000E+00
  0.00000000E+00  0.00000000E+00  0.00000000E+00
  0.00000000E+00  0.00000000E+00  0.00000000E+00
  0.00000000E+00  0.00000000E+00  0.00000000E+00
  0.00000000E+00  0.00000000E+00  0.00000000E+00
  0.00000000E+00  0.00000000E+00  0.00000000E+00
  0.00000000E+00  0.00000000E+00  0.00000000E+00
  0.00000000E+00  0.00000000E+00  0.00000000E+00
  0.00000000E+00  0.00000000E+00  0.00000000E+00
  0.00000000E+00  0.00000000E+00  0.00000000E+00
  0.00000000E+00  0.00000000E+00  0.00000000E+00
  0.00000000E+00  0.00000000E+00  0.00000000E+00
  0.00000000E+00  0.00000000E+00  0.00000000E+00
  0.00000000E+00  0.00000000E+00  0.00000000E+00
  0.00000000E+00  0.00000000E+00  0.00000000E+00
