CeO2-you-111-you-Au                     
   1.00000000000000     
     9.8423850000000002   -5.6825039999999998    0.0000000000000000
     0.0000000000000000   11.3650059999999993    0.0000000000000000
     0.0000000000000000    0.0000000000000000   21.0000000000000000
   O    Au   Ce   H 
    54     1    26     2
Selective dynamics
Direct
 -0.0000280959312371 -0.0000765146859610  0.9950300959221060   T   T   T
  0.1028076650203857  0.2180703325101945  0.1478343564048217   F   F   F
  0.2460904305665216  0.1283520754277160  0.3145402516103765   T   T   T
  0.1118311736263908  0.2248111690341056  0.3854235715480531   T   T   T
  0.0090726068173367  0.0035249031955588  0.2324132515612491   T   T   T
  0.2225763503515950  0.1118197007031938  0.0743328670724139   F   F   F
  0.3329734731942480  0.0001861497573948  0.9948966804860399   T   T   T
  0.4485956674898048  0.2180703325101945  0.1478343564048217   F   F   F
  0.5494921250608470  0.1167594673895602  0.3085217782177528   T   T   T
  0.4663428433772573  0.2045435923792862  0.4297469734034430   T   T   T
  0.3297962218930241 -0.0011208285836782  0.2302167534243729   T   T   T
  0.5573116448476370  0.1093553551523669  0.0741232469330910   F   F   F
  0.6668121161651658 -0.0000875831998798  0.9929801680636952   T   T   T
  0.7778424489514890  0.2223508979029774  0.1512398201321901   F   F   F
  0.8902884028691154  0.1092903383541228  0.3054605303619733   T   T   T
  0.7789620961855430  0.2232773561506015  0.3836083612553960   T   T   T
  0.6648677069825039  0.0016009418424508  0.2324275409264181   T   T   T
  0.8853777103047307  0.1093553551523669  0.0741232469330910   F   F   F
  0.0001722532201944  0.3330721594179522  0.9949042838222014   T   T   T
  0.1105445876401348  0.5561224123598691  0.1493607888566970   F   F   F
  0.2135275255979865  0.4533375192469487  0.2986036889928737   T   T   T
  0.1108888672870976  0.5573906584112647  0.3861240487983350   T   T   T
 -0.0034305485424444  0.3299163931339322  0.2285752661587105   T   T   T
  0.2225763503515950  0.4440896496484044  0.0743328670724139   F   F   F
  0.3330649852849373  0.3326838007447359  0.9946630568577693   T   T   T
  0.4485956674898048  0.5638593349796182  0.1478343564048217   F   F   F
  0.5403717528284177  0.4215645155511513  0.3132404268852657   T   T   T
  0.4411665362920341  0.5522476335703879  0.3846885241110360   T   T   T
  0.3337298957574034  0.3331621991650566  0.2163971225625945   T   T   T
  0.5548472992968101  0.4440896496484044  0.0743328670724139   F   F   F
  0.6663437250082325  0.3333450934857106  0.9945788691954305   T   T   T
  0.7789108247197305  0.5561224123598691  0.1493607888566970   F   F   F
  0.8920816103724927  0.4469293335270801  0.3041969564650684   T   T   T
  0.7789783999956803  0.5555709415162176  0.3845800217036759   T   T   T
  0.6682097648408970  0.3362654988223792  0.2300205138232002   T   T   T
  0.8884060958255091  0.4434781916510175  0.0747828006874940   F   F   F
 -0.0001153793039616  0.6670013784943126  0.9951158804922146   T   T   T
  0.1105445876401348  0.8877561752802663  0.1493607888566970   F   F   F
  0.2205947717617426  0.7752599312030444  0.3042246022054469   T   T   T
  0.1114781365916273  0.8875438018172572  0.3846241577994287   T   T   T
 -0.0010969913160097  0.6678820962911147  0.2300575256755144   T   T   T
  0.2231878083489818  0.7782609041744877  0.0747828006874940   F   F   F
  0.3332719401624635  0.6662788745343862  0.9946008447652493   T   T   T
  0.4443151020970220  0.8888245510485078  0.1512398201321901   F   F   F
  0.5573931126904752  0.7766487331271418  0.3058671765227688   T   T   T
  0.4438349906130096  0.8878923860907177  0.3841632545173086   T   T   T
  0.3371693748847999  0.6707625627914777  0.2286145817463901   T   T   T
  0.5573116448476370  0.7812892896952661  0.0741232469330910   F   F   F
  0.6666140772709267  0.6666157673255627  0.9949184817119986   T   T   T
  0.7778424489514890  0.8888245510485078  0.1512398201321901   F   F   F
  0.8879962506987886  0.7792545793625982  0.3054718182174755   T   T   T
  0.7779976488209740  0.8894772378998471  0.3861734867809549   T   T   T
  0.6634478529783219  0.6580975821002942  0.2323959331717232   T   T   T
  0.8884060958255091  0.7782609041744877  0.0747828006874940   F   F   F
  0.3322440743721883  0.3349473744203674  0.3537495041861268   T   T   T
  0.0036427837546706  0.0042755012350734  0.3457582108633038   T   T   T
  0.2235194549799999  0.1137059099599966  0.1880062822642898   F   F   F
  0.1102973221787096  0.2218151610893599  0.0342101881717340   F   F   F
  0.3281047565143790 -0.0114814335702702  0.3427680061910892   T   T   T
  0.5555677846851523  0.1110992153148516  0.1902601426382091   F   F   F
  0.4448508389106394  0.2218151610893599  0.0342101881717340   F   F   F
  0.6676958019719030 -0.0010654474273372  0.3457486767048668   T   T   T
  0.8888654306296999  0.1110992153148516  0.1902601426382091   F   F   F
  0.7773793063532395  0.2214246127064854  0.0345334596056617   F   F   F
  0.0071084477665303  0.3359398852468435  0.3434130773267634   T   T   T
  0.2235194549799999  0.4431465450199994  0.1880062822642898   F   F   F
  0.1110191330235182  0.5556478669764857  0.0350331809180560   F   F   F
  0.5529610900400073  0.4431465450199994  0.1880062822642898   F   F   F
  0.4448508389106394  0.5563696778212943  0.0342101881717340   F   F   F
  0.6784996611468976  0.3388063171831965  0.3424167597104665   T   T   T
  0.8888888186335180  0.4444436372670353  0.1900195210646700   F   F   F
  0.7779617339529707  0.5556478669764857  0.0350331809180560   F   F   F
 -0.0001023119885597  0.6672487484858169  0.3448197842681579   T   T   T
  0.2222223627329640  0.7777781813664788  0.1900195210646700   F   F   F
  0.1110191330235182  0.8887052660470260  0.0350331809180560   F   F   F
  0.3309217922722356  0.6597848846762853  0.3434770238869444   T   T   T
  0.5555677846851523  0.7778015693702969  0.1902601426382091   F   F   F
  0.4452413872935139  0.8892876936467573  0.0345334596056617   F   F   F
  0.6627153369878849  0.6628448419943340  0.3455241771592879   T   T   T
  0.8888888186335180  0.7777781813664788  0.1900195210646700   F   F   F
  0.7773793063532395  0.8892876936467573  0.0345334596056617   F   F   F
  0.4150140002042447  0.2540979813100568  0.4203761616479681   T   T   T
  0.4726998551169294  0.2001404232050575  0.4759188649588361   T   T   T
 
  0.00000000E+00  0.00000000E+00  0.00000000E+00
  0.00000000E+00  0.00000000E+00  0.00000000E+00
  0.00000000E+00  0.00000000E+00  0.00000000E+00
  0.00000000E+00  0.00000000E+00  0.00000000E+00
  0.00000000E+00  0.00000000E+00  0.00000000E+00
  0.00000000E+00  0.00000000E+00  0.00000000E+00
  0.00000000E+00  0.00000000E+00  0.00000000E+00
  0.00000000E+00  0.00000000E+00  0.00000000E+00
  0.00000000E+00  0.00000000E+00  0.00000000E+00
  0.00000000E+00  0.00000000E+00  0.00000000E+00
  0.00000000E+00  0.00000000E+00  0.00000000E+00
  0.00000000E+00  0.00000000E+00  0.00000000E+00
  0.00000000E+00  0.00000000E+00  0.00000000E+00
  0.00000000E+00  0.00000000E+00  0.00000000E+00
  0.00000000E+00  0.00000000E+00  0.00000000E+00
  0.00000000E+00  0.00000000E+00  0.00000000E+00
  0.00000000E+00  0.00000000E+00  0.00000000E+00
  0.00000000E+00  0.00000000E+00  0.00000000E+00
  0.00000000E+00  0.00000000E+00  0.00000000E+00
  0.00000000E+00  0.00000000E+00  0.00000000E+00
  0.00000000E+00  0.00000000E+00  0.00000000E+00
  0.00000000E+00  0.00000000E+00  0.00000000E+00
  0.00000000E+00  0.00000000E+00  0.00000000E+00
  0.00000000E+00  0.00000000E+00  0.00000000E+00
  0.00000000E+00  0.00000000E+00  0.00000000E+00
  0.00000000E+00  0.00000000E+00  0.00000000E+00
  0.00000000E+00  0.00000000E+00  0.00000000E+00
  0.00000000E+00  0.00000000E+00  0.00000000E+00
  0.00000000E+00  0.00000000E+00  0.00000000E+00
  0.00000000E+00  0.00000000E+00  0.00000000E+00
  0.00000000E+00  0.00000000E+00  0.00000000E+00
  0.00000000E+00  0.00000000E+00  0.00000000E+00
  0.00000000E+00  0.00000000E+00  0.00000000E+00
  0.00000000E+00  0.00000000E+00  0.00000000E+00
  0.00000000E+00  0.00000000E+00  0.00000000E+00
  0.00000000E+00  0.00000000E+00  0.00000000E+00
  0.00000000E+00  0.00000000E+00  0.00000000E+00
  0.00000000E+00  0.00000000E+00  0.00000000E+00
  0.00000000E+00  0.00000000E+00  0.00000000E+00
  0.00000000E+00  0.00000000E+00  0.00000000E+00
  0.00000000E+00  0.00000000E+00  0.00000000E+00
  0.00000000E+00  0.00000000E+00  0.00000000E+00
  0.00000000E+00  0.00000000E+00  0.00000000E+00
  0.00000000E+00  0.00000000E+00  0.00000000E+00
  0.00000000E+00  0.00000000E+00  0.00000000E+00
  0.00000000E+00  0.00000000E+00  0.00000000E+00
  0.00000000E+00  0.00000000E+00  0.00000000E+00
  0.00000000E+00  0.00000000E+00  0.00000000E+00
  0.00000000E+00  0.00000000E+00  0.00000000E+00
  0.00000000E+00  0.00000000E+00  0.00000000E+00
  0.00000000E+00  0.00000000E+00  0.00000000E+00
  0.00000000E+00  0.00000000E+00  0.00000000E+00
  0.00000000E+00  0.00000000E+00  0.00000000E+00
  0.00000000E+00  0.00000000E+00  0.00000000E+00
  0.00000000E+00  0.00000000E+00  0.00000000E+00
  0.00000000E+00  0.00000000E+00  0.00000000E+00
  0.00000000E+00  0.00000000E+00  0.00000000E+00
  0.00000000E+00  0.00000000E+00  0.00000000E+00
  0.00000000E+00  0.00000000E+00  0.00000000E+00
  0.00000000E+00  0.00000000E+00  0.00000000E+00
  0.00000000E+00  0.00000000E+00  0.00000000E+00
  0.00000000E+00  0.00000000E+00  0.00000000E+00
  0.00000000E+00  0.00000000E+00  0.00000000E+00
  0.00000000E+00  0.00000000E+00  0.00000000E+00
  0.00000000E+00  0.00000000E+00  0.00000000E+00
  0.00000000E+00  0.00000000E+00  0.00000000E+00
  0.00000000E+00  0.00000000E+00  0.00000000E+00
  0.00000000E+00  0.00000000E+00  0.00000000E+00
  0.00000000E+00  0.00000000E+00  0.00000000E+00
  0.00000000E+00  0.00000000E+00  0.00000000E+00
  0.00000000E+00  0.00000000E+00  0.00000000E+00
  0.00000000E+00  0.00000000E+00  0.00000000E+00
  0.00000000E+00  0.00000000E+00  0.00000000E+00
  0.00000000E+00  0.00000000E+00  0.00000000E+00
  0.00000000E+00  0.00000000E+00  0.00000000E+00
  0.00000000E+00  0.00000000E+00  0.00000000E+00
  0.00000000E+00  0.00000000E+00  0.00000000E+00
  0.00000000E+00  0.00000000E+00  0.00000000E+00
  0.00000000E+00  0.00000000E+00  0.00000000E+00
  0.00000000E+00  0.00000000E+00  0.00000000E+00
  0.00000000E+00  0.00000000E+00  0.00000000E+00
  0.00000000E+00  0.00000000E+00  0.00000000E+00
  0.00000000E+00  0.00000000E+00  0.00000000E+00
