CeO2-you-111-you-Zr                     
   1.00000000000000     
     9.8518895043353041   -5.7021335396174759   -0.0064323220735845
    -0.0122474249484077   11.3830519112755599    0.0064323209663919
    -0.0074174781373857    0.0128474481342418   20.8608738583768805
   O    Zr   Ce H
    53     1    26 1
Selective dynamics
Direct
 -0.0004063047414242 -0.0001255933483532  0.9939970794447595   T   T   T
  0.1122061561366023  0.2213806864472259  0.1474872247870876   T   T   T
  0.2273982856173502  0.1081527508324156  0.3016939133793776   T   T   T
  0.1459660544899375  0.2472420187010284  0.3717543139664692   T   T   T
  0.0015375622399540  0.0009924216982876  0.2297526819880926   T   T   T
  0.2218841012044776  0.1099210708633738  0.0733738869575328   T   T   T
  0.3351025619516962  0.0009068158636312  0.9945665380204590   T   T   T
  0.4406127405003809  0.2260532594990112  0.1511933381375707   T   T   T
  0.5536913417335022  0.1129756582656743  0.3042596935975422   T   T   T
  0.4377528518893036  0.2289131481238449  0.3838487436496783   T   T   T
  0.3353408328636084 -0.0005264409180851  0.2270846576468165   T   T   T
  0.5553872046011389  0.1112797953989740  0.0767875279046952   T   T   T
  0.6660285499635613  0.0006384500366729  0.9947527877672144   T   T   T
  0.7847842430579165  0.2242365167940710  0.1512131141589227   T   T   T
  0.8866851299613666  0.1052879543878319  0.3057713298363656   T   T   T
  0.7650042277154316  0.2159663108290886  0.3885591536157678   T   T   T
  0.6661163173475281  0.0005506826514316  0.2297413318079078   T   T   T
  0.8888469585406922  0.1100741869550238  0.0743349944731098   T   T   T
 -0.0018420569383624  0.3323310649275285  0.9938497379760253   T   T   T
  0.1106357671336952  0.5560312328648536  0.1469441952604097   T   T   T
  0.1053051657011226  0.5613618342921709  0.3869191355273792   T   T   T
  0.0174028473902842  0.3430115990733788  0.2342084382486322   T   T   T
  0.2221474342623690  0.4445185657370742  0.0714804060748031   T   T   T
  0.3341595172834968  0.3325064827158584  0.9936696559479187   T   T   T
  0.4452853135538176  0.5544608438645279  0.1474872247867608   T   T   T
  0.5585142491825852  0.4392677143859710  0.3016939133801903   T   T   T
  0.4194239813034178  0.5207009455046731  0.3717543139665694   T   T   T
  0.3242717080489805  0.3423942919511367  0.2386847498858847   T   T   T
  0.5567459291366332  0.4447818987952313  0.0733738869576028   T   T   T
  0.6657601841364504  0.3315634380482846  0.9945665380204312   T   T   T
  0.7781139930799984  0.5554065265585747  0.1499368526790649   T   T   T
  0.8818400944028831  0.4457461229796232  0.3046936881034363   T   T   T
  0.7734969322467555  0.5573459786756282  0.3860767744056605   T   T   T
  0.6671934409179977  0.3313251671360085  0.2270846576467370   T   T   T
  0.8881403784687064  0.4444135501946411  0.0737595810315877   T   T   T
 -0.0006692107936735  0.6673362107935095  0.9938249787594143   T   T   T
  0.1112604734415829  0.8885530069203811  0.1499368526790398   T   T   T
  0.2209198770173704  0.7848269055916494  0.3046936881036200   T   T   T
  0.1093210213266247  0.8931700677545041  0.3860767744056645   T   T   T
  0.0004569028971937  0.6662100971031044  0.2296015168682661   T   T   T
  0.2222524498052648  0.7785266215314232  0.0737595810316019   T   T   T
  0.3343349350724153  0.6685090569387405  0.9938497379761078   T   T   T
  0.4424294832057022  0.8818827569427151  0.1512131141586181   T   T   T
  0.5613790456154759  0.7799818700368740  0.3057713298363299   T   T   T
  0.4506996891702804  0.9016627722737018  0.3885591536162356   T   T   T
  0.3236544009253366  0.6492641526080715  0.2342084382481089   T   T   T
  0.5565928130447614  0.7778200414593871  0.0743349944730712   T   T   T
  0.6667925933481049  0.6670733047414988  0.9939970794448376   T   T   T
  0.7775187912362473  0.8891482087640187  0.1511338229210196   T   T   T
  0.8883817151922043  0.7782852848084456  0.3041690543469930   T   T   T
  0.7797876260828992  0.8868793739162786  0.3866901669503636   T   T   T
  0.6656745783028893  0.6651294377609118  0.2297526819880106   T   T   T
  0.8886152357456671  0.7780517642545416  0.0743977293638877   T   T   T
  0.3435592559400796  0.3231067440371187  0.3402852830719877   T   T   T
  0.0031812483850541  0.0015974269294924  0.3435608103190357   T   T   T
  0.2218501762456949  0.1102239247886177  0.1898686794074622   T   T   T
  0.1098854910736064  0.2201443445872834  0.0326715400825230   T   T   T
  0.3332848547276366  0.0007714520469649  0.3448187228271424   T   T   T
  0.5560381075720531  0.1106288924275175  0.1902727234860202   T   T   T
  0.4443421495732189  0.2223238504273401  0.0343927543068958   T   T   T
  0.6670002771262160 -0.0003332771221959  0.3463478583698739   T   T   T
  0.8906884666466504  0.1122302182436347  0.1917875071192582   T   T   T
  0.7782590134808637  0.2221955093908396  0.0350294847852604   T   T   T
 -0.0086151169375603  0.3311522593272209  0.3531245651594331   T   T   T
  0.2219777775740172  0.4446882224295524  0.1824019510284421   T   T   T
  0.1099793643927721  0.5566876356054138  0.0328747584124194   T   T   T
  0.5564430752044498  0.4448158237541673  0.1898686794072690   T   T   T
  0.4465216554153217  0.5567815089267188  0.0326715400825404   T   T   T
  0.6658955479469854  0.3333811452667954  0.3448187228268198   T   T   T
  0.8906799457320552  0.4445999524979259  0.1913549259869491   T   T   T
  0.7776235115563925  0.5550495701219385  0.0345716764199856   T   T   T
 -0.0006385945400325  0.6673055945407032  0.3458779737136184   T   T   T
  0.2220660475049701  0.7759870542703198  0.1913549259869472   T   T   T
  0.1116174298780708  0.8890434884432136  0.0345716764200421   T   T   T
  0.3355137406774235  0.6752821169614723  0.3531245651586661   T   T   T
  0.5544367817543662  0.7759785333549137  0.1917875071190935   T   T   T
  0.4444704906094929  0.8884079865186284  0.0350294847852663   T   T   T
  0.6650695730616719  0.6634857516171659  0.3435608103188764   T   T   T
  0.8892692620882408  0.7773977379111211  0.1894049344339504   T   T   T
  0.7774423522900838  0.8892246477100503  0.0351631827546788   T   T   T
0.446598 0.216020 0.433410 T T T 
 
  0.00000000E+00  0.00000000E+00  0.00000000E+00
  0.00000000E+00  0.00000000E+00  0.00000000E+00
  0.00000000E+00  0.00000000E+00  0.00000000E+00
  0.00000000E+00  0.00000000E+00  0.00000000E+00
  0.00000000E+00  0.00000000E+00  0.00000000E+00
  0.00000000E+00  0.00000000E+00  0.00000000E+00
  0.00000000E+00  0.00000000E+00  0.00000000E+00
  0.00000000E+00  0.00000000E+00  0.00000000E+00
  0.00000000E+00  0.00000000E+00  0.00000000E+00
  0.00000000E+00  0.00000000E+00  0.00000000E+00
  0.00000000E+00  0.00000000E+00  0.00000000E+00
  0.00000000E+00  0.00000000E+00  0.00000000E+00
  0.00000000E+00  0.00000000E+00  0.00000000E+00
  0.00000000E+00  0.00000000E+00  0.00000000E+00
  0.00000000E+00  0.00000000E+00  0.00000000E+00
  0.00000000E+00  0.00000000E+00  0.00000000E+00
  0.00000000E+00  0.00000000E+00  0.00000000E+00
  0.00000000E+00  0.00000000E+00  0.00000000E+00
  0.00000000E+00  0.00000000E+00  0.00000000E+00
  0.00000000E+00  0.00000000E+00  0.00000000E+00
  0.00000000E+00  0.00000000E+00  0.00000000E+00
  0.00000000E+00  0.00000000E+00  0.00000000E+00
  0.00000000E+00  0.00000000E+00  0.00000000E+00
  0.00000000E+00  0.00000000E+00  0.00000000E+00
  0.00000000E+00  0.00000000E+00  0.00000000E+00
  0.00000000E+00  0.00000000E+00  0.00000000E+00
  0.00000000E+00  0.00000000E+00  0.00000000E+00
  0.00000000E+00  0.00000000E+00  0.00000000E+00
  0.00000000E+00  0.00000000E+00  0.00000000E+00
  0.00000000E+00  0.00000000E+00  0.00000000E+00
  0.00000000E+00  0.00000000E+00  0.00000000E+00
  0.00000000E+00  0.00000000E+00  0.00000000E+00
  0.00000000E+00  0.00000000E+00  0.00000000E+00
  0.00000000E+00  0.00000000E+00  0.00000000E+00
  0.00000000E+00  0.00000000E+00  0.00000000E+00
  0.00000000E+00  0.00000000E+00  0.00000000E+00
  0.00000000E+00  0.00000000E+00  0.00000000E+00
  0.00000000E+00  0.00000000E+00  0.00000000E+00
  0.00000000E+00  0.00000000E+00  0.00000000E+00
  0.00000000E+00  0.00000000E+00  0.00000000E+00
  0.00000000E+00  0.00000000E+00  0.00000000E+00
  0.00000000E+00  0.00000000E+00  0.00000000E+00
  0.00000000E+00  0.00000000E+00  0.00000000E+00
  0.00000000E+00  0.00000000E+00  0.00000000E+00
  0.00000000E+00  0.00000000E+00  0.00000000E+00
  0.00000000E+00  0.00000000E+00  0.00000000E+00
  0.00000000E+00  0.00000000E+00  0.00000000E+00
  0.00000000E+00  0.00000000E+00  0.00000000E+00
  0.00000000E+00  0.00000000E+00  0.00000000E+00
  0.00000000E+00  0.00000000E+00  0.00000000E+00
  0.00000000E+00  0.00000000E+00  0.00000000E+00
  0.00000000E+00  0.00000000E+00  0.00000000E+00
  0.00000000E+00  0.00000000E+00  0.00000000E+00
  0.00000000E+00  0.00000000E+00  0.00000000E+00
  0.00000000E+00  0.00000000E+00  0.00000000E+00
  0.00000000E+00  0.00000000E+00  0.00000000E+00
  0.00000000E+00  0.00000000E+00  0.00000000E+00
  0.00000000E+00  0.00000000E+00  0.00000000E+00
  0.00000000E+00  0.00000000E+00  0.00000000E+00
  0.00000000E+00  0.00000000E+00  0.00000000E+00
  0.00000000E+00  0.00000000E+00  0.00000000E+00
  0.00000000E+00  0.00000000E+00  0.00000000E+00
  0.00000000E+00  0.00000000E+00  0.00000000E+00
  0.00000000E+00  0.00000000E+00  0.00000000E+00
  0.00000000E+00  0.00000000E+00  0.00000000E+00
  0.00000000E+00  0.00000000E+00  0.00000000E+00
  0.00000000E+00  0.00000000E+00  0.00000000E+00
  0.00000000E+00  0.00000000E+00  0.00000000E+00
  0.00000000E+00  0.00000000E+00  0.00000000E+00
  0.00000000E+00  0.00000000E+00  0.00000000E+00
  0.00000000E+00  0.00000000E+00  0.00000000E+00
  0.00000000E+00  0.00000000E+00  0.00000000E+00
  0.00000000E+00  0.00000000E+00  0.00000000E+00
  0.00000000E+00  0.00000000E+00  0.00000000E+00
  0.00000000E+00  0.00000000E+00  0.00000000E+00
  0.00000000E+00  0.00000000E+00  0.00000000E+00
  0.00000000E+00  0.00000000E+00  0.00000000E+00
  0.00000000E+00  0.00000000E+00  0.00000000E+00
  0.00000000E+00  0.00000000E+00  0.00000000E+00
  0.00000000E+00  0.00000000E+00  0.00000000E+00
