CeO2-you-111-you-Ga                     
   1.00000000000000     
     9.8380330969217145   -5.6799914279421699   -0.0000000000000000
     0.0000000010143697   11.3599808585255975    0.0000000000000000
    -0.0000000000000000    0.0000000000000000   20.8258270750177843
   O    Ga   Ce H
    54     1    26 2
Selective dynamics
Direct
 -0.0002687722543211 -0.0004445799621194  0.9935978328609806   T   T   T
  0.1161935736024567  0.2247632868009601  0.1514601996974387   T   T   T
  0.2092543374322268  0.0851756748584081  0.3008446329193312   T   T   T
  0.1437821631015442  0.2385575815488406  0.3718915596986628   T   T   T
 -0.0056479331370535 -0.0016046685305896  0.2294306802428839   T   T   T
  0.2223255363356509  0.1113180726711880  0.0736780813397433   T   T   T
  0.3331571922922664 -0.0004445799620814  0.9935978328609806   T   T   T
  0.4419027131984995  0.2247632868007207  0.1514601996974387   T   T   T
  0.5545655299984200  0.1121014700021853  0.3090848029314902   T   T   T
  0.4281084184472924  0.2385575815471246  0.3718915596986628   T   T   T
  0.3373762646061468 -0.0016046685315183  0.2294306802428839   T   T   T
  0.5541255904844994  0.1125414095154064  0.0742553349231972   T   T   T
  0.6666669999999968  0.0000000000000000  0.9945641324820543   T   T   T
  0.7766802270616032  0.2200264541229039  0.1483581689676042   T   T   T
  0.8908699400035811  0.1121014700020004  0.3090848029314902   T   T   T
  0.7785875395200510  0.2238410790400248  0.3870708220310404   T   T   T
  0.6666669999999968  0.0000000000000000  0.2320674099472786   T   T   T
  0.8917498190309378  0.1125414095154365  0.0742553349231972   T   T   T
 -0.0002687722541824  0.3335088077078872  0.9935978328609806   T   T   T
  0.1119938287794291  0.5546731712208931  0.1499613357140348   T   T   T
  0.2092543374458409  0.4574116625738148  0.3008446329193312   T   T   T
  0.1099824053863271  0.5566845946132732  0.3885750781271988   T   T   T
 -0.0056479331377748  0.3292897353914470  0.2294306802428839   T   T   T
  0.2223255363358997  0.4443404636644589  0.0736780813397433   T   T   T
  0.3333330000000032  0.3333330000000032  0.9931676725336285   T   T   T
  0.4419027131990391  0.5504734263983262  0.1514601996974387   T   T   T
  0.5814913251219391  0.4574116625677725  0.3008446329193312   T   T   T
  0.4281084184511588  0.5228848369040419  0.3718915596986628   T   T   T
  0.3333330000000032  0.3333330000000032  0.2440822628252315   T   T   T
  0.5553489273284564  0.4443404636643485  0.0736780813397433   T   T   T
  0.6671115799620014  0.3335088077078635  0.9935978328609806   T   T   T
  0.7760123424413626  0.5546731712207951  0.1499613357140348   T   T   T
  0.8895263496242085  0.4457186992485648  0.3057450143936782   T   T   T
  0.7800351892270664  0.5566845946133971  0.3885750781271988   T   T   T
  0.6682716685295353  0.3292897353908383  0.2294306802428839   T   T   T
  0.8889743810055870  0.4446147620112836  0.0742329077017943   T   T   T
  0.0000000000000000  0.6666669999999968  0.9938538399930068   T   T   T
  0.1119938287792085  0.8906546575583160  0.1499613357140348   T   T   T
  0.2209473007519153  0.7771406503757883  0.3057450143936782   T   T   T
  0.1099824053866066  0.8866318107733345  0.3885750781271988   T   T   T
  0.0000000000000000  0.6666669999999968  0.2293496740693699   T   T   T
  0.2220512379890753  0.7776926189944098  0.0742329077017943   T   T   T
  0.3331571922923196  0.6669357722542557  0.9935978328609806   T   T   T
  0.4466395458760896  0.8899867729383936  0.1483581689676042   T   T   T
  0.5545655299980036  0.7757970599958146  0.3090848029314902   T   T   T
  0.4428249209597032  0.8880794604799458  0.3870708220310404   T   T   T
  0.3373762646075181  0.6723149331397513  0.2294306802428839   T   T   T
  0.5541255904845673  0.7749171809691570  0.0742553349231972   T   T   T
  0.6671115799619157  0.6669357722541942  0.9935978328609806   T   T   T
  0.7766802270623002  0.8899867729387025  0.1483581689676042   T   T   T
  0.8895263496238752  0.7771406503756405  0.3057450143936782   T   T   T
  0.7785875395202390  0.8880794604800297  0.3870708220310404   T   T   T
  0.6682716685316277  0.6723149331400717  0.2294306802428839   T   T   T
  0.8889743810053375  0.7776926189942999  0.0742329077017943   T   T   T
  0.3333330000000032  0.3333330000000032  0.3408017812200805   T   T   T
  0.0017690058193579 -0.0008947624802364  0.3451079692565205   T   T   T
  0.2220662074317865  0.1107994148634200  0.1915893967512093   T   T   T
  0.1117974702027261  0.2225652351018717  0.0341170728301707   T   T   T
  0.3306692317010725 -0.0008947624801865  0.3451079692565205   T   T   T
  0.5558938039955189  0.1107731960062908  0.1900128969928499   T   T   T
  0.4441007648991418  0.2225652351023219  0.0341170728301707   T   T   T
  0.6666669999999968  0.0000000000000000  0.3476525084955573   T   T   T
  0.8882133920102173  0.1107731960057357  0.1900128969928499   T   T   T
  0.7779114666448482  0.2224889332894976  0.0339183737990604   T   T   T
  0.0017690058208536  0.3359967682997098  0.3451079692565205   T   T   T
  0.2220662074321246  0.4445997925683626  0.1915893967512093   T   T   T
  0.1113336131262168  0.5553333868720300  0.0338376708277062   T   T   T
  0.5558675851360959  0.4445997925682126  0.1915893967512093   T   T   T
  0.4441007648981276  0.5548695297958133  0.0341170728301707   T   T   T
  0.6675617624781859  0.3359967682990957  0.3451079692565205   T   T   T
  0.8888927960030548  0.4444515920060337  0.1893603659510106   T   T   T
  0.7773327737463497  0.5553333868725703  0.0338376708277062   T   T   T
  0.0000000000000000  0.6666669999999968  0.3470466774799273   T   T   T
  0.2222144079937201  0.7777742039969420  0.1893603659510106   T   T   T
  0.1113336131274337  0.8893342262554043  0.0338376708277062   T   T   T
  0.3306692317024559  0.6648979941811410  0.3451079692565205   T   T   T
  0.5558938039942679  0.7784536079879733  0.1900128969928499   T   T   T
  0.4441770667098324  0.8887555333551486  0.0339183737990604   T   T   T
  0.6675617624780736  0.6648979941804766  0.3451079692565205   T   T   T
  0.8888927960032248  0.7777742039970171  0.1893603659510106   T   T   T
  0.7779114666453119  0.8887555333553540  0.0339183737990604   T   T   T
0.3333330000000032 0.3333330000000032 0.410802 T T T
0.446598 0.216020 0.433410 T T T 
 
  0.00000000E+00  0.00000000E+00  0.00000000E+00
  0.00000000E+00  0.00000000E+00  0.00000000E+00
  0.00000000E+00  0.00000000E+00  0.00000000E+00
  0.00000000E+00  0.00000000E+00  0.00000000E+00
  0.00000000E+00  0.00000000E+00  0.00000000E+00
  0.00000000E+00  0.00000000E+00  0.00000000E+00
  0.00000000E+00  0.00000000E+00  0.00000000E+00
  0.00000000E+00  0.00000000E+00  0.00000000E+00
  0.00000000E+00  0.00000000E+00  0.00000000E+00
  0.00000000E+00  0.00000000E+00  0.00000000E+00
  0.00000000E+00  0.00000000E+00  0.00000000E+00
  0.00000000E+00  0.00000000E+00  0.00000000E+00
  0.00000000E+00  0.00000000E+00  0.00000000E+00
  0.00000000E+00  0.00000000E+00  0.00000000E+00
  0.00000000E+00  0.00000000E+00  0.00000000E+00
  0.00000000E+00  0.00000000E+00  0.00000000E+00
  0.00000000E+00  0.00000000E+00  0.00000000E+00
  0.00000000E+00  0.00000000E+00  0.00000000E+00
  0.00000000E+00  0.00000000E+00  0.00000000E+00
  0.00000000E+00  0.00000000E+00  0.00000000E+00
  0.00000000E+00  0.00000000E+00  0.00000000E+00
  0.00000000E+00  0.00000000E+00  0.00000000E+00
  0.00000000E+00  0.00000000E+00  0.00000000E+00
  0.00000000E+00  0.00000000E+00  0.00000000E+00
  0.00000000E+00  0.00000000E+00  0.00000000E+00
  0.00000000E+00  0.00000000E+00  0.00000000E+00
  0.00000000E+00  0.00000000E+00  0.00000000E+00
  0.00000000E+00  0.00000000E+00  0.00000000E+00
  0.00000000E+00  0.00000000E+00  0.00000000E+00
  0.00000000E+00  0.00000000E+00  0.00000000E+00
  0.00000000E+00  0.00000000E+00  0.00000000E+00
  0.00000000E+00  0.00000000E+00  0.00000000E+00
  0.00000000E+00  0.00000000E+00  0.00000000E+00
  0.00000000E+00  0.00000000E+00  0.00000000E+00
  0.00000000E+00  0.00000000E+00  0.00000000E+00
  0.00000000E+00  0.00000000E+00  0.00000000E+00
  0.00000000E+00  0.00000000E+00  0.00000000E+00
  0.00000000E+00  0.00000000E+00  0.00000000E+00
  0.00000000E+00  0.00000000E+00  0.00000000E+00
  0.00000000E+00  0.00000000E+00  0.00000000E+00
  0.00000000E+00  0.00000000E+00  0.00000000E+00
  0.00000000E+00  0.00000000E+00  0.00000000E+00
  0.00000000E+00  0.00000000E+00  0.00000000E+00
  0.00000000E+00  0.00000000E+00  0.00000000E+00
  0.00000000E+00  0.00000000E+00  0.00000000E+00
  0.00000000E+00  0.00000000E+00  0.00000000E+00
  0.00000000E+00  0.00000000E+00  0.00000000E+00
  0.00000000E+00  0.00000000E+00  0.00000000E+00
  0.00000000E+00  0.00000000E+00  0.00000000E+00
  0.00000000E+00  0.00000000E+00  0.00000000E+00
  0.00000000E+00  0.00000000E+00  0.00000000E+00
  0.00000000E+00  0.00000000E+00  0.00000000E+00
  0.00000000E+00  0.00000000E+00  0.00000000E+00
  0.00000000E+00  0.00000000E+00  0.00000000E+00
  0.00000000E+00  0.00000000E+00  0.00000000E+00
  0.00000000E+00  0.00000000E+00  0.00000000E+00
  0.00000000E+00  0.00000000E+00  0.00000000E+00
  0.00000000E+00  0.00000000E+00  0.00000000E+00
  0.00000000E+00  0.00000000E+00  0.00000000E+00
  0.00000000E+00  0.00000000E+00  0.00000000E+00
  0.00000000E+00  0.00000000E+00  0.00000000E+00
  0.00000000E+00  0.00000000E+00  0.00000000E+00
  0.00000000E+00  0.00000000E+00  0.00000000E+00
  0.00000000E+00  0.00000000E+00  0.00000000E+00
  0.00000000E+00  0.00000000E+00  0.00000000E+00
  0.00000000E+00  0.00000000E+00  0.00000000E+00
  0.00000000E+00  0.00000000E+00  0.00000000E+00
  0.00000000E+00  0.00000000E+00  0.00000000E+00
  0.00000000E+00  0.00000000E+00  0.00000000E+00
  0.00000000E+00  0.00000000E+00  0.00000000E+00
  0.00000000E+00  0.00000000E+00  0.00000000E+00
  0.00000000E+00  0.00000000E+00  0.00000000E+00
  0.00000000E+00  0.00000000E+00  0.00000000E+00
  0.00000000E+00  0.00000000E+00  0.00000000E+00
  0.00000000E+00  0.00000000E+00  0.00000000E+00
  0.00000000E+00  0.00000000E+00  0.00000000E+00
  0.00000000E+00  0.00000000E+00  0.00000000E+00
  0.00000000E+00  0.00000000E+00  0.00000000E+00
  0.00000000E+00  0.00000000E+00  0.00000000E+00
  0.00000000E+00  0.00000000E+00  0.00000000E+00
  0.00000000E+00  0.00000000E+00  0.00000000E+00
