CeO2-you-111-you-Cu                     
   1.00000000000000     
     9.8360088682195066   -5.6788227390755974    0.0000000001973158
    -0.0017100702509544   11.3546815510786985    0.0037587411625093
     0.0039700673338288    0.0068763571650267   21.1804275110266431
   O    Cu   Ce H
    53     1    26 1
Selective dynamics
Direct
 -0.0000711410787261  0.0005542239843729  0.9963703401003614   T   T   T
  0.1050101754054595  0.2197826820285222  0.1489947338658817   T   T   T
  0.2191934167044301  0.1050538334094579  0.2987918720021346   T   T   T
  0.1133275532784681  0.2226477537166462  0.3795739305512694   T   T   T
 -0.0026961618295010 -0.0013795182002254  0.2278150738083786   T   T   T
  0.2225400915051040  0.1117471830101292  0.0752259489246075   T   T   T
  0.3339583650631248  0.0005542239842858  0.9963703401003595   T   T   T
  0.4481055066227587  0.2197826820281781  0.1489947338658845   T   T   T
  0.5567824131721743  0.1117065374717257  0.3036523362571532   T   T   T
  0.4426532004382869  0.2226477537162433  0.3795739305512492   T   T   T
  0.3346496436295397 -0.0013795182006641  0.2278150738083934   T   T   T
  0.5586801893450335  0.1108261194217545  0.0758354234770371   T   T   T
  0.6666819986897583  0.0000299973795603  0.9951413726608831   T   T   T
  0.7781901130916244  0.2230462261833069  0.1548639723251355   T   T   T
  0.8882581243002671  0.1117065374725385  0.3036523362571410   T   T   T
  0.7764123394355994  0.2194906788709706  0.3838492393534040   T   T   T
  0.6626328859622501 -0.0080682280754633  0.2324603880521690   T   T   T
  0.8854799300767559  0.1108261194219880  0.0758354234770441   T   T   T
  0.0009652010838220  0.3339850899862001  0.9965285894164069   T   T   T
  0.1097326500793794  0.5543829805062193  0.1500473211893344   T   T   T
  0.2552030427469053  0.4528923780756558  0.3132349985171065   T   T   T
  0.1118463850664931  0.5563233307424446  0.3818294486592398   T   T   T
  0.0104275722941337  0.3384941818574635  0.2334836633496151   T   T   T
  0.2233216824038600  0.4445802876576191  0.0763553970894655   T   T   T
  0.3335005220427982  0.3336680440857087  0.9962372187609582   T   T   T
  0.4472680583816915  0.5612041167636246  0.1497227122869359   T   T   T
  0.5310233353269013  0.4528923780726362  0.3132349985170805   T   T   T
  0.3326823201223343  0.3320316402450859  0.2187436369133445   T   T   T
  0.5545926052534363  0.4445802876573326  0.0763553970894625   T   T   T
  0.6663538889021631  0.3339850899860848  0.9965285894164082   T   T   T
  0.7779833304265156  0.5543829805058733  0.1500473211893494   T   T   T
  0.8878435553445518  0.4423531106890295  0.3045963392570598   T   T   T
  0.7778099456762145  0.5563233307433216  0.3818294486592503   T   T   T
  0.6614006095629437  0.3384941818566973  0.2334836633496074   T   T   T
  0.8875967554225325  0.4418595108451570  0.0766666182949035   T   T   T
 -0.0003710787948780  0.6659248424099993  0.9968227260899439   T   T   T
  0.1103301357995509  0.8873272715985586  0.1481158568861281   T   T   T
  0.2194450419286924  0.7785409272718453  0.3020441303253460   T   T   T
  0.1107125293354548  0.8880920586708583  0.3825442024239666   T   T   T
 -0.0001900852919178  0.6662868294158293  0.2289544165288366   T   T   T
  0.2231843680535300  0.7779814586890159  0.0749802054294042   T   T   T
  0.3326379541225957  0.6657413682492305  0.9961759145895573   T   T   T
  0.4459325415747383  0.8887407073124443  0.1496110747578971   T   T   T
  0.5467738067732386  0.7602136135485625  0.3108224644041461   T   T   T
  0.4421921953697168  0.8884593462523882  0.3815192886770309   T   T   T
  0.3310305167776615  0.6674279798801542  0.2292592512809372   T   T   T
  0.5561048640913128  0.7788757281825976  0.0748743717485072   T   T   T
  0.6664364141267514  0.6657413682491756  0.9961759145895558   T   T   T
  0.7761411657379134  0.8887407073126548  0.1496110747578908   T   T   T
  0.8924288853447386  0.7785409272734380  0.3020441303253777   T   T   T
  0.7796001508833614  0.8884593462530260  0.3815192886770362   T   T   T
  0.6697304631026147  0.6674279798808387  0.2292592512809614   T   T   T
  0.8881300906356778  0.7779814586889913  0.0749802054294121   T   T   T
  0.3317365688025673  0.3301401376069974  0.3402027022094427   T   T   T
  0.0080757475689153  0.0065865884809302  0.3419059240756027   T   T   T
  0.2223280792775932  0.1113231585562037  0.1893089526120632   T   T   T
  0.1108759001516717  0.2225041179116712  0.0364546630851222   T   T   T
  0.3318438409124608  0.0065865884821975  0.3419059240756008   T   T   T
  0.5548104877494178  0.1104723147909116  0.1908137528348265   T   T   T
  0.4449612177600877  0.2225041179118844  0.0364546630851273   T   T   T
  0.6668300503340059  0.0003261006708037  0.3448742265222529   T   T   T
  0.8889958270403128  0.1104723147897347  0.1908137528348605   T   T   T
  0.7778391844949865  0.2223443689898170  0.0365965221389633   T   T   T
  0.0052648902147475  0.3309892187069448  0.3447499853448317   T   T   T
  0.2249855589817842  0.4429723440109812  0.1900368074277271   T   T   T
  0.1106852416472398  0.5546116489916610  0.0367501486056826   T   T   T
  0.5513207850307412  0.4429723440116010  0.1900368074277493   T   T   T
  0.4444272595407436  0.5555225190812594  0.0354648102931764   T   T   T
  0.6590583284921722  0.3309892187062849  0.3447499853448647   T   T   T
  0.8892280236296660  0.4451220472588209  0.1922217955293002   T   T   T
  0.7772594073445094  0.5546116489919102  0.0367501486056877   T   T   T
 -0.0003516468385983  0.6659637063235349  0.3426876342659406   T   T   T
  0.2216554923201779  0.7779898202204150  0.1875474416910623   T   T   T
  0.1112868887939293  0.8892407775880647  0.0352363428628375   T   T   T
  0.3248439226638548  0.6719460880171605  0.3390881715593632   T   T   T
  0.5553547741881250  0.7773755483760647  0.1893407290262854   T   T   T
  0.4454501769199561  0.8892146131235729  0.0354969478477349   T   T   T
  0.6804351653560176  0.6719460880177525  0.3390881715592537   T   T   T
  0.8896673278995721  0.7779898202201969  0.1875474416910676   T   T   T
  0.7770974362035099  0.8892146131235302  0.0354969478477291   T   T   T
0.446598 0.216020 0.433410 T T T 
 
  0.00000000E+00  0.00000000E+00  0.00000000E+00
  0.00000000E+00  0.00000000E+00  0.00000000E+00
  0.00000000E+00  0.00000000E+00  0.00000000E+00
  0.00000000E+00  0.00000000E+00  0.00000000E+00
  0.00000000E+00  0.00000000E+00  0.00000000E+00
  0.00000000E+00  0.00000000E+00  0.00000000E+00
  0.00000000E+00  0.00000000E+00  0.00000000E+00
  0.00000000E+00  0.00000000E+00  0.00000000E+00
  0.00000000E+00  0.00000000E+00  0.00000000E+00
  0.00000000E+00  0.00000000E+00  0.00000000E+00
  0.00000000E+00  0.00000000E+00  0.00000000E+00
  0.00000000E+00  0.00000000E+00  0.00000000E+00
  0.00000000E+00  0.00000000E+00  0.00000000E+00
  0.00000000E+00  0.00000000E+00  0.00000000E+00
  0.00000000E+00  0.00000000E+00  0.00000000E+00
  0.00000000E+00  0.00000000E+00  0.00000000E+00
  0.00000000E+00  0.00000000E+00  0.00000000E+00
  0.00000000E+00  0.00000000E+00  0.00000000E+00
  0.00000000E+00  0.00000000E+00  0.00000000E+00
  0.00000000E+00  0.00000000E+00  0.00000000E+00
  0.00000000E+00  0.00000000E+00  0.00000000E+00
  0.00000000E+00  0.00000000E+00  0.00000000E+00
  0.00000000E+00  0.00000000E+00  0.00000000E+00
  0.00000000E+00  0.00000000E+00  0.00000000E+00
  0.00000000E+00  0.00000000E+00  0.00000000E+00
  0.00000000E+00  0.00000000E+00  0.00000000E+00
  0.00000000E+00  0.00000000E+00  0.00000000E+00
  0.00000000E+00  0.00000000E+00  0.00000000E+00
  0.00000000E+00  0.00000000E+00  0.00000000E+00
  0.00000000E+00  0.00000000E+00  0.00000000E+00
  0.00000000E+00  0.00000000E+00  0.00000000E+00
  0.00000000E+00  0.00000000E+00  0.00000000E+00
  0.00000000E+00  0.00000000E+00  0.00000000E+00
  0.00000000E+00  0.00000000E+00  0.00000000E+00
  0.00000000E+00  0.00000000E+00  0.00000000E+00
  0.00000000E+00  0.00000000E+00  0.00000000E+00
  0.00000000E+00  0.00000000E+00  0.00000000E+00
  0.00000000E+00  0.00000000E+00  0.00000000E+00
  0.00000000E+00  0.00000000E+00  0.00000000E+00
  0.00000000E+00  0.00000000E+00  0.00000000E+00
  0.00000000E+00  0.00000000E+00  0.00000000E+00
  0.00000000E+00  0.00000000E+00  0.00000000E+00
  0.00000000E+00  0.00000000E+00  0.00000000E+00
  0.00000000E+00  0.00000000E+00  0.00000000E+00
  0.00000000E+00  0.00000000E+00  0.00000000E+00
  0.00000000E+00  0.00000000E+00  0.00000000E+00
  0.00000000E+00  0.00000000E+00  0.00000000E+00
  0.00000000E+00  0.00000000E+00  0.00000000E+00
  0.00000000E+00  0.00000000E+00  0.00000000E+00
  0.00000000E+00  0.00000000E+00  0.00000000E+00
  0.00000000E+00  0.00000000E+00  0.00000000E+00
  0.00000000E+00  0.00000000E+00  0.00000000E+00
  0.00000000E+00  0.00000000E+00  0.00000000E+00
  0.00000000E+00  0.00000000E+00  0.00000000E+00
  0.00000000E+00  0.00000000E+00  0.00000000E+00
  0.00000000E+00  0.00000000E+00  0.00000000E+00
  0.00000000E+00  0.00000000E+00  0.00000000E+00
  0.00000000E+00  0.00000000E+00  0.00000000E+00
  0.00000000E+00  0.00000000E+00  0.00000000E+00
  0.00000000E+00  0.00000000E+00  0.00000000E+00
  0.00000000E+00  0.00000000E+00  0.00000000E+00
  0.00000000E+00  0.00000000E+00  0.00000000E+00
  0.00000000E+00  0.00000000E+00  0.00000000E+00
  0.00000000E+00  0.00000000E+00  0.00000000E+00
  0.00000000E+00  0.00000000E+00  0.00000000E+00
  0.00000000E+00  0.00000000E+00  0.00000000E+00
  0.00000000E+00  0.00000000E+00  0.00000000E+00
  0.00000000E+00  0.00000000E+00  0.00000000E+00
  0.00000000E+00  0.00000000E+00  0.00000000E+00
  0.00000000E+00  0.00000000E+00  0.00000000E+00
  0.00000000E+00  0.00000000E+00  0.00000000E+00
  0.00000000E+00  0.00000000E+00  0.00000000E+00
  0.00000000E+00  0.00000000E+00  0.00000000E+00
  0.00000000E+00  0.00000000E+00  0.00000000E+00
  0.00000000E+00  0.00000000E+00  0.00000000E+00
  0.00000000E+00  0.00000000E+00  0.00000000E+00
  0.00000000E+00  0.00000000E+00  0.00000000E+00
  0.00000000E+00  0.00000000E+00  0.00000000E+00
  0.00000000E+00  0.00000000E+00  0.00000000E+00
  0.00000000E+00  0.00000000E+00  0.00000000E+00
