CeO2-you-111-you-Ca                     
   1.00000000000000     
     9.8461627146616539   -5.6905050017676553   -0.0001294330104482
    -0.0000000001760011   11.3810080003937752    0.0000000000230390
    -0.0006274651646469    0.0000000000866862   20.8933217243320435
   O    Ca   Ce   H 
    53     1    26     1
Selective dynamics
Direct
  0.9994356346659973  0.0006295138964365  0.9948230472338730   T   T   T
  0.1158958695698940  0.2242078350300861  0.1511924521266092   T   T   T
  0.2173898930872819  0.1076797629573018  0.3050216724440860   T   T   T
  0.0956799305213595  0.2153129016525759  0.3884829602560301   T   T   T
  0.9984118871689772 -0.0004469079685930  0.2284644958176495   T   T   T
  0.2225407373253809  0.1104037570509127  0.0737296862004932   T   T   T
  0.3327537958339377  0.9994796242797339  0.9928978233335432   T   T   T
  0.4459052565030723  0.2209359503052456  0.1464132327032802   T   T   T
  0.5613365963251902  0.1151371535068341  0.3067628412208533   T   T   T
  0.4589947952482216  0.2444342549679153  0.3956993491267751   T   T   T
  0.3356829665130796 -0.0001401239744576  0.2286700237734396   T   T   T
  0.5553342482725839  0.1099594022167973  0.0730174692091649   T   T   T
  0.6684430033841937  0.0013489928550323  0.9936055888890367   T   T   T
  0.7735213551932952  0.2263448559410528  0.1508878196501515   T   T   T
  0.8860314631881692  0.1091400175486390  0.3042788102153338   T   T   T
  0.7798154821223084  0.2221536051786077  0.3888362019452137   T   T   T
  0.6657342445619336  0.0012755375106914  0.2282108867454138   T   T   T
  0.8874767769118558  0.1104639867058995  0.0766516956978809   T   T   T
  0.9988626492337618  0.3309059377617035  0.9946213151093681   T   T   T
  0.1098194931851547  0.5548342680696812  0.1500965528321434   T   T   T
  0.2179315934178598  0.4460775291438896  0.3037742364269203   T   T   T
  0.1123636143066009  0.5562450099057376  0.3872040988451125   T   T   T
  0.9985152531098404  0.3307342819457182  0.2282844755628817   T   T   T
  0.2216924996984020  0.4449272787366842  0.0733211071663064   T   T   T
  0.3312099725257323  0.3323730828989425  0.9928808812536078   T   T   T
  0.4444992061919883  0.5578276000125475  0.1456842376819983   T   T   T
  0.4600004264997035  0.5580660287098723  0.3772285648536557   T   T   T
  0.3500942876298973  0.3415363433711471  0.2306727113121100   T   T   T
  0.5552285049940621  0.4443929519841505  0.0699794944639846   T   T   T
  0.6674119080503096  0.3326665887571102  0.9927038204551963   T   T   T
  0.7785428411988400  0.5553813453028340  0.1463599632204007   T   T   T
  0.8929625965594836  0.4414338113878277  0.3048211012236899   T   T   T
  0.7596707175711773  0.5425586706627457  0.3775518773381027   T   T   T
  0.6573581189140542  0.3442955051082231  0.2365509244549372   T   T   T
  0.8895081009094316  0.4448648421463784  0.0730991388275016   T   T   T
  0.0003228039877274  0.6669572277962348  0.9930358833553889   T   T   T
  0.1104812292879850  0.8879255603558600  0.1505592383861734   T   T   T
  0.2186995326637793  0.7698849385208869  0.3041099493690331   T   T   T
  0.0959942681899245  0.8750108803237638  0.3883155433637420   T   T   T
  0.9968497653877695  0.6646456087742997  0.2298524404959255   T   T   T
  0.2223167603202592  0.7772976822749755  0.0736879944136203   T   T   T
  0.3328237598716254  0.6665524826100060  0.9925767728072247   T   T   T
  0.4447118753902765  0.8886074336472601  0.1489866917910182   T   T   T
  0.5612428515230319  0.7826547216773657  0.3022211429723713   T   T   T
  0.4514779762588451  0.8780977268195395  0.3868157219821237   T   T   T
  0.3358159764498382  0.6668615240787867  0.2289106828301608   T   T   T
  0.5557965789630347  0.7788254409250120  0.0722727086040945   T   T   T
  0.6673610429199711  0.6679440689752396  0.9926638081678402   T   T   T
  0.7740314449792737  0.8818945219323879  0.1509173196135064   T   T   T
  0.8882857632666613  0.7797305220037831  0.3041976115493486   T   T   T
  0.7774000620945568  0.8894189274872426  0.3876970258452548   T   T   T
  0.6566804520562990  0.6462922035446270  0.2345548990061096   T   T   T
  0.8891465319104472  0.7779956141842035  0.0732600931580046   T   T   T
  0.3145177059931931  0.3272344265891418  0.3461561386801683   T   T   T
  0.0024936292156705  0.0023142704321371  0.3455370988011172   T   T   T
  0.2242080037107429  0.1124341627716422  0.1930697825438790   T   T   T
  0.1115170986613573  0.2220456276153228  0.0352554108993467   T   T   T
  0.3280225920176376 -0.0072884131516888  0.3482933552244314   T   T   T
  0.5536662440248656  0.1106491526697101  0.1901923246086598   T   T   T
  0.4429751647141717  0.2197718711017819  0.0317655652707728   T   T   T
  0.6660296938684045 -0.0025089796225296  0.3454434930019116   T   T   T
  0.8884270027468995  0.1108636179033158  0.1904073663636278   T   T   T
  0.7771977505056202  0.2220443024275034  0.0340585818529587   T   T   T
  0.0057173576650932  0.3322071644162338  0.3465078027818830   T   T   T
  0.2237390680065591  0.4436911368117042  0.1911198926779081   T   T   T
  0.1108441277305985  0.5548258278263261  0.0341392230601922   T   T   T
  0.5532596688701947  0.4436624504954739  0.1802684293891101   T   T   T
  0.4429736061110632  0.5564521856900148  0.0312498723904528   T   T   T
  0.6817210010092160  0.3276772580264345  0.3459895350289279   T   T   T
  0.8891515715276801  0.4451039539512184  0.1893917005506057   T   T   T
  0.7798143355762449  0.5567083543930499  0.0315424174643624   T   T   T
  0.0020446202271159  0.6665643988706113  0.3447576063546478   T   T   T
  0.2223678485607074  0.7775599258300258  0.1895763606046941   T   T   T
  0.1111675952090247  0.8894621714271614  0.0349237882824032   T   T   T
  0.3352614723538397  0.6631964318154437  0.3442955377324221   T   T   T
  0.5546769917468451  0.7767121930584958  0.1890418023207769   T   T   T
  0.4448170766294194  0.8892520378497611  0.0336178983851556   T   T   T
  0.6710216051087698  0.6786309365738341  0.3470847040923671   T   T   T
  0.8880722449924543  0.7760971269402319  0.1902277713777879   T   T   T
  0.7777330170797309  0.8888015027688188  0.0339918924238537   T   T   T
  0.4621095102225510  0.2633726230214474  0.4413125625080267   T   T   T
 
  0.00000000E+00  0.00000000E+00  0.00000000E+00
  0.00000000E+00  0.00000000E+00  0.00000000E+00
  0.00000000E+00  0.00000000E+00  0.00000000E+00
  0.00000000E+00  0.00000000E+00  0.00000000E+00
  0.00000000E+00  0.00000000E+00  0.00000000E+00
  0.00000000E+00  0.00000000E+00  0.00000000E+00
  0.00000000E+00  0.00000000E+00  0.00000000E+00
  0.00000000E+00  0.00000000E+00  0.00000000E+00
  0.00000000E+00  0.00000000E+00  0.00000000E+00
  0.00000000E+00  0.00000000E+00  0.00000000E+00
  0.00000000E+00  0.00000000E+00  0.00000000E+00
  0.00000000E+00  0.00000000E+00  0.00000000E+00
  0.00000000E+00  0.00000000E+00  0.00000000E+00
  0.00000000E+00  0.00000000E+00  0.00000000E+00
  0.00000000E+00  0.00000000E+00  0.00000000E+00
  0.00000000E+00  0.00000000E+00  0.00000000E+00
  0.00000000E+00  0.00000000E+00  0.00000000E+00
  0.00000000E+00  0.00000000E+00  0.00000000E+00
  0.00000000E+00  0.00000000E+00  0.00000000E+00
  0.00000000E+00  0.00000000E+00  0.00000000E+00
  0.00000000E+00  0.00000000E+00  0.00000000E+00
  0.00000000E+00  0.00000000E+00  0.00000000E+00
  0.00000000E+00  0.00000000E+00  0.00000000E+00
  0.00000000E+00  0.00000000E+00  0.00000000E+00
  0.00000000E+00  0.00000000E+00  0.00000000E+00
  0.00000000E+00  0.00000000E+00  0.00000000E+00
  0.00000000E+00  0.00000000E+00  0.00000000E+00
  0.00000000E+00  0.00000000E+00  0.00000000E+00
  0.00000000E+00  0.00000000E+00  0.00000000E+00
  0.00000000E+00  0.00000000E+00  0.00000000E+00
  0.00000000E+00  0.00000000E+00  0.00000000E+00
  0.00000000E+00  0.00000000E+00  0.00000000E+00
  0.00000000E+00  0.00000000E+00  0.00000000E+00
  0.00000000E+00  0.00000000E+00  0.00000000E+00
  0.00000000E+00  0.00000000E+00  0.00000000E+00
  0.00000000E+00  0.00000000E+00  0.00000000E+00
  0.00000000E+00  0.00000000E+00  0.00000000E+00
  0.00000000E+00  0.00000000E+00  0.00000000E+00
  0.00000000E+00  0.00000000E+00  0.00000000E+00
  0.00000000E+00  0.00000000E+00  0.00000000E+00
  0.00000000E+00  0.00000000E+00  0.00000000E+00
  0.00000000E+00  0.00000000E+00  0.00000000E+00
  0.00000000E+00  0.00000000E+00  0.00000000E+00
  0.00000000E+00  0.00000000E+00  0.00000000E+00
  0.00000000E+00  0.00000000E+00  0.00000000E+00
  0.00000000E+00  0.00000000E+00  0.00000000E+00
  0.00000000E+00  0.00000000E+00  0.00000000E+00
  0.00000000E+00  0.00000000E+00  0.00000000E+00
  0.00000000E+00  0.00000000E+00  0.00000000E+00
  0.00000000E+00  0.00000000E+00  0.00000000E+00
  0.00000000E+00  0.00000000E+00  0.00000000E+00
  0.00000000E+00  0.00000000E+00  0.00000000E+00
  0.00000000E+00  0.00000000E+00  0.00000000E+00
  0.00000000E+00  0.00000000E+00  0.00000000E+00
  0.00000000E+00  0.00000000E+00  0.00000000E+00
  0.00000000E+00  0.00000000E+00  0.00000000E+00
  0.00000000E+00  0.00000000E+00  0.00000000E+00
  0.00000000E+00  0.00000000E+00  0.00000000E+00
  0.00000000E+00  0.00000000E+00  0.00000000E+00
  0.00000000E+00  0.00000000E+00  0.00000000E+00
  0.00000000E+00  0.00000000E+00  0.00000000E+00
  0.00000000E+00  0.00000000E+00  0.00000000E+00
  0.00000000E+00  0.00000000E+00  0.00000000E+00
  0.00000000E+00  0.00000000E+00  0.00000000E+00
  0.00000000E+00  0.00000000E+00  0.00000000E+00
  0.00000000E+00  0.00000000E+00  0.00000000E+00
  0.00000000E+00  0.00000000E+00  0.00000000E+00
  0.00000000E+00  0.00000000E+00  0.00000000E+00
  0.00000000E+00  0.00000000E+00  0.00000000E+00
  0.00000000E+00  0.00000000E+00  0.00000000E+00
  0.00000000E+00  0.00000000E+00  0.00000000E+00
  0.00000000E+00  0.00000000E+00  0.00000000E+00
  0.00000000E+00  0.00000000E+00  0.00000000E+00
  0.00000000E+00  0.00000000E+00  0.00000000E+00
  0.00000000E+00  0.00000000E+00  0.00000000E+00
  0.00000000E+00  0.00000000E+00  0.00000000E+00
  0.00000000E+00  0.00000000E+00  0.00000000E+00
  0.00000000E+00  0.00000000E+00  0.00000000E+00
  0.00000000E+00  0.00000000E+00  0.00000000E+00
  0.00000000E+00  0.00000000E+00  0.00000000E+00
  0.00000000E+00  0.00000000E+00  0.00000000E+00
