CeO2-you-111-you-Ta                     
   1.00000000000000     
     9.8302922736783671   -5.6755222565919121    0.0000000005590858
     0.0431129029423804   11.4257162491860775    0.0105633847442164
     0.0116443294957368    0.0201685669053349   20.7507070522619337
   O    Ta   Ce   H 
    53     1    26     2
Selective dynamics
Direct
  0.9976990343319507  0.9988189642378226  0.9936775585107388   T   T   T
  0.1113715062317766  0.2223668360242144  0.1478883671978650   F   F   F
  0.2440936462368439  0.1288913321273934  0.3042320981183935   T   T   T
  0.1480284221509734  0.2445268095546361  0.3813751279035400   T   T   T
  0.0028711044087005  0.0002253336467003  0.2284450116899628   T   T   T
  0.2210273853126807  0.1087217706254933  0.0711075423936549   F   F   F
  0.3344069474242152  0.9989319154832339  0.9933117998148395   T   T   T
  0.4443283297923415  0.2223668360236886  0.1478883671979148   F   F   F
  0.5514209197040802  0.1203427030744981  0.3089788533241536   T   T   T
  0.4216316514234527  0.2341783428257419  0.3967485410247585   T   T   T
  0.3311633563974968  0.9975304412136422  0.2284420937010136   T   T   T
  0.5576447763797319  0.1117535926903130  0.0748444714203345   F   F   F
  0.6663804250210783  0.9989555085793445  0.9941142121546842   T   T   T
  0.7800093224333509  0.2266846448664808  0.1532877373887445   F   F   F
  0.8926037841013666  0.1197080508017442  0.3067505065060644   T   T   T
  0.7811837656283749  0.2294504235871867  0.3870687203745806   T   T   T
  0.6658707846397731  0.0025731017083005  0.2322247289468089   T   T   T
  0.8874428163108874  0.1117535926905404  0.0748444714202989   F   F   F
  0.9995092638634528  0.3321795639248371  0.9933325006863468   T   T   T
  0.1099835989295812  0.5539711190666310  0.1484744693813695   F   F   F
  0.2465399331715495  0.4434318485817391  0.3047548895438512   T   T   T
  0.0998522750947946  0.5439075702363189  0.3855961726757779   T   T   T
  0.0086174597027923  0.3384082518095284  0.2320405277210337   T   T   T
  0.2225062485212064  0.4442857985036781  0.0736994831039510   F   F   F
  0.3330851137724715  0.3323700554453063  0.9933204572556048   T   T   T
  0.4434713300083359  0.5536106600171351  0.1502736142096879   F   F   F
  0.5260830387550972  0.4268743683286428  0.3084634571237534   T   T   T
  0.3275502446172825  0.3270374110541443  0.2296668436412929   T   T   T
  0.5551135499822522  0.4442857985036497  0.0736994831039439   F   F   F
  0.6658521699982269  0.3320990860986182  0.9933354241764822   T   T   T
  0.7773205201369038  0.5539711190665457  0.1484744693813695   F   F   F
  0.8887390755997011  0.4431742082404392  0.3034742351532395   T   T   T
  0.7797870440178361  0.5436380369216424  0.3874814225344201   T   T   T
  0.6650051615440146  0.3380213960174308  0.2313751596510376   T   T   T
  0.8884014169656140  0.4434688339310924  0.0729882102865460   F   F   F
  0.9998492540111615  0.6666354036570534  0.9928271780601405   T   T   T
  0.1099048171732520  0.8864766343457546  0.1464565036243712   F   F   F
  0.2209750786652355  0.7783781381157012  0.3045668626480157   T   T   T
  0.1222239046044968  0.8847519223224017  0.3886688068021690   T   T   T
  0.0002936614511443  0.6670895530969277  0.2288095973442923   T   T   T
  0.2228786892201882  0.7764117508201025  0.0729941971897077   F   F   F
  0.3338191272755592  0.6659943180077558  0.9932157920389686   T   T   T
  0.4465000486870281  0.8903570051951277  0.1500599492639552   F   F   F
  0.5550629726187463  0.7775156188966273  0.3068329751299966   T   T   T
  0.4486036874332676  0.9020281095862752  0.3890383280195581   T   T   T
  0.3313542498988418  0.6659332405427563  0.2280978317339396   T   T   T
  0.5547526262874030  0.7761712525748408  0.0743808874710794   F   F   F
  0.6653228578662030  0.6656934449547118  0.9932210173931696   T   T   T
  0.7771899565082236  0.8903570051953764  0.1500599492639196   F   F   F
  0.8922751433614984  0.7748362885272211  0.3065669703540272   T   T   T
  0.7727124445143985  0.8981994079649338  0.3910731131501501   T   T   T
  0.6664195574212584  0.6630510462075420  0.2291004564228160   T   T   T
  0.8868660615998607  0.7764117508200812  0.0729941971897361   F   F   F
  0.3196104876254978  0.3240956331730385  0.3300784445631562   T   T   T
  0.0043661672312442  0.0023063481672774  0.3501189397001700   T   T   T
  0.2189130991575965  0.1044931983162769  0.1842445256197962   F   F   F
  0.1100464655953033  0.2220511497545985  0.0330304091318538   F   F   F
  0.3296678077045657  0.9928522557009768  0.3457876725348310   T   T   T
  0.5547134438294279  0.1119974461770212  0.1913767475081727   F   F   F
  0.4453376841592132  0.2220511497548330  0.0330304091318823   F   F   F
  0.6687448844924166  0.0005704504121958  0.3485425528770257   T   T   T
  0.8906180023470327  0.1119974461762254  0.1913767475082651   F   F   F
  0.7778458478741683  0.2223576957480731  0.0347456610766201   F   F   F
  0.0023387233442146  0.3345997809389925  0.3458504203261732   T   T   T
  0.2246506299264297  0.4457825373213637  0.1896100198490203   F   F   F
  0.1115903628703876  0.5550809339069929  0.0334799323408532   F   F   F
  0.5544659073964837  0.4457825373225290  0.1896100198489137   F   F   F
  0.4443526512505258  0.5553733025008114  0.0331819512290963   F   F   F
  0.6729104105495096  0.3381157686419843  0.3453294022423401   T   T   T
  0.8899541207707458  0.4465742415416543  0.1901504519481847   F   F   F
  0.7768235710367932  0.5550809339071989  0.0334799323408532   F   F   F
  0.0002743480764076  0.6653990746607406  0.3452697553063794   T   T   T
  0.2225789287900994  0.7771494119617230  0.1889075613327478   F   F   F
  0.1100810925231102  0.8868291850463734  0.0316992712436885   F   F   F
  0.3317928118134769  0.6703316254124790  0.3478794331450323   T   T   T
  0.5560691144811258  0.7788042289619099  0.1919784079675466   F   F   F
  0.4453593603764716  0.8887219906338117  0.0343880623413710   F   F   F
  0.6726260526513684  0.6690536505691429  0.3477500480611370   T   T   T
  0.8879034831711365  0.7771494119612470  0.1889075613327833   F   F   F
  0.7766956302573647  0.8887219906338544  0.0343880623413710   F   F   F
  0.4032624246486683  0.4744053209935815  0.3928236933634692   T   T   T
  0.4090628074529848  0.2461636284416123  0.4421907014036284   T   T   T
 
  0.00000000E+00  0.00000000E+00  0.00000000E+00
  0.00000000E+00  0.00000000E+00  0.00000000E+00
  0.00000000E+00  0.00000000E+00  0.00000000E+00
  0.00000000E+00  0.00000000E+00  0.00000000E+00
  0.00000000E+00  0.00000000E+00  0.00000000E+00
  0.00000000E+00  0.00000000E+00  0.00000000E+00
  0.00000000E+00  0.00000000E+00  0.00000000E+00
  0.00000000E+00  0.00000000E+00  0.00000000E+00
  0.00000000E+00  0.00000000E+00  0.00000000E+00
  0.00000000E+00  0.00000000E+00  0.00000000E+00
  0.00000000E+00  0.00000000E+00  0.00000000E+00
  0.00000000E+00  0.00000000E+00  0.00000000E+00
  0.00000000E+00  0.00000000E+00  0.00000000E+00
  0.00000000E+00  0.00000000E+00  0.00000000E+00
  0.00000000E+00  0.00000000E+00  0.00000000E+00
  0.00000000E+00  0.00000000E+00  0.00000000E+00
  0.00000000E+00  0.00000000E+00  0.00000000E+00
  0.00000000E+00  0.00000000E+00  0.00000000E+00
  0.00000000E+00  0.00000000E+00  0.00000000E+00
  0.00000000E+00  0.00000000E+00  0.00000000E+00
  0.00000000E+00  0.00000000E+00  0.00000000E+00
  0.00000000E+00  0.00000000E+00  0.00000000E+00
  0.00000000E+00  0.00000000E+00  0.00000000E+00
  0.00000000E+00  0.00000000E+00  0.00000000E+00
  0.00000000E+00  0.00000000E+00  0.00000000E+00
  0.00000000E+00  0.00000000E+00  0.00000000E+00
  0.00000000E+00  0.00000000E+00  0.00000000E+00
  0.00000000E+00  0.00000000E+00  0.00000000E+00
  0.00000000E+00  0.00000000E+00  0.00000000E+00
  0.00000000E+00  0.00000000E+00  0.00000000E+00
  0.00000000E+00  0.00000000E+00  0.00000000E+00
  0.00000000E+00  0.00000000E+00  0.00000000E+00
  0.00000000E+00  0.00000000E+00  0.00000000E+00
  0.00000000E+00  0.00000000E+00  0.00000000E+00
  0.00000000E+00  0.00000000E+00  0.00000000E+00
  0.00000000E+00  0.00000000E+00  0.00000000E+00
  0.00000000E+00  0.00000000E+00  0.00000000E+00
  0.00000000E+00  0.00000000E+00  0.00000000E+00
  0.00000000E+00  0.00000000E+00  0.00000000E+00
  0.00000000E+00  0.00000000E+00  0.00000000E+00
  0.00000000E+00  0.00000000E+00  0.00000000E+00
  0.00000000E+00  0.00000000E+00  0.00000000E+00
  0.00000000E+00  0.00000000E+00  0.00000000E+00
  0.00000000E+00  0.00000000E+00  0.00000000E+00
  0.00000000E+00  0.00000000E+00  0.00000000E+00
  0.00000000E+00  0.00000000E+00  0.00000000E+00
  0.00000000E+00  0.00000000E+00  0.00000000E+00
  0.00000000E+00  0.00000000E+00  0.00000000E+00
  0.00000000E+00  0.00000000E+00  0.00000000E+00
  0.00000000E+00  0.00000000E+00  0.00000000E+00
  0.00000000E+00  0.00000000E+00  0.00000000E+00
  0.00000000E+00  0.00000000E+00  0.00000000E+00
  0.00000000E+00  0.00000000E+00  0.00000000E+00
  0.00000000E+00  0.00000000E+00  0.00000000E+00
  0.00000000E+00  0.00000000E+00  0.00000000E+00
  0.00000000E+00  0.00000000E+00  0.00000000E+00
  0.00000000E+00  0.00000000E+00  0.00000000E+00
  0.00000000E+00  0.00000000E+00  0.00000000E+00
  0.00000000E+00  0.00000000E+00  0.00000000E+00
  0.00000000E+00  0.00000000E+00  0.00000000E+00
  0.00000000E+00  0.00000000E+00  0.00000000E+00
  0.00000000E+00  0.00000000E+00  0.00000000E+00
  0.00000000E+00  0.00000000E+00  0.00000000E+00
  0.00000000E+00  0.00000000E+00  0.00000000E+00
  0.00000000E+00  0.00000000E+00  0.00000000E+00
  0.00000000E+00  0.00000000E+00  0.00000000E+00
  0.00000000E+00  0.00000000E+00  0.00000000E+00
  0.00000000E+00  0.00000000E+00  0.00000000E+00
  0.00000000E+00  0.00000000E+00  0.00000000E+00
  0.00000000E+00  0.00000000E+00  0.00000000E+00
  0.00000000E+00  0.00000000E+00  0.00000000E+00
  0.00000000E+00  0.00000000E+00  0.00000000E+00
  0.00000000E+00  0.00000000E+00  0.00000000E+00
  0.00000000E+00  0.00000000E+00  0.00000000E+00
  0.00000000E+00  0.00000000E+00  0.00000000E+00
  0.00000000E+00  0.00000000E+00  0.00000000E+00
  0.00000000E+00  0.00000000E+00  0.00000000E+00
  0.00000000E+00  0.00000000E+00  0.00000000E+00
  0.00000000E+00  0.00000000E+00  0.00000000E+00
  0.00000000E+00  0.00000000E+00  0.00000000E+00
  0.00000000E+00  0.00000000E+00  0.00000000E+00
  0.00000000E+00  0.00000000E+00  0.00000000E+00
