CeO2-you-111-you-W                      
   1.00000000000000     
     9.8569955155784985   -5.6909393813943518    0.0000000005368914
     0.0313157546001655   11.4361172343986421    0.0099395578231943
     0.0107297235775559    0.0185844232291978   20.7922285279205781
   O    W    Ce   H 
    53     1    26     1
Selective dynamics
Direct
  0.9993480442527801  0.0006657870544306  0.9917822251509603   T   T   T
  0.1203593234170997  0.2277997269894523  0.1471544209709330   T   T   T
  0.2489645413779039  0.1426280467723541  0.3110518229124688   T   T   T
  0.1527850764848504  0.2553226611426230  0.3872154250884834   T   T   T
  0.0110603523427222  0.0059193692071238  0.2277052272516926   T   T   T
  0.2210844424715256  0.1088522442985975  0.0706066966355729   T   T   T
  0.3348488506396934 -0.0000379444098648  0.9914890948751252   T   T   T
  0.4417237377753894  0.2222008753916334  0.1453718065992924   T   T   T
  0.5606225798508676  0.1098287736478205  0.3038467639516031   T   T   T
  0.4645802425645082  0.1953688733482207  0.4173713187473384   T   T   T
  0.3289022229712891  0.0014873533869840  0.2279415547784153   T   T   T
  0.5555727766580659  0.1115911165402270  0.0728230173612040   T   T   T
  0.6685888886373486  0.0005457195255757  0.9943129773461744   T   T   T
  0.7759743097740718  0.2247980495459733  0.1514391969729731   T   T   T
  0.8979780160105172  0.1207259254466482  0.3045511699269235   T   T   T
  0.7887906688257884  0.2210449503261699  0.3896966742094911   T   T   T
  0.6709693609742809 -0.0009028122059394  0.2285730817077149   T   T   T
  0.8902781232953515  0.1107510981366384  0.0753323609895871   T   T   T
  0.9982566125140022  0.3302685229434862  0.9919554095468961   T   T   T
  0.1093144857362403  0.5566752844204845  0.1453466060066149   T   T   T
  0.2289282812104150  0.4375716353207211  0.3017985654697595   T   T   T
  0.0991644546212029  0.5428771972276237  0.3855247317374280   T   T   T
  0.0061754897372662  0.3381812097585536  0.2263110927544764   T   T   T
  0.2217560821325429  0.4464737543968978  0.0691912912148934   T   T   T
  0.3319301712228961  0.3319935967485194  0.9909700607340974   T   T   T
  0.4427645417154841  0.5522209135310673  0.1439686131916989   T   T   T
  0.4553830287998263  0.4326480289365149  0.3640151949445387   T   T   T
  0.3423547415822132  0.3403210804080901  0.2351889175605303   T   T   T
  0.5569124470336480  0.4438281516402610  0.0678099326701101   T   T   T
  0.6672735083586312  0.3315082972679512  0.9907501693386486   T   T   T
  0.7798367770969495  0.5563925845347946  0.1436124547155937   T   T   T
  0.8891769462582030  0.4405767679105013  0.3010468186547501   T   T   T
  0.7867911095756599  0.5586423296639406  0.3856903101945659   T   T   T
  0.6551428730965231  0.3435097097920406  0.2313253628687085   T   T   T
  0.8888334380821041  0.4436391516961737  0.0704691465367565   T   T   T
  0.0010853446037123  0.6671657153662505  0.9899759671649415   T   T   T
  0.1104711631564964  0.8882464954758266  0.1460563988897401   T   T   T
  0.2201815008893639  0.7730471917969274  0.3022725680585036   T   T   T
  0.1031524283091542  0.8721323194222061  0.3887622037356895   T   T   T
  0.9985852925725546  0.6652884121826246  0.2265254204156207   T   T   T
  0.2231604741278569  0.7782767369829129  0.0713293745367300   T   T   T
  0.3356131512170908  0.6686871423761966  0.9909829649681660   T   T   T
  0.4462279214028214  0.8906279484426302  0.1502704674264008   T   T   T
  0.5552008853362856  0.7734971225715033  0.3028185493975491   T   T   T
  0.4591867319289171  0.8877891146364145  0.3903666178479155   T   T   T
  0.3301534402066608  0.6611933708238749  0.2247645857507370   T   T   T
  0.5565503286061837  0.7775768799400099  0.0729546706175575   T   T   T
  0.6669916133682999  0.6680618312039774  0.9907429176200586   T   T   T
  0.7783872299094197  0.8847659213756052  0.1512685168482360   T   T   T
  0.8904935577200818  0.7799841543361806  0.3009056415099552   T   T   T
  0.7750624831107555  0.8938622284607743  0.3897769749850798   T   T   T
  0.6582849743980824  0.6458015859983161  0.2299645871929933   T   T   T
  0.8894522377440373  0.7779005537369390  0.0705961800571389   T   T   T
  0.2934618004899712  0.3212668209741910  0.3277901814519539   T   T   T
 -0.0002151596810350  0.9940710091652656  0.3502687549189850   T   T   T
  0.2227575428204494  0.1071723583487644  0.1847369574906015   T   T   T
  0.1105837990778899  0.2216042762029554  0.0310875012241419   T   T   T
  0.3362636639137851  0.9925554236311493  0.3539557662828643   T   T   T
  0.5545173321236474  0.1115182477905909  0.1929489899365575   T   T   T
  0.4446184715989325  0.2198224890353166  0.0296860932996466   T   T   T
  0.6680050500954836 -0.0025801971617458  0.3462214488193749   T   T   T
  0.8919838349000330  0.1123077297823708  0.1909843437894718   T   T   T
  0.7776391913830323  0.2217885930116597  0.0339784281023291   T   T   T
  0.9918858245416371  0.3360789489126299  0.3442162609392233   T   T   T
  0.2213929827176861  0.4487589185889692  0.1820126101253067   T   T   T
  0.1108839137415979  0.5564570855777317  0.0305599114001880   T   T   T
  0.5589165767089844  0.4453922803652721  0.1783616663555258   T   T   T
  0.4452296794731533  0.5577926320798062  0.0289808340639985   T   T   T
  0.6701168647531539  0.3279297884173006  0.3548856012683148   T   T   T
  0.8869697161061207  0.4448442579538356  0.1887264333104938   T   T   T
  0.7800431832145938  0.5561579203028311  0.0291058665629097   T   T   T
  0.9982681773629689  0.6652369066681771  0.3447814049317088   T   T   T
  0.2225876527218296  0.7787396803645885  0.1886122870608445   T   T   T
  0.1111486889087078  0.8886195538810627  0.0311170704383964   T   T   T
  0.3304428756997219  0.6738811486640236  0.3446193597367340   T   T   T
  0.5557339769970662  0.7755875602962269  0.1909159540799893   T   T   T
  0.4462455721298256  0.8900493964982867  0.0342272077172601   T   T   T
  0.6794496840853540  0.6758489429802278  0.3482283184161508   T   T   T
  0.8895462953149841  0.7767468362135916  0.1890112609785439   T   T   T
  0.7784531450506883  0.8889881093803578  0.0338620731195794   T   T   T
  0.4345563580441003  0.2340045266030999  0.4506302935399966   T   T   T
 
  0.00000000E+00  0.00000000E+00  0.00000000E+00
  0.00000000E+00  0.00000000E+00  0.00000000E+00
  0.00000000E+00  0.00000000E+00  0.00000000E+00
  0.00000000E+00  0.00000000E+00  0.00000000E+00
  0.00000000E+00  0.00000000E+00  0.00000000E+00
  0.00000000E+00  0.00000000E+00  0.00000000E+00
  0.00000000E+00  0.00000000E+00  0.00000000E+00
  0.00000000E+00  0.00000000E+00  0.00000000E+00
  0.00000000E+00  0.00000000E+00  0.00000000E+00
  0.00000000E+00  0.00000000E+00  0.00000000E+00
  0.00000000E+00  0.00000000E+00  0.00000000E+00
  0.00000000E+00  0.00000000E+00  0.00000000E+00
  0.00000000E+00  0.00000000E+00  0.00000000E+00
  0.00000000E+00  0.00000000E+00  0.00000000E+00
  0.00000000E+00  0.00000000E+00  0.00000000E+00
  0.00000000E+00  0.00000000E+00  0.00000000E+00
  0.00000000E+00  0.00000000E+00  0.00000000E+00
  0.00000000E+00  0.00000000E+00  0.00000000E+00
  0.00000000E+00  0.00000000E+00  0.00000000E+00
  0.00000000E+00  0.00000000E+00  0.00000000E+00
  0.00000000E+00  0.00000000E+00  0.00000000E+00
  0.00000000E+00  0.00000000E+00  0.00000000E+00
  0.00000000E+00  0.00000000E+00  0.00000000E+00
  0.00000000E+00  0.00000000E+00  0.00000000E+00
  0.00000000E+00  0.00000000E+00  0.00000000E+00
  0.00000000E+00  0.00000000E+00  0.00000000E+00
  0.00000000E+00  0.00000000E+00  0.00000000E+00
  0.00000000E+00  0.00000000E+00  0.00000000E+00
  0.00000000E+00  0.00000000E+00  0.00000000E+00
  0.00000000E+00  0.00000000E+00  0.00000000E+00
  0.00000000E+00  0.00000000E+00  0.00000000E+00
  0.00000000E+00  0.00000000E+00  0.00000000E+00
  0.00000000E+00  0.00000000E+00  0.00000000E+00
  0.00000000E+00  0.00000000E+00  0.00000000E+00
  0.00000000E+00  0.00000000E+00  0.00000000E+00
  0.00000000E+00  0.00000000E+00  0.00000000E+00
  0.00000000E+00  0.00000000E+00  0.00000000E+00
  0.00000000E+00  0.00000000E+00  0.00000000E+00
  0.00000000E+00  0.00000000E+00  0.00000000E+00
  0.00000000E+00  0.00000000E+00  0.00000000E+00
  0.00000000E+00  0.00000000E+00  0.00000000E+00
  0.00000000E+00  0.00000000E+00  0.00000000E+00
  0.00000000E+00  0.00000000E+00  0.00000000E+00
  0.00000000E+00  0.00000000E+00  0.00000000E+00
  0.00000000E+00  0.00000000E+00  0.00000000E+00
  0.00000000E+00  0.00000000E+00  0.00000000E+00
  0.00000000E+00  0.00000000E+00  0.00000000E+00
  0.00000000E+00  0.00000000E+00  0.00000000E+00
  0.00000000E+00  0.00000000E+00  0.00000000E+00
  0.00000000E+00  0.00000000E+00  0.00000000E+00
  0.00000000E+00  0.00000000E+00  0.00000000E+00
  0.00000000E+00  0.00000000E+00  0.00000000E+00
  0.00000000E+00  0.00000000E+00  0.00000000E+00
  0.00000000E+00  0.00000000E+00  0.00000000E+00
  0.00000000E+00  0.00000000E+00  0.00000000E+00
  0.00000000E+00  0.00000000E+00  0.00000000E+00
  0.00000000E+00  0.00000000E+00  0.00000000E+00
  0.00000000E+00  0.00000000E+00  0.00000000E+00
  0.00000000E+00  0.00000000E+00  0.00000000E+00
  0.00000000E+00  0.00000000E+00  0.00000000E+00
  0.00000000E+00  0.00000000E+00  0.00000000E+00
  0.00000000E+00  0.00000000E+00  0.00000000E+00
  0.00000000E+00  0.00000000E+00  0.00000000E+00
  0.00000000E+00  0.00000000E+00  0.00000000E+00
  0.00000000E+00  0.00000000E+00  0.00000000E+00
  0.00000000E+00  0.00000000E+00  0.00000000E+00
  0.00000000E+00  0.00000000E+00  0.00000000E+00
  0.00000000E+00  0.00000000E+00  0.00000000E+00
  0.00000000E+00  0.00000000E+00  0.00000000E+00
  0.00000000E+00  0.00000000E+00  0.00000000E+00
  0.00000000E+00  0.00000000E+00  0.00000000E+00
  0.00000000E+00  0.00000000E+00  0.00000000E+00
  0.00000000E+00  0.00000000E+00  0.00000000E+00
  0.00000000E+00  0.00000000E+00  0.00000000E+00
  0.00000000E+00  0.00000000E+00  0.00000000E+00
  0.00000000E+00  0.00000000E+00  0.00000000E+00
  0.00000000E+00  0.00000000E+00  0.00000000E+00
  0.00000000E+00  0.00000000E+00  0.00000000E+00
  0.00000000E+00  0.00000000E+00  0.00000000E+00
  0.00000000E+00  0.00000000E+00  0.00000000E+00
  0.00000000E+00  0.00000000E+00  0.00000000E+00
