CeO2-you-111-you-Sb                     
   1.00000000000000     
     9.8301458603809895   -5.6754377298018950    0.0000000000000000
     0.0000000015935088   11.3508734648508529    0.0000000000000000
     0.0000000000000000    0.0000000000000000   21.0755387088355342
   O    Sb   Ce   H 
    54     1    26     1
Selective dynamics
Direct
 -0.0000665482515323  0.0000867678947782  0.9953924177996644   T   T   T
  0.1111041389175469  0.2222185694587111  0.1495706233560554   F   F   F
  0.2300968167276057  0.1169085825260719  0.3067016603462860   T   T   T
  0.0886700243264659  0.2117087908737835  0.3860863972707669   T   T   T
  0.0024635929856733  0.0009722759047267  0.2299416471813710   T   T   T
  0.2221318698716956  0.1109307397434023  0.0745366329601680   F   F   F
  0.3338458722240212  0.0001627635542045  0.9955869956855168   T   T   T
  0.4444474305411603  0.2222185694586543  0.1495706233560554   F   F   F
  0.5519460415771803  0.1140477572976885  0.3047116463005489   T   T   T
  0.4663307752094111  0.2016221671785290  0.4053437846637427   T   T   T
  0.3313290477283024  0.9987084691587758  0.2292360108606519   T   T   T
  0.5557973601586070  0.1108696398415248  0.0755576520501862   F   F   F
  0.6670233558521519 -0.0001874041586859  0.9955689382214091   T   T   T
  0.7777197254500550  0.2221054509001306  0.1503963150968772   F   F   F
  0.8846819777476276  0.1087224543582308  0.3025941398399130   T   T   T
  0.7775336621914763  0.2225861693760672  0.3836967013376105   T   T   T
  0.6651212026979807  0.0013668249834655  0.2295202131567335   T   T   T
  0.8884062796828758  0.1108696398414821  0.0755576520501862   F   F   F
  0.9995294044820877  0.3326625841130035  0.9955085838006461   T   T   T
  0.1109737684605605  0.5556932315395144  0.1496002808071282   F   F   F
  0.2268096905026287  0.4405494296461956  0.3050511516470076   T   T   T
  0.1114084832415969  0.5554510194468826  0.3833110473209821   T   T   T
  0.0023787999655216  0.3347401790568052  0.2300026967659109   T   T   T
  0.2221318698716459  0.4445341301282895  0.0745366329601680   F   F   F
  0.3329986477400719  0.3330072803989311  0.9953251682022702   T   T   T
  0.4444474305412882  0.5555628610826417  0.1495706233560554   F   F   F
  0.5474306264488704  0.4353130601270171  0.3066669904205272   T   T   T
  0.4526611571377749  0.5723002190652630  0.3844664711121955   T   T   T
  0.3329370520764057  0.3342193393977719  0.2319985268254296   T   T   T
  0.5557362602566656  0.4445341301283037  0.0745366329601680   F   F   F
  0.6667027961270303  0.3324807888599676  0.9952987633132523   T   T   T
  0.7780524630789287  0.5556932315394931  0.1496002808071282   F   F   F
  0.8893423303413835  0.4450737172199661  0.3042530317178499   T   T   T
  0.7773896075165024  0.5537318458118315  0.3843129717768461   T   T   T
  0.6676806873977355  0.3351278730703824  0.2293992411249129   T   T   T
  0.8889938875759142  0.4446537751518349  0.0752061476675365   F   F   F
 -0.0000690825614037  0.6669140189558217  0.9952595330565165   T   T   T
  0.1109737684605108  0.8886145369210041  0.1496002808071282   F   F   F
  0.2217952834004100  0.7773019852130093  0.3041404242769774   T   T   T
  0.1125385589327685  0.8880420186904342  0.3845193735036150   T   T   T
 -0.0002626396722043  0.6670881849012715  0.2297082282583018   T   T   T
  0.2220122248481928  0.7776731124240825  0.0752061476675365   F   F   F
  0.3342530915381626  0.6675957726455712  0.9953290890872619   T   T   T
  0.4445605490999256  0.8889472745499418  0.1503963150968772   F   F   F
  0.5578546157585020  0.7816113667582373  0.3028691074281269   T   T   T
  0.4441154775362764  0.8884583431897368  0.3838662960658585   T   T   T
  0.3323442491453062  0.6650105170840657  0.2300044499232818   T   T   T
  0.5557973601585218  0.7782607203169931  0.0755576520501862   F   F   F
  0.6668816712087419  0.6673629138786817  0.9954717573911285   T   T   T
  0.7777197254500194  0.8889472745499276  0.1503963150968772   F   F   F
  0.8889890004218830  0.7783529568877586  0.3048610086210813   T   T   T
  0.7762017081004069  0.8896946125221503  0.3844167500183348   T   T   T
  0.6654546233582445  0.6633686638956376  0.2302536628912145   T   T   T
  0.8889938875758929  0.7776731124240754  0.0752061476675365   F   F   F
  0.3312398798914761  0.3427830053810031  0.3370007390924941   T   T   T
  0.0003899273252022  0.0028781216654666  0.3449906567399883   T   T   T
  0.2220365371200614  0.1107400742401268  0.1893038469012325   F   F   F
  0.1108536182486404  0.2220933091243467  0.0350890771174548   F   F   F
  0.3294154690538522 -0.0054214321965626  0.3439818347597253   T   T   T
  0.5555781906861341  0.1110888093138982  0.1902230895662242   F   F   F
  0.4445726908757024  0.2220933091243609  0.0350890771174548   F   F   F
  0.6661728912322550  0.0003296398948637  0.3442709547510909   T   T   T
  0.8888446186277577  0.1110888093138911  0.1902230895662242   F   F   F
  0.7776321590681619  0.2219303181363372  0.0356802077357656   F   F   F
 -0.0008569910142827  0.3304855462839340  0.3453259197338252   T   T   T
  0.2220365371200614  0.4446294628799379  0.1893038469012325   F   F   F
  0.1110655849282267  0.5556014150717914  0.0352206448500496   F   F   F
  0.5559269257598842  0.4446294628799379  0.1893038469012325   F   F   F
  0.4445726908756527  0.5558133817512996  0.0350890771174548   F   F   F
  0.6723934475186777  0.3365006020447091  0.3441093843612933   T   T   T
  0.8889236970741337  0.4445133941481885  0.1898950203318464   F   F   F
  0.7778688301435537  0.5556014150717843  0.0352206448500496   F   F   F
  0.0001377376131045  0.6665855987291004  0.3442967547659958   T   T   T
  0.2221526058515835  0.7777433029258702  0.1898950203318464   F   F   F
  0.1110655849282196  0.8887981698564289  0.0352206448500496   F   F   F
  0.3355196746153807  0.6677955866652193  0.3450959236338311   T   T   T
  0.5555781906861128  0.7778223813722107  0.1902230895662242   F   F   F
  0.4447356818637047  0.8890348409318349  0.0356802077357656   F   F   F
  0.6652810606879948  0.6675386157383797  0.3449169936828888   T   T   T
  0.8889236970742829  0.7777433029259342  0.1898950203318464   F   F   F
  0.7776321590681263  0.8890348409318278  0.0356802077357656   F   F   F
  0.4418717384879217  0.2246360436880121  0.4458234981650616   T   T   T
 
  0.00000000E+00  0.00000000E+00  0.00000000E+00
  0.00000000E+00  0.00000000E+00  0.00000000E+00
  0.00000000E+00  0.00000000E+00  0.00000000E+00
  0.00000000E+00  0.00000000E+00  0.00000000E+00
  0.00000000E+00  0.00000000E+00  0.00000000E+00
  0.00000000E+00  0.00000000E+00  0.00000000E+00
  0.00000000E+00  0.00000000E+00  0.00000000E+00
  0.00000000E+00  0.00000000E+00  0.00000000E+00
  0.00000000E+00  0.00000000E+00  0.00000000E+00
  0.00000000E+00  0.00000000E+00  0.00000000E+00
  0.00000000E+00  0.00000000E+00  0.00000000E+00
  0.00000000E+00  0.00000000E+00  0.00000000E+00
  0.00000000E+00  0.00000000E+00  0.00000000E+00
  0.00000000E+00  0.00000000E+00  0.00000000E+00
  0.00000000E+00  0.00000000E+00  0.00000000E+00
  0.00000000E+00  0.00000000E+00  0.00000000E+00
  0.00000000E+00  0.00000000E+00  0.00000000E+00
  0.00000000E+00  0.00000000E+00  0.00000000E+00
  0.00000000E+00  0.00000000E+00  0.00000000E+00
  0.00000000E+00  0.00000000E+00  0.00000000E+00
  0.00000000E+00  0.00000000E+00  0.00000000E+00
  0.00000000E+00  0.00000000E+00  0.00000000E+00
  0.00000000E+00  0.00000000E+00  0.00000000E+00
  0.00000000E+00  0.00000000E+00  0.00000000E+00
  0.00000000E+00  0.00000000E+00  0.00000000E+00
  0.00000000E+00  0.00000000E+00  0.00000000E+00
  0.00000000E+00  0.00000000E+00  0.00000000E+00
  0.00000000E+00  0.00000000E+00  0.00000000E+00
  0.00000000E+00  0.00000000E+00  0.00000000E+00
  0.00000000E+00  0.00000000E+00  0.00000000E+00
  0.00000000E+00  0.00000000E+00  0.00000000E+00
  0.00000000E+00  0.00000000E+00  0.00000000E+00
  0.00000000E+00  0.00000000E+00  0.00000000E+00
  0.00000000E+00  0.00000000E+00  0.00000000E+00
  0.00000000E+00  0.00000000E+00  0.00000000E+00
  0.00000000E+00  0.00000000E+00  0.00000000E+00
  0.00000000E+00  0.00000000E+00  0.00000000E+00
  0.00000000E+00  0.00000000E+00  0.00000000E+00
  0.00000000E+00  0.00000000E+00  0.00000000E+00
  0.00000000E+00  0.00000000E+00  0.00000000E+00
  0.00000000E+00  0.00000000E+00  0.00000000E+00
  0.00000000E+00  0.00000000E+00  0.00000000E+00
  0.00000000E+00  0.00000000E+00  0.00000000E+00
  0.00000000E+00  0.00000000E+00  0.00000000E+00
  0.00000000E+00  0.00000000E+00  0.00000000E+00
  0.00000000E+00  0.00000000E+00  0.00000000E+00
  0.00000000E+00  0.00000000E+00  0.00000000E+00
  0.00000000E+00  0.00000000E+00  0.00000000E+00
  0.00000000E+00  0.00000000E+00  0.00000000E+00
  0.00000000E+00  0.00000000E+00  0.00000000E+00
  0.00000000E+00  0.00000000E+00  0.00000000E+00
  0.00000000E+00  0.00000000E+00  0.00000000E+00
  0.00000000E+00  0.00000000E+00  0.00000000E+00
  0.00000000E+00  0.00000000E+00  0.00000000E+00
  0.00000000E+00  0.00000000E+00  0.00000000E+00
  0.00000000E+00  0.00000000E+00  0.00000000E+00
  0.00000000E+00  0.00000000E+00  0.00000000E+00
  0.00000000E+00  0.00000000E+00  0.00000000E+00
  0.00000000E+00  0.00000000E+00  0.00000000E+00
  0.00000000E+00  0.00000000E+00  0.00000000E+00
  0.00000000E+00  0.00000000E+00  0.00000000E+00
  0.00000000E+00  0.00000000E+00  0.00000000E+00
  0.00000000E+00  0.00000000E+00  0.00000000E+00
  0.00000000E+00  0.00000000E+00  0.00000000E+00
  0.00000000E+00  0.00000000E+00  0.00000000E+00
  0.00000000E+00  0.00000000E+00  0.00000000E+00
  0.00000000E+00  0.00000000E+00  0.00000000E+00
  0.00000000E+00  0.00000000E+00  0.00000000E+00
  0.00000000E+00  0.00000000E+00  0.00000000E+00
  0.00000000E+00  0.00000000E+00  0.00000000E+00
  0.00000000E+00  0.00000000E+00  0.00000000E+00
  0.00000000E+00  0.00000000E+00  0.00000000E+00
  0.00000000E+00  0.00000000E+00  0.00000000E+00
  0.00000000E+00  0.00000000E+00  0.00000000E+00
  0.00000000E+00  0.00000000E+00  0.00000000E+00
  0.00000000E+00  0.00000000E+00  0.00000000E+00
  0.00000000E+00  0.00000000E+00  0.00000000E+00
  0.00000000E+00  0.00000000E+00  0.00000000E+00
  0.00000000E+00  0.00000000E+00  0.00000000E+00
  0.00000000E+00  0.00000000E+00  0.00000000E+00
  0.00000000E+00  0.00000000E+00  0.00000000E+00
  0.00000000E+00  0.00000000E+00  0.00000000E+00
