CeO2-you-111-you-Tc                     
   1.00000000000000     
     9.7921491718874432   -5.6535003323472051   -0.0000000000000000
     0.0000000060946662   11.3069986854587405    0.0000000000000000
     0.0000000000000000    0.0000000000000000   21.3331055837868071
   O    Tc   Ce
    54     1    26
Selective dynamics
Direct
 -0.0001272956669245 -0.0001583175282082  0.9967878069124898   T   T   T
  0.1040433039559883  0.2186881519777162  0.1489273638718593   T   T   T
  0.2316815276802914  0.1300300553602920  0.3020227078005773   T   T   T
  0.1409178438662886  0.2371254219330533  0.3822018936999231   T   T   T
  0.0012031124080059 -0.0004515690169456  0.2304536152619347   T   T   T
  0.2225250260476727  0.1117170520952688  0.0757676870439720   T   T   T
  0.3333019781387632 -0.0001583175282188  0.9967878069124898   T   T   T
  0.4479778480217240  0.2186881519774680  0.1489273638718593   T   T   T
  0.5521863525137044  0.1144806474865724  0.3057912594654162   T   T   T
  0.4295405780667607  0.2371254219329710  0.3822018936999231   T   T   T
  0.3316783185750823 -0.0004515690170305  0.2304536152619347   T   T   T
  0.5569929517233166  0.1096740482764566  0.0757578917995794   T   T   T
  0.6666669999999968  0.0000000000000000  0.9957549573850034   T   T   T
  0.7773646495576844  0.2213952991154212  0.1513799380619920   T   T   T
  0.8956282949727844  0.1144806474864884  0.3057912594654162   T   T   T
  0.7777541668185231  0.2221743336369737  0.3816038546900841   T   T   T
  0.6666669999999968  0.0000000000000000  0.2328023388944278   T   T   T
  0.8860150965532114  0.1096740482765274  0.0757578917995794   T   T   T
 -0.0001272956668261  0.3333640218612631  0.9967878069124898   T   T   T
  0.1106177247538877  0.5560492752466107  0.1500242320402662   T   T   T
  0.2316815276809394  0.4349844723199956  0.3020227078005773   T   T   T
  0.1136167669544158  0.5530502330447820  0.3804397588933243   T   T   T
  0.0012031124080749  0.3349876814247633  0.2304536152619347   T   T   T
  0.2225250260478383  0.4441409739524002  0.0757676870439720   T   T   T
  0.3333330000000032  0.3333330000000032  0.9964355683076644   T   T   T
  0.4479778480222832  0.5626236960448230  0.1489273638718593   T   T   T
  0.5366369446387763  0.4349844723197078  0.3020227078005773   T   T   T
  0.4295405780669460  0.5257491561339825  0.3822018936999231   T   T   T
  0.3333330000000032  0.3333330000000032  0.2161132500768069   T   T   T
  0.5549499479044963  0.4441409739523265  0.0757676870439720   T   T   T
  0.6668253175280391  0.3333640218612088  0.9967878069124898   T   T   T
  0.7787645504925671  0.5560492752464590  0.1500242320402662   T   T   T
  0.8890971816436383  0.4448603632872216  0.3042953538851969   T   T   T
  0.7727664660906103  0.5530502330450296  0.3804397588933243   T   T   T
  0.6671185690166513  0.3349876814246477  0.2304536152619347   T   T   T
  0.8884966665148043  0.4436593330296254  0.0762719629585597   T   T   T
  0.0000000000000000  0.6666669999999968  0.9971135133894654   T   T   T
  0.1106177247535451  0.8879024495069352  0.1500242320402662   T   T   T
  0.2218056367126000  0.7775698183563585  0.3042953538851969   T   T   T
  0.1136167669549741  0.8939005339101925  0.3804397588933243   T   T   T
  0.0000000000000000  0.6666669999999968  0.2299263424053080   T   T   T
  0.2230066669704310  0.7781703334851925  0.0762719629585597   T   T   T
  0.3333019781388853  0.6667942956669994  0.9967878069124898   T   T   T
  0.4452707008847289  0.8893023504423124  0.1513799380619920   T   T   T
  0.5521863525135154  0.7710387050269393  0.3057912594654162   T   T   T
  0.4444916663627688  0.8889128331814737  0.3816038546900841   T   T   T
  0.3316783185753428  0.6654638875922978  0.2304536152619347   T   T   T
  0.5569929517234766  0.7806519034470161  0.0757578917995794   T   T   T
  0.6668253175280630  0.6667942956669556  0.9967878069124898   T   T   T
  0.7773646495575798  0.8893023504422664  0.1513799380619920   T   T   T
  0.8890971816437615  0.7775698183564131  0.3042953538851969   T   T   T
  0.7777541668187007  0.8889128331815526  0.3816038546900841   T   T   T
  0.6671185690168426  0.6654638875922672  0.2304536152619347   T   T   T
  0.8884966665147646  0.7781703334851751  0.0762719629585597   T   T   T
  0.3333330000000032  0.3333330000000032  0.3462827815194873   T   T   T
  0.0057440718860849  0.0045283552885946  0.3419987227170200   T   T   T
  0.2232887070057865  0.1132444140119584  0.1887745812469830   T   T   T
  0.1103930550129289  0.2218630275066167  0.0361142240494828   T   T   T
  0.3321172834030082  0.0045283552886523  0.3419987227170200   T   T   T
  0.5555506294774996  0.1111163705234323  0.1904083672792931   T   T   T
  0.4448029724936839  0.2218630275067505  0.0361142240494828   T   T   T
  0.6666669999999968  0.0000000000000000  0.3450322271957484   T   T   T
  0.8888997410456476  0.1111163705231469  0.1904083672792931   T   T   T
  0.7774652412360284  0.2215964824720109  0.0363888809190103   T   T   T
  0.0057440718872007  0.3345487165976234  0.3419987227170200   T   T   T
  0.2232887070049108  0.4433772929938241  0.1887745812469830   T   T   T
  0.1110151462296722  0.5556518537697899  0.0367819731690573   T   T   T
  0.5534225859893098  0.4433772929942128  0.1887745812469830   T   T   T
  0.4448029724933826  0.5562739449866400  0.0361142240494828   T   T   T
  0.6621386447099211  0.3345487165971856  0.3419987227170200   T   T   T
  0.8889131612330649  0.4444923224660133  0.1900970229869232   T   T   T
  0.7779697075402803  0.5556518537699563  0.0367819731690573   T   T   T
 -0.0000000000000000  0.6666669999999968  0.3413372898930331   T   T   T
  0.2221736775336082  0.7777538387669319  0.1900970229869232   T   T   T
  0.1110151462300477  0.8886972924602587  0.0367819731690573   T   T   T
  0.3321172834039941  0.6609229281142196  0.3419987227170200   T   T   T
  0.5555506294768568  0.7777672589534207  0.1904083672792931   T   T   T
  0.4450695175278169  0.8892017587639683  0.0363888809190103   T   T   T
  0.6621386447097913  0.6609229281137242  0.3419987227170200   T   T   T
  0.8889131612333265  0.7777538387670481  0.1900970229869232   T   T   T
  0.7774652412361476  0.8892017587640211  0.0363888809190103   T   T   T
 
  0.00000000E+00  0.00000000E+00  0.00000000E+00
  0.00000000E+00  0.00000000E+00  0.00000000E+00
  0.00000000E+00  0.00000000E+00  0.00000000E+00
  0.00000000E+00  0.00000000E+00  0.00000000E+00
  0.00000000E+00  0.00000000E+00  0.00000000E+00
  0.00000000E+00  0.00000000E+00  0.00000000E+00
  0.00000000E+00  0.00000000E+00  0.00000000E+00
  0.00000000E+00  0.00000000E+00  0.00000000E+00
  0.00000000E+00  0.00000000E+00  0.00000000E+00
  0.00000000E+00  0.00000000E+00  0.00000000E+00
  0.00000000E+00  0.00000000E+00  0.00000000E+00
  0.00000000E+00  0.00000000E+00  0.00000000E+00
  0.00000000E+00  0.00000000E+00  0.00000000E+00
  0.00000000E+00  0.00000000E+00  0.00000000E+00
  0.00000000E+00  0.00000000E+00  0.00000000E+00
  0.00000000E+00  0.00000000E+00  0.00000000E+00
  0.00000000E+00  0.00000000E+00  0.00000000E+00
  0.00000000E+00  0.00000000E+00  0.00000000E+00
  0.00000000E+00  0.00000000E+00  0.00000000E+00
  0.00000000E+00  0.00000000E+00  0.00000000E+00
  0.00000000E+00  0.00000000E+00  0.00000000E+00
  0.00000000E+00  0.00000000E+00  0.00000000E+00
  0.00000000E+00  0.00000000E+00  0.00000000E+00
  0.00000000E+00  0.00000000E+00  0.00000000E+00
  0.00000000E+00  0.00000000E+00  0.00000000E+00
  0.00000000E+00  0.00000000E+00  0.00000000E+00
  0.00000000E+00  0.00000000E+00  0.00000000E+00
  0.00000000E+00  0.00000000E+00  0.00000000E+00
  0.00000000E+00  0.00000000E+00  0.00000000E+00
  0.00000000E+00  0.00000000E+00  0.00000000E+00
  0.00000000E+00  0.00000000E+00  0.00000000E+00
  0.00000000E+00  0.00000000E+00  0.00000000E+00
  0.00000000E+00  0.00000000E+00  0.00000000E+00
  0.00000000E+00  0.00000000E+00  0.00000000E+00
  0.00000000E+00  0.00000000E+00  0.00000000E+00
  0.00000000E+00  0.00000000E+00  0.00000000E+00
  0.00000000E+00  0.00000000E+00  0.00000000E+00
  0.00000000E+00  0.00000000E+00  0.00000000E+00
  0.00000000E+00  0.00000000E+00  0.00000000E+00
  0.00000000E+00  0.00000000E+00  0.00000000E+00
  0.00000000E+00  0.00000000E+00  0.00000000E+00
  0.00000000E+00  0.00000000E+00  0.00000000E+00
  0.00000000E+00  0.00000000E+00  0.00000000E+00
  0.00000000E+00  0.00000000E+00  0.00000000E+00
  0.00000000E+00  0.00000000E+00  0.00000000E+00
  0.00000000E+00  0.00000000E+00  0.00000000E+00
  0.00000000E+00  0.00000000E+00  0.00000000E+00
  0.00000000E+00  0.00000000E+00  0.00000000E+00
  0.00000000E+00  0.00000000E+00  0.00000000E+00
  0.00000000E+00  0.00000000E+00  0.00000000E+00
  0.00000000E+00  0.00000000E+00  0.00000000E+00
  0.00000000E+00  0.00000000E+00  0.00000000E+00
  0.00000000E+00  0.00000000E+00  0.00000000E+00
  0.00000000E+00  0.00000000E+00  0.00000000E+00
  0.00000000E+00  0.00000000E+00  0.00000000E+00
  0.00000000E+00  0.00000000E+00  0.00000000E+00
  0.00000000E+00  0.00000000E+00  0.00000000E+00
  0.00000000E+00  0.00000000E+00  0.00000000E+00
  0.00000000E+00  0.00000000E+00  0.00000000E+00
  0.00000000E+00  0.00000000E+00  0.00000000E+00
  0.00000000E+00  0.00000000E+00  0.00000000E+00
  0.00000000E+00  0.00000000E+00  0.00000000E+00
  0.00000000E+00  0.00000000E+00  0.00000000E+00
  0.00000000E+00  0.00000000E+00  0.00000000E+00
  0.00000000E+00  0.00000000E+00  0.00000000E+00
  0.00000000E+00  0.00000000E+00  0.00000000E+00
  0.00000000E+00  0.00000000E+00  0.00000000E+00
  0.00000000E+00  0.00000000E+00  0.00000000E+00
  0.00000000E+00  0.00000000E+00  0.00000000E+00
  0.00000000E+00  0.00000000E+00  0.00000000E+00
  0.00000000E+00  0.00000000E+00  0.00000000E+00
  0.00000000E+00  0.00000000E+00  0.00000000E+00
  0.00000000E+00  0.00000000E+00  0.00000000E+00
  0.00000000E+00  0.00000000E+00  0.00000000E+00
  0.00000000E+00  0.00000000E+00  0.00000000E+00
  0.00000000E+00  0.00000000E+00  0.00000000E+00
  0.00000000E+00  0.00000000E+00  0.00000000E+00
  0.00000000E+00  0.00000000E+00  0.00000000E+00
  0.00000000E+00  0.00000000E+00  0.00000000E+00
  0.00000000E+00  0.00000000E+00  0.00000000E+00
  0.00000000E+00  0.00000000E+00  0.00000000E+00
