CeO2-you-111-you-Ca                     
   1.00000000000000     
     9.8910193092532470   -5.7105830328077083   -0.0000000006558130
    -0.0187166544351973   11.3887458614058747   -0.0125729081577887
    -0.0133531437879638   -0.0231283195685642   21.2000506380323905
   O    Ca   Ce   H 
    53     1    26     2
Selective dynamics
Direct
 -0.0000367290377681 -0.0001642404083823  0.9975080225992241   T   T   T
  0.1090735198072892  0.2224636961475923  0.1498078498754722   F   F   F
  0.2247592605463911  0.1072040415709992  0.3036048571075683   T   T   T
  0.0956336343983114  0.2157251267795844  0.3822579257693668   T   T   T
  0.0009850631484129  0.0008393489126396  0.2283484751019286   T   T   T
  0.2225354268937068  0.1117378537873321  0.0758386379103584   F   F   F
  0.3331362876001711 -0.0000443202770112  0.9969838482866697   T   T   T
  0.4467231763400790  0.2224636961473223  0.1498078498754793   F   F   F
  0.5508431519838457  0.1163953935606911  0.3043642749219418   T   T   T
  0.4484409287070310  0.2211628028765410  0.3977596685352083   T   T   T
  0.3328225279179424 -0.0018156626179491  0.2275867938528970   T   T   T
  0.5570427979757184  0.1113545060657657  0.0758161019484689   F   F   F
  0.6666607471688484  0.9995487549423910  0.9967244161861678   T   T   T
  0.7774919056235561  0.2216498112471754  0.1530860716181763   F   F   F
  0.8858566021825034  0.1101740873193807  0.3016304827989293   T   T   T
  0.7755751920749574  0.2225436124532927  0.3806183438776992   T   T   T
  0.6618728213515357  0.9962233936497767  0.2309678448412116   T   T   T
  0.8876457080901261  0.1113545060658936  0.0758161019484760   F   F   F
  0.0007678561556933  0.3331156837365700  0.9978318270262979   T   T   T
  0.1100502386711000  0.5540702207878638  0.1499857556700519   F   F   F
  0.2279890811764292  0.4532466451721975  0.3050112371413882   T   T   T
  0.1117929574807199  0.5597745750347909  0.3826367961437089   T   T   T
  0.0025470671461467  0.3345329280678536  0.2304298411353020   T   T   T
  0.2232798335473092  0.4446040910411995  0.0767745131849509   F   F   F
  0.3334707270183320  0.3331009702445901  0.9972561204249344   T   T   T
  0.4454926577762706  0.5576533155529120  0.1510135798114618   F   F   F
  0.5586328814498307  0.4485496298484347  0.3066985534305350   T   T   T
  0.3331586121851506  0.3328934876416005  0.2255166892632989   T   T   T
  0.5546582574937418  0.4446040910410716  0.0767745131849509   F   F   F
  0.6662749012871679  0.3332258468044723  0.9977276510194044   T   T   T
  0.7773529821165113  0.5540702207876507  0.1499857556700377   F   F   F
  0.8906918535867636  0.4473777467247200  0.3036794004346809   T   T   T
  0.7819653378984101  0.5586678579637417  0.3832506622246765   T   T   T
  0.6672037269125124  0.3353247396800850  0.2301431748445479   T   T   T
  0.8880748320421219  0.4428156640842786  0.0766017828646497   F   F   F
 -0.0008152385791572  0.6657186573960043  0.9975717056752984   T   T   T
  0.1112677628920054  0.8892025257836309  0.1483868541517097   F   F   F
  0.2194967052823122  0.7784589127369991  0.3023016956294196   T   T   T
  0.1127103118218697  0.8890148081008813  0.3836679111342101   T   T   T
  0.0005926407375752  0.6687827412839451  0.2282569684160816   T   T   T
  0.2222321462248757  0.7776056054245899  0.0753858736648922   F   F   F
  0.3330727143366472  0.6660619670589506  0.9976054128436306   T   T   T
  0.4455248664892864  0.8895570420948999  0.1487795062626702   F   F   F
  0.5507676840198444  0.7680673127602934  0.3056348583335769   T   T   T
  0.4426351233977457  0.8902560996239748  0.3798841632971613   T   T   T
  0.3334451061408365  0.6711136610305726  0.2282305100881126   T   T   T
  0.5554143527458990  0.7774947054917831  0.0759864675245439   F   F   F
  0.6665457917081462  0.6661660492782270  0.9973452678698188   T   T   T
  0.7773651756058797  0.8895570420951060  0.1487795062626702   F   F   F
  0.8916844474789715  0.7800307777233848  0.3030500133844806   T   T   T
  0.7776324550388540  0.8902341752306716  0.3806915587221894   T   T   T
  0.6701985526265232  0.6695981764349448  0.2283466799227609   T   T   T
  0.8887064591998026  0.7776056054245899  0.0753858736648922   F   F   F
  0.3272116146035803  0.3296845869520360  0.3401477091689645   T   T   T
  0.0028957134732835  0.0052780591440917  0.3424482823992393   T   T   T
  0.2227570005201329  0.1121810010410726  0.1892995543315550   F   F   F
  0.1112045139211588  0.2223904954628537  0.0373037141853700   F   F   F
  0.3276019856008927 -0.0040071351896643  0.3407277699731915   T   T   T
  0.5548017566529637  0.1106009921897950  0.1900438557947908   F   F   F
  0.4445189815417478  0.2223904954629674  0.0373037141853629   F   F   F
  0.6656018061341513  0.0003359683706074  0.3420795841308568   T   T   T
  0.8891332355360788  0.1106009921889779  0.1900438557947766   F   F   F
  0.7776293427150947  0.2219246854301247  0.0372565953888468   F   F   F
  0.0035054096652810  0.3334154361031407  0.3429162800742168   T   T   T
  0.2238013107396029  0.4443645643676462  0.1910732534039283   F   F   F
  0.1106971586039975  0.5544245083080170  0.0373118579885343   F   F   F
  0.5538972536294366  0.4443645643681577  0.1910732534038786   F   F   F
  0.4441082108541252  0.5548844217081523  0.0368700239171389   F   F   F
  0.6733692912070840  0.3399930280213446  0.3414980092252587   T   T   T
  0.8892084711132995  0.4450829422262856  0.1911552142553248   F   F   F
  0.7770603497040511  0.5544245083081023  0.0373118579885272   F   F   F
  0.0013156103477704  0.6692615954646169  0.3432341634014860   T   T   T
  0.2214492137796995  0.7790279931402679  0.1870486367370106   F   F   F
  0.1112530414044386  0.8891730828090445  0.0354902677588100   F   F   F
  0.3278484950508939  0.6689526252440993  0.3399618654240641   T   T   T
  0.5551559139042368  0.7769778278084800  0.1886349572429467   F   F   F
  0.4448408513358544  0.8889460800739855  0.0362507380571984   F   F   F
  0.6751826968693330  0.6708943188040576  0.3400473708311493   T   T   T
  0.8909117793599108  0.7790279931399482  0.1870486367370106   F   F   F
  0.7774382287380632  0.8889460800739641  0.0362507380571984   F   F   F
  0.4515858334457121  0.5696125581754513  0.3880237172425552   T   T   T
  0.4458176362708052  0.2231682157101846  0.4435817812873045   T   T   T
 
  0.00000000E+00  0.00000000E+00  0.00000000E+00
  0.00000000E+00  0.00000000E+00  0.00000000E+00
  0.00000000E+00  0.00000000E+00  0.00000000E+00
  0.00000000E+00  0.00000000E+00  0.00000000E+00
  0.00000000E+00  0.00000000E+00  0.00000000E+00
  0.00000000E+00  0.00000000E+00  0.00000000E+00
  0.00000000E+00  0.00000000E+00  0.00000000E+00
  0.00000000E+00  0.00000000E+00  0.00000000E+00
  0.00000000E+00  0.00000000E+00  0.00000000E+00
  0.00000000E+00  0.00000000E+00  0.00000000E+00
  0.00000000E+00  0.00000000E+00  0.00000000E+00
  0.00000000E+00  0.00000000E+00  0.00000000E+00
  0.00000000E+00  0.00000000E+00  0.00000000E+00
  0.00000000E+00  0.00000000E+00  0.00000000E+00
  0.00000000E+00  0.00000000E+00  0.00000000E+00
  0.00000000E+00  0.00000000E+00  0.00000000E+00
  0.00000000E+00  0.00000000E+00  0.00000000E+00
  0.00000000E+00  0.00000000E+00  0.00000000E+00
  0.00000000E+00  0.00000000E+00  0.00000000E+00
  0.00000000E+00  0.00000000E+00  0.00000000E+00
  0.00000000E+00  0.00000000E+00  0.00000000E+00
  0.00000000E+00  0.00000000E+00  0.00000000E+00
  0.00000000E+00  0.00000000E+00  0.00000000E+00
  0.00000000E+00  0.00000000E+00  0.00000000E+00
  0.00000000E+00  0.00000000E+00  0.00000000E+00
  0.00000000E+00  0.00000000E+00  0.00000000E+00
  0.00000000E+00  0.00000000E+00  0.00000000E+00
  0.00000000E+00  0.00000000E+00  0.00000000E+00
  0.00000000E+00  0.00000000E+00  0.00000000E+00
  0.00000000E+00  0.00000000E+00  0.00000000E+00
  0.00000000E+00  0.00000000E+00  0.00000000E+00
  0.00000000E+00  0.00000000E+00  0.00000000E+00
  0.00000000E+00  0.00000000E+00  0.00000000E+00
  0.00000000E+00  0.00000000E+00  0.00000000E+00
  0.00000000E+00  0.00000000E+00  0.00000000E+00
  0.00000000E+00  0.00000000E+00  0.00000000E+00
  0.00000000E+00  0.00000000E+00  0.00000000E+00
  0.00000000E+00  0.00000000E+00  0.00000000E+00
  0.00000000E+00  0.00000000E+00  0.00000000E+00
  0.00000000E+00  0.00000000E+00  0.00000000E+00
  0.00000000E+00  0.00000000E+00  0.00000000E+00
  0.00000000E+00  0.00000000E+00  0.00000000E+00
  0.00000000E+00  0.00000000E+00  0.00000000E+00
  0.00000000E+00  0.00000000E+00  0.00000000E+00
  0.00000000E+00  0.00000000E+00  0.00000000E+00
  0.00000000E+00  0.00000000E+00  0.00000000E+00
  0.00000000E+00  0.00000000E+00  0.00000000E+00
  0.00000000E+00  0.00000000E+00  0.00000000E+00
  0.00000000E+00  0.00000000E+00  0.00000000E+00
  0.00000000E+00  0.00000000E+00  0.00000000E+00
  0.00000000E+00  0.00000000E+00  0.00000000E+00
  0.00000000E+00  0.00000000E+00  0.00000000E+00
  0.00000000E+00  0.00000000E+00  0.00000000E+00
  0.00000000E+00  0.00000000E+00  0.00000000E+00
  0.00000000E+00  0.00000000E+00  0.00000000E+00
  0.00000000E+00  0.00000000E+00  0.00000000E+00
  0.00000000E+00  0.00000000E+00  0.00000000E+00
  0.00000000E+00  0.00000000E+00  0.00000000E+00
  0.00000000E+00  0.00000000E+00  0.00000000E+00
  0.00000000E+00  0.00000000E+00  0.00000000E+00
  0.00000000E+00  0.00000000E+00  0.00000000E+00
  0.00000000E+00  0.00000000E+00  0.00000000E+00
  0.00000000E+00  0.00000000E+00  0.00000000E+00
  0.00000000E+00  0.00000000E+00  0.00000000E+00
  0.00000000E+00  0.00000000E+00  0.00000000E+00
  0.00000000E+00  0.00000000E+00  0.00000000E+00
  0.00000000E+00  0.00000000E+00  0.00000000E+00
  0.00000000E+00  0.00000000E+00  0.00000000E+00
  0.00000000E+00  0.00000000E+00  0.00000000E+00
  0.00000000E+00  0.00000000E+00  0.00000000E+00
  0.00000000E+00  0.00000000E+00  0.00000000E+00
  0.00000000E+00  0.00000000E+00  0.00000000E+00
  0.00000000E+00  0.00000000E+00  0.00000000E+00
  0.00000000E+00  0.00000000E+00  0.00000000E+00
  0.00000000E+00  0.00000000E+00  0.00000000E+00
  0.00000000E+00  0.00000000E+00  0.00000000E+00
  0.00000000E+00  0.00000000E+00  0.00000000E+00
  0.00000000E+00  0.00000000E+00  0.00000000E+00
  0.00000000E+00  0.00000000E+00  0.00000000E+00
  0.00000000E+00  0.00000000E+00  0.00000000E+00
  0.00000000E+00  0.00000000E+00  0.00000000E+00
  0.00000000E+00  0.00000000E+00  0.00000000E+00
