CeO2-you-111-you-Sc                     
   1.00000000000000     
     9.8326612454525169   -5.6768899859489554    0.0000000004031465
     0.0178040868460068   11.3846155548790637    0.0077267615615353
     0.0086789877598365    0.0150324452169290   20.3092517152260790
   O    Sc   Ce   H 
    53     1    26     1
Selective dynamics
Direct
  0.0000821667792091  0.0002193231453721  0.9875707183868223   T   T   T
  0.1121848933951977  0.2235780285750355  0.1473548402768323   T   T   T
  0.2306099622834007  0.1145060694031988  0.3046037174562377   T   T   T
  0.1193391588894913  0.2207268219837746  0.3865597955095055   T   T   T
  0.0032239252365174  0.0014980841958323  0.2290922328909955   T   T   T
  0.2223056174570693  0.1106630095286473  0.0690208386165928   T   T   T
  0.3347649364433438  0.0000624178396647  0.9873889602123191   T   T   T
  0.4454404046991958  0.2210371989956141  0.1462555073187191   T   T   T
  0.5507279640447864  0.1120665493764169  0.3087578563994768   T   T   T
  0.4248114147632824  0.2109541344811554  0.4057538796351829   T   T   T
  0.3327004639432020  0.9965232388287657  0.2282943336981653   T   T   T
  0.5576855226970741  0.1117015685129519  0.0703986555274545   T   T   T
  0.6671168514302694  0.9996669018540897  0.9878680957411894   T   T   T
  0.7770670179123152  0.2233629285197830  0.1513571487443993   T   T   T
  0.8906511077088523  0.1098998732973056  0.3070970243901762   T   T   T
  0.7842416612712096  0.2164446413285664  0.3927357349138879   T   T   T
  0.6642970941697028  0.9971849730018969  0.2328988905735064   T   T   T
  0.8880045821608378  0.1112425696732021  0.0710700409415930   T   T   T
  0.0009661481683160  0.3330377519352817  0.9880595933730857   T   T   T
  0.1103745495624408  0.5534561209773160  0.1476932763013148   T   T   T
  0.2351121711815449  0.4404183566834896  0.3109891056583360   T   T   T
  0.1000302202370789  0.5475819314682620  0.3930381736734079   T   T   T
  0.0049760709826959  0.3344288882408501  0.2320334387129470   T   T   T
  0.2237120914178266  0.4448135628783124  0.0702744089528351   T   T   T
  0.3338635873487188  0.3335858011144025  0.9874014516106714   T   T   T
  0.4463304768189470  0.5567360276283569  0.1477031805781614   T   T   T
  0.5205473627982240  0.4565224183988806  0.3335392764159492   T   T   T
  0.3359223463716675  0.3309483335479076  0.2288588352430500   T   T   T
  0.5557697572233941  0.4436979570159217  0.0699913027943699   T   T   T
  0.6671973690242712  0.3333181161447118  0.9873683783750298   T   T   T
  0.7789946236318612  0.5558106777969806  0.1462578517934894   T   T   T
  0.8912777916779615  0.4446362226767290  0.3072885980922840   T   T   T
  0.7895921086964022  0.5722700532805565  0.3924597232394739   T   T   T
  0.6599226571529887  0.3414691350963227  0.2333872978397456   T   T   T
  0.8884501433204137  0.4425292432745590  0.0702227079368483   T   T   T
  0.0004777305723998  0.6661202466259112  0.9874857477271659   T   T   T
  0.1115753959820359  0.8880171820380776  0.1455410335843842   T   T   T
  0.2201402085286581  0.7771301401307489  0.3066075946453036   T   T   T
  0.1149217779818761  0.8909961224591848  0.3901923626986851   T   T   T
  0.0003721308361176  0.6664873725827265  0.2288548485626347   T   T   T
  0.2233768313900957  0.7768575344029256  0.0693833676373966   T   T   T
  0.3345250477608384  0.6660468471440636  0.9876722399835778   T   T   T
  0.4474790126377074  0.8897617325349561  0.1475812119445695   T   T   T
  0.5587186490030911  0.7703552862815074  0.3132473876183667   T   T   T
  0.4499279322789345  0.9005194862047959  0.3929627184467455   T   T   T
  0.3344389673176693  0.6671530365231736  0.2286418962762586   T   T   T
  0.5568459065947131  0.7775189077959573  0.0705778287359653   T   T   T
  0.6673391134448527  0.6664492891317230  0.9875840022204799   T   T   T
  0.7779401800588029  0.8887651841849520  0.1489138932964497   T   T   T
  0.8951294731717065  0.7822909688683417  0.3052925039716466   T   T   T
  0.7853942642437797  0.8925550953454788  0.3918544779966277   T   T   T
  0.6687197870446961  0.6614528022006642  0.2310428461501814   T   T   T
  0.8893326278587315  0.7785548478529506  0.0693689478586652   T   T   T
  0.3125690262553259  0.3147638565662653  0.3320941929326412   T   T   T
  0.0069679714230840  0.0050569262620166  0.3490655617775043   T   T   T
  0.2229630813129562  0.1096952500530658  0.1870526706752208   T   T   T
  0.1117350538667736  0.2227925956113101  0.0292144123783710   T   T   T
  0.3316840935752764 -0.0056725812432445  0.3476823754786869   T   T   T
  0.5552671450816369  0.1118093665457604  0.1913492517615110   T   T   T
  0.4453596443995979  0.2216297654331160  0.0282311743729868   T   T   T
  0.6687474953503003  0.0024598548266268  0.3513713911859006   T   T   T
  0.8901927272547085  0.1114787103751869  0.1903836040038187   T   T   T
  0.7780469234580457  0.2223758400769905  0.0300647333865104   T   T   T
  0.0029994149592416  0.3319024711710661  0.3501757262936393   T   T   T
  0.2239774066926271  0.4445356366356052  0.1902048659392670   T   T   T
  0.1115046338709003  0.5543715337542133  0.0294683744180434   T   T   T
  0.5551562993181530  0.4445413195118482  0.1862561780771982   T   T   T
  0.4449542770649954  0.5558966824955992  0.0284308203619219   T   T   T
  0.6666115502432435  0.3375978504189559  0.3554421328920495   T   T   T
  0.8884523436866596  0.4447714350385942  0.1914044349688908   T   T   T
  0.7789037721402988  0.5553149564318096  0.0286569282252042   T   T   T
  0.0010976157503705  0.6644344344929334  0.3492248239790040   T   T   T
  0.2229458973461947  0.7763970637183143  0.1871139286165696   T   T   T
  0.1116643589295979  0.8888637137334910  0.0277421221321636   T   T   T
  0.3274171973285288  0.6691381679145583  0.3490697699197847   T   T   T
  0.5563735388647422  0.7776296698877744  0.1905957202574369   T   T   T
  0.4463320993786231  0.8891414563026897  0.0294114897777343   T   T   T
  0.6842758629349260  0.6764833939551308  0.3464661027626710   T   T   T
  0.8914015647883673  0.7783056136975866  0.1874267305030559   T   T   T
  0.7780049260331369  0.8890797339027455  0.0292417662930353   T   T   T
  0.4015988210852633  0.2120382694217368  0.4517959354501200   T   T   T
 
  0.00000000E+00  0.00000000E+00  0.00000000E+00
  0.00000000E+00  0.00000000E+00  0.00000000E+00
  0.00000000E+00  0.00000000E+00  0.00000000E+00
  0.00000000E+00  0.00000000E+00  0.00000000E+00
  0.00000000E+00  0.00000000E+00  0.00000000E+00
  0.00000000E+00  0.00000000E+00  0.00000000E+00
  0.00000000E+00  0.00000000E+00  0.00000000E+00
  0.00000000E+00  0.00000000E+00  0.00000000E+00
  0.00000000E+00  0.00000000E+00  0.00000000E+00
  0.00000000E+00  0.00000000E+00  0.00000000E+00
  0.00000000E+00  0.00000000E+00  0.00000000E+00
  0.00000000E+00  0.00000000E+00  0.00000000E+00
  0.00000000E+00  0.00000000E+00  0.00000000E+00
  0.00000000E+00  0.00000000E+00  0.00000000E+00
  0.00000000E+00  0.00000000E+00  0.00000000E+00
  0.00000000E+00  0.00000000E+00  0.00000000E+00
  0.00000000E+00  0.00000000E+00  0.00000000E+00
  0.00000000E+00  0.00000000E+00  0.00000000E+00
  0.00000000E+00  0.00000000E+00  0.00000000E+00
  0.00000000E+00  0.00000000E+00  0.00000000E+00
  0.00000000E+00  0.00000000E+00  0.00000000E+00
  0.00000000E+00  0.00000000E+00  0.00000000E+00
  0.00000000E+00  0.00000000E+00  0.00000000E+00
  0.00000000E+00  0.00000000E+00  0.00000000E+00
  0.00000000E+00  0.00000000E+00  0.00000000E+00
  0.00000000E+00  0.00000000E+00  0.00000000E+00
  0.00000000E+00  0.00000000E+00  0.00000000E+00
  0.00000000E+00  0.00000000E+00  0.00000000E+00
  0.00000000E+00  0.00000000E+00  0.00000000E+00
  0.00000000E+00  0.00000000E+00  0.00000000E+00
  0.00000000E+00  0.00000000E+00  0.00000000E+00
  0.00000000E+00  0.00000000E+00  0.00000000E+00
  0.00000000E+00  0.00000000E+00  0.00000000E+00
  0.00000000E+00  0.00000000E+00  0.00000000E+00
  0.00000000E+00  0.00000000E+00  0.00000000E+00
  0.00000000E+00  0.00000000E+00  0.00000000E+00
  0.00000000E+00  0.00000000E+00  0.00000000E+00
  0.00000000E+00  0.00000000E+00  0.00000000E+00
  0.00000000E+00  0.00000000E+00  0.00000000E+00
  0.00000000E+00  0.00000000E+00  0.00000000E+00
  0.00000000E+00  0.00000000E+00  0.00000000E+00
  0.00000000E+00  0.00000000E+00  0.00000000E+00
  0.00000000E+00  0.00000000E+00  0.00000000E+00
  0.00000000E+00  0.00000000E+00  0.00000000E+00
  0.00000000E+00  0.00000000E+00  0.00000000E+00
  0.00000000E+00  0.00000000E+00  0.00000000E+00
  0.00000000E+00  0.00000000E+00  0.00000000E+00
  0.00000000E+00  0.00000000E+00  0.00000000E+00
  0.00000000E+00  0.00000000E+00  0.00000000E+00
  0.00000000E+00  0.00000000E+00  0.00000000E+00
  0.00000000E+00  0.00000000E+00  0.00000000E+00
  0.00000000E+00  0.00000000E+00  0.00000000E+00
  0.00000000E+00  0.00000000E+00  0.00000000E+00
  0.00000000E+00  0.00000000E+00  0.00000000E+00
  0.00000000E+00  0.00000000E+00  0.00000000E+00
  0.00000000E+00  0.00000000E+00  0.00000000E+00
  0.00000000E+00  0.00000000E+00  0.00000000E+00
  0.00000000E+00  0.00000000E+00  0.00000000E+00
  0.00000000E+00  0.00000000E+00  0.00000000E+00
  0.00000000E+00  0.00000000E+00  0.00000000E+00
  0.00000000E+00  0.00000000E+00  0.00000000E+00
  0.00000000E+00  0.00000000E+00  0.00000000E+00
  0.00000000E+00  0.00000000E+00  0.00000000E+00
  0.00000000E+00  0.00000000E+00  0.00000000E+00
  0.00000000E+00  0.00000000E+00  0.00000000E+00
  0.00000000E+00  0.00000000E+00  0.00000000E+00
  0.00000000E+00  0.00000000E+00  0.00000000E+00
  0.00000000E+00  0.00000000E+00  0.00000000E+00
  0.00000000E+00  0.00000000E+00  0.00000000E+00
  0.00000000E+00  0.00000000E+00  0.00000000E+00
  0.00000000E+00  0.00000000E+00  0.00000000E+00
  0.00000000E+00  0.00000000E+00  0.00000000E+00
  0.00000000E+00  0.00000000E+00  0.00000000E+00
  0.00000000E+00  0.00000000E+00  0.00000000E+00
  0.00000000E+00  0.00000000E+00  0.00000000E+00
  0.00000000E+00  0.00000000E+00  0.00000000E+00
  0.00000000E+00  0.00000000E+00  0.00000000E+00
  0.00000000E+00  0.00000000E+00  0.00000000E+00
  0.00000000E+00  0.00000000E+00  0.00000000E+00
  0.00000000E+00  0.00000000E+00  0.00000000E+00
  0.00000000E+00  0.00000000E+00  0.00000000E+00
