CeO2-you-111-you-Cr                     
   1.00000000000000     
     9.9085620875199947   -5.7207113624688679   -0.0000000012287758
    -0.0356895872398439   11.3796045370747834   -0.0238566722640071
    -0.0247993610709349   -0.0429537462108752   20.4048002315136081
   O    Cr   Ce   H 
    53     1    26     2
Selective dynamics
Direct
  0.9998117748615981  0.0002791230410466  0.9893526113319309   T   T   T
  0.1108133925118224  0.2216678955749316  0.1458804773369948   F   F   F
  0.2477237760621911  0.1529745286264618  0.3153257773368597   T   T   T
  0.0615909430000118  0.1991095290337437  0.4013819730210560   T   T   T
  0.0105555341825481  0.0058058873498593  0.2320673383988126   T   T   T
  0.2215718631431827  0.1098107262825962  0.0702003869184153   F   F   F
  0.3340649199435670  0.0002782529282850  0.9889450713379561   T   T   T
  0.4441875030617481  0.2216678955720397  0.1458804773366467   F   F   F
  0.5531492335405904  0.1156804401435473  0.3069944549646728   T   T   T
  0.4738851137958776  0.1996966944030820  0.4149851467443073   T   T   T
  0.3288736061774684  0.0040110469383493  0.2318240107891958   T   T   T
  0.5565491378413654  0.1102725544289740  0.0717153901767347   F   F   F
  0.6663585393485399  0.9987796673367445  0.9896235871887548   T   T   T
  0.7785237023260052  0.2237134046536084  0.1518981427525077   F   F   F
  0.8850260325375761  0.1097486008786140  0.3033855113442184   T   T   T
  0.7774038985359515  0.2222877891044977  0.3891306082626858   T   T   T
  0.6641166534509877  0.0009811211667849  0.2297892659117791   T   T   T
  0.8870574165878509  0.1102725544306651  0.0717153901770189   F   F   F
  0.9989663865481485  0.3311822919436820  0.9889976429794786   T   T   T
  0.1084843522199819  0.5566799129237054  0.1467614120517382   F   F   F
  0.2449650799667773  0.4245423783016978  0.3157601126793124   T   T   T
  0.0996165750877290  0.5476155965865771  0.3881291559601549   T   T   T
  0.0111818009990681  0.3392976621706196  0.2317507167299112   T   T   T
  0.2212808762165324  0.4458712655818431  0.0701083616690568   F   F   F
  0.3332880919206661  0.3330597729366004  0.9901149797857115   T   T   T
  0.4448404482222799  0.5563488964446606  0.1463091228574456   F   F   F
  0.5137653412637668  0.4209919031644185  0.3182076567601766   T   T   T
  0.3345608517352064  0.3346875928846302  0.2232239651944471   T   T   T
  0.5579243893630661  0.4458712655817791  0.0701083616691989   F   F   F
  0.6658084857865206  0.3317158141261222  0.9889429892455495   T   T   T
  0.7815285607041389  0.5566799129226609  0.1467614120517879   F   F   F
  0.8875892672610712  0.4400478055071028  0.3053405065766192   T   T   T
  0.7805142528816359  0.5448639798389749  0.3885927896246413   T   T   T
  0.6627249256283739  0.3394908508341118  0.2319966626661659   T   T   T
  0.8877916035725377  0.4422492071510860  0.0701529017360301   F   F   F
  0.9995324396593774  0.6658431155391803  0.9885750554728546   T   T   T
  0.1104124594419247  0.8874919188797037  0.1471381804303746   F   F   F
  0.2197693447948124  0.7815409512961320  0.3069825672821382   T   T   T
  0.1203809813217387  0.8997270917040986  0.3890008010363594   T   T   T
  0.9992646791038421  0.6667053219086703  0.2305066782488558   T   T   T
  0.2225507958229329  0.7788477454057272  0.0705803378143699   F   F   F
  0.3343169363354620  0.6672517402157382  0.9893180874154737   T   T   T
  0.4420188700282850  0.8878209130594072  0.1506819469401037   F   F   F
  0.5571666639188907  0.7797698843879330  0.3060975814184921   T   T   T
  0.4482709043529219  0.9008763482825999  0.3904965465671495   T   T   T
  0.3266747719184888  0.6590115496600326  0.2297545226469976   T   T   T
  0.5563410629970704  0.7793481259919730  0.0724029539120821   F   F   F
  0.6666227276295074  0.6677305294909301  0.9894379816981346   T   T   T
  0.7791350430325608  0.8878209130604162  0.1506819469405869   F   F   F
  0.8961095371526837  0.7833770164305950  0.3089342485577873   T   T   T
  0.7818986991129394  0.9022901954165733  0.3921636713951038   T   T   T
  0.6658414102434544  0.6583877116551624  0.2300433715094371   T   T   T
  0.8896299495855473  0.7788477454060896  0.0705803378146044   F   F   F
  0.3344171391371089  0.3340656250045966  0.3132559756296409   T   T   T
 -0.0035557034424679  0.0056802754854118  0.3536105083476992   T   T   T
  0.2209474447326158  0.1085618894644966  0.1862448796660487   F   F   F
  0.1096553110793437  0.2209109108818836  0.0292365536845622   F   F   F
  0.3337057583639758 -0.0030441023845414  0.3513422401007733   T   T   T
  0.5543089166886404  0.1112599065291278  0.1906578673165527   F   F   F
  0.4445885998040495  0.2209109108814147  0.0292365536844486   F   F   F
  0.6650103849574142  0.9985357698806886  0.3486606774282648   T   T   T
  0.8902849898395999  0.1112599065278417  0.1906578673165953   F   F   F
  0.7770646466162177  0.2207952932327757  0.0306719268321416   F   F   F
  0.9975659064200424  0.3271007077777170  0.3523156031278986   T   T   T
  0.2202083629830796  0.4470581140036884  0.1843967176722145   F   F   F
  0.1095966715464840  0.5553055062442809  0.0296873826426136   F   F   F
  0.5601837510217962  0.4470581140051664  0.1843967176726764   F   F   F
  0.4452165841141351  0.5571011682284421  0.0294452279544046   F   F   F
  0.6734974954556329  0.3332717564834737  0.3504700089107827   T   T   T
  0.8886667091125133  0.4439994182230649  0.1915030036114800   F   F   F
  0.7790418346971038  0.5553055062445438  0.0296873826426847   F   F   F
  0.0009930267883305  0.6667088612575286  0.3474024462773587   T   T   T
  0.2219736718644825  0.7793847194075951  0.1903684733120912   F   F   F
  0.1108052284852192  0.8882774569686660  0.0294869141156440   F   F   F
  0.3327368911078000  0.6669117076212284  0.3532889112645888   T   T   T
  0.5546982200644237  0.7760624401284062  0.1920675471811109   F   F   F
  0.4445251251278108  0.8883199615303852  0.0313099846407994   F   F   F
  0.6696026388286069  0.6702357846596980  0.3534605636242317   T   T   T
  0.8907440475427535  0.7793847194075454  0.1903684733120699   F   F   F
  0.7771278364032170  0.8883199615306907  0.0313099846409131   F   F   F
  0.4677860774234556  0.6010488054196784  0.4138587717597793   T   T   T
  0.4417224175956924  0.2353316351170195  0.4495808035457107   T   T   T
 
  0.00000000E+00  0.00000000E+00  0.00000000E+00
  0.00000000E+00  0.00000000E+00  0.00000000E+00
  0.00000000E+00  0.00000000E+00  0.00000000E+00
  0.00000000E+00  0.00000000E+00  0.00000000E+00
  0.00000000E+00  0.00000000E+00  0.00000000E+00
  0.00000000E+00  0.00000000E+00  0.00000000E+00
  0.00000000E+00  0.00000000E+00  0.00000000E+00
  0.00000000E+00  0.00000000E+00  0.00000000E+00
  0.00000000E+00  0.00000000E+00  0.00000000E+00
  0.00000000E+00  0.00000000E+00  0.00000000E+00
  0.00000000E+00  0.00000000E+00  0.00000000E+00
  0.00000000E+00  0.00000000E+00  0.00000000E+00
  0.00000000E+00  0.00000000E+00  0.00000000E+00
  0.00000000E+00  0.00000000E+00  0.00000000E+00
  0.00000000E+00  0.00000000E+00  0.00000000E+00
  0.00000000E+00  0.00000000E+00  0.00000000E+00
  0.00000000E+00  0.00000000E+00  0.00000000E+00
  0.00000000E+00  0.00000000E+00  0.00000000E+00
  0.00000000E+00  0.00000000E+00  0.00000000E+00
  0.00000000E+00  0.00000000E+00  0.00000000E+00
  0.00000000E+00  0.00000000E+00  0.00000000E+00
  0.00000000E+00  0.00000000E+00  0.00000000E+00
  0.00000000E+00  0.00000000E+00  0.00000000E+00
  0.00000000E+00  0.00000000E+00  0.00000000E+00
  0.00000000E+00  0.00000000E+00  0.00000000E+00
  0.00000000E+00  0.00000000E+00  0.00000000E+00
  0.00000000E+00  0.00000000E+00  0.00000000E+00
  0.00000000E+00  0.00000000E+00  0.00000000E+00
  0.00000000E+00  0.00000000E+00  0.00000000E+00
  0.00000000E+00  0.00000000E+00  0.00000000E+00
  0.00000000E+00  0.00000000E+00  0.00000000E+00
  0.00000000E+00  0.00000000E+00  0.00000000E+00
  0.00000000E+00  0.00000000E+00  0.00000000E+00
  0.00000000E+00  0.00000000E+00  0.00000000E+00
  0.00000000E+00  0.00000000E+00  0.00000000E+00
  0.00000000E+00  0.00000000E+00  0.00000000E+00
  0.00000000E+00  0.00000000E+00  0.00000000E+00
  0.00000000E+00  0.00000000E+00  0.00000000E+00
  0.00000000E+00  0.00000000E+00  0.00000000E+00
  0.00000000E+00  0.00000000E+00  0.00000000E+00
  0.00000000E+00  0.00000000E+00  0.00000000E+00
  0.00000000E+00  0.00000000E+00  0.00000000E+00
  0.00000000E+00  0.00000000E+00  0.00000000E+00
  0.00000000E+00  0.00000000E+00  0.00000000E+00
  0.00000000E+00  0.00000000E+00  0.00000000E+00
  0.00000000E+00  0.00000000E+00  0.00000000E+00
  0.00000000E+00  0.00000000E+00  0.00000000E+00
  0.00000000E+00  0.00000000E+00  0.00000000E+00
  0.00000000E+00  0.00000000E+00  0.00000000E+00
  0.00000000E+00  0.00000000E+00  0.00000000E+00
  0.00000000E+00  0.00000000E+00  0.00000000E+00
  0.00000000E+00  0.00000000E+00  0.00000000E+00
  0.00000000E+00  0.00000000E+00  0.00000000E+00
  0.00000000E+00  0.00000000E+00  0.00000000E+00
  0.00000000E+00  0.00000000E+00  0.00000000E+00
  0.00000000E+00  0.00000000E+00  0.00000000E+00
  0.00000000E+00  0.00000000E+00  0.00000000E+00
  0.00000000E+00  0.00000000E+00  0.00000000E+00
  0.00000000E+00  0.00000000E+00  0.00000000E+00
  0.00000000E+00  0.00000000E+00  0.00000000E+00
  0.00000000E+00  0.00000000E+00  0.00000000E+00
  0.00000000E+00  0.00000000E+00  0.00000000E+00
  0.00000000E+00  0.00000000E+00  0.00000000E+00
  0.00000000E+00  0.00000000E+00  0.00000000E+00
  0.00000000E+00  0.00000000E+00  0.00000000E+00
  0.00000000E+00  0.00000000E+00  0.00000000E+00
  0.00000000E+00  0.00000000E+00  0.00000000E+00
  0.00000000E+00  0.00000000E+00  0.00000000E+00
  0.00000000E+00  0.00000000E+00  0.00000000E+00
  0.00000000E+00  0.00000000E+00  0.00000000E+00
  0.00000000E+00  0.00000000E+00  0.00000000E+00
  0.00000000E+00  0.00000000E+00  0.00000000E+00
  0.00000000E+00  0.00000000E+00  0.00000000E+00
  0.00000000E+00  0.00000000E+00  0.00000000E+00
  0.00000000E+00  0.00000000E+00  0.00000000E+00
  0.00000000E+00  0.00000000E+00  0.00000000E+00
  0.00000000E+00  0.00000000E+00  0.00000000E+00
  0.00000000E+00  0.00000000E+00  0.00000000E+00
  0.00000000E+00  0.00000000E+00  0.00000000E+00
  0.00000000E+00  0.00000000E+00  0.00000000E+00
  0.00000000E+00  0.00000000E+00  0.00000000E+00
  0.00000000E+00  0.00000000E+00  0.00000000E+00
