CeO2-you-111-you-Au                     
   1.00000000000000     
     9.8423850000000002   -5.6825039999999998    0.0000000000000000
     0.0000000000000000   11.3650059999999993    0.0000000000000000
     0.0000000000000000    0.0000000000000000   21.0000000000000000
   O    Au   Ce   H 
    53     1    26     2
Selective dynamics
Direct
 -0.0004878809629832  0.0001714548378044  0.9940931132828124   T   T   T
  0.1121142422053898  0.2233036513054728  0.1486509607185945   T   T   T
  0.2217494884127648  0.0911115126149670  0.3010192977182059   T   T   T
  0.1317958350770164  0.2366772030740486  0.3713238566503487   T   T   T
  0.0000665669833981  0.0006222551459661  0.2276200691499688   T   T   T
  0.2228626182935506  0.1117105461345921  0.0727072972295553   T   T   T
  0.3331901565301778  0.0000259852296614  0.9929467219341920   T   T   T
  0.4432688388804802  0.2236573023615285  0.1500312297096154   T   T   T
  0.5512872856235458  0.1064805548917446  0.3049318288641497   T   T   T
  0.4625635372073462  0.1769360336291420  0.4146706657802817   T   T   T
  0.3350790566477312  0.9960222829074565  0.2254119938594170   T   T   T
  0.5546613855069930  0.1127797496157915  0.0732429067155194   T   T   T
  0.6661925001805866  0.9992790371327055  0.9940248108454911   T   T   T
  0.7729248487849896  0.2196655596759787  0.1507788684772109   T   T   T
  0.8907917847533490  0.1096800111479119  0.3037129784668819   T   T   T
  0.7854827839438121  0.2130272506517234  0.3855050246434162   T   T   T
  0.6631364926511087  0.9915688486944525  0.2324562702916015   T   T   T
  0.8874458417924013  0.1107567324098584  0.0743907418357511   T   T   T
 -0.0016836914973555  0.3322822129979288  0.9943304228161421   T   T   T
  0.1101271954108077  0.5548869069421176  0.1485540446252321   T   T   T
  0.2104643498404882  0.4671359274194170  0.2982991263235513   T   T   T
  0.1102183389737476  0.5614614622979257  0.3882532352726701   T   T   T
 -0.0052276971867994  0.3294996149340726  0.2273612443104162   T   T   T
  0.2222187430245310  0.4450504165324960  0.0730697823193529   T   T   T
  0.3327888008328259  0.3335129127161142  0.9933425336085721   T   T   T
  0.4431766517674566  0.5537336118293864  0.1500004559009545   T   T   T
  0.5348500089503327  0.4492401216262857  0.3208309170745123   T   T   T
  0.3279969609633618  0.3327135886446770  0.2340311298518396   T   T   T
  0.5536201471542922  0.4440674524205493  0.0745793230570475   T   T   T
  0.6663289714510406  0.3339993167846671  0.9937752204909417   T   T   T
  0.7753217320030843  0.5546530992136578  0.1480469710353201   T   T   T
  0.8934496516007008  0.4477544113117873  0.3046330278119661   T   T   T
  0.7878471009123434  0.5725720362695437  0.3873175830719341   T   T   T
  0.6615725630111414  0.3385966572804617  0.2315976244051317   T   T   T
  0.8872789927608350  0.4427882141543413  0.0743852192858575   T   T   T
  0.9994167903726506  0.6651085036187503  0.9937093119992289   T   T   T
  0.1104214685686093  0.8899204197272952  0.1467134565602468   T   T   T
  0.2174842198609989  0.7767324080109599  0.3021040055593081   T   T   T
  0.1110140242240815  0.8880096422368752  0.3867760469152793   T   T   T
 -0.0011106511688516  0.6669534848259299  0.2267748998847902   T   T   T
  0.2224567320521977  0.7780385968940539  0.0726132706936808   T   T   T
  0.3333394218200391  0.6667041979226673  0.9935296487741797   T   T   T
  0.4492038771573075  0.8913679025267722  0.1463275363639152   T   T   T
  0.5468183868580823  0.7564569229068751  0.3132633396641805   T   T   T
  0.4386645903102880  0.8811254559451551  0.3830852958334657   T   T   T
  0.3391811209167913  0.6776634124727476  0.2262982075355126   T   T   T
  0.5552758090547707  0.7754515517378761  0.0736120838652858   T   T   T
  0.6663666120919910  0.6657383592758592  0.9932429393550163   T   T   T
  0.7763633627561131  0.8869412613432101  0.1484178312466962   T   T   T
  0.8955528808091342  0.7828229289232009  0.3019044496184117   T   T   T
  0.7834958590178109  0.8913943840083058  0.3838156399705244   T   T   T
  0.6687120775380753  0.6639172845126893  0.2303282359306697   T   T   T
  0.8885408323740196  0.7775734165972942  0.0722707145152506   T   T   T
  0.3345711358661902  0.3452747880148147  0.3440938299696429   T   T   T
  0.0105156378520340  0.0055998786298299  0.3411340267282501   T   T   T
  0.2228576523655930  0.1115292647339186  0.1898789533533697   T   T   T
  0.1107649171793896  0.2222917616367935  0.0343906839770805   T   T   T
  0.3307052329145825 -0.0054473915408852  0.3444202033399789   T   T   T
  0.5542866397563369  0.1108824196175437  0.1907477177198315   T   T   T
  0.4437531234142290  0.2224453863063903  0.0337682754897613   T   T   T
  0.6685157671715322 -0.0003832277930521  0.3452100941798050   T   T   T
  0.8881042823206398  0.1100631447352055  0.1891479647438034   T   T   T
  0.7764196506666228  0.2219819346931186  0.0347066079854528   T   T   T
  0.0001013776264399  0.3355925836801810  0.3416901006328682   T   T   T
  0.2201812978723863  0.4446884342662319  0.1893256259899163   T   T   T
  0.1100301118162867  0.5544605543664837  0.0335626976928606   T   T   T
  0.5509768714926423  0.4422240107766052  0.1903060192310503   T   T   T
  0.4437468157647395  0.5547798387862320  0.0333174100391715   T   T   T
  0.6666256396011482  0.3319063697267973  0.3514441215042303   T   T   T
  0.8857822993542412  0.4446924557226588  0.1900395342601182   T   T   T
  0.7764477596412878  0.5543106231897700  0.0338184813850008   T   T   T
  0.0002628460177512  0.6672732447646296  0.3455680263426422   T   T   T
  0.2219741357852312  0.7788261453458745  0.1853416637108110   T   T   T
  0.1114011673634402  0.8896585608641063  0.0324948050323602   T   T   T
  0.3206928887447063  0.6703208497796872  0.3397850866495116   T   T   T
  0.5552639369524325  0.7764231904499116  0.1881490320224919   T   T   T
  0.4449579363510290  0.8893853016282242  0.0333187619119261   T   T   T
  0.6859705679271091  0.6774038967146018  0.3421512275714144   T   T   T
  0.8900216825485397  0.7770378014365416  0.1864540212641144   T   T   T
  0.7769661206939692  0.8881771462915291  0.0334530376093865   T   T   T
  0.4232616435131767  0.2026426519627466  0.4492464280050422   T   T   T
  0.3613232443277157  0.3670783128907014  0.4164091499380554   T   T   T
 
  0.00000000E+00  0.00000000E+00  0.00000000E+00
  0.00000000E+00  0.00000000E+00  0.00000000E+00
  0.00000000E+00  0.00000000E+00  0.00000000E+00
  0.00000000E+00  0.00000000E+00  0.00000000E+00
  0.00000000E+00  0.00000000E+00  0.00000000E+00
  0.00000000E+00  0.00000000E+00  0.00000000E+00
  0.00000000E+00  0.00000000E+00  0.00000000E+00
  0.00000000E+00  0.00000000E+00  0.00000000E+00
  0.00000000E+00  0.00000000E+00  0.00000000E+00
  0.00000000E+00  0.00000000E+00  0.00000000E+00
  0.00000000E+00  0.00000000E+00  0.00000000E+00
  0.00000000E+00  0.00000000E+00  0.00000000E+00
  0.00000000E+00  0.00000000E+00  0.00000000E+00
  0.00000000E+00  0.00000000E+00  0.00000000E+00
  0.00000000E+00  0.00000000E+00  0.00000000E+00
  0.00000000E+00  0.00000000E+00  0.00000000E+00
  0.00000000E+00  0.00000000E+00  0.00000000E+00
  0.00000000E+00  0.00000000E+00  0.00000000E+00
  0.00000000E+00  0.00000000E+00  0.00000000E+00
  0.00000000E+00  0.00000000E+00  0.00000000E+00
  0.00000000E+00  0.00000000E+00  0.00000000E+00
  0.00000000E+00  0.00000000E+00  0.00000000E+00
  0.00000000E+00  0.00000000E+00  0.00000000E+00
  0.00000000E+00  0.00000000E+00  0.00000000E+00
  0.00000000E+00  0.00000000E+00  0.00000000E+00
  0.00000000E+00  0.00000000E+00  0.00000000E+00
  0.00000000E+00  0.00000000E+00  0.00000000E+00
  0.00000000E+00  0.00000000E+00  0.00000000E+00
  0.00000000E+00  0.00000000E+00  0.00000000E+00
  0.00000000E+00  0.00000000E+00  0.00000000E+00
  0.00000000E+00  0.00000000E+00  0.00000000E+00
  0.00000000E+00  0.00000000E+00  0.00000000E+00
  0.00000000E+00  0.00000000E+00  0.00000000E+00
  0.00000000E+00  0.00000000E+00  0.00000000E+00
  0.00000000E+00  0.00000000E+00  0.00000000E+00
  0.00000000E+00  0.00000000E+00  0.00000000E+00
  0.00000000E+00  0.00000000E+00  0.00000000E+00
  0.00000000E+00  0.00000000E+00  0.00000000E+00
  0.00000000E+00  0.00000000E+00  0.00000000E+00
  0.00000000E+00  0.00000000E+00  0.00000000E+00
  0.00000000E+00  0.00000000E+00  0.00000000E+00
  0.00000000E+00  0.00000000E+00  0.00000000E+00
  0.00000000E+00  0.00000000E+00  0.00000000E+00
  0.00000000E+00  0.00000000E+00  0.00000000E+00
  0.00000000E+00  0.00000000E+00  0.00000000E+00
  0.00000000E+00  0.00000000E+00  0.00000000E+00
  0.00000000E+00  0.00000000E+00  0.00000000E+00
  0.00000000E+00  0.00000000E+00  0.00000000E+00
  0.00000000E+00  0.00000000E+00  0.00000000E+00
  0.00000000E+00  0.00000000E+00  0.00000000E+00
  0.00000000E+00  0.00000000E+00  0.00000000E+00
  0.00000000E+00  0.00000000E+00  0.00000000E+00
  0.00000000E+00  0.00000000E+00  0.00000000E+00
  0.00000000E+00  0.00000000E+00  0.00000000E+00
  0.00000000E+00  0.00000000E+00  0.00000000E+00
  0.00000000E+00  0.00000000E+00  0.00000000E+00
  0.00000000E+00  0.00000000E+00  0.00000000E+00
  0.00000000E+00  0.00000000E+00  0.00000000E+00
  0.00000000E+00  0.00000000E+00  0.00000000E+00
  0.00000000E+00  0.00000000E+00  0.00000000E+00
  0.00000000E+00  0.00000000E+00  0.00000000E+00
  0.00000000E+00  0.00000000E+00  0.00000000E+00
  0.00000000E+00  0.00000000E+00  0.00000000E+00
  0.00000000E+00  0.00000000E+00  0.00000000E+00
  0.00000000E+00  0.00000000E+00  0.00000000E+00
  0.00000000E+00  0.00000000E+00  0.00000000E+00
  0.00000000E+00  0.00000000E+00  0.00000000E+00
  0.00000000E+00  0.00000000E+00  0.00000000E+00
  0.00000000E+00  0.00000000E+00  0.00000000E+00
  0.00000000E+00  0.00000000E+00  0.00000000E+00
  0.00000000E+00  0.00000000E+00  0.00000000E+00
  0.00000000E+00  0.00000000E+00  0.00000000E+00
  0.00000000E+00  0.00000000E+00  0.00000000E+00
  0.00000000E+00  0.00000000E+00  0.00000000E+00
  0.00000000E+00  0.00000000E+00  0.00000000E+00
  0.00000000E+00  0.00000000E+00  0.00000000E+00
  0.00000000E+00  0.00000000E+00  0.00000000E+00
  0.00000000E+00  0.00000000E+00  0.00000000E+00
  0.00000000E+00  0.00000000E+00  0.00000000E+00
  0.00000000E+00  0.00000000E+00  0.00000000E+00
  0.00000000E+00  0.00000000E+00  0.00000000E+00
  0.00000000E+00  0.00000000E+00  0.00000000E+00
