CeO2-you-111-you-Nb                     
   1.00000000000000     
     9.8470903888776320   -5.6852206576247255    0.0000000000000000
    -0.0000000001710843   11.3704393139969753    0.0000000000000000
     0.0000000000000000    0.0000000000000000   21.0541099874070383
   O    Nb   Ce   H 
    54     1    26     2
Selective dynamics
Direct
  0.0005888060102274  0.0001581419807403  0.9941532895096896   T   T   T
  0.1115383156049976  0.2224143224992624  0.1469709220286045   T   T   T
  0.2487553925309975  0.1453380486220914  0.3071609389282552   T   T   T
  0.1453537229747941  0.2520051895956175  0.3774661869023507   T   T   T
  0.0091875134606269  0.0033953097076654  0.2301955867725419   T   T   T
  0.2235899550527333  0.1108624136187539  0.0738343532435424   T   T   T
  0.3344253498954753  0.0002162504573710  0.9939893050442223   T   T   T
  0.4435423929834363  0.2233174921612602  0.1503901136555560   T   T   T
  0.5593018327429190  0.1069748768756521  0.3042570624983325   T   T   T
  0.4639334940815036  0.2036962441936228  0.4148988465222103   T   T   T
  0.3299557708490927  0.9994168736400310  0.2281645903197858   T   T   T
  0.5549955118047130  0.1112465096907185  0.0747138165083117   T   T   T
  0.6675178473974094 -0.0001694003570391  0.9948592734577121   T   T   T
  0.7765311252523681  0.2198642545119851  0.1496969103075661   T   T   T
  0.8972670164343539  0.1119287542065365  0.3041152049583216   T   T   T
  0.7916660361920114  0.2155278755991458  0.3861863351930248   T   T   T
  0.6701270163282861 -0.0027455206760913  0.2297553886120429   T   T   T
  0.8888833939456788  0.1092049106181465  0.0745700741460003   T   T   T
  0.9985241785829518  0.3313120746405795  0.9944879905939628   T   T   T
  0.1093232669934163  0.5574060318546564  0.1465360735916273   T   T   T
  0.2219980309993168  0.4442358126855525  0.2958831147721742   T   T   T
  0.1128000571364341  0.5533782141214405  0.3835378545833662   T   T   T
 -0.0014229926330396  0.3328880874570336  0.2268992294896282   T   T   T
  0.2219961047360465  0.4452725008614072  0.0713821305871101   T   T   T
  0.3339021593962442  0.3325340733633285  0.9941532677095144   T   T   T
  0.4442140950614545  0.5555882134677843  0.1470334388736926   T   T   T
  0.5208681567908301  0.4173952802380791  0.3071706231851488   T   T   T
  0.4143172582151404  0.5207262568052226  0.3772990849654305   T   T   T
  0.3267341872887244  0.3402472380800780  0.2284432363322793   T   T   T
  0.5558185146382282  0.4434780720730195  0.0738357789192952   T   T   T
  0.6663660415305345  0.3321714579955964  0.9940524520518148   T   T   T
  0.7775879088824468  0.5563157249309646  0.1481009658281817   T   T   T
  0.8940625555394017  0.4475873349575001  0.3040527237654252   T   T   T
  0.7779002819732384  0.5685067341065396  0.3824593683796259   T   T   T
  0.6669592689761211  0.3360797975354366  0.2279352209673536   T   T   T
  0.8874020067034561  0.4432022960252478  0.0735296763623127   T   T   T
  0.0015898327461659  0.6662339992615920  0.9936718814134754   T   T   T
  0.1106485142559010  0.8892510074295020  0.1477547162076427   T   T   T
  0.2191545825213846  0.7721771702465767  0.3042736709145686   T   T   T
  0.0976715034731259  0.8883762200775230  0.3824985043072922   T   T   T
 -0.0000243453839661  0.6673502707562747  0.2281170309239224   T   T   T
  0.2241397088654739  0.7790603887079008  0.0735329840014830   T   T   T
  0.3348711466915508  0.6677059072919517  0.9939141975004678   T   T   T
  0.4468458681163482  0.8900284534585818  0.1499220627777116   T   T   T
  0.5544091850744652  0.7692229945502822  0.3039911682034037   T   T   T
  0.4515714581386975  0.8750349962714062  0.3862827373982755   T   T   T
  0.3331837105829568  0.6674191116787418  0.2269938656462255   T   T   T
  0.5573153054032089  0.7781902615804571  0.0740467012009488   T   T   T
  0.6672984857469086  0.6659824568742225  0.9939852202225354   T   T   T
  0.7794604884361647  0.8867926419426302  0.1502393641380417   T   T   T
  0.8872996488231832  0.7789254573051048  0.3004241418079360   T   T   T
  0.7802416570903107  0.8857360259542245  0.3818935073438136   T   T   T
  0.6629543421071755  0.6575072188736364  0.2301920353316912   T   T   T
  0.8895314541463722  0.7775101053542280  0.0727283539405560   T   T   T
  0.3160389199444288  0.3502494018154177  0.3255905570789931   T   T   T
  0.0041267816709497  0.0011318985477102  0.3419827896369855   T   T   T
  0.2246052024755522  0.1117106106481538  0.1892366254355955   T   T   T
  0.1108823818955986  0.2207249479095657  0.0333145174478571   T   T   T
  0.3360660417707773  0.0002335316591857  0.3496285850712108   T   T   T
  0.5559891687331622  0.1106892749889957  0.1921301093685992   T   T   T
  0.4450984795253286  0.2217352537312736  0.0342049007110998   T   T   T
  0.6691155267935904 -0.0027325999542943  0.3447406642473965   T   T   T
  0.8903999229049645  0.1112812368438219  0.1888597683418994   T   T   T
  0.7772132635321459  0.2213137065146901  0.0349835653805577   T   T   T
 -0.0011588566894869  0.3347481174613191  0.3433186881888482   T   T   T
  0.2188360508713771  0.4477965942864880  0.1823407076644134   T   T   T
  0.1107143888990791  0.5563970568113272  0.0324283330344820   T   T   T
  0.5549071405143091  0.4421886121147173  0.1892136634731557   T   T   T
  0.4459959142436128  0.5559072513110368  0.0331017733879204   T   T   T
  0.6662796879116261  0.3304805323310347  0.3495042297418006   T   T   T
  0.8865344142890309  0.4434462205816624  0.1890572766942431   T   T   T
  0.7776487063349690  0.5543992776077147  0.0339834506244497   T   T   T
 -0.0012277171485917  0.6674638342493208  0.3416991995541583   T   T   T
  0.2232851767646247  0.7800661049847041  0.1890686223469164   T   T   T
  0.1127726804292807  0.8893182364309672  0.0340185738593922   T   T   T
  0.3314713788075869  0.6674096383799643  0.3433329397159617   T   T   T
  0.5553098441929698  0.7763108136392091  0.1888689502173409   T   T   T
  0.4456109102085122  0.8895969254009519  0.0347530819416118   T   T   T
  0.6652875560567184  0.6623289528832015  0.3419873142921412   T   T   T
  0.8899764372076581  0.7767998663804605  0.1881349109105289   T   T   T
  0.7785640236685527  0.8884819208707126  0.0342879579778853   T   T   T
  0.3096247694015580  0.3554130813326866  0.4849766430975350   T   T   T
  0.4352886836021191  0.2309802644782381  0.4528950277111239   T   T   T
 
  0.00000000E+00  0.00000000E+00  0.00000000E+00
  0.00000000E+00  0.00000000E+00  0.00000000E+00
  0.00000000E+00  0.00000000E+00  0.00000000E+00
  0.00000000E+00  0.00000000E+00  0.00000000E+00
  0.00000000E+00  0.00000000E+00  0.00000000E+00
  0.00000000E+00  0.00000000E+00  0.00000000E+00
  0.00000000E+00  0.00000000E+00  0.00000000E+00
  0.00000000E+00  0.00000000E+00  0.00000000E+00
  0.00000000E+00  0.00000000E+00  0.00000000E+00
  0.00000000E+00  0.00000000E+00  0.00000000E+00
  0.00000000E+00  0.00000000E+00  0.00000000E+00
  0.00000000E+00  0.00000000E+00  0.00000000E+00
  0.00000000E+00  0.00000000E+00  0.00000000E+00
  0.00000000E+00  0.00000000E+00  0.00000000E+00
  0.00000000E+00  0.00000000E+00  0.00000000E+00
  0.00000000E+00  0.00000000E+00  0.00000000E+00
  0.00000000E+00  0.00000000E+00  0.00000000E+00
  0.00000000E+00  0.00000000E+00  0.00000000E+00
  0.00000000E+00  0.00000000E+00  0.00000000E+00
  0.00000000E+00  0.00000000E+00  0.00000000E+00
  0.00000000E+00  0.00000000E+00  0.00000000E+00
  0.00000000E+00  0.00000000E+00  0.00000000E+00
  0.00000000E+00  0.00000000E+00  0.00000000E+00
  0.00000000E+00  0.00000000E+00  0.00000000E+00
  0.00000000E+00  0.00000000E+00  0.00000000E+00
  0.00000000E+00  0.00000000E+00  0.00000000E+00
  0.00000000E+00  0.00000000E+00  0.00000000E+00
  0.00000000E+00  0.00000000E+00  0.00000000E+00
  0.00000000E+00  0.00000000E+00  0.00000000E+00
  0.00000000E+00  0.00000000E+00  0.00000000E+00
  0.00000000E+00  0.00000000E+00  0.00000000E+00
  0.00000000E+00  0.00000000E+00  0.00000000E+00
  0.00000000E+00  0.00000000E+00  0.00000000E+00
  0.00000000E+00  0.00000000E+00  0.00000000E+00
  0.00000000E+00  0.00000000E+00  0.00000000E+00
  0.00000000E+00  0.00000000E+00  0.00000000E+00
  0.00000000E+00  0.00000000E+00  0.00000000E+00
  0.00000000E+00  0.00000000E+00  0.00000000E+00
  0.00000000E+00  0.00000000E+00  0.00000000E+00
  0.00000000E+00  0.00000000E+00  0.00000000E+00
  0.00000000E+00  0.00000000E+00  0.00000000E+00
  0.00000000E+00  0.00000000E+00  0.00000000E+00
  0.00000000E+00  0.00000000E+00  0.00000000E+00
  0.00000000E+00  0.00000000E+00  0.00000000E+00
  0.00000000E+00  0.00000000E+00  0.00000000E+00
  0.00000000E+00  0.00000000E+00  0.00000000E+00
  0.00000000E+00  0.00000000E+00  0.00000000E+00
  0.00000000E+00  0.00000000E+00  0.00000000E+00
  0.00000000E+00  0.00000000E+00  0.00000000E+00
  0.00000000E+00  0.00000000E+00  0.00000000E+00
  0.00000000E+00  0.00000000E+00  0.00000000E+00
  0.00000000E+00  0.00000000E+00  0.00000000E+00
  0.00000000E+00  0.00000000E+00  0.00000000E+00
  0.00000000E+00  0.00000000E+00  0.00000000E+00
  0.00000000E+00  0.00000000E+00  0.00000000E+00
  0.00000000E+00  0.00000000E+00  0.00000000E+00
  0.00000000E+00  0.00000000E+00  0.00000000E+00
  0.00000000E+00  0.00000000E+00  0.00000000E+00
  0.00000000E+00  0.00000000E+00  0.00000000E+00
  0.00000000E+00  0.00000000E+00  0.00000000E+00
  0.00000000E+00  0.00000000E+00  0.00000000E+00
  0.00000000E+00  0.00000000E+00  0.00000000E+00
  0.00000000E+00  0.00000000E+00  0.00000000E+00
  0.00000000E+00  0.00000000E+00  0.00000000E+00
  0.00000000E+00  0.00000000E+00  0.00000000E+00
  0.00000000E+00  0.00000000E+00  0.00000000E+00
  0.00000000E+00  0.00000000E+00  0.00000000E+00
  0.00000000E+00  0.00000000E+00  0.00000000E+00
  0.00000000E+00  0.00000000E+00  0.00000000E+00
  0.00000000E+00  0.00000000E+00  0.00000000E+00
  0.00000000E+00  0.00000000E+00  0.00000000E+00
  0.00000000E+00  0.00000000E+00  0.00000000E+00
  0.00000000E+00  0.00000000E+00  0.00000000E+00
  0.00000000E+00  0.00000000E+00  0.00000000E+00
  0.00000000E+00  0.00000000E+00  0.00000000E+00
  0.00000000E+00  0.00000000E+00  0.00000000E+00
  0.00000000E+00  0.00000000E+00  0.00000000E+00
  0.00000000E+00  0.00000000E+00  0.00000000E+00
  0.00000000E+00  0.00000000E+00  0.00000000E+00
  0.00000000E+00  0.00000000E+00  0.00000000E+00
  0.00000000E+00  0.00000000E+00  0.00000000E+00
  0.00000000E+00  0.00000000E+00  0.00000000E+00
  0.00000000E+00  0.00000000E+00  0.00000000E+00
