CeO2-you-111-you-Mo                     
   1.00000000000000     
     9.9059185507015428   -5.7212532296641152   -0.0230118922262670
    -0.0017910490466321   11.4394022578460159    0.0230118882484359
    -0.0263015096193510    0.0455555481336310   19.9394090318852939
   O    Mo   Ce   H 
    53     1    26     1
Selective dynamics
Direct
  0.9991992891954155  0.0002660821955101  0.9845639624409251   T   T   T
  0.1181019350310951  0.2237774559166209  0.1447748507478818   T   T   T
  0.2508501161002539  0.1336590881537048  0.3068920999686716   T   T   T
  0.1686040802632240  0.2605753973641696  0.3819318611790327   T   T   T
  0.0086035892309568  0.0014207925417870  0.2309920635204132   T   T   T
  0.2218685225721130  0.1084407382079437  0.0669472504056212   T   T   T
  0.3360317819820752  0.0019196339825310  0.9855447938867663   T   T   T
  0.4372933284479431  0.2299122992504721  0.1509322663242488   T   T   T
  0.5578994180938810  0.1093003370139901  0.3091872317596142   T   T   T
  0.4206441712001698  0.2430705743121171  0.4108302794486764   T   T   T
  0.3324535607222024  0.9983847927264456  0.2266735286193982   T   T   T
  0.5526223894715591  0.1121160377416736  0.0733499839105408   T   T   T
  0.6654049773665498  0.0019575730383495  0.9883205767514676   T   T   T
  0.7844308265556746  0.2232883859266754  0.1489353814038056   T   T   T
  0.8969589349208532  0.1067189944011532  0.3094214619073740   T   T   T
  0.7786477913088249  0.2070592933902451  0.3998576717357465   T   T   T
  0.6712313756334146  0.0005272964076695  0.2302368361458864   T   T   T
  0.8906736637897338  0.1096724386555895  0.0695137470642914   T   T   T
  0.9958918084681688  0.3311032046935837  0.9849021005638594   T   T   T
  0.1091055267853475  0.5578677950102596  0.1420911965002755   T   T   T
  0.1085789802027993  0.5587180528765506  0.3953927238075909   T   T   T
  0.0167973680262756  0.3414492353536869  0.2321327575163091   T   T   T
  0.2206203063937678  0.4456755039977469  0.0627496529833682   T   T   T
  0.3333390119998280  0.3322937978548178  0.9849603903987935   T   T   T
  0.4415573127990923  0.5485914701166200  0.1452358475207506   T   T   T
  0.5286924371794293  0.4077182651172982  0.3089042035596454   T   T   T
  0.3950063597830444  0.4940754154852626  0.3805126647924684   T   T   T
  0.3087007097640130  0.3573927145036373  0.2509824331070362   T   T   T
  0.5579228300264005  0.4457152972919297  0.0671041248860610   T   T   T
  0.6641167522144613  0.3302106806903899  0.9856646054307022   T   T   T
  0.7777713484730397  0.5555418110786199  0.1460516615811744   T   T   T
  0.8905082296575485  0.4433500798116323  0.3073630857037586   T   T   T
  0.7920198586561111  0.5606823276393297  0.3966468240266462   T   T   T
  0.6689141461353796  0.3344666866453304  0.2267258877255083   T   T   T
  0.8876531612154928  0.4453930356048809  0.0666933066770027   T   T   T
  0.9997116912028475  0.6674572165947261  0.9827290719932446   T   T   T
  0.1102750270721168  0.8883031402063513  0.1459017242494403   T   T   T
  0.2211835124356395  0.7791378228708663  0.3084325737824464   T   T   T
  0.1006080600930773  0.8903299146387171  0.3940376420879910   T   T   T
  0.0004773890987030  0.6651723614367177  0.2288150263206210   T   T   T
  0.2220989430517640  0.7790670351900223  0.0670441593794703   T   T   T
  0.3355169659089473  0.6705990286636886  0.9847742508504708   T   T   T
  0.4432923760740355  0.8817310331091505  0.1505244232681312   T   T   T
  0.5597554646976183  0.7787487707884512  0.3096689166561761   T   T   T
  0.4600605959270749  0.8931418745902493  0.4010527963706600   T   T   T
  0.3233712779109777  0.6490452140434848  0.2331908612140076   T   T   T
  0.5566578370063886  0.7766017563289747  0.0700558047581411   T   T   T
  0.6659625525754571  0.6682545032921171  0.9844471233208221   T   T   T
  0.7794305618594113  0.8872196492272613  0.1497667839582018   T   T   T
  0.8911102930723679  0.7790500759425676  0.3059781997340577   T   T   T
  0.7912878636284834  0.8948778818241163  0.3960746050306425   T   T   T
  0.6632112316422273  0.6563929470906381  0.2309887196539097   T   T   T
  0.8885602474280121  0.7767438635823631  0.0671282171461341   T   T   T
  0.3375746930761460  0.3271750830732904  0.3400976542213386   T   T   T
  0.9982826285953947  0.9911150710406204  0.3498024782015976   T   T   T
  0.2207901769081656  0.1052503099334316  0.1876495181405710   T   T   T
  0.1095476440542027  0.2197424841722278  0.0247141913766387   T   T   T
  0.3350337745016383  0.9953456313091665  0.3550556515687049   T   T   T
  0.5570013587046441  0.1103196384536438  0.1930281480011578   T   T   T
  0.4441004211689913  0.2222367093659573  0.0271923830195609   T   T   T
  0.6705519091482409  0.9978390293881571  0.3538804906966454   T   T   T
  0.8930235277019016  0.1119771796747674  0.1913064956737384   T   T   T
  0.7773325105265787  0.2222796046218854  0.0290212830284958   T   T   T
  0.9946902887330220  0.3317140675628997  0.3580342327901058   T   T   T
  0.2176294182125470  0.4490611648157787  0.1773147645448724   T   T   T
  0.1090183166050614  0.5576397496433559  0.0229334731327218   T   T   T
  0.5609485516979915  0.4459704798252428  0.1881118889876315   T   T   T
  0.4467037184717118  0.5575699710087942  0.0251739457348840   T   T   T
  0.6764876021576823  0.3326432584148119  0.3560978002679694   T   T   T
  0.8898141075379055  0.4436676390359175  0.1901264941896257   T   T   T
  0.7771150376013518  0.5550033731566510  0.0258630363638737   T   T   T
  0.0000655855309371  0.6631988109983070  0.3520182761624809   T   T   T
  0.2223956661927747  0.7767815338121916  0.1905529141076462   T   T   T
  0.1116916340635146  0.8891294255150117  0.0258048657769113   T   T   T
  0.3361700326895171  0.6777452483889964  0.3581569372322796   T   T   T
  0.5550206490640817  0.7743221680196236  0.1931395723142847   T   T   T
  0.4443012893753718  0.8891227667584792  0.0295347867289828   T   T   T
  0.6725777466422694  0.6642483675536871  0.3538673660109266   T   T   T
  0.8894257625995410  0.7754420119435907  0.1884033497797928   T   T   T
  0.7771904022374871  0.8888891892060993  0.0288836240486400   T   T   T
  0.3986037558500389  0.2519593588887213  0.4569381641221327   T   T   T
 
  0.00000000E+00  0.00000000E+00  0.00000000E+00
  0.00000000E+00  0.00000000E+00  0.00000000E+00
  0.00000000E+00  0.00000000E+00  0.00000000E+00
  0.00000000E+00  0.00000000E+00  0.00000000E+00
  0.00000000E+00  0.00000000E+00  0.00000000E+00
  0.00000000E+00  0.00000000E+00  0.00000000E+00
  0.00000000E+00  0.00000000E+00  0.00000000E+00
  0.00000000E+00  0.00000000E+00  0.00000000E+00
  0.00000000E+00  0.00000000E+00  0.00000000E+00
  0.00000000E+00  0.00000000E+00  0.00000000E+00
  0.00000000E+00  0.00000000E+00  0.00000000E+00
  0.00000000E+00  0.00000000E+00  0.00000000E+00
  0.00000000E+00  0.00000000E+00  0.00000000E+00
  0.00000000E+00  0.00000000E+00  0.00000000E+00
  0.00000000E+00  0.00000000E+00  0.00000000E+00
  0.00000000E+00  0.00000000E+00  0.00000000E+00
  0.00000000E+00  0.00000000E+00  0.00000000E+00
  0.00000000E+00  0.00000000E+00  0.00000000E+00
  0.00000000E+00  0.00000000E+00  0.00000000E+00
  0.00000000E+00  0.00000000E+00  0.00000000E+00
  0.00000000E+00  0.00000000E+00  0.00000000E+00
  0.00000000E+00  0.00000000E+00  0.00000000E+00
  0.00000000E+00  0.00000000E+00  0.00000000E+00
  0.00000000E+00  0.00000000E+00  0.00000000E+00
  0.00000000E+00  0.00000000E+00  0.00000000E+00
  0.00000000E+00  0.00000000E+00  0.00000000E+00
  0.00000000E+00  0.00000000E+00  0.00000000E+00
  0.00000000E+00  0.00000000E+00  0.00000000E+00
  0.00000000E+00  0.00000000E+00  0.00000000E+00
  0.00000000E+00  0.00000000E+00  0.00000000E+00
  0.00000000E+00  0.00000000E+00  0.00000000E+00
  0.00000000E+00  0.00000000E+00  0.00000000E+00
  0.00000000E+00  0.00000000E+00  0.00000000E+00
  0.00000000E+00  0.00000000E+00  0.00000000E+00
  0.00000000E+00  0.00000000E+00  0.00000000E+00
  0.00000000E+00  0.00000000E+00  0.00000000E+00
  0.00000000E+00  0.00000000E+00  0.00000000E+00
  0.00000000E+00  0.00000000E+00  0.00000000E+00
  0.00000000E+00  0.00000000E+00  0.00000000E+00
  0.00000000E+00  0.00000000E+00  0.00000000E+00
  0.00000000E+00  0.00000000E+00  0.00000000E+00
  0.00000000E+00  0.00000000E+00  0.00000000E+00
  0.00000000E+00  0.00000000E+00  0.00000000E+00
  0.00000000E+00  0.00000000E+00  0.00000000E+00
  0.00000000E+00  0.00000000E+00  0.00000000E+00
  0.00000000E+00  0.00000000E+00  0.00000000E+00
  0.00000000E+00  0.00000000E+00  0.00000000E+00
  0.00000000E+00  0.00000000E+00  0.00000000E+00
  0.00000000E+00  0.00000000E+00  0.00000000E+00
  0.00000000E+00  0.00000000E+00  0.00000000E+00
  0.00000000E+00  0.00000000E+00  0.00000000E+00
  0.00000000E+00  0.00000000E+00  0.00000000E+00
  0.00000000E+00  0.00000000E+00  0.00000000E+00
  0.00000000E+00  0.00000000E+00  0.00000000E+00
  0.00000000E+00  0.00000000E+00  0.00000000E+00
  0.00000000E+00  0.00000000E+00  0.00000000E+00
  0.00000000E+00  0.00000000E+00  0.00000000E+00
  0.00000000E+00  0.00000000E+00  0.00000000E+00
  0.00000000E+00  0.00000000E+00  0.00000000E+00
  0.00000000E+00  0.00000000E+00  0.00000000E+00
  0.00000000E+00  0.00000000E+00  0.00000000E+00
  0.00000000E+00  0.00000000E+00  0.00000000E+00
  0.00000000E+00  0.00000000E+00  0.00000000E+00
  0.00000000E+00  0.00000000E+00  0.00000000E+00
  0.00000000E+00  0.00000000E+00  0.00000000E+00
  0.00000000E+00  0.00000000E+00  0.00000000E+00
  0.00000000E+00  0.00000000E+00  0.00000000E+00
  0.00000000E+00  0.00000000E+00  0.00000000E+00
  0.00000000E+00  0.00000000E+00  0.00000000E+00
  0.00000000E+00  0.00000000E+00  0.00000000E+00
  0.00000000E+00  0.00000000E+00  0.00000000E+00
  0.00000000E+00  0.00000000E+00  0.00000000E+00
  0.00000000E+00  0.00000000E+00  0.00000000E+00
  0.00000000E+00  0.00000000E+00  0.00000000E+00
  0.00000000E+00  0.00000000E+00  0.00000000E+00
  0.00000000E+00  0.00000000E+00  0.00000000E+00
  0.00000000E+00  0.00000000E+00  0.00000000E+00
  0.00000000E+00  0.00000000E+00  0.00000000E+00
  0.00000000E+00  0.00000000E+00  0.00000000E+00
  0.00000000E+00  0.00000000E+00  0.00000000E+00
  0.00000000E+00  0.00000000E+00  0.00000000E+00
