CeO2-you-111-you-Ce                     
   1.00000000000000     
     9.8446160961585392   -5.6837921239532694   -0.0000000000000000
    -0.0000000001922008   11.3675822471202714   -0.0000000000000000
    -0.0000000000000000   -0.0000000000000000   21.3038601004774790
   O    Ce   Ce
    54     1    26
Selective dynamics
Direct
 -0.0000064044757005 -0.0000007881159425  0.9979070523254274   T   T   T
  0.1111111652554596  0.2222220826277347  0.1501494177078019   T   T   T
  0.2228487436684690  0.1123644873368320  0.3031823562497142   T   T   T
  0.1118703136144554  0.2226016568071551  0.3807317270929882   T   T   T
  0.0001410197434060  0.0000793316594718  0.2290232501284543   T   T   T
  0.2221880310104553  0.1110430620209144  0.0763119210027995   T   T   T
  0.3333386163597614 -0.0000007881159421  0.9979070523254274   T   T   T
  0.4444439173722712  0.2222220826277377  0.1501494177078019   T   T   T
  0.5555105324637865  0.1111564675362001  0.3029405332094315   T   T   T
  0.4440643431926958  0.2226016568070893  0.3807317270929882   T   T   T
  0.3332713119160710  0.0000793316594651  0.2290232501284543   T   T   T
  0.5555162333003585  0.1111507666996206  0.0763095763333837   T   T   T
  0.6666669999999968  0.0000000000000000  0.9980230143464695   T   T   T
  0.7777741031144602  0.2222142062289272  0.1501592476898393   T   T   T
  0.8889799350724198  0.1111564675362054  0.3029405332094315   T   T   T
  0.7778161070245670  0.2222982140491385  0.3810931826133110   T   T   T
  0.6666669999999968 -0.0000000000000000  0.2289939565583063   T   T   T
  0.8889685333992704  0.1111507666996282  0.0763095763333837   T   T   T
 -0.0000064044756999  0.3333273836402462  0.9979070523254274   T   T   T
  0.1111227128855833  0.5555442871144260  0.1501555836410774   T   T   T
  0.2228487436687005  0.4438172563316330  0.3031823562497142   T   T   T
  0.1111972038779068  0.5554697961221193  0.3810440393189473   T   T   T
  0.0001410197434104  0.3333946880839221  0.2290232501284543   T   T   T
  0.2221880310104392  0.4444779689895370  0.0763119210027995   T   T   T
  0.3333330000000032  0.3333330000000032  0.9980190970330522   T   T   T
  0.4444439173722646  0.5555558347445347  0.1501494177078019   T   T   T
  0.5543025126628376  0.4438172563315304  0.3031823562497142   T   T   T
  0.4440643431928442  0.5547966863857626  0.3807317270929882   T   T   T
  0.3333330000000032  0.3333330000000032  0.2289785804354542   T   T   T
  0.5556239379791127  0.4444779689895441  0.0763119210027995   T   T   T
  0.6666677881159394  0.3333273836402463  0.9979070523254274   T   T   T
  0.7777545742288372  0.5555442871144244  0.1501555836410774   T   T   T
  0.8888485916251936  0.4443631832503914  0.3029257428595437   T   T   T
  0.7776055922442017  0.5554697961221123  0.3810440393189473   T   T   T
  0.6665876683405033  0.3333946880839135  0.2290232501284543   T   T   T
  0.8888438432228658  0.4443536864457392  0.0763062132218203   T   T   T
  0.0000000000000000  0.6666669999999968  0.9980248700369270   T   T   T
  0.1111227128855795  0.8889124257711541  0.1501555836410774   T   T   T
  0.2223028167496241  0.7778184083748032  0.3029257428595437   T   T   T
  0.1111972038778914  0.8890614077557727  0.3810440393189473   T   T   T
  0.0000000000000000  0.6666669999999968  0.2289975276905796   T   T   T
  0.2223123135542877  0.7778231567771310  0.0763062132218203   T   T   T
  0.3333386163597611  0.6666734044756961  0.9979070523254274   T   T   T
  0.4444517937710735  0.8888928968855366  0.1501592476898393   T   T   T
  0.5555105324637984  0.7776870649275945  0.3029405332094315   T   T   T
  0.4443677859508544  0.8888508929754297  0.3810931826133110   T   T   T
  0.3332713119160906  0.6665259802566149  0.2290232501284543   T   T   T
  0.5555162333003756  0.7776984666007510  0.0763095763333837   T   T   T
  0.6666677881159385  0.6666734044756959  0.9979070523254274   T   T   T
  0.7777741031144593  0.8888928968855361  0.1501592476898393   T   T   T
  0.8888485916251825  0.7778184083747981  0.3029257428595437   T   T   T
  0.7778161070245715  0.8888508929754317  0.3810931826133110   T   T   T
  0.6665876683405186  0.6665259802566128  0.2290232501284543   T   T   T
  0.8888438432228466  0.7778231567771225  0.0763062132218203   T   T   T
  0.3333330000000032  0.3333330000000032  0.3419222241881142   T   T   T
  0.0001962699475521  0.0002286784203920  0.3420256775932805   T   T   T
  0.2223370400937287  0.1113410801874330  0.1896887479266903   T   T   T
  0.1111042861730701  0.2222186430865370  0.0371192550133298   T   T   T
  0.3333654084728583  0.0002286784203825  0.3420256775932805   T   T   T
  0.5555485966658040  0.1111184033341962  0.1895963452040197   T   T   T
  0.4444473569134631  0.2222186430865374  0.0371192550133298   T   T   T
  0.6666669999999968  0.0000000000000000  0.3420348548962394   T   T   T
  0.8889038066683940  0.1111184033341974  0.1895963452040197   T   T   T
  0.7777899362442564  0.2222458724885179  0.0371184524554335   T   T   T
  0.0001962699475862  0.3333005915271418  0.3420256775932805   T   T   T
  0.2223370400937765  0.4443289599062918  0.1896887479266903   T   T   T
  0.1111280727691486  0.5555389272308562  0.0371338505831789   T   T   T
  0.5553259198125020  0.4443289599062706  0.1896887479266903   T   T   T
  0.4444473569134623  0.5555627138269327  0.0371192550133298   T   T   T
  0.6664383215795341  0.3333005915271171  0.3420256775932805   T   T   T
  0.8889042904636902  0.4444745809273782  0.1895913490184618   T   T   T
  0.7777438544617036  0.5555389272308560  0.0371338505831789   T   T   T
 -0.0000000000000000  0.6666669999999968  0.3419833711066772   T   T   T
  0.2221914190726156  0.7777627095363066  0.1895913490184618   T   T   T
  0.1111280727691480  0.8889231455382924  0.0371338505831789   T   T   T
  0.3333654084729138  0.6664707300524909  0.3420256775932805   T   T   T
  0.5555485966658065  0.7777631933316065  0.1895963452040197   T   T   T
  0.4444201275114781  0.8888770637557404  0.0371184524554335   T   T   T
  0.6664383215795555  0.6664707300524758  0.3420256775932805   T   T   T
  0.8889042904636941  0.7777627095363082  0.1895913490184618   T   T   T
  0.7777899362442587  0.8888770637557415  0.0371184524554335   T   T   T
 
  0.00000000E+00  0.00000000E+00  0.00000000E+00
  0.00000000E+00  0.00000000E+00  0.00000000E+00
  0.00000000E+00  0.00000000E+00  0.00000000E+00
  0.00000000E+00  0.00000000E+00  0.00000000E+00
  0.00000000E+00  0.00000000E+00  0.00000000E+00
  0.00000000E+00  0.00000000E+00  0.00000000E+00
  0.00000000E+00  0.00000000E+00  0.00000000E+00
  0.00000000E+00  0.00000000E+00  0.00000000E+00
  0.00000000E+00  0.00000000E+00  0.00000000E+00
  0.00000000E+00  0.00000000E+00  0.00000000E+00
  0.00000000E+00  0.00000000E+00  0.00000000E+00
  0.00000000E+00  0.00000000E+00  0.00000000E+00
  0.00000000E+00  0.00000000E+00  0.00000000E+00
  0.00000000E+00  0.00000000E+00  0.00000000E+00
  0.00000000E+00  0.00000000E+00  0.00000000E+00
  0.00000000E+00  0.00000000E+00  0.00000000E+00
  0.00000000E+00  0.00000000E+00  0.00000000E+00
  0.00000000E+00  0.00000000E+00  0.00000000E+00
  0.00000000E+00  0.00000000E+00  0.00000000E+00
  0.00000000E+00  0.00000000E+00  0.00000000E+00
  0.00000000E+00  0.00000000E+00  0.00000000E+00
  0.00000000E+00  0.00000000E+00  0.00000000E+00
  0.00000000E+00  0.00000000E+00  0.00000000E+00
  0.00000000E+00  0.00000000E+00  0.00000000E+00
  0.00000000E+00  0.00000000E+00  0.00000000E+00
  0.00000000E+00  0.00000000E+00  0.00000000E+00
  0.00000000E+00  0.00000000E+00  0.00000000E+00
  0.00000000E+00  0.00000000E+00  0.00000000E+00
  0.00000000E+00  0.00000000E+00  0.00000000E+00
  0.00000000E+00  0.00000000E+00  0.00000000E+00
  0.00000000E+00  0.00000000E+00  0.00000000E+00
  0.00000000E+00  0.00000000E+00  0.00000000E+00
  0.00000000E+00  0.00000000E+00  0.00000000E+00
  0.00000000E+00  0.00000000E+00  0.00000000E+00
  0.00000000E+00  0.00000000E+00  0.00000000E+00
  0.00000000E+00  0.00000000E+00  0.00000000E+00
  0.00000000E+00  0.00000000E+00  0.00000000E+00
  0.00000000E+00  0.00000000E+00  0.00000000E+00
  0.00000000E+00  0.00000000E+00  0.00000000E+00
  0.00000000E+00  0.00000000E+00  0.00000000E+00
  0.00000000E+00  0.00000000E+00  0.00000000E+00
  0.00000000E+00  0.00000000E+00  0.00000000E+00
  0.00000000E+00  0.00000000E+00  0.00000000E+00
  0.00000000E+00  0.00000000E+00  0.00000000E+00
  0.00000000E+00  0.00000000E+00  0.00000000E+00
  0.00000000E+00  0.00000000E+00  0.00000000E+00
  0.00000000E+00  0.00000000E+00  0.00000000E+00
  0.00000000E+00  0.00000000E+00  0.00000000E+00
  0.00000000E+00  0.00000000E+00  0.00000000E+00
  0.00000000E+00  0.00000000E+00  0.00000000E+00
  0.00000000E+00  0.00000000E+00  0.00000000E+00
  0.00000000E+00  0.00000000E+00  0.00000000E+00
  0.00000000E+00  0.00000000E+00  0.00000000E+00
  0.00000000E+00  0.00000000E+00  0.00000000E+00
  0.00000000E+00  0.00000000E+00  0.00000000E+00
  0.00000000E+00  0.00000000E+00  0.00000000E+00
  0.00000000E+00  0.00000000E+00  0.00000000E+00
  0.00000000E+00  0.00000000E+00  0.00000000E+00
  0.00000000E+00  0.00000000E+00  0.00000000E+00
  0.00000000E+00  0.00000000E+00  0.00000000E+00
  0.00000000E+00  0.00000000E+00  0.00000000E+00
  0.00000000E+00  0.00000000E+00  0.00000000E+00
  0.00000000E+00  0.00000000E+00  0.00000000E+00
  0.00000000E+00  0.00000000E+00  0.00000000E+00
  0.00000000E+00  0.00000000E+00  0.00000000E+00
  0.00000000E+00  0.00000000E+00  0.00000000E+00
  0.00000000E+00  0.00000000E+00  0.00000000E+00
  0.00000000E+00  0.00000000E+00  0.00000000E+00
  0.00000000E+00  0.00000000E+00  0.00000000E+00
  0.00000000E+00  0.00000000E+00  0.00000000E+00
  0.00000000E+00  0.00000000E+00  0.00000000E+00
  0.00000000E+00  0.00000000E+00  0.00000000E+00
  0.00000000E+00  0.00000000E+00  0.00000000E+00
  0.00000000E+00  0.00000000E+00  0.00000000E+00
  0.00000000E+00  0.00000000E+00  0.00000000E+00
  0.00000000E+00  0.00000000E+00  0.00000000E+00
  0.00000000E+00  0.00000000E+00  0.00000000E+00
  0.00000000E+00  0.00000000E+00  0.00000000E+00
  0.00000000E+00  0.00000000E+00  0.00000000E+00
  0.00000000E+00  0.00000000E+00  0.00000000E+00
  0.00000000E+00  0.00000000E+00  0.00000000E+00
