CeO2-you-111-you-Sr                     
   1.00000000000000     
     9.9169523318763151   -5.7255554712298169   -0.0000000008394493
    -0.0299713307685903   11.3991970630059196   -0.0161423527768271
    -0.0171424659473466   -0.0296916169763733   21.1815644597184658
   O    Sr   Ce
    53     1    26
Selective dynamics
Direct
  0.0004185958330300  0.0002940055047037  0.9972485142067344   T   T   T
  0.1093548198940715  0.2224122517810733  0.1499562360007580   T   T   T
  0.2177961741528542  0.1022593483044492  0.3023454019748583   T   T   T
  0.0873055914073656  0.2126163135309196  0.3845677666758967   T   T   T
 -0.0002752835891109  0.0011565119411276  0.2273098558612832   T   T   T
  0.2227438216314021  0.1121546432627392  0.0759537442633012   T   T   T
  0.3332084096717187  0.0002940055046661  0.9972485142067398   T   T   T
  0.4463904318868241  0.2224122517808940  0.1499562360007757   T   T   T
  0.5589896870666752  0.1097909108076519  0.3005040309368064   T   T   T
  0.4586437221247443  0.2126163135319885  0.3845677666762523   T   T   T
  0.3347647955305951  0.0011565119408411  0.2273098558612984   T   T   T
  0.5570631250746637  0.1116822250993510  0.0756117487806788   T   T   T
  0.6662543799369419 -0.0008252401261384  0.9966045795512748   T   T   T
  0.7768100765895327  0.2202861531790886  0.1527567747187076   T   T   T
  0.8841352237416458  0.1097909108082860  0.3005040309368258   T   T   T
  0.7753669115955284  0.2173998231906646  0.3816783860101404   T   T   T
  0.6601464270520346 -0.0130411458962783  0.2309259535324943   T   T   T
  0.8879531000247863  0.1116822250995056  0.0756117487806868   T   T   T
  0.0005293156801732  0.3335929318397975  0.9978654332408150   T   T   T
  0.1105487640217048  0.5545588155722709  0.1499912045375282   T   T   T
  0.2294466406127517  0.4582428512791811  0.3085093046972784   T   T   T
  0.1105562210721405  0.5629896122709317  0.3835002977736518   T   T   T
  0.0039758113096301  0.3354320354697216  0.2302772078319922   T   T   T
  0.2233183726831660  0.4446515177049814  0.0767316974300263   T   T   T
  0.3332084606654296  0.3330839213309277  0.9976569799785040   T   T   T
  0.4451738370647519  0.5570156741299971  0.1509617398858631   T   T   T
  0.5621302106640580  0.4582428512791893  0.3085093046973800   T   T   T
  0.3336692789547591  0.3340055579099724  0.2256019005684617   T   T   T
  0.5546671450216792  0.4446515177049059  0.0767316974300304   T   T   T
  0.6663976161595436  0.3335929318397267  0.9978654332408164   T   T   T
  0.7773430515502932  0.5545588155720971  0.1499912045375199   T   T   T
  0.8887859207790826  0.4442378415584837  0.3039867494351892   T   T   T
  0.7857663911984253  0.5629896122715945  0.3835002977735578   T   T   T
  0.6647902241598617  0.3354320354693433  0.2302772078319970   T   T   T
  0.8878981491854806  0.4424622983709665  0.0767246964072338   T   T   T
 -0.0007415313606572  0.6651839372786016  0.9977147702908525   T   T   T
  0.1114491950605399  0.8895653901206342  0.1481396980291972   T   T   T
  0.2186894532518533  0.7812121208083543  0.3004983558543219   T   T   T
  0.1109724973785880  0.8886119947565078  0.3837225922333086   T   T   T
  0.0001396533926358  0.6669463067853380  0.2272991607888342   T   T   T
  0.2219756122952234  0.7778744383878633  0.0747969064336640   T   T   T
  0.3330959364639327  0.6658245462095072  0.9976979651126691   T   T   T
  0.4444499817896383  0.8889731228118373  0.1482195371882510   T   T   T
  0.5419143509077601  0.7504947018146240  0.3137317649790083   T   T   T
  0.4423959088076583  0.8901393603127790  0.3796309455274450   T   T   T
  0.3336626454221790  0.6721514462857482  0.2276457351489101   T   T   T
  0.5553955584437074  0.7774571168873914  0.0756393399531885   T   T   T
  0.6660616097455826  0.6658245462095213  0.9976979651126711   T   T   T
  0.7778561410225346  0.8889731228120910  0.1482195371882589   T   T   T
  0.8958556675579575  0.7812121208096532  0.3004983558542778   T   T   T
  0.7810764515065990  0.8901393603131590  0.3796309455273796   T   T   T
  0.6718218008635111  0.6721514462860833  0.2276457351488820   T   T   T
  0.8892318260927358  0.7778744383878888  0.0747969064336573   T   T   T
  0.3276971963428464  0.3220613926844308  0.3473843531415166   T   T   T
  0.0029973908949900  0.0045951782998155  0.3422453473212328   T   T   T
  0.2233364276635471  0.1133398553281429  0.1898381241846055   T   T   T
  0.1113864942348247  0.2225409924313244  0.0373235110466878   T   T   T
  0.3349307874031808  0.0045951783015460  0.3422453473211946   T   T   T
  0.5545814778339300  0.1101698582754066  0.1895486424964086   T   T   T
  0.4444874981965727  0.2225409924314727  0.0373235110466816   T   T   T
  0.6659953467830807 -0.0013433064314875  0.3420904708860122   T   T   T
  0.8889223804406275  0.1101698582745830  0.1895486424964005   T   T   T
  0.7775704280661259  0.2218068561321893  0.0371285038514242   T   T   T
 -0.0011015383649845  0.3315303641841524  0.3431396459315527   T   T   T
  0.2231876862061965  0.4440284400365156  0.1912495509566772   T   T   T
  0.1105699711457703  0.5541693069013298  0.0371595402114087   T   T   T
  0.5541747538320089  0.4440284400371906  0.1912495509566237   T   T   T
  0.4439831684513076  0.5546343369024819  0.0368839891796858   T   T   T
  0.6659659025505585  0.3315303641849859  0.3431396459314378   T   T   T
  0.8892401539279897  0.4451463078555926  0.1906083998510326   T   T   T
  0.7769323357555969  0.5541693069014255  0.0371595402114043   T   T   T
  0.0013810840341242  0.6694291680683924  0.3436876200332697   T   T   T
  0.2211484866733439  0.7793571123141455  0.1865806165809170   T   T   T
  0.1112714028154107  0.8892098056310560  0.0354232388682694   T   T   T
  0.3203048203348494  0.6746913311091411  0.3374671933356581   T   T   T
  0.5547522743889818  0.7761705487779432  0.1877835275893772   T   T   T
  0.4446350079443713  0.8886677549241699  0.0359254787877179   T   T   T
  0.6877195107748006  0.6746913311089688  0.3374671933361432   T   T   T
  0.8915416256400410  0.7793571123137437  0.1865806165809066   T   T   T
  0.7773657469796948  0.8886677549241344  0.0359254787877247   T   T   T
 
  0.00000000E+00  0.00000000E+00  0.00000000E+00
  0.00000000E+00  0.00000000E+00  0.00000000E+00
  0.00000000E+00  0.00000000E+00  0.00000000E+00
  0.00000000E+00  0.00000000E+00  0.00000000E+00
  0.00000000E+00  0.00000000E+00  0.00000000E+00
  0.00000000E+00  0.00000000E+00  0.00000000E+00
  0.00000000E+00  0.00000000E+00  0.00000000E+00
  0.00000000E+00  0.00000000E+00  0.00000000E+00
  0.00000000E+00  0.00000000E+00  0.00000000E+00
  0.00000000E+00  0.00000000E+00  0.00000000E+00
  0.00000000E+00  0.00000000E+00  0.00000000E+00
  0.00000000E+00  0.00000000E+00  0.00000000E+00
  0.00000000E+00  0.00000000E+00  0.00000000E+00
  0.00000000E+00  0.00000000E+00  0.00000000E+00
  0.00000000E+00  0.00000000E+00  0.00000000E+00
  0.00000000E+00  0.00000000E+00  0.00000000E+00
  0.00000000E+00  0.00000000E+00  0.00000000E+00
  0.00000000E+00  0.00000000E+00  0.00000000E+00
  0.00000000E+00  0.00000000E+00  0.00000000E+00
  0.00000000E+00  0.00000000E+00  0.00000000E+00
  0.00000000E+00  0.00000000E+00  0.00000000E+00
  0.00000000E+00  0.00000000E+00  0.00000000E+00
  0.00000000E+00  0.00000000E+00  0.00000000E+00
  0.00000000E+00  0.00000000E+00  0.00000000E+00
  0.00000000E+00  0.00000000E+00  0.00000000E+00
  0.00000000E+00  0.00000000E+00  0.00000000E+00
  0.00000000E+00  0.00000000E+00  0.00000000E+00
  0.00000000E+00  0.00000000E+00  0.00000000E+00
  0.00000000E+00  0.00000000E+00  0.00000000E+00
  0.00000000E+00  0.00000000E+00  0.00000000E+00
  0.00000000E+00  0.00000000E+00  0.00000000E+00
  0.00000000E+00  0.00000000E+00  0.00000000E+00
  0.00000000E+00  0.00000000E+00  0.00000000E+00
  0.00000000E+00  0.00000000E+00  0.00000000E+00
  0.00000000E+00  0.00000000E+00  0.00000000E+00
  0.00000000E+00  0.00000000E+00  0.00000000E+00
  0.00000000E+00  0.00000000E+00  0.00000000E+00
  0.00000000E+00  0.00000000E+00  0.00000000E+00
  0.00000000E+00  0.00000000E+00  0.00000000E+00
  0.00000000E+00  0.00000000E+00  0.00000000E+00
  0.00000000E+00  0.00000000E+00  0.00000000E+00
  0.00000000E+00  0.00000000E+00  0.00000000E+00
  0.00000000E+00  0.00000000E+00  0.00000000E+00
  0.00000000E+00  0.00000000E+00  0.00000000E+00
  0.00000000E+00  0.00000000E+00  0.00000000E+00
  0.00000000E+00  0.00000000E+00  0.00000000E+00
  0.00000000E+00  0.00000000E+00  0.00000000E+00
  0.00000000E+00  0.00000000E+00  0.00000000E+00
  0.00000000E+00  0.00000000E+00  0.00000000E+00
  0.00000000E+00  0.00000000E+00  0.00000000E+00
  0.00000000E+00  0.00000000E+00  0.00000000E+00
  0.00000000E+00  0.00000000E+00  0.00000000E+00
  0.00000000E+00  0.00000000E+00  0.00000000E+00
  0.00000000E+00  0.00000000E+00  0.00000000E+00
  0.00000000E+00  0.00000000E+00  0.00000000E+00
  0.00000000E+00  0.00000000E+00  0.00000000E+00
  0.00000000E+00  0.00000000E+00  0.00000000E+00
  0.00000000E+00  0.00000000E+00  0.00000000E+00
  0.00000000E+00  0.00000000E+00  0.00000000E+00
  0.00000000E+00  0.00000000E+00  0.00000000E+00
  0.00000000E+00  0.00000000E+00  0.00000000E+00
  0.00000000E+00  0.00000000E+00  0.00000000E+00
  0.00000000E+00  0.00000000E+00  0.00000000E+00
  0.00000000E+00  0.00000000E+00  0.00000000E+00
  0.00000000E+00  0.00000000E+00  0.00000000E+00
  0.00000000E+00  0.00000000E+00  0.00000000E+00
  0.00000000E+00  0.00000000E+00  0.00000000E+00
  0.00000000E+00  0.00000000E+00  0.00000000E+00
  0.00000000E+00  0.00000000E+00  0.00000000E+00
  0.00000000E+00  0.00000000E+00  0.00000000E+00
  0.00000000E+00  0.00000000E+00  0.00000000E+00
  0.00000000E+00  0.00000000E+00  0.00000000E+00
  0.00000000E+00  0.00000000E+00  0.00000000E+00
  0.00000000E+00  0.00000000E+00  0.00000000E+00
  0.00000000E+00  0.00000000E+00  0.00000000E+00
  0.00000000E+00  0.00000000E+00  0.00000000E+00
  0.00000000E+00  0.00000000E+00  0.00000000E+00
  0.00000000E+00  0.00000000E+00  0.00000000E+00
  0.00000000E+00  0.00000000E+00  0.00000000E+00
  0.00000000E+00  0.00000000E+00  0.00000000E+00
