CeO2-you-111-you-V                      
   1.00000000000000     
     9.8185291003654775   -5.6687307847348212    0.0000000017166181
     0.0496735372381683   11.4234966589933382    0.0330911136874583
     0.0362642158852654    0.0628114537915946   20.4396957206150205
   O    V    Ce   H 
    53     1    26     2
Selective dynamics
Direct
  0.9989360744249333  0.0000947944902725  0.9900730399307368   T   T   T
  0.1121137909726784  0.2228300022512002  0.1478933700894487   F   F   F
  0.2532783757357165  0.1435711681782602  0.3130369800291270   T   T   T
  0.1281060723768415  0.2285082739439568  0.3804437467715577   T   T   T
  0.0079740341854472  0.0021985684026981  0.2311546062504831   T   T   T
  0.2219936678482313  0.1106543356966938  0.0694963526586960   F   F   F
  0.3341497034771608 -0.0001611620334823  0.9904642170950296   T   T   T
  0.4440492112783971  0.2228300022509444  0.1478933700895055   F   F   F
  0.5516348300081163  0.1063472337776448  0.3073673092880791   T   T   T
  0.4578967045759917  0.1815827412868939  0.4200788489577031   T   T   T
  0.3278232235484877  0.9982837703192382  0.2300423526449751   T   T   T
  0.5571822043598331  0.1126184314365943  0.0725439888586337   F   F   F
  0.6664633523267136  0.9996910876724030  0.9913168881443677   T   T   T
  0.7788243393461585  0.2243146786919894  0.1511689504412033   F   F   F
  0.8925003194180998  0.1109496140669751  0.3059718352130427   T   T   T
  0.7869956112330168  0.2153924107163331  0.3913292539632457   T   T   T
  0.6677331745785147 -0.0004616289488862  0.2316988381761279   T   T   T
  0.8887702270767051  0.1126184314367080  0.0725439888586479   F   F   F
  0.0001615865642869  0.3338283760958765  0.9905502566107632   T   T   T
  0.1114248924736501  0.5547546185317316  0.1487980142579630   F   F   F
  0.2495959908032712  0.4383786202747353  0.3121936107816475   T   T   T
  0.1011459206552273  0.5432373850157745  0.3898425091175290   T   T   T
  0.0081904716966864  0.3358644300658891  0.2335884033360852   T   T   T
  0.2230706875306154  0.4444310601979780  0.0728003596851394   F   F   F
  0.3338144274069405  0.3341519249436233  0.9903955433040555   T   T   T
  0.4426480474654682  0.5519640949311508  0.1524743264575150   F   F   F
  0.4949292816369870  0.4176740273883283  0.3248595109129913   T   T   T
  0.3266837392470267  0.3260452016884881  0.2264710636206896   T   T   T
  0.5546943726674485  0.4444310601980135  0.0728003596851678   F   F   F
  0.6671103153668344  0.3342009617653426  0.9905538509782168   T   T   T
  0.7766627260579995  0.5547546185317032  0.1487980142579701   F   F   F
  0.8925197248727209  0.4431789095198680  0.3053559816874840   T   T   T
  0.7924670947685648  0.5609405932907232  0.3919969094319417   T   T   T
  0.6612021115771599  0.3380295034459905  0.2328177224808901   T   T   T
  0.8886546634521366  0.4439753269045355  0.0721636559182670   F   F   F
  0.0001805901612390  0.6672974503472556  0.9908325825422181   T   T   T
  0.1104221439186901  0.8875112878375475  0.1454840502494150   F   F   F
  0.2208850567036299  0.7778746836224683  0.3080926751961984   T   T   T
  0.1171658585878906  0.8970568195982828  0.3873643872424634   T   T   T
  0.0002473778473267  0.6671751563499810  0.2288419910238812   T   T   T
  0.2235364588179038  0.7778003731571346  0.0714212042571063   F   F   F
  0.3341182509889394  0.6673017614275586  0.9907803121536944   T   T   T
  0.4476276081810937  0.8909109377497515  0.1495015856630602   F   F   F
  0.5583823549633540  0.7779704014606251  0.3116913706811912   T   T   T
  0.4487371113954015  0.8953142457544273  0.3935026535612379   T   T   T
  0.3313435149831624  0.6649769822497114  0.2311540917910274   T   T   T
  0.5542757431619805  0.7752174863239460  0.0738585602330417   F   F   F
  0.6662383858740462  0.6671101060683678  0.9910404003455426   T   T   T
  0.7766163295686042  0.8909109377500499  0.1495015856630673   F   F   F
  0.8959295013711991  0.7823254856558538  0.3060498955537505   T   T   T
  0.7936053089444539  0.9026544492835488  0.3922656343583128   T   T   T
  0.6664911884295016  0.6605691848467677  0.2324491024411506   T   T   T
  0.8875969143394826  0.7778003731573335  0.0714212042571418   F   F   F
  0.3034018145446883  0.3177361209107704  0.3322424230432126   T   T   T
  0.0048870996483309  0.0020183370285163  0.3479964509042274   T   T   T
  0.2195636013004005  0.1057942026014516  0.1836454889282493   F   F   F
  0.1113386079380660  0.2242719888134701  0.0308039296374361   F   F   F
  0.3371520314576003  0.9951758727386266  0.3508284081285917   T   T   T
  0.5549196510038783  0.1118537102549340  0.1907396348514538   F   F   F
  0.4462663808754996  0.2242719888135767  0.0308039296374432   F   F   F
  0.6698180057072011 -0.0000346057096453  0.3499863316453595   T   T   T
  0.8902680592501397  0.1118537102541879  0.1907396348514538   F   F   F
  0.7784862692704735  0.2236385385410102  0.0322855840839864   F   F   F
 -0.0022867430096813  0.3312831876804567  0.3493530544053402   T   T   T
  0.2246479592897686  0.4438891084499872  0.1933718442250481   F   F   F
  0.1124118366145410  0.5558529137371764  0.0319218164967907   F   F   F
  0.5525751491618962  0.4438891084507048  0.1933718442251191   F   F   F
  0.4445386570381373  0.5557453140761766  0.0324093185861614   F   F   F
  0.6652843705215258  0.3304893617251266  0.3556619539594331   T   T   T
  0.8896985602117908  0.4460631204232328  0.1901247008613183   F   F   F
  0.7767740771226741  0.5558529137373540  0.0319218164968191   F   F   F
  0.9986303497662419  0.6618200817144443  0.3476739819835957   T   T   T
  0.2219206558934346  0.7765269396196928  0.1882152013157565   F   F   F
  0.1109008817626176  0.8884687635255233  0.0288966219337965   F   F   F
  0.3305634977284461  0.6732319746364804  0.3507058061965575   T   T   T
  0.5560085170518505  0.7786830341036648  0.1928540827320191   F   F   F
  0.4456970532191278  0.8893135441387798  0.0319946742105444   F   F   F
  0.6813855154509789  0.6737664601550916  0.3511115717736081   T   T   T
  0.8879392837256432  0.7765269396191812  0.1882152013157565   F   F   F
  0.7769494909197050  0.8893135441387798  0.0319946742105657   F   F   F
  0.3489033937710651  0.3679380667127863  0.4081048864028238   T   T   T
  0.4122327351698742  0.2225408565018638  0.4430958059837806   T   T   T
 
  0.00000000E+00  0.00000000E+00  0.00000000E+00
  0.00000000E+00  0.00000000E+00  0.00000000E+00
  0.00000000E+00  0.00000000E+00  0.00000000E+00
  0.00000000E+00  0.00000000E+00  0.00000000E+00
  0.00000000E+00  0.00000000E+00  0.00000000E+00
  0.00000000E+00  0.00000000E+00  0.00000000E+00
  0.00000000E+00  0.00000000E+00  0.00000000E+00
  0.00000000E+00  0.00000000E+00  0.00000000E+00
  0.00000000E+00  0.00000000E+00  0.00000000E+00
  0.00000000E+00  0.00000000E+00  0.00000000E+00
  0.00000000E+00  0.00000000E+00  0.00000000E+00
  0.00000000E+00  0.00000000E+00  0.00000000E+00
  0.00000000E+00  0.00000000E+00  0.00000000E+00
  0.00000000E+00  0.00000000E+00  0.00000000E+00
  0.00000000E+00  0.00000000E+00  0.00000000E+00
  0.00000000E+00  0.00000000E+00  0.00000000E+00
  0.00000000E+00  0.00000000E+00  0.00000000E+00
  0.00000000E+00  0.00000000E+00  0.00000000E+00
  0.00000000E+00  0.00000000E+00  0.00000000E+00
  0.00000000E+00  0.00000000E+00  0.00000000E+00
  0.00000000E+00  0.00000000E+00  0.00000000E+00
  0.00000000E+00  0.00000000E+00  0.00000000E+00
  0.00000000E+00  0.00000000E+00  0.00000000E+00
  0.00000000E+00  0.00000000E+00  0.00000000E+00
  0.00000000E+00  0.00000000E+00  0.00000000E+00
  0.00000000E+00  0.00000000E+00  0.00000000E+00
  0.00000000E+00  0.00000000E+00  0.00000000E+00
  0.00000000E+00  0.00000000E+00  0.00000000E+00
  0.00000000E+00  0.00000000E+00  0.00000000E+00
  0.00000000E+00  0.00000000E+00  0.00000000E+00
  0.00000000E+00  0.00000000E+00  0.00000000E+00
  0.00000000E+00  0.00000000E+00  0.00000000E+00
  0.00000000E+00  0.00000000E+00  0.00000000E+00
  0.00000000E+00  0.00000000E+00  0.00000000E+00
  0.00000000E+00  0.00000000E+00  0.00000000E+00
  0.00000000E+00  0.00000000E+00  0.00000000E+00
  0.00000000E+00  0.00000000E+00  0.00000000E+00
  0.00000000E+00  0.00000000E+00  0.00000000E+00
  0.00000000E+00  0.00000000E+00  0.00000000E+00
  0.00000000E+00  0.00000000E+00  0.00000000E+00
  0.00000000E+00  0.00000000E+00  0.00000000E+00
  0.00000000E+00  0.00000000E+00  0.00000000E+00
  0.00000000E+00  0.00000000E+00  0.00000000E+00
  0.00000000E+00  0.00000000E+00  0.00000000E+00
  0.00000000E+00  0.00000000E+00  0.00000000E+00
  0.00000000E+00  0.00000000E+00  0.00000000E+00
  0.00000000E+00  0.00000000E+00  0.00000000E+00
  0.00000000E+00  0.00000000E+00  0.00000000E+00
  0.00000000E+00  0.00000000E+00  0.00000000E+00
  0.00000000E+00  0.00000000E+00  0.00000000E+00
  0.00000000E+00  0.00000000E+00  0.00000000E+00
  0.00000000E+00  0.00000000E+00  0.00000000E+00
  0.00000000E+00  0.00000000E+00  0.00000000E+00
  0.00000000E+00  0.00000000E+00  0.00000000E+00
  0.00000000E+00  0.00000000E+00  0.00000000E+00
  0.00000000E+00  0.00000000E+00  0.00000000E+00
  0.00000000E+00  0.00000000E+00  0.00000000E+00
  0.00000000E+00  0.00000000E+00  0.00000000E+00
  0.00000000E+00  0.00000000E+00  0.00000000E+00
  0.00000000E+00  0.00000000E+00  0.00000000E+00
  0.00000000E+00  0.00000000E+00  0.00000000E+00
  0.00000000E+00  0.00000000E+00  0.00000000E+00
  0.00000000E+00  0.00000000E+00  0.00000000E+00
  0.00000000E+00  0.00000000E+00  0.00000000E+00
  0.00000000E+00  0.00000000E+00  0.00000000E+00
  0.00000000E+00  0.00000000E+00  0.00000000E+00
  0.00000000E+00  0.00000000E+00  0.00000000E+00
  0.00000000E+00  0.00000000E+00  0.00000000E+00
  0.00000000E+00  0.00000000E+00  0.00000000E+00
  0.00000000E+00  0.00000000E+00  0.00000000E+00
  0.00000000E+00  0.00000000E+00  0.00000000E+00
  0.00000000E+00  0.00000000E+00  0.00000000E+00
  0.00000000E+00  0.00000000E+00  0.00000000E+00
  0.00000000E+00  0.00000000E+00  0.00000000E+00
  0.00000000E+00  0.00000000E+00  0.00000000E+00
  0.00000000E+00  0.00000000E+00  0.00000000E+00
  0.00000000E+00  0.00000000E+00  0.00000000E+00
  0.00000000E+00  0.00000000E+00  0.00000000E+00
  0.00000000E+00  0.00000000E+00  0.00000000E+00
  0.00000000E+00  0.00000000E+00  0.00000000E+00
  0.00000000E+00  0.00000000E+00  0.00000000E+00
  0.00000000E+00  0.00000000E+00  0.00000000E+00
