CeO2-you-111-you-In                     
   1.00000000000000     
     9.8579053797287255   -5.6827748858264071    0.0018723913405497
    -0.0000000015072789   11.3655477689673603   -0.0000000002124968
     0.0042311696269989   -0.0000000004254832   21.1360586249102802
   O    In   Ce   H 
    53     1    26     1
Selective dynamics
Direct
 -0.0000797826346562  0.0002477003848731  0.9959119891971668   T   T   T
  0.1194213180026640  0.2251165307701915  0.1511885072164797   T   T   T
  0.2269441773969084  0.1121568203117896  0.3039606299320743   T   T   T
  0.1083864192409336  0.2194334022960998  0.3853378928027890   T   T   T
  0.0027021472672047  0.0022834543939274  0.2285675506492147   T   T   T
  0.2223035274992333  0.1100225235142530  0.0743503268029720   T   T   T
  0.3337017951195596  0.9994315033928532  0.9952306226629034   T   T   T
  0.4435131430691286  0.2203268656939217  0.1473116582600482   T   T   T
  0.5477520227674101  0.1064244804500875  0.3059620869421984   T   T   T
  0.4362122467915591  0.2432783480807166  0.3910008307404531   T   T   T
  0.3317137014545034 -0.0023980808331324  0.2287078891373079   T   T   T
  0.5547372940980423  0.1094608299688480  0.0748324844237962   T   T   T
  0.6695872391221663  0.0010893964867231  0.9961986436770552   T   T   T
  0.7726538582291411  0.2236154071596398  0.1510186927493420   T   T   T
  0.8901676029392078  0.1109181467794498  0.3027604462463904   T   T   T
  0.7829507102620719  0.2155573189593382  0.3867980269869603   T   T   T
  0.6669559942364016  0.0020037825880413  0.2292621952972595   T   T   T
  0.8899085558396425  0.1105399941914684  0.0779131311881239   T   T   T
  0.9987554035432207  0.3304273173443866  0.9959674175895759   T   T   T
  0.1110097480988591  0.5549649095853910  0.1495161975246343   T   T   T
  0.2123666272392389  0.4405289107389310  0.2992495249997327   T   T   T
  0.1159103728636413  0.5552643430042898  0.3838070211014059   T   T   T
  0.9972356993966202  0.3299031551606693  0.2258120423418387   T   T   T
  0.2216043097467597  0.4445689029043972  0.0736992372257740   T   T   T
  0.3322198806039947  0.3321975730957025  0.9952235318585211   T   T   T
  0.4437301503556308  0.5561910112798008  0.1466505812146802   T   T   T
  0.4373705104191807  0.5315647719321049  0.3727857471171515   T   T   T
  0.3543529443543402  0.3429926988226829  0.2347996542085614   T   T   T
  0.5561226719163495  0.4440343862501612  0.0717724695842947   T   T   T
  0.6681807799884677  0.3319773278998064  0.9954716375272172   T   T   T
  0.7798553248976303  0.5568991713957682  0.1466177097313520   T   T   T
  0.8968574812847724  0.4431679515066452  0.3028353188780579   T   T   T
  0.7884158989468584  0.5592831555896095  0.3835698219795347   T   T   T
  0.6589265465508451  0.3422391050352539  0.2332841265584077   T   T   T
  0.8902156514630205  0.4443412881164304  0.0744945759918945   T   T   T
  0.0003222137143217  0.6670501497936865  0.9953768073707532   T   T   T
  0.1110000480890059  0.8885751899157740  0.1501128258574407   T   T   T
  0.2218187608875425  0.7741238008254171  0.3019602847926013   T   T   T
  0.1162190696063081  0.8883795078021020  0.3837891103012263   T   T   T
  0.9983157035739628  0.6646335736673157  0.2287173424707370   T   T   T
  0.2227492543117087  0.7771834682427369  0.0747874053868701   T   T   T
  0.3342655408427256  0.6671149482563481  0.9949525592222948   T   T   T
  0.4452228678066534  0.8887931630185409  0.1505816469951348   T   T   T
  0.5533998696935747  0.7819248666645455  0.3041357383329893   T   T   T
  0.4383889498599474  0.8836439320929961  0.3843709498969684   T   T   T
  0.3339247281773543  0.6649500303720379  0.2285588759319032   T   T   T
  0.5560340178404983  0.7786476630200669  0.0749498610190213   T   T   T
  0.6681295140408964  0.6686938177054376  0.9953545351539149   T   T   T
  0.7748626846885296  0.8830270809365427  0.1526736882988408   T   T   T
  0.8980614189291368  0.7853388672575020  0.3033599379915558   T   T   T
  0.7839874873401591  0.9019576973392740  0.3866930439879274   T   T   T
  0.6594312173701335  0.6494731121138018  0.2332425614172393   T   T   T
  0.8899764781602079  0.7797106258299871  0.0748815550010578   T   T   T
  0.3094414382170846  0.3254379732567119  0.3406588081155724   T   T   T
  0.0024581621387811  0.0020988068519163  0.3436949109212410   T   T   T
  0.2245175299538643  0.1117968858667789  0.1908103415527292   T   T   T
  0.1118994985418409  0.2217437252252797  0.0357290497933200   T   T   T
  0.3275914232647298 -0.0114894344542117  0.3415747193258907   T   T   T
  0.5544928399202690  0.1115600427967570  0.1911040592651599   T   T   T
  0.4438164202843711  0.2196675472919804  0.0336673186118122   T   T   T
  0.6662688950820069 -0.0009577906655176  0.3443128269147825   T   T   T
  0.8891061791380824  0.1108480232082057  0.1902627698744026   T   T   T
  0.7777438990132747  0.2218092259110688  0.0361687116343072   T   T   T
  0.0012705806494228  0.3310833516421733  0.3436671301261632   T   T   T
  0.2229150026043042  0.4442236832559232  0.1893283562968950   T   T   T
  0.1108231644860104  0.5544069267266177  0.0352933395553947   T   T   T
  0.5562881040772162  0.4451163508625584  0.1814849991897480   T   T   T
  0.4440276519859737  0.5567644927971170  0.0336287880635193   T   T   T
  0.6790717310307235  0.3317355997112182  0.3492487208769872   T   T   T
  0.8877279855126354  0.4438709647825441  0.1900499803318980   T   T   T
  0.7802989346603648  0.5567513286908917  0.0339288292181390   T   T   T
  0.0001991045343304  0.6646456327820175  0.3434149137540520   T   T   T
  0.2214300784541367  0.7760249576391358  0.1880650155736539   T   T   T
  0.1110172096369883  0.8893388958991091  0.0359598366747817   T   T   T
  0.3319596469066539  0.6596970647547694  0.3419821907151945   T   T   T
  0.5553514712250571  0.7761554379440297  0.1913869253831693   T   T   T
  0.4457442364412837  0.8891290042200481  0.0360456078798227   T   T   T
  0.6733290005118249  0.6764282981526607  0.3507397488606708   T   T   T
  0.8887125803123832  0.7765439787747702  0.1913884677481234   T   T   T
  0.7781818639915642  0.8885830233345838  0.0363716234146714   T   T   T
  0.4265855701216311  0.2552861036356104  0.4359970605543591   T   T   T
 
  0.00000000E+00  0.00000000E+00  0.00000000E+00
  0.00000000E+00  0.00000000E+00  0.00000000E+00
  0.00000000E+00  0.00000000E+00  0.00000000E+00
  0.00000000E+00  0.00000000E+00  0.00000000E+00
  0.00000000E+00  0.00000000E+00  0.00000000E+00
  0.00000000E+00  0.00000000E+00  0.00000000E+00
  0.00000000E+00  0.00000000E+00  0.00000000E+00
  0.00000000E+00  0.00000000E+00  0.00000000E+00
  0.00000000E+00  0.00000000E+00  0.00000000E+00
  0.00000000E+00  0.00000000E+00  0.00000000E+00
  0.00000000E+00  0.00000000E+00  0.00000000E+00
  0.00000000E+00  0.00000000E+00  0.00000000E+00
  0.00000000E+00  0.00000000E+00  0.00000000E+00
  0.00000000E+00  0.00000000E+00  0.00000000E+00
  0.00000000E+00  0.00000000E+00  0.00000000E+00
  0.00000000E+00  0.00000000E+00  0.00000000E+00
  0.00000000E+00  0.00000000E+00  0.00000000E+00
  0.00000000E+00  0.00000000E+00  0.00000000E+00
  0.00000000E+00  0.00000000E+00  0.00000000E+00
  0.00000000E+00  0.00000000E+00  0.00000000E+00
  0.00000000E+00  0.00000000E+00  0.00000000E+00
  0.00000000E+00  0.00000000E+00  0.00000000E+00
  0.00000000E+00  0.00000000E+00  0.00000000E+00
  0.00000000E+00  0.00000000E+00  0.00000000E+00
  0.00000000E+00  0.00000000E+00  0.00000000E+00
  0.00000000E+00  0.00000000E+00  0.00000000E+00
  0.00000000E+00  0.00000000E+00  0.00000000E+00
  0.00000000E+00  0.00000000E+00  0.00000000E+00
  0.00000000E+00  0.00000000E+00  0.00000000E+00
  0.00000000E+00  0.00000000E+00  0.00000000E+00
  0.00000000E+00  0.00000000E+00  0.00000000E+00
  0.00000000E+00  0.00000000E+00  0.00000000E+00
  0.00000000E+00  0.00000000E+00  0.00000000E+00
  0.00000000E+00  0.00000000E+00  0.00000000E+00
  0.00000000E+00  0.00000000E+00  0.00000000E+00
  0.00000000E+00  0.00000000E+00  0.00000000E+00
  0.00000000E+00  0.00000000E+00  0.00000000E+00
  0.00000000E+00  0.00000000E+00  0.00000000E+00
  0.00000000E+00  0.00000000E+00  0.00000000E+00
  0.00000000E+00  0.00000000E+00  0.00000000E+00
  0.00000000E+00  0.00000000E+00  0.00000000E+00
  0.00000000E+00  0.00000000E+00  0.00000000E+00
  0.00000000E+00  0.00000000E+00  0.00000000E+00
  0.00000000E+00  0.00000000E+00  0.00000000E+00
  0.00000000E+00  0.00000000E+00  0.00000000E+00
  0.00000000E+00  0.00000000E+00  0.00000000E+00
  0.00000000E+00  0.00000000E+00  0.00000000E+00
  0.00000000E+00  0.00000000E+00  0.00000000E+00
  0.00000000E+00  0.00000000E+00  0.00000000E+00
  0.00000000E+00  0.00000000E+00  0.00000000E+00
  0.00000000E+00  0.00000000E+00  0.00000000E+00
  0.00000000E+00  0.00000000E+00  0.00000000E+00
  0.00000000E+00  0.00000000E+00  0.00000000E+00
  0.00000000E+00  0.00000000E+00  0.00000000E+00
  0.00000000E+00  0.00000000E+00  0.00000000E+00
  0.00000000E+00  0.00000000E+00  0.00000000E+00
  0.00000000E+00  0.00000000E+00  0.00000000E+00
  0.00000000E+00  0.00000000E+00  0.00000000E+00
  0.00000000E+00  0.00000000E+00  0.00000000E+00
  0.00000000E+00  0.00000000E+00  0.00000000E+00
  0.00000000E+00  0.00000000E+00  0.00000000E+00
  0.00000000E+00  0.00000000E+00  0.00000000E+00
  0.00000000E+00  0.00000000E+00  0.00000000E+00
  0.00000000E+00  0.00000000E+00  0.00000000E+00
  0.00000000E+00  0.00000000E+00  0.00000000E+00
  0.00000000E+00  0.00000000E+00  0.00000000E+00
  0.00000000E+00  0.00000000E+00  0.00000000E+00
  0.00000000E+00  0.00000000E+00  0.00000000E+00
  0.00000000E+00  0.00000000E+00  0.00000000E+00
  0.00000000E+00  0.00000000E+00  0.00000000E+00
  0.00000000E+00  0.00000000E+00  0.00000000E+00
  0.00000000E+00  0.00000000E+00  0.00000000E+00
  0.00000000E+00  0.00000000E+00  0.00000000E+00
  0.00000000E+00  0.00000000E+00  0.00000000E+00
  0.00000000E+00  0.00000000E+00  0.00000000E+00
  0.00000000E+00  0.00000000E+00  0.00000000E+00
  0.00000000E+00  0.00000000E+00  0.00000000E+00
  0.00000000E+00  0.00000000E+00  0.00000000E+00
  0.00000000E+00  0.00000000E+00  0.00000000E+00
  0.00000000E+00  0.00000000E+00  0.00000000E+00
  0.00000000E+00  0.00000000E+00  0.00000000E+00
