CeO2-you-111-you-Ag                     
   1.00000000000000     
     9.8199744406305669   -5.6695652581445382    0.0000000000000000
     0.0000000028750382   11.3391285258226731    0.0000000000000000
     0.0000000000000000    0.0000000000000000   21.1513419558153508
   O    Ag   Ce   H 
    54     1    26     1
Selective dynamics
Direct
  0.0000047034970977  0.0000585735507397  0.9954305387989266   T   T   T
  0.1042026588653826  0.2187678294330340  0.1482052146711865   F   F   F
  0.2307478661734511  0.1196367565885789  0.3064872455235856   T   T   T
  0.1071347779609356  0.2209827678978007  0.3866766601235373   T   T   T
  0.0028762012737084  0.0010788961835596  0.2304608295829123   T   T   T
  0.2225282625432072  0.1117235250862194  0.0750870467534952   F   F   F
  0.3332829982255950  0.0003575483570387  0.9956812883517285   T   T   T
  0.4478981705676475  0.2187678294333395  0.1482052146711865   F   F   F
  0.5509223085868418  0.1155621946590050  0.3057187281314787   T   T   T
  0.4483212369348090  0.2176396131366997  0.4011582741884147   T   T   T
  0.3304840719591177 -0.0010119258868750  0.2298522173338657   T   T   T
  0.5572023165578983  0.1094646834417219  0.0750422945151072   F   F   F
  0.6666062563167621 -0.0000121215344916  0.9943166594660395   T   T   T
  0.7779067050812714  0.2224794101626699  0.1514841676572587   F   F   F
  0.8901953835452722  0.1114712333610093  0.3045623953975214   T   T   T
  0.7773453640187856  0.2229768503890862  0.3828001737168011   T   T   T
  0.6659649590273650  0.0014360490510745  0.2315866854594797   T   T   T
  0.8855963668839379  0.1094646834418356  0.0750422945151072   F   F   F
  0.0001493549430585  0.3330050455269542  0.9956919660527880   T   T   T
  0.1105218982179181  0.5561451017827750  0.1493794345691128   F   F   F
  0.2274165519738411  0.4403397904594655  0.3048147064684551   T   T   T
  0.1116251783612133  0.5543885926666080  0.3827619872343271   T   T   T
  0.0031087719573236  0.3355466641921149  0.2306814585147186   T   T   T
  0.2225282625436407  0.4441377374569839  0.0750870467534952   F   F   F
  0.3330185727355903  0.3330379040631003  0.9953981238193680   T   T   T
  0.4478981705669653  0.5624643411336265  0.1482052146711865   F   F   F
  0.5466408414822952  0.4363162089192481  0.3062487176069841   T   T   T
  0.4455699212039204  0.5598616328522273  0.3868080777464972   T   T   T
  0.3333744833157467  0.3334586245203519  0.2170092559963802   T   T   T
  0.5549434749131592  0.4441377374567921  0.0750870467534952   F   F   F
  0.6658751373213656  0.3330931117239719  0.9953108201604701   T   T   T
  0.7789562035646398  0.5561451017825618  0.1493794345691128   F   F   F
  0.8900200532437391  0.4453004707801962  0.3039488766708985   T   T   T
  0.7773972610949288  0.5539569974896954  0.3832057230796300   T   T   T
  0.6673092320630905  0.3355548657549399  0.2299374673635974   T   T   T
  0.8881782368247215  0.4430224736495916  0.0753739746786692   F   F   F
  0.0000084157156253  0.6669704301708539  0.9963018800086343   T   T   T
  0.1105218982174421  0.8877107964346607  0.1493794345691128   F   F   F
  0.2218935801157832  0.7765741515092248  0.3041347240769255   T   T   T
  0.1126356323981478  0.8887088812335631  0.3832025610545137   T   T   T
  0.0000177182319931  0.6670215377906421  0.2297921085534295   T   T   T
  0.2236435263508980  0.7784887631752753  0.0753739746786692   F   F   F
  0.3334667226299459  0.6659277846491303  0.9953074148699740   T   T   T
  0.4441865898377060  0.8887602949187254  0.1514841676572587   F   F   F
  0.5545050406682023  0.7765475209928577  0.3043109926304198   T   T   T
  0.4442898949420775  0.8894687315486275  0.3831016785153236   T   T   T
  0.3309785266305050  0.6635131416205673  0.2303709906577569   T   T   T
  0.5572023165581683  0.7810706331164425  0.0750422945151072   F   F   F
  0.6666327260026568  0.6666578208251953  0.9957063719249120   T   T   T
  0.7779067050810156  0.8887602949186117  0.1514841676572587   F   F   F
  0.8891755271239955  0.7778415734661834  0.3044797056558683   T   T   T
  0.7766643527811901  0.8891347104793513  0.3827393071488818   T   T   T
  0.6656740529357176  0.6632498153603532  0.2305320704487722   T   T   T
  0.8881782368243805  0.7784887631751261  0.0753739746786692   F   F   F
  0.3290172343890722  0.3376155047891286  0.3502187827415617   T   T   T
  0.0033819164198292  0.0029258009069499  0.3432909651481587   T   T   T
  0.2235906056469616  0.1138482112940906  0.1882510252653091   F   F   F
  0.1104491358411437  0.2218910679207653  0.0350247862137536   F   F   F
  0.3290580113810918 -0.0040056381253610  0.3423719449769808   T   T   T
  0.5553660776059957  0.1113009223951806  0.1902164993059188   F   F   F
  0.4447749320796177  0.2218910679209358  0.0350247862137536   F   F   F
  0.6665541505995085  0.0000349232826185  0.3442343043910699   T   T   T
  0.8892688447888304  0.1113009223948254  0.1902164993059188   F   F   F
  0.7774217184602179  0.2215094369203214  0.0352728359857295   F   F   F
  0.0022470346400637  0.3326094822227693  0.3441178270771522   T   T   T
  0.2235906056465993  0.4430753943528742  0.1882510252653091   F   F   F
  0.1111149154513171  0.5555520845479478  0.0360176080128980   F   F   F
  0.5528187887064462  0.4430753943530377  0.1882510252653091   F   F   F
  0.4447749320792340  0.5562178641583060  0.0350247862137536   F   F   F
  0.6704528747975916  0.3376757211142904  0.3423004667956565   T   T   T
  0.8888960795150709  0.4444581590297929  0.1899598036577146   F   F   F
  0.7777701690968541  0.5555520845481752  0.0360176080128980   F   F   F
  0.0001595874093126  0.6664256210295494  0.3431695859110548   T   T   T
  0.2222078409690837  0.7777709204849259  0.1899598036577146   F   F   F
  0.1111149154518287  0.8888968309038816  0.0360176080128980   F   F   F
  0.3340482717100986  0.6645552240750530  0.3442156011258695   T   T   T
  0.5553660776051785  0.7773981552099940  0.1902164993059188   F   F   F
  0.4451565630792942  0.8892452815397789  0.0352728359857295   F   F   F
  0.6635499911136548  0.6633551612604296  0.3432979492692523   T   T   T
  0.8888960795158525  0.7777709204852741  0.1899598036577146   F   F   F
  0.7774217184604808  0.8892452815398926  0.0352728359857295   F   F   F
  0.4395639668625922  0.2257892586462473  0.4465208477131541   T   T   T
 
  0.00000000E+00  0.00000000E+00  0.00000000E+00
  0.00000000E+00  0.00000000E+00  0.00000000E+00
  0.00000000E+00  0.00000000E+00  0.00000000E+00
  0.00000000E+00  0.00000000E+00  0.00000000E+00
  0.00000000E+00  0.00000000E+00  0.00000000E+00
  0.00000000E+00  0.00000000E+00  0.00000000E+00
  0.00000000E+00  0.00000000E+00  0.00000000E+00
  0.00000000E+00  0.00000000E+00  0.00000000E+00
  0.00000000E+00  0.00000000E+00  0.00000000E+00
  0.00000000E+00  0.00000000E+00  0.00000000E+00
  0.00000000E+00  0.00000000E+00  0.00000000E+00
  0.00000000E+00  0.00000000E+00  0.00000000E+00
  0.00000000E+00  0.00000000E+00  0.00000000E+00
  0.00000000E+00  0.00000000E+00  0.00000000E+00
  0.00000000E+00  0.00000000E+00  0.00000000E+00
  0.00000000E+00  0.00000000E+00  0.00000000E+00
  0.00000000E+00  0.00000000E+00  0.00000000E+00
  0.00000000E+00  0.00000000E+00  0.00000000E+00
  0.00000000E+00  0.00000000E+00  0.00000000E+00
  0.00000000E+00  0.00000000E+00  0.00000000E+00
  0.00000000E+00  0.00000000E+00  0.00000000E+00
  0.00000000E+00  0.00000000E+00  0.00000000E+00
  0.00000000E+00  0.00000000E+00  0.00000000E+00
  0.00000000E+00  0.00000000E+00  0.00000000E+00
  0.00000000E+00  0.00000000E+00  0.00000000E+00
  0.00000000E+00  0.00000000E+00  0.00000000E+00
  0.00000000E+00  0.00000000E+00  0.00000000E+00
  0.00000000E+00  0.00000000E+00  0.00000000E+00
  0.00000000E+00  0.00000000E+00  0.00000000E+00
  0.00000000E+00  0.00000000E+00  0.00000000E+00
  0.00000000E+00  0.00000000E+00  0.00000000E+00
  0.00000000E+00  0.00000000E+00  0.00000000E+00
  0.00000000E+00  0.00000000E+00  0.00000000E+00
  0.00000000E+00  0.00000000E+00  0.00000000E+00
  0.00000000E+00  0.00000000E+00  0.00000000E+00
  0.00000000E+00  0.00000000E+00  0.00000000E+00
  0.00000000E+00  0.00000000E+00  0.00000000E+00
  0.00000000E+00  0.00000000E+00  0.00000000E+00
  0.00000000E+00  0.00000000E+00  0.00000000E+00
  0.00000000E+00  0.00000000E+00  0.00000000E+00
  0.00000000E+00  0.00000000E+00  0.00000000E+00
  0.00000000E+00  0.00000000E+00  0.00000000E+00
  0.00000000E+00  0.00000000E+00  0.00000000E+00
  0.00000000E+00  0.00000000E+00  0.00000000E+00
  0.00000000E+00  0.00000000E+00  0.00000000E+00
  0.00000000E+00  0.00000000E+00  0.00000000E+00
  0.00000000E+00  0.00000000E+00  0.00000000E+00
  0.00000000E+00  0.00000000E+00  0.00000000E+00
  0.00000000E+00  0.00000000E+00  0.00000000E+00
  0.00000000E+00  0.00000000E+00  0.00000000E+00
  0.00000000E+00  0.00000000E+00  0.00000000E+00
  0.00000000E+00  0.00000000E+00  0.00000000E+00
  0.00000000E+00  0.00000000E+00  0.00000000E+00
  0.00000000E+00  0.00000000E+00  0.00000000E+00
  0.00000000E+00  0.00000000E+00  0.00000000E+00
  0.00000000E+00  0.00000000E+00  0.00000000E+00
  0.00000000E+00  0.00000000E+00  0.00000000E+00
  0.00000000E+00  0.00000000E+00  0.00000000E+00
  0.00000000E+00  0.00000000E+00  0.00000000E+00
  0.00000000E+00  0.00000000E+00  0.00000000E+00
  0.00000000E+00  0.00000000E+00  0.00000000E+00
  0.00000000E+00  0.00000000E+00  0.00000000E+00
  0.00000000E+00  0.00000000E+00  0.00000000E+00
  0.00000000E+00  0.00000000E+00  0.00000000E+00
  0.00000000E+00  0.00000000E+00  0.00000000E+00
  0.00000000E+00  0.00000000E+00  0.00000000E+00
  0.00000000E+00  0.00000000E+00  0.00000000E+00
  0.00000000E+00  0.00000000E+00  0.00000000E+00
  0.00000000E+00  0.00000000E+00  0.00000000E+00
  0.00000000E+00  0.00000000E+00  0.00000000E+00
  0.00000000E+00  0.00000000E+00  0.00000000E+00
  0.00000000E+00  0.00000000E+00  0.00000000E+00
  0.00000000E+00  0.00000000E+00  0.00000000E+00
  0.00000000E+00  0.00000000E+00  0.00000000E+00
  0.00000000E+00  0.00000000E+00  0.00000000E+00
  0.00000000E+00  0.00000000E+00  0.00000000E+00
  0.00000000E+00  0.00000000E+00  0.00000000E+00
  0.00000000E+00  0.00000000E+00  0.00000000E+00
  0.00000000E+00  0.00000000E+00  0.00000000E+00
  0.00000000E+00  0.00000000E+00  0.00000000E+00
  0.00000000E+00  0.00000000E+00  0.00000000E+00
  0.00000000E+00  0.00000000E+00  0.00000000E+00
