CeO2-you-111-you-Ir                     
   1.00000000000000     
     9.8393639207085020   -5.6945770500708228    0.0032647703247930
    -0.0119661037972027   11.3684261974431973   -0.0032647695880576
     0.0029772132499499   -0.0051566837878197   21.0724412952429354
   O    Ir   Ce H
    53     1    26 1
Selective dynamics
Direct
 -0.0005974145202792 -0.0006538179378862  0.9955949185584556   T   T   T
  0.1110789750158434  0.2202337777865447  0.1476565365849379   T   T   T
  0.2380384693366189  0.1175493152749849  0.3002221685981287   T   T   T
  0.1524719299399160  0.2459349054189111  0.3641437955988426   T   T   T
  0.0039808350273869  0.0018660105356931  0.2305371159434094   T   T   T
  0.2224483139590151  0.1100515397933201  0.0742178826329445   T   T   T
  0.3353011970198741  0.0006455210636838  0.9959196553710380   T   T   T
  0.4398106038380413  0.2268553961646560  0.1517865560300675   T   T   T
  0.5526968569214301  0.1139701430824626  0.3052434299600299   T   T   T
  0.4326245275253867  0.2340414724745825  0.3870793310438734   T   T   T
  0.3350182681571360 -0.0006131882931878  0.2271085823789601   T   T   T
  0.5546892113515118  0.1119777886478073  0.0781515302317054   T   T   T
  0.6659710492117877  0.0006959507901106  0.9968437574675708   T   T   T
  0.7836130295694348  0.2233340544149221  0.1518960545362322   T   T   T
  0.8859137796777339  0.1049799502075248  0.3053361607849014   T   T   T
  0.7672383392002925  0.2169364685784589  0.3876523892611443   T   T   T
  0.6654365168266975  0.0012304831756540  0.2301799941823248   T   T   T
  0.8883821287452929  0.1095887540486716  0.0758076905624486   T   T   T
 -0.0017660012821977  0.3317599817977677  0.9955025418432646   T   T   T
  0.1098140588769054  0.5568529411291951  0.1468602377039096   T   T   T
  0.1054237947242692  0.5612432052976625  0.3843277676451093   T   T   T
  0.0148816666766899  0.3426021690832557  0.2333420297530949   T   T   T
  0.2220931741539010  0.4445728258476431  0.0723359147601878   T   T   T
  0.3338347250091361  0.3328312749873671  0.9953577605326712   T   T   T
  0.4464322222154571  0.5555880249853355  0.1476565365868759   T   T   T
  0.5491176847055719  0.4286275306470744  0.3002221686008237   T   T   T
  0.4207310945884473  0.5141950700716328  0.3641437955964227   T   T   T
  0.3179544048094868  0.3487115951898157  0.2398920007186387   T   T   T
  0.5566154602038049  0.4442176860376449  0.0742178826325498   T   T   T
  0.6660214789354697  0.3313648029792423  0.9959196553709498   T   T   T
  0.7774623922272639  0.5555940843917486  0.1503242333513131   T   T   T
  0.8813829989842822  0.4445640344294225  0.3040819504395937   T   T   T
  0.7714230435835582  0.5559186386093726  0.3828771631115072   T   T   T
  0.6672801882928390  0.3316477318436624  0.2271085823783597   T   T   T
  0.8877462259875203  0.4439474872375416  0.0748740445256329   T   T   T
 -0.0001639098616723  0.6668309098612933  0.9955039336609094   T   T   T
  0.1110729156046341  0.8892046077684311  0.1503242333511132   T   T   T
  0.2221019655709211  0.7852840010134656  0.3040819504397103   T   T   T
  0.1107483613962948  0.8952439564211794  0.3828771631132625   T   T   T
  0.0005692459740977  0.6660977540200049  0.2293377621909345   T   T   T
  0.2227185127613234  0.7789207740110063  0.0748740445260522   T   T   T
  0.3349060182044782  0.6684330012841568  0.9955025418435913   T   T   T
  0.4433319455848310  0.8830539704287701  0.1518960545343251   T   T   T
  0.5616870497904893  0.7807532203165565  0.3053361607839467   T   T   T
  0.4497295314308551  0.8994286608062972  0.3876523892645776   T   T   T
  0.3240638309226682  0.6517853333302581  0.2333420297544614   T   T   T
  0.5570782459553025  0.7782848712579125  0.0758076905627256   T   T   T
  0.6673208179372209  0.6672644145191942  0.9955949185586443   T   T   T
  0.7778641596969519  0.8888028403025539  0.1529529022347491   T   T   T
  0.8882952116439017  0.7783717883540713  0.3034267010829499   T   T   T
  0.7795344609616811  0.8871325390326215  0.3855680576063954   T   T   T
  0.6648009894612270  0.6626861649695860  0.2305371159415961   T   T   T
  0.8888486212300701  0.7778183787688916  0.0756854678549927   T   T   T
  0.3478506981227912  0.3188153018708822  0.3338668016783042   T   T   T
  0.0039123513541418  0.0028590151054053  0.3424517039975437   T   T   T
  0.2218913953631661  0.1109208418313846  0.1894994693895891   T   T   T
  0.1098913728897004  0.2200573364101695  0.0341054210490589   T   T   T
  0.3336336438428968  0.0010903246121163  0.3445585001710264   T   T   T
  0.5557336433035457  0.1109333567006787  0.1909863111652245   T   T   T
  0.4444605930877717  0.2222054069131207  0.0352323703447744   T   T   T
  0.6671678037649695 -0.0005008037578195  0.3464098719986933   T   T   T
  0.8906034023596864  0.1123958334047601  0.1923640416775855   T   T   T
  0.7780069155290135  0.2218988220013131  0.0366503079044293   T   T   T
 -0.0061417251363613  0.3312990614919838  0.3505010232767127   T   T   T
  0.2208319439411411  0.4458340560605605  0.1824994018170132   T   T   T
  0.1103471268960197  0.5563198731038618  0.0340153931598334   T   T   T
  0.5557461581657613  0.4447746046334241  0.1894994693898631   T   T   T
  0.4466086635886236  0.5567756271093457  0.0341054210488416   T   T   T
  0.6655766753787581  0.3330323561463033  0.3445585001709121   T   T   T
  0.8896670416058832  0.4441511751003976  0.1912499089582830   T   T   T
  0.7777190192836246  0.5547895908734362  0.0358482697394816   T   T   T
 -0.0003721969053283  0.6670391969190070  0.3438007977554055   T   T   T
  0.2225148249062173  0.7769999584056039  0.1912499089599101   T   T   T
  0.1118774091260929  0.8889479807159945  0.0358482697398577   T   T   T
  0.3353669385012616  0.6728087251315535  0.3505010232737069   T   T   T
  0.5542711665873847  0.7760635976371404  0.1923640416780119   T   T   T
  0.4447671779976317  0.8886600844706743  0.0366503079039811   T   T   T
  0.6638079848880932  0.6627546486417756  0.3424517040002175   T   T   T
  0.8893375945830193  0.7773294054211397  0.1899444986971145   T   T   T
  0.7776271732136905  0.8890398267872419  0.0369883284718787   T   T   T
0.446598 0.216020 0.433410 T T T 
 
  0.00000000E+00  0.00000000E+00  0.00000000E+00
  0.00000000E+00  0.00000000E+00  0.00000000E+00
  0.00000000E+00  0.00000000E+00  0.00000000E+00
  0.00000000E+00  0.00000000E+00  0.00000000E+00
  0.00000000E+00  0.00000000E+00  0.00000000E+00
  0.00000000E+00  0.00000000E+00  0.00000000E+00
  0.00000000E+00  0.00000000E+00  0.00000000E+00
  0.00000000E+00  0.00000000E+00  0.00000000E+00
  0.00000000E+00  0.00000000E+00  0.00000000E+00
  0.00000000E+00  0.00000000E+00  0.00000000E+00
  0.00000000E+00  0.00000000E+00  0.00000000E+00
  0.00000000E+00  0.00000000E+00  0.00000000E+00
  0.00000000E+00  0.00000000E+00  0.00000000E+00
  0.00000000E+00  0.00000000E+00  0.00000000E+00
  0.00000000E+00  0.00000000E+00  0.00000000E+00
  0.00000000E+00  0.00000000E+00  0.00000000E+00
  0.00000000E+00  0.00000000E+00  0.00000000E+00
  0.00000000E+00  0.00000000E+00  0.00000000E+00
  0.00000000E+00  0.00000000E+00  0.00000000E+00
  0.00000000E+00  0.00000000E+00  0.00000000E+00
  0.00000000E+00  0.00000000E+00  0.00000000E+00
  0.00000000E+00  0.00000000E+00  0.00000000E+00
  0.00000000E+00  0.00000000E+00  0.00000000E+00
  0.00000000E+00  0.00000000E+00  0.00000000E+00
  0.00000000E+00  0.00000000E+00  0.00000000E+00
  0.00000000E+00  0.00000000E+00  0.00000000E+00
  0.00000000E+00  0.00000000E+00  0.00000000E+00
  0.00000000E+00  0.00000000E+00  0.00000000E+00
  0.00000000E+00  0.00000000E+00  0.00000000E+00
  0.00000000E+00  0.00000000E+00  0.00000000E+00
  0.00000000E+00  0.00000000E+00  0.00000000E+00
  0.00000000E+00  0.00000000E+00  0.00000000E+00
  0.00000000E+00  0.00000000E+00  0.00000000E+00
  0.00000000E+00  0.00000000E+00  0.00000000E+00
  0.00000000E+00  0.00000000E+00  0.00000000E+00
  0.00000000E+00  0.00000000E+00  0.00000000E+00
  0.00000000E+00  0.00000000E+00  0.00000000E+00
  0.00000000E+00  0.00000000E+00  0.00000000E+00
  0.00000000E+00  0.00000000E+00  0.00000000E+00
  0.00000000E+00  0.00000000E+00  0.00000000E+00
  0.00000000E+00  0.00000000E+00  0.00000000E+00
  0.00000000E+00  0.00000000E+00  0.00000000E+00
  0.00000000E+00  0.00000000E+00  0.00000000E+00
  0.00000000E+00  0.00000000E+00  0.00000000E+00
  0.00000000E+00  0.00000000E+00  0.00000000E+00
  0.00000000E+00  0.00000000E+00  0.00000000E+00
  0.00000000E+00  0.00000000E+00  0.00000000E+00
  0.00000000E+00  0.00000000E+00  0.00000000E+00
  0.00000000E+00  0.00000000E+00  0.00000000E+00
  0.00000000E+00  0.00000000E+00  0.00000000E+00
  0.00000000E+00  0.00000000E+00  0.00000000E+00
  0.00000000E+00  0.00000000E+00  0.00000000E+00
  0.00000000E+00  0.00000000E+00  0.00000000E+00
  0.00000000E+00  0.00000000E+00  0.00000000E+00
  0.00000000E+00  0.00000000E+00  0.00000000E+00
  0.00000000E+00  0.00000000E+00  0.00000000E+00
  0.00000000E+00  0.00000000E+00  0.00000000E+00
  0.00000000E+00  0.00000000E+00  0.00000000E+00
  0.00000000E+00  0.00000000E+00  0.00000000E+00
  0.00000000E+00  0.00000000E+00  0.00000000E+00
  0.00000000E+00  0.00000000E+00  0.00000000E+00
  0.00000000E+00  0.00000000E+00  0.00000000E+00
  0.00000000E+00  0.00000000E+00  0.00000000E+00
  0.00000000E+00  0.00000000E+00  0.00000000E+00
  0.00000000E+00  0.00000000E+00  0.00000000E+00
  0.00000000E+00  0.00000000E+00  0.00000000E+00
  0.00000000E+00  0.00000000E+00  0.00000000E+00
  0.00000000E+00  0.00000000E+00  0.00000000E+00
  0.00000000E+00  0.00000000E+00  0.00000000E+00
  0.00000000E+00  0.00000000E+00  0.00000000E+00
  0.00000000E+00  0.00000000E+00  0.00000000E+00
  0.00000000E+00  0.00000000E+00  0.00000000E+00
  0.00000000E+00  0.00000000E+00  0.00000000E+00
  0.00000000E+00  0.00000000E+00  0.00000000E+00
  0.00000000E+00  0.00000000E+00  0.00000000E+00
  0.00000000E+00  0.00000000E+00  0.00000000E+00
  0.00000000E+00  0.00000000E+00  0.00000000E+00
  0.00000000E+00  0.00000000E+00  0.00000000E+00
  0.00000000E+00  0.00000000E+00  0.00000000E+00
  0.00000000E+00  0.00000000E+00  0.00000000E+00
