CeO2-you-111-you-Sr                     
   1.00000000000000     
     9.8775274047593928   -5.7027934763052466    0.0000000000000000
    -0.0000000036419268   11.4055849391614590    0.0000000000000000
     0.0000000000000000    0.0000000000000000   21.2143641731939105
   O    Sr   Ce   H 
    54     1    26     1
Selective dynamics
Direct
  0.0000340630319864 -0.0000605357621401  0.9976007142839250   T   T   T
  0.1108603728493378  0.2220966864247700  0.1499670275341174   F   F   F
  0.2236123475415529  0.1046296348879066  0.3052595977376039   T   T   T
  0.0847114274594396  0.2082630888196373  0.3861933597459828   T   T   T
  0.0000794119492116  0.0002587728219206  0.2291250765675903   T   T   T
  0.2223471950556402  0.1113613901112132  0.0762871129804026   F   F   F
  0.3322148183972950  0.9998897310796059  0.9974921016133218   T   T   T
  0.4445693135754283  0.2220966864248552  0.1499670275341174   F   F   F
  0.5513436424236414  0.1145650752579405  0.3040089592842678   T   T   T
  0.4558929743440238  0.2125271332703136  0.4029518685820524   T   T   T
  0.3338203643477720 -0.0020848485762745  0.2284257743338876   T   T   T
  0.5554991738694781  0.1111678261305471  0.0749560895127317   F   F   F
  0.6666753801066655 -0.0000463390423055  0.9967439376895074   T   T   T
  0.7782059429576975  0.2230778859153730  0.1486096025482055   F   F   F
  0.8843282149687761  0.1085101092799842  0.3008087677361385   T   T   T
  0.7767697321191227  0.2227938287503061  0.3809954508742721   T   T   T
  0.6650582765375413  0.0021901566016661  0.2275571089007949   T   T   T
  0.8890026522610626  0.1111678261305400  0.0749560895127317   F   F   F
  0.0005951981639650  0.3339586999408449  0.9972298434280200   T   T   T
  0.1111688256807568  0.5554981743196166  0.1503241436692235   F   F   F
  0.2183079562780959  0.4482223460424158  0.3041707815781444   T   T   T
  0.1106744145559594  0.5557611991463164  0.3829705260391366   T   T   T
  0.9986909070541244  0.3315941195606235  0.2288677854970109   T   T   T
  0.2223471950557823  0.4443188049444231  0.0762871129804026   F   F   F
  0.3330149821024115  0.3330542413740922  0.9974841516699896   T   T   T
  0.4445693135752293  0.5558066271503819  0.1499670275341174   F   F   F
  0.5617985554702477  0.4431470902851651  0.3049240655061364   T   T   T
  0.4581965929027549  0.5815783642952612  0.3859968382002642   T   T   T
  0.3322838295807791  0.3333958741098333  0.2267157688515980   T   T   T
  0.5553056098885847  0.4443188049443592  0.0762871129804026   F   F   F
  0.6668610846411175  0.3338810409697822  0.9974996007414879   T   T   T
  0.7776623486387422  0.5554981743195029  0.1503241436692235   F   F   F
  0.8907756575439278  0.4457445027965017  0.3029721204525663   T   T   T
  0.7810972457535655  0.5556176493598800  0.3831248997535030   T   T   T
  0.6687651996551716  0.3327399883588040  0.2284046169461059   T   T   T
  0.8890708560543317  0.4448077121087053  0.0760136272506458   F   F   F
  0.0000711007913320  0.6673732802101074  0.9979157837524005   T   T   T
  0.1111688256805010  0.8890046513608851  0.1503241436692235   F   F   F
  0.2206514441227096  0.7761544044984560  0.3029437248505755   T   T   T
  0.1106675556441810  0.8851921367523342  0.3833904845768555   T   T   T
 -0.0001564506423248  0.6671491445058215  0.2288818691876465   T   T   T
  0.2218582878914148  0.7775961439456651  0.0760136272506458   F   F   F
  0.3326563173252068  0.6662585238313191  0.9974785596998592   T   T   T
  0.4435881140845268  0.8884610570422993  0.1486096025482055   F   F   F
  0.5578754811405412  0.7820455906848632  0.3005563032902712   T   T   T
  0.4437109559150847  0.8889973989094518  0.3809590096030225   T   T   T
  0.3348169848074521  0.6679546404124235  0.2285930002927010   T   T   T
  0.5554991738694639  0.7776643477389058  0.0749560895127317   F   F   F
  0.6673584991418847  0.6664919300939816  0.9973304972993536   T   T   T
  0.7782059429577686  0.8884610570423277  0.1486096025482055   F   F   F
  0.8890275192782539  0.7779383521704484  0.3034982749978188   T   T   T
  0.7766671488377687  0.8897145766044636  0.3810881196815344   T   T   T
  0.6663915930367826  0.6668177499261759  0.2289910746670709   T   T   T
  0.8890708560542535  0.7775961439456296  0.0760136272506458   F   F   F
  0.3324780636187856  0.3344491878441511  0.3552489259939132   T   T   T
  0.9987278230695008  0.0002589338690648  0.3424604035687929   T   T   T
  0.2226783389476736  0.1120236778960404  0.1910683242241547   F   F   F
  0.1118097188647766  0.2225713594324361  0.0372601891791007   F   F   F
  0.3279112079951872 -0.0079796194385859  0.3409960994017778   T   T   T
  0.5555561195431551  0.1111108804576517  0.1881154764645458   F   F   F
  0.4440946405676556  0.2225713594324787  0.0372601891791007   F   F   F
  0.6659701166729195  0.0005936992220867  0.3404335640045865   T   T   T
  0.8888887609142486  0.1111108804574030  0.1881154764645458   F   F   F
  0.7780252532278382  0.2227165064556758  0.0360008535011289   F   F   F
  0.9989351447603835  0.3302767471151656  0.3426883957949351   T   T   T
  0.2226783389461175  0.4439876610516365  0.1910683242241547   F   F   F
  0.1111981273387741  0.5554688726611090  0.0371984302447430   F   F   F
  0.5546433221062159  0.4439876610523257  0.1910683242241547   F   F   F
  0.4440946405675632  0.5548572811350994  0.0372601891791007   F   F   F
  0.6746263606122703  0.3386882591549791  0.3408985125668454   T   T   T
  0.8888480162928190  0.4443620325855875  0.1893056218436300   F   F   F
  0.7776037453223665  0.5554688726611445  0.0371984302447430   F   F   F
 -0.0000644416902902  0.6667350333662097  0.3430557792448259   T   T   T
  0.2223039674142697  0.7778189837071778  0.1893056218436300   F   F   F
  0.1111981273388594  0.8890632546777510  0.0371984302447430   F   F   F
  0.3362735136472144  0.6675813245685518  0.3425670421038484   T   T   T
  0.5555561195426009  0.7777782390849453  0.1881154764645458   F   F   F
  0.4439494935443165  0.8886417467721586  0.0360008535011289   F   F   F
  0.6664093148664006  0.6680661882379935  0.3423080010206913   T   T   T
  0.8888480162929113  0.7778189837072205  0.1893056218436300   F   F   F
  0.7780252532278382  0.8886417467721657  0.0360008535011289   F   F   F
  0.4609704181678334  0.2068992318814355  0.4485481900667226   T   T   T
 
  0.00000000E+00  0.00000000E+00  0.00000000E+00
  0.00000000E+00  0.00000000E+00  0.00000000E+00
  0.00000000E+00  0.00000000E+00  0.00000000E+00
  0.00000000E+00  0.00000000E+00  0.00000000E+00
  0.00000000E+00  0.00000000E+00  0.00000000E+00
  0.00000000E+00  0.00000000E+00  0.00000000E+00
  0.00000000E+00  0.00000000E+00  0.00000000E+00
  0.00000000E+00  0.00000000E+00  0.00000000E+00
  0.00000000E+00  0.00000000E+00  0.00000000E+00
  0.00000000E+00  0.00000000E+00  0.00000000E+00
  0.00000000E+00  0.00000000E+00  0.00000000E+00
  0.00000000E+00  0.00000000E+00  0.00000000E+00
  0.00000000E+00  0.00000000E+00  0.00000000E+00
  0.00000000E+00  0.00000000E+00  0.00000000E+00
  0.00000000E+00  0.00000000E+00  0.00000000E+00
  0.00000000E+00  0.00000000E+00  0.00000000E+00
  0.00000000E+00  0.00000000E+00  0.00000000E+00
  0.00000000E+00  0.00000000E+00  0.00000000E+00
  0.00000000E+00  0.00000000E+00  0.00000000E+00
  0.00000000E+00  0.00000000E+00  0.00000000E+00
  0.00000000E+00  0.00000000E+00  0.00000000E+00
  0.00000000E+00  0.00000000E+00  0.00000000E+00
  0.00000000E+00  0.00000000E+00  0.00000000E+00
  0.00000000E+00  0.00000000E+00  0.00000000E+00
  0.00000000E+00  0.00000000E+00  0.00000000E+00
  0.00000000E+00  0.00000000E+00  0.00000000E+00
  0.00000000E+00  0.00000000E+00  0.00000000E+00
  0.00000000E+00  0.00000000E+00  0.00000000E+00
  0.00000000E+00  0.00000000E+00  0.00000000E+00
  0.00000000E+00  0.00000000E+00  0.00000000E+00
  0.00000000E+00  0.00000000E+00  0.00000000E+00
  0.00000000E+00  0.00000000E+00  0.00000000E+00
  0.00000000E+00  0.00000000E+00  0.00000000E+00
  0.00000000E+00  0.00000000E+00  0.00000000E+00
  0.00000000E+00  0.00000000E+00  0.00000000E+00
  0.00000000E+00  0.00000000E+00  0.00000000E+00
  0.00000000E+00  0.00000000E+00  0.00000000E+00
  0.00000000E+00  0.00000000E+00  0.00000000E+00
  0.00000000E+00  0.00000000E+00  0.00000000E+00
  0.00000000E+00  0.00000000E+00  0.00000000E+00
  0.00000000E+00  0.00000000E+00  0.00000000E+00
  0.00000000E+00  0.00000000E+00  0.00000000E+00
  0.00000000E+00  0.00000000E+00  0.00000000E+00
  0.00000000E+00  0.00000000E+00  0.00000000E+00
  0.00000000E+00  0.00000000E+00  0.00000000E+00
  0.00000000E+00  0.00000000E+00  0.00000000E+00
  0.00000000E+00  0.00000000E+00  0.00000000E+00
  0.00000000E+00  0.00000000E+00  0.00000000E+00
  0.00000000E+00  0.00000000E+00  0.00000000E+00
  0.00000000E+00  0.00000000E+00  0.00000000E+00
  0.00000000E+00  0.00000000E+00  0.00000000E+00
  0.00000000E+00  0.00000000E+00  0.00000000E+00
  0.00000000E+00  0.00000000E+00  0.00000000E+00
  0.00000000E+00  0.00000000E+00  0.00000000E+00
  0.00000000E+00  0.00000000E+00  0.00000000E+00
  0.00000000E+00  0.00000000E+00  0.00000000E+00
  0.00000000E+00  0.00000000E+00  0.00000000E+00
  0.00000000E+00  0.00000000E+00  0.00000000E+00
  0.00000000E+00  0.00000000E+00  0.00000000E+00
  0.00000000E+00  0.00000000E+00  0.00000000E+00
  0.00000000E+00  0.00000000E+00  0.00000000E+00
  0.00000000E+00  0.00000000E+00  0.00000000E+00
  0.00000000E+00  0.00000000E+00  0.00000000E+00
  0.00000000E+00  0.00000000E+00  0.00000000E+00
  0.00000000E+00  0.00000000E+00  0.00000000E+00
  0.00000000E+00  0.00000000E+00  0.00000000E+00
  0.00000000E+00  0.00000000E+00  0.00000000E+00
  0.00000000E+00  0.00000000E+00  0.00000000E+00
  0.00000000E+00  0.00000000E+00  0.00000000E+00
  0.00000000E+00  0.00000000E+00  0.00000000E+00
  0.00000000E+00  0.00000000E+00  0.00000000E+00
  0.00000000E+00  0.00000000E+00  0.00000000E+00
  0.00000000E+00  0.00000000E+00  0.00000000E+00
  0.00000000E+00  0.00000000E+00  0.00000000E+00
  0.00000000E+00  0.00000000E+00  0.00000000E+00
  0.00000000E+00  0.00000000E+00  0.00000000E+00
  0.00000000E+00  0.00000000E+00  0.00000000E+00
  0.00000000E+00  0.00000000E+00  0.00000000E+00
  0.00000000E+00  0.00000000E+00  0.00000000E+00
  0.00000000E+00  0.00000000E+00  0.00000000E+00
  0.00000000E+00  0.00000000E+00  0.00000000E+00
  0.00000000E+00  0.00000000E+00  0.00000000E+00
