CeO2-you-111-you-Y                      
   1.00000000000000     
     9.8541710964902656   -5.7002138870081378   -0.0061602052324821
    -0.0094441627184748   11.3840679991647793    0.0061602041997280
    -0.0065608522837107    0.0113637289249815   20.4772533645604646
   O    Y    Ce H
    53     1    26 2
Selective dynamics
Direct
 -0.0004448303493603  0.0000161626235103  0.9896780986901828   T   T   T
  0.1103014469570355  0.2209792530313210  0.1463171838830707   F   F   F
  0.2246856244464629  0.1061316359372606  0.3059204703396244   T   T   T
  0.1212559287049127  0.2327843570861820  0.3799966853450789   T   T   T
  0.0006732056433324  0.0020536331965227  0.2304970982663903   T   T   T
  0.2217771348191016  0.1105840156854417  0.0713897690034386   F   F   F
  0.3349020572173313  0.0010893806174124  0.9909487744961732   T   T   T
  0.4409103861978400  0.2257556138020462  0.1508094324408271   F   F   F
  0.5562516377293100  0.1104153622686485  0.3067833871540507   T   T   T
  0.4473269174053564  0.2193390825961758  0.3905288155089884   T   T   T
  0.3352054258483925  0.0002276176808538  0.2289115546026373   T   T   T
  0.5553299663605026  0.1113370336391736  0.0747484944648419   F   F   F
  0.6653909881812404  0.0012760118177943  0.9909007209482806   T   T   T
  0.7846416895687538  0.2255093837444418  0.1506604174209879   F   F   F
  0.8838055398596097  0.1069785387420109  0.3066181276645835   T   T   T
  0.7723124173644752  0.2186517529097550  0.3924464187795567   T   T   T
  0.6663158799812992  0.0003511200178198  0.2290480362848033   T   T   T
  0.8884622558754880  0.1104803231987058  0.0714047354463459   F   F   F
 -0.0020865439123668  0.3329211911469326  0.9897592547701908   T   T   T
  0.1102327438134282  0.5564342561853446  0.1468132143926385   F   F   F
  0.1150855761321638  0.5515814238682614  0.3843784764629887   T   T   T
  0.0176835592947488  0.3427691286254622  0.2360503708894621   T   T   T
  0.2219075155049257  0.4447584844954050  0.0691860160652969   F   F   F
  0.3337261204910980  0.3329398795077604  0.9895368684852345   T   T   T
  0.4456867469712660  0.5563655530441650  0.1463171838830785   F   F   F
  0.5605353640648759  0.4419803755555875  0.3059204703395588   T   T   T
  0.4338816429173507  0.5454110712974520  0.3799966853452840   T   T   T
  0.3244918506592674  0.3421741493402211  0.2364964075022421   T   T   T
  0.5560829843138383  0.4448888651802910  0.0713897690035501   F   F   F
  0.6655776193822114  0.3317639427826345  0.9909487744961929   T   T   T
  0.7774695138560903  0.5556635605202566  0.1495364897042188   F   F   F
  0.8836757282773290  0.4446833425522714  0.3071381776282663   T   T   T
  0.7785922522441621  0.5585193111360042  0.3894901413831893   T   T   T
  0.6664393823173784  0.3314605741509142  0.2289115546026455   T   T   T
  0.8878831155991290  0.4450321056821202  0.0719068217811784   F   F   F
 -0.0001790192354038  0.6668460192346842  0.9897342331026328   T   T   T
  0.1110034394787738  0.8891974861424112  0.1495364897042198   F   F   F
  0.2219826574439295  0.7829912717168953  0.3071381776282254   T   T   T
  0.1081476888640823  0.8880747477545556  0.3894901413831033   T   T   T
  0.0002463435486510  0.6664206564503216  0.2307210483931181   T   T   T
  0.2216338943179972  0.7787838844006184  0.0719068217811614   F   F   F
  0.3337448088536095  0.6687535439131098  0.9897592547702606   T   T   T
  0.4411566162557539  0.8820253104311053  0.1506604174208888   F   F   F
  0.5596884612615739  0.7828614601413391  0.3066181276643724   T   T   T
  0.4480142470897726  0.8943545826307314  0.3924464187792919   T   T   T
  0.3238968713764240  0.6489834407062438  0.2360503708896960   T   T   T
  0.5561866768018381  0.7782047441250279  0.0714047354463896   F   F   F
  0.6666508373764504  0.6671118303495731  0.9896780986901473   T   T   T
  0.7776162374295693  0.8890507625716083  0.1492922043872008   F   F   F
  0.8886539361487114  0.7780130638511285  0.3054595394297865   T   T   T
  0.7790337621371028  0.8876332378630382  0.3889057934400321   T   T   T
  0.6646133668035994  0.6659937943571146  0.2304970982663973   T   T   T
  0.8886511940879041  0.7780158059124029  0.0715441149512368   F   F   F
  0.3427136404759436  0.3239523595222103  0.3487672520273819   T   T   T
  0.0024932355914462  0.0023436059799096  0.3470950798273483   T   T   T
  0.2220988755657144  0.1122131457473914  0.1912000958504435   F   F   F
  0.1098631499003377  0.2205489561636396  0.0294373694161638   F   F   F
  0.3340278275884729  0.0012916456639102  0.3487034358764400   T   T   T
  0.5557305951169879  0.1109364048847809  0.1905479610431994   F   F   F
  0.4439849043250946  0.2226810956751042  0.0318621895086832   F   F   F
  0.6671447346390870 -0.0004777346379205  0.3487252194852983   T   T   T
  0.8900890999679875  0.1120592719854970  0.1907244227263368   F   F   F
  0.7778543355957525  0.2227222289856712  0.0318691142705602   F   F   F
 -0.0102778314581907  0.3272800861214872  0.3534248880489067   T   T   T
  0.2223752482010555  0.4442907517955916  0.1822750624739903   F   F   F
  0.1097017101887399  0.5569652898108285  0.0297543637223001   F   F   F
  0.5544538542508908  0.4445671244329488  0.1912000958504734   F   F   F
  0.4461170438366671  0.5568038500996408  0.0294373694161588   F   F   F
  0.6653753543409835  0.3326381724127542  0.3487034358764403   T   T   T
  0.8898541533455782  0.4450025302580110  0.1911699559299797   F   F   F
  0.7771467502175026  0.5551524159484009  0.0317026834320752   F   F   F
 -0.0009885815041876  0.6676555815074078  0.3473432409791540   T   T   T
  0.2216634697449021  0.7768128466594368  0.1911699559300009   F   F   F
  0.1115145840516542  0.8895202497824428  0.0317026834320787   F   F   F
  0.3393859138753623  0.6769448314606017  0.3534248880486435   T   T   T
  0.5546077280111396  0.7765779000313981  0.1907244227264469   F   F   F
  0.4439437710142762  0.8888126644045355  0.0318691142705619   F   F   F
  0.6643233940179553  0.6641737644055579  0.3470950798273909   T   T   T
  0.8886780772029085  0.7779889227981754  0.1893038899086881   F   F   F
  0.7771920981176177  0.8894749018825198  0.0314627464917265   F   F   F
0.3427136404759436 0.3239523595222103 0.448767 T T T
0.446598 0.216020 0.433410 T T T 
 
  0.00000000E+00  0.00000000E+00  0.00000000E+00
  0.00000000E+00  0.00000000E+00  0.00000000E+00
  0.00000000E+00  0.00000000E+00  0.00000000E+00
  0.00000000E+00  0.00000000E+00  0.00000000E+00
  0.00000000E+00  0.00000000E+00  0.00000000E+00
  0.00000000E+00  0.00000000E+00  0.00000000E+00
  0.00000000E+00  0.00000000E+00  0.00000000E+00
  0.00000000E+00  0.00000000E+00  0.00000000E+00
  0.00000000E+00  0.00000000E+00  0.00000000E+00
  0.00000000E+00  0.00000000E+00  0.00000000E+00
  0.00000000E+00  0.00000000E+00  0.00000000E+00
  0.00000000E+00  0.00000000E+00  0.00000000E+00
  0.00000000E+00  0.00000000E+00  0.00000000E+00
  0.00000000E+00  0.00000000E+00  0.00000000E+00
  0.00000000E+00  0.00000000E+00  0.00000000E+00
  0.00000000E+00  0.00000000E+00  0.00000000E+00
  0.00000000E+00  0.00000000E+00  0.00000000E+00
  0.00000000E+00  0.00000000E+00  0.00000000E+00
  0.00000000E+00  0.00000000E+00  0.00000000E+00
  0.00000000E+00  0.00000000E+00  0.00000000E+00
  0.00000000E+00  0.00000000E+00  0.00000000E+00
  0.00000000E+00  0.00000000E+00  0.00000000E+00
  0.00000000E+00  0.00000000E+00  0.00000000E+00
  0.00000000E+00  0.00000000E+00  0.00000000E+00
  0.00000000E+00  0.00000000E+00  0.00000000E+00
  0.00000000E+00  0.00000000E+00  0.00000000E+00
  0.00000000E+00  0.00000000E+00  0.00000000E+00
  0.00000000E+00  0.00000000E+00  0.00000000E+00
  0.00000000E+00  0.00000000E+00  0.00000000E+00
  0.00000000E+00  0.00000000E+00  0.00000000E+00
  0.00000000E+00  0.00000000E+00  0.00000000E+00
  0.00000000E+00  0.00000000E+00  0.00000000E+00
  0.00000000E+00  0.00000000E+00  0.00000000E+00
  0.00000000E+00  0.00000000E+00  0.00000000E+00
  0.00000000E+00  0.00000000E+00  0.00000000E+00
  0.00000000E+00  0.00000000E+00  0.00000000E+00
  0.00000000E+00  0.00000000E+00  0.00000000E+00
  0.00000000E+00  0.00000000E+00  0.00000000E+00
  0.00000000E+00  0.00000000E+00  0.00000000E+00
  0.00000000E+00  0.00000000E+00  0.00000000E+00
  0.00000000E+00  0.00000000E+00  0.00000000E+00
  0.00000000E+00  0.00000000E+00  0.00000000E+00
  0.00000000E+00  0.00000000E+00  0.00000000E+00
  0.00000000E+00  0.00000000E+00  0.00000000E+00
  0.00000000E+00  0.00000000E+00  0.00000000E+00
  0.00000000E+00  0.00000000E+00  0.00000000E+00
  0.00000000E+00  0.00000000E+00  0.00000000E+00
  0.00000000E+00  0.00000000E+00  0.00000000E+00
  0.00000000E+00  0.00000000E+00  0.00000000E+00
  0.00000000E+00  0.00000000E+00  0.00000000E+00
  0.00000000E+00  0.00000000E+00  0.00000000E+00
  0.00000000E+00  0.00000000E+00  0.00000000E+00
  0.00000000E+00  0.00000000E+00  0.00000000E+00
  0.00000000E+00  0.00000000E+00  0.00000000E+00
  0.00000000E+00  0.00000000E+00  0.00000000E+00
  0.00000000E+00  0.00000000E+00  0.00000000E+00
  0.00000000E+00  0.00000000E+00  0.00000000E+00
  0.00000000E+00  0.00000000E+00  0.00000000E+00
  0.00000000E+00  0.00000000E+00  0.00000000E+00
  0.00000000E+00  0.00000000E+00  0.00000000E+00
  0.00000000E+00  0.00000000E+00  0.00000000E+00
  0.00000000E+00  0.00000000E+00  0.00000000E+00
  0.00000000E+00  0.00000000E+00  0.00000000E+00
  0.00000000E+00  0.00000000E+00  0.00000000E+00
  0.00000000E+00  0.00000000E+00  0.00000000E+00
  0.00000000E+00  0.00000000E+00  0.00000000E+00
  0.00000000E+00  0.00000000E+00  0.00000000E+00
  0.00000000E+00  0.00000000E+00  0.00000000E+00
  0.00000000E+00  0.00000000E+00  0.00000000E+00
  0.00000000E+00  0.00000000E+00  0.00000000E+00
  0.00000000E+00  0.00000000E+00  0.00000000E+00
  0.00000000E+00  0.00000000E+00  0.00000000E+00
  0.00000000E+00  0.00000000E+00  0.00000000E+00
  0.00000000E+00  0.00000000E+00  0.00000000E+00
  0.00000000E+00  0.00000000E+00  0.00000000E+00
  0.00000000E+00  0.00000000E+00  0.00000000E+00
  0.00000000E+00  0.00000000E+00  0.00000000E+00
  0.00000000E+00  0.00000000E+00  0.00000000E+00
  0.00000000E+00  0.00000000E+00  0.00000000E+00
  0.00000000E+00  0.00000000E+00  0.00000000E+00
