CeO2-you-111-you-Mn                     
   1.00000000000000     
     9.8306756423332793   -5.6704207768971946   -0.0002292956547150
     0.0000000016106993   11.3408395608094512    0.0000000000258208
    -0.0007638504418016    0.0000000000879288   21.0009507403146891
   O    Mn   Ce   H 
    53     1    26     2
Selective dynamics
Direct
  0.9992060297695674  0.0005929658135650  0.9956173133228658   T   T   T
  0.1147806051666223  0.2240568025828651  0.1512121933174271   F   F   F
  0.2211397958693545  0.1036544444527859  0.3057878948350510   T   T   T
  0.1095289444011734  0.2299742946363713  0.3892609543045743   T   T   T
 -0.0005459751576467  0.0015853515212627  0.2294237037716365   T   T   T
  0.2218128888728970  0.1101333901903061  0.0748090717074703   F   F   F
  0.3325897542348583  0.9990378653711613  0.9944927900390176   T   T   T
  0.4446739516420024  0.2201414001664403  0.1470812773409378   F   F   F
  0.5520619466288731  0.1036042336501020  0.3057617484009642   T   T   T
  0.4502371572181377  0.1917064381176490  0.4052256703456385   T   T   T
  0.3342214385545823 -0.0007973395324609  0.2291660994082080   T   T   T
  0.5551556076454460  0.1095526112272722  0.0746141904468729   F   F   F
  0.6688886573387405  0.0009413537953927  0.9951993486539138   T   T   T
  0.7743284835526580  0.2254025228506364  0.1518660555638007   F   F   F
  0.8907506551900899  0.1112398131042800  0.3053898472847552   T   T   T
  0.7823031003607296  0.2170361223632547  0.3883645098645164   T   T   T
  0.6682484471356949  0.0002516956789875  0.2294988517004126   T   T   T
  0.8879931440689361  0.1106630720343986  0.0777263552605021   F   F   F
  0.9986728210812251  0.3310742546721013  0.9956331281814079   T   T   T
  0.1106648660060614  0.5554702279154569  0.1514324576108592   F   F   F
  0.2208921190364520  0.4431700344972814  0.3093576677797379   T   T   T
  0.1115923933978114  0.5603764156360885  0.3865612698409525   T   T   T
  0.0002140051803180  0.3329176379225347  0.2301581443555227   T   T   T
  0.2218128888728899  0.4450124986825372  0.0748090717074916   F   F   F
  0.3310160395243695  0.3323543093804424  0.9946485921052680   T   T   T
  0.4446739516400626  0.5578665514761454  0.1470812773408312   F   F   F
  0.4482040804086500  0.5449885894613553  0.3779782960594057   T   T   T
  0.3447283040325509  0.3402329275677988  0.2258359101105814   T   T   T
  0.5550075032610451  0.4441697516308452  0.0717851404022980   F   F   F
  0.6677142118053667  0.3326870045554695  0.9946284623799697   T   T   T
  0.7786464490571063  0.5559902245280171  0.1476730008328531   F   F   F
  0.8937142295517276  0.4470157225531265  0.3056791526519834   T   T   T
  0.7671466517943520  0.5618216089594501  0.3803318722549441   T   T   T
  0.6568452940598892  0.3413914535221851  0.2349044989332539   T   T   T
  0.8900555430420809  0.4446857642508562  0.0750736723468748   F   F   F
  0.0001477067343346  0.6668752115535634  0.9949485698135375   T   T   T
  0.1106648660054574  0.8885286380894470  0.1514324576108379   F   F   F
  0.2192448574632204  0.7752216618768376  0.3040245311241238   T   T   T
  0.1093546044553049  0.8857404374182761  0.3868582802408073   T   T   T
  0.9972791952086747  0.6664337465209368  0.2305182007317409   T   T   T
  0.2223993265075421  0.7778666632536897  0.0753776639726240   F   F   F
  0.3325113947478493  0.6668357962563117  0.9943102328200950   T   T   T
  0.4445846560104556  0.8889593280053418  0.1507104285324203   F   F   F
  0.5586912131674980  0.7819462901446799  0.3052811457592118   T   T   T
  0.4413092047469875  0.8813310989129861  0.3856095844078210   T   T   T
  0.3342453399930261  0.6655227063845193  0.2313340027781403   T   T   T
  0.5551556076455242  0.7789359964186104  0.0746141904468445   F   F   F
  0.6679214346723554  0.6689481861067220  0.9948246416252832   T   T   T
  0.7743284835516562  0.8822589607018401  0.1518660555639002   F   F   F
  0.8927744265663540  0.7857284109088383  0.3049024118507492   T   T   T
  0.7796094091859038  0.8920668746380090  0.3877109846012260   T   T   T
  0.6585599017445518  0.6494062136097318  0.2368568897409269   T   T   T
  0.8900555430420880  0.7787027787909864  0.0750736723468179   F   F   F
  0.2912838110471052  0.3681069936286518  0.3751167639222751   T   T   T
  0.0099764380405290  0.0075682883224208  0.3447944506682837   T   T   T
  0.2234499082859926  0.1134888642335170  0.1919726197522849   F   F   F
  0.1111995868989908  0.2222662934494224  0.0360859386465222   F   F   F
  0.3285749872145254 -0.0049255541760037  0.3445069679871708   T   T   T
  0.5552053690204914  0.1114736016116851  0.1907075081673639   F   F   F
  0.4431567799344691  0.2199119024980973  0.0332949186639482   F   F   F
  0.6672528283835459  0.0012052997397071  0.3460768903982782   T   T   T
  0.8883912207120659  0.1108621103568552  0.1913123864994759   F   F   F
  0.7777265285130710  0.2222006598906177  0.0356238585410580   F   F   F
 -0.0025362215912483  0.3347479860489727  0.3453754329897857   T   T   T
  0.2234499082864829  0.4432940440515551  0.1919726197522422   F   F   F
  0.1106896259178995  0.5547672585082921  0.0358611128630670   F   F   F
  0.5528741807430038  0.4431030903695472  0.1821148526757668   F   F   F
  0.4431567799342560  0.5565788774360101  0.0332949186639766   F   F   F
  0.6678360086036020  0.3259223460695463  0.3524760756988825   T   T   T
  0.8883632905406955  0.4446930403334832  0.1913261897286844   F   F   F
  0.7798372668044635  0.5565856334021291  0.0337449985792091   F   F   F
 -0.0014810776888627  0.6674830002021206  0.3448140792127154   T   T   T
  0.2220622196515052  0.7776981098263818  0.1897169645675945   F   F   F
  0.1106896259177006  0.8892563674100273  0.0358611128630528   F   F   F
  0.3320771542327914  0.6684534785507702  0.3443464256660007   T   T   T
  0.5552053690235184  0.7770647674083904  0.1907075081674066   F   F   F
  0.4449213969788985  0.8891276984892258  0.0351915883838103   F   F   F
  0.6739023015541561  0.6817486994410918  0.3480713085063623   T   T   T
  0.8883632905435874  0.7770032502122675  0.1913261897286631   F   F   F
  0.7777265285134831  0.8888588686227195  0.0356238585410864   F   F   F
  0.3394886405391149  0.3237515395289793  0.4386725195073027   T   T   T
  0.4017092930597860  0.2352188473503006  0.4249112153214217   T   T   T
 
  0.00000000E+00  0.00000000E+00  0.00000000E+00
  0.00000000E+00  0.00000000E+00  0.00000000E+00
  0.00000000E+00  0.00000000E+00  0.00000000E+00
  0.00000000E+00  0.00000000E+00  0.00000000E+00
  0.00000000E+00  0.00000000E+00  0.00000000E+00
  0.00000000E+00  0.00000000E+00  0.00000000E+00
  0.00000000E+00  0.00000000E+00  0.00000000E+00
  0.00000000E+00  0.00000000E+00  0.00000000E+00
  0.00000000E+00  0.00000000E+00  0.00000000E+00
  0.00000000E+00  0.00000000E+00  0.00000000E+00
  0.00000000E+00  0.00000000E+00  0.00000000E+00
  0.00000000E+00  0.00000000E+00  0.00000000E+00
  0.00000000E+00  0.00000000E+00  0.00000000E+00
  0.00000000E+00  0.00000000E+00  0.00000000E+00
  0.00000000E+00  0.00000000E+00  0.00000000E+00
  0.00000000E+00  0.00000000E+00  0.00000000E+00
  0.00000000E+00  0.00000000E+00  0.00000000E+00
  0.00000000E+00  0.00000000E+00  0.00000000E+00
  0.00000000E+00  0.00000000E+00  0.00000000E+00
  0.00000000E+00  0.00000000E+00  0.00000000E+00
  0.00000000E+00  0.00000000E+00  0.00000000E+00
  0.00000000E+00  0.00000000E+00  0.00000000E+00
  0.00000000E+00  0.00000000E+00  0.00000000E+00
  0.00000000E+00  0.00000000E+00  0.00000000E+00
  0.00000000E+00  0.00000000E+00  0.00000000E+00
  0.00000000E+00  0.00000000E+00  0.00000000E+00
  0.00000000E+00  0.00000000E+00  0.00000000E+00
  0.00000000E+00  0.00000000E+00  0.00000000E+00
  0.00000000E+00  0.00000000E+00  0.00000000E+00
  0.00000000E+00  0.00000000E+00  0.00000000E+00
  0.00000000E+00  0.00000000E+00  0.00000000E+00
  0.00000000E+00  0.00000000E+00  0.00000000E+00
  0.00000000E+00  0.00000000E+00  0.00000000E+00
  0.00000000E+00  0.00000000E+00  0.00000000E+00
  0.00000000E+00  0.00000000E+00  0.00000000E+00
  0.00000000E+00  0.00000000E+00  0.00000000E+00
  0.00000000E+00  0.00000000E+00  0.00000000E+00
  0.00000000E+00  0.00000000E+00  0.00000000E+00
  0.00000000E+00  0.00000000E+00  0.00000000E+00
  0.00000000E+00  0.00000000E+00  0.00000000E+00
  0.00000000E+00  0.00000000E+00  0.00000000E+00
  0.00000000E+00  0.00000000E+00  0.00000000E+00
  0.00000000E+00  0.00000000E+00  0.00000000E+00
  0.00000000E+00  0.00000000E+00  0.00000000E+00
  0.00000000E+00  0.00000000E+00  0.00000000E+00
  0.00000000E+00  0.00000000E+00  0.00000000E+00
  0.00000000E+00  0.00000000E+00  0.00000000E+00
  0.00000000E+00  0.00000000E+00  0.00000000E+00
  0.00000000E+00  0.00000000E+00  0.00000000E+00
  0.00000000E+00  0.00000000E+00  0.00000000E+00
  0.00000000E+00  0.00000000E+00  0.00000000E+00
  0.00000000E+00  0.00000000E+00  0.00000000E+00
  0.00000000E+00  0.00000000E+00  0.00000000E+00
  0.00000000E+00  0.00000000E+00  0.00000000E+00
  0.00000000E+00  0.00000000E+00  0.00000000E+00
  0.00000000E+00  0.00000000E+00  0.00000000E+00
  0.00000000E+00  0.00000000E+00  0.00000000E+00
  0.00000000E+00  0.00000000E+00  0.00000000E+00
  0.00000000E+00  0.00000000E+00  0.00000000E+00
  0.00000000E+00  0.00000000E+00  0.00000000E+00
  0.00000000E+00  0.00000000E+00  0.00000000E+00
  0.00000000E+00  0.00000000E+00  0.00000000E+00
  0.00000000E+00  0.00000000E+00  0.00000000E+00
  0.00000000E+00  0.00000000E+00  0.00000000E+00
  0.00000000E+00  0.00000000E+00  0.00000000E+00
  0.00000000E+00  0.00000000E+00  0.00000000E+00
  0.00000000E+00  0.00000000E+00  0.00000000E+00
  0.00000000E+00  0.00000000E+00  0.00000000E+00
  0.00000000E+00  0.00000000E+00  0.00000000E+00
  0.00000000E+00  0.00000000E+00  0.00000000E+00
  0.00000000E+00  0.00000000E+00  0.00000000E+00
  0.00000000E+00  0.00000000E+00  0.00000000E+00
  0.00000000E+00  0.00000000E+00  0.00000000E+00
  0.00000000E+00  0.00000000E+00  0.00000000E+00
  0.00000000E+00  0.00000000E+00  0.00000000E+00
  0.00000000E+00  0.00000000E+00  0.00000000E+00
  0.00000000E+00  0.00000000E+00  0.00000000E+00
  0.00000000E+00  0.00000000E+00  0.00000000E+00
  0.00000000E+00  0.00000000E+00  0.00000000E+00
  0.00000000E+00  0.00000000E+00  0.00000000E+00
  0.00000000E+00  0.00000000E+00  0.00000000E+00
  0.00000000E+00  0.00000000E+00  0.00000000E+00
