CeO2-you-111-you-Y                      
   1.00000000000000     
     9.8634206918334737   -5.6833645632431500   -0.0013176301701052
    -0.0000000021365577   11.3667271224971866    0.0000000001604351
    -0.0029977866109228    0.0000000003100426   20.7747371626223511
   O    Y    Ce   H 
    53     1    26     2
Selective dynamics
Direct
  0.9993024388974301  0.0007416352747556  0.9942525914352973   T   T   T
  0.1177162729169723  0.2255246364582675  0.1509889442302352   F   F   F
  0.2236105768521626  0.1087124480994055  0.3064417346111710   T   T   T
  0.1066286989555971  0.2198014543945776  0.3878969536816161   T   T   T
  0.0012080385820630  0.0020380469371654  0.2287623610673776   T   T   T
  0.2215270079527016  0.1099437174387035  0.0729857379885317   F   F   F
  0.3334975426889125 -0.0001428544763824  0.9923854769684743   T   T   T
  0.4435836444541792  0.2208044440422441  0.1468875027983572   F   F   F
  0.5484149527270890  0.1051853995072033  0.3081456551416288   T   T   T
  0.4392949577360180  0.2373350279572868  0.3965276737091449   T   T   T
  0.3326500234457810 -0.0003526473931473  0.2295182119698702   T   T   T
  0.5548958073599550  0.1102225579088554  0.0732278741921988   F   F   F
  0.6685195371496898  0.0010820941922891  0.9939636453352230   T   T   T
  0.7740441114300793  0.2253944916817971  0.1509398239224780   F   F   F
  0.8895122739689264  0.1106434391430939  0.3042395536331270   T   T   T
  0.7843193021677725  0.2159134808965542  0.3903208110062159   T   T   T
  0.6674737502294430  0.0029131606811616  0.2291269648780247   T   T   T
  0.8890874823756434  0.1112102411877700  0.0763145413293387   F   F   F
  0.9988367338359242  0.3314671911595742  0.9938677620857911   T   T   T
  0.1110361790627934  0.5556730161596235  0.1500571970349469   F   F   F
  0.2138356212152308  0.4409087584459967  0.3035081440585763   T   T   T
  0.1140450186438258  0.5557718589694893  0.3875826469308885   T   T   T
  0.9983053179854514  0.3308570916274378  0.2277773143014591   T   T   T
  0.2215270079527230  0.4449162905139943  0.0729857379885530   F   F   F
  0.3320540797573320  0.3328250203312193  0.9925763099811941   T   T   T
  0.4435836444533123  0.5561132004128666  0.1468875027982932   F   F   F
  0.4382045226322607  0.5433473683332949  0.3797867237942490   T   T   T
  0.3515224307088272  0.3418893684466517  0.2357782073906962   T   T   T
  0.5559393073540946  0.4446356536771816  0.0707684313896024   F   F   F
  0.6674697503118772  0.3325134082613400  0.9927079958719544   T   T   T
  0.7789901307455693  0.5561620653721420  0.1472141095533459   F   F   F
  0.8963516198276806  0.4439323471153296  0.3047721597789357   T   T   T
  0.7873836590973469  0.5594619723440409  0.3871732458259094   T   T   T
  0.6570705755001632  0.3419442666015652  0.2354132150449831   T   T   T
  0.8896119393648263  0.4446354992188972  0.0734308136570405   F   F   F
  0.0002976282045423  0.6668802564032679  0.9927223942405533   T   T   T
  0.1110361790628289  0.8886971629028011  0.1500571970348901   F   F   F
  0.2223276289413906  0.7755137805310331  0.3044604500487232   T   T   T
  0.1156707504884820  0.8877110534312403  0.3880036635519481   T   T   T
  0.9988470045894940  0.6661204817413493  0.2298052103618056   T   T   T
  0.2226534684855963  0.7779937342428269  0.0733874470096296   F   F   F
  0.3333040653278606  0.6669121776484248  0.9923844814643494   T   T   T
  0.4445945823821589  0.8889642911911793  0.1503071434271774   F   F   F
  0.5554037710376433  0.7850063281414210  0.3055134537479174   T   T   T
  0.4393620235696033  0.8848463330434662  0.3886778540934648   T   T   T
  0.3342449967469066  0.6652545073009529  0.2297604697705656   T   T   T
  0.5548958073601327  0.7780062494512876  0.0732278741921775   F   F   F
  0.6673768175400566  0.6682664607351869  0.9926333548200658   T   T   T
  0.7740441114294683  0.8819826197480367  0.1509398239223998   F   F   F
  0.8980393205313191  0.7857201397172722  0.3053026426279571   T   T   T
  0.7852162913788865  0.9026515156411075  0.3901203544897441   T   T   T
  0.6583378211002707  0.6490995470201906  0.2345132316562586   T   T   T
  0.8896119393652313  0.7783094401459536  0.0734308136570121   F   F   F
  0.3094449853976412  0.3278041898701751  0.3451280399451528   T   T   T
  0.0018179038455621  0.0011252599534745  0.3461319349795169   T   T   T
  0.2231967633820560  0.1120301759475026  0.1910648750973749   F   F   F
  0.1112716109677834  0.2223023054838933  0.0340970292666185   F   F   F
  0.3278639997392077 -0.0106555822917496  0.3448918144808651   T   T   T
  0.5553124973296235  0.1120176836261990  0.1907063298272362   F   F   F
  0.4432256385119544  0.2199881695229706  0.0317488490811897   F   F   F
  0.6666022880026802 -0.0004501831062292  0.3467649940593976   T   T   T
  0.8888663274582029  0.1110996637295329  0.1904953480803826   F   F   F
  0.7776352550491978  0.2223938734084356  0.0342000598855066   F   F   F
  0.0001551201068780  0.3318973302528226  0.3465019187492957   T   T   T
  0.2231967633825107  0.4444995874335973  0.1910648750973820   F   F   F
  0.1108530605538576  0.5548852131611923  0.0339793516522633   F   F   F
  0.5549595881711298  0.4441457940845694  0.1819516799716467   F   F   F
  0.4432256385122315  0.5565714689891976  0.0317488490811471   F   F   F
  0.6795492164184319  0.3313238752518843  0.3526323585800941   T   T   T
  0.8882817656683528  0.4449001352642696  0.1909909639684102   F   F   F
  0.7799582222558712  0.5566461111278045  0.0319832203251522   F   F   F
  0.0000156553565442  0.6654117527453718  0.3466786848496995   T   T   T
  0.2223668994653636  0.7778504497329664  0.1895165469462441   F   F   F
  0.1108530605536941  0.8893018473928294  0.0339793516522491   F   F   F
  0.3339316298286852  0.6624718194503822  0.3460966151868408   T   T   T
  0.5553124973317054  0.7766278137032216  0.1907063298272433   F   F   F
  0.4449550837415686  0.8891445418706283  0.0338164620626742   F   F   F
  0.6738397578479639  0.6787980302621580  0.3540449134291159   T   T   T
  0.8882817656695750  0.7767146304072625  0.1909909639684173   F   F   F
  0.7776352550493257  0.8885743816408436  0.0342000598854995   F   F   F
  0.3065240859450197  0.3409872761647504  0.4778343431972399   T   T   T
  0.4334908791744423  0.2475865897106359  0.4428430797746646   T   T   T
 
  0.00000000E+00  0.00000000E+00  0.00000000E+00
  0.00000000E+00  0.00000000E+00  0.00000000E+00
  0.00000000E+00  0.00000000E+00  0.00000000E+00
  0.00000000E+00  0.00000000E+00  0.00000000E+00
  0.00000000E+00  0.00000000E+00  0.00000000E+00
  0.00000000E+00  0.00000000E+00  0.00000000E+00
  0.00000000E+00  0.00000000E+00  0.00000000E+00
  0.00000000E+00  0.00000000E+00  0.00000000E+00
  0.00000000E+00  0.00000000E+00  0.00000000E+00
  0.00000000E+00  0.00000000E+00  0.00000000E+00
  0.00000000E+00  0.00000000E+00  0.00000000E+00
  0.00000000E+00  0.00000000E+00  0.00000000E+00
  0.00000000E+00  0.00000000E+00  0.00000000E+00
  0.00000000E+00  0.00000000E+00  0.00000000E+00
  0.00000000E+00  0.00000000E+00  0.00000000E+00
  0.00000000E+00  0.00000000E+00  0.00000000E+00
  0.00000000E+00  0.00000000E+00  0.00000000E+00
  0.00000000E+00  0.00000000E+00  0.00000000E+00
  0.00000000E+00  0.00000000E+00  0.00000000E+00
  0.00000000E+00  0.00000000E+00  0.00000000E+00
  0.00000000E+00  0.00000000E+00  0.00000000E+00
  0.00000000E+00  0.00000000E+00  0.00000000E+00
  0.00000000E+00  0.00000000E+00  0.00000000E+00
  0.00000000E+00  0.00000000E+00  0.00000000E+00
  0.00000000E+00  0.00000000E+00  0.00000000E+00
  0.00000000E+00  0.00000000E+00  0.00000000E+00
  0.00000000E+00  0.00000000E+00  0.00000000E+00
  0.00000000E+00  0.00000000E+00  0.00000000E+00
  0.00000000E+00  0.00000000E+00  0.00000000E+00
  0.00000000E+00  0.00000000E+00  0.00000000E+00
  0.00000000E+00  0.00000000E+00  0.00000000E+00
  0.00000000E+00  0.00000000E+00  0.00000000E+00
  0.00000000E+00  0.00000000E+00  0.00000000E+00
  0.00000000E+00  0.00000000E+00  0.00000000E+00
  0.00000000E+00  0.00000000E+00  0.00000000E+00
  0.00000000E+00  0.00000000E+00  0.00000000E+00
  0.00000000E+00  0.00000000E+00  0.00000000E+00
  0.00000000E+00  0.00000000E+00  0.00000000E+00
  0.00000000E+00  0.00000000E+00  0.00000000E+00
  0.00000000E+00  0.00000000E+00  0.00000000E+00
  0.00000000E+00  0.00000000E+00  0.00000000E+00
  0.00000000E+00  0.00000000E+00  0.00000000E+00
  0.00000000E+00  0.00000000E+00  0.00000000E+00
  0.00000000E+00  0.00000000E+00  0.00000000E+00
  0.00000000E+00  0.00000000E+00  0.00000000E+00
  0.00000000E+00  0.00000000E+00  0.00000000E+00
  0.00000000E+00  0.00000000E+00  0.00000000E+00
  0.00000000E+00  0.00000000E+00  0.00000000E+00
  0.00000000E+00  0.00000000E+00  0.00000000E+00
  0.00000000E+00  0.00000000E+00  0.00000000E+00
  0.00000000E+00  0.00000000E+00  0.00000000E+00
  0.00000000E+00  0.00000000E+00  0.00000000E+00
  0.00000000E+00  0.00000000E+00  0.00000000E+00
  0.00000000E+00  0.00000000E+00  0.00000000E+00
  0.00000000E+00  0.00000000E+00  0.00000000E+00
  0.00000000E+00  0.00000000E+00  0.00000000E+00
  0.00000000E+00  0.00000000E+00  0.00000000E+00
  0.00000000E+00  0.00000000E+00  0.00000000E+00
  0.00000000E+00  0.00000000E+00  0.00000000E+00
  0.00000000E+00  0.00000000E+00  0.00000000E+00
  0.00000000E+00  0.00000000E+00  0.00000000E+00
  0.00000000E+00  0.00000000E+00  0.00000000E+00
  0.00000000E+00  0.00000000E+00  0.00000000E+00
  0.00000000E+00  0.00000000E+00  0.00000000E+00
  0.00000000E+00  0.00000000E+00  0.00000000E+00
  0.00000000E+00  0.00000000E+00  0.00000000E+00
  0.00000000E+00  0.00000000E+00  0.00000000E+00
  0.00000000E+00  0.00000000E+00  0.00000000E+00
  0.00000000E+00  0.00000000E+00  0.00000000E+00
  0.00000000E+00  0.00000000E+00  0.00000000E+00
  0.00000000E+00  0.00000000E+00  0.00000000E+00
  0.00000000E+00  0.00000000E+00  0.00000000E+00
  0.00000000E+00  0.00000000E+00  0.00000000E+00
  0.00000000E+00  0.00000000E+00  0.00000000E+00
  0.00000000E+00  0.00000000E+00  0.00000000E+00
  0.00000000E+00  0.00000000E+00  0.00000000E+00
  0.00000000E+00  0.00000000E+00  0.00000000E+00
  0.00000000E+00  0.00000000E+00  0.00000000E+00
  0.00000000E+00  0.00000000E+00  0.00000000E+00
  0.00000000E+00  0.00000000E+00  0.00000000E+00
  0.00000000E+00  0.00000000E+00  0.00000000E+00
  0.00000000E+00  0.00000000E+00  0.00000000E+00
