CeO2-you-111-you-Co                     
   1.00000000000000     
     9.8945933866637095   -5.7126465305168361   -0.0000000015572387
    -0.0449183006220818   11.3474902766240433   -0.0297441609546280
    -0.0321439100283845   -0.0556748758751002   20.7793442261878951
   O    Co   Ce   H 
    53     1    26     1
Selective dynamics
Direct
 -0.0002414579838039 -0.0001224934862779  0.9911065331581598   T   T   T
  0.1099500329613351  0.2213230378911652  0.1464780331309645   T   T   T
  0.2389687731580078  0.1492059840168801  0.3138777074843417   T   T   T
  0.0615077764671500  0.1987660801364118  0.3985311665201280   T   T   T
  0.0104262402922987  0.0056117141865374  0.2292584832899224   T   T   T
  0.2223331669111904  0.1108813150128290  0.0710947516297363   T   T   T
  0.3345099736200657 -0.0005378964310280  0.9912599431105750   T   T   T
  0.4465341992626146  0.2209939510000543  0.1459733349729144   T   T   T
  0.5579269906719623  0.1096580353691244  0.3048595477010361   T   T   T
  0.4724339362589046  0.1975082918198436  0.4205597751095904   T   T   T
  0.3277560374129539  0.0027626117710923  0.2289636276569237   T   T   T
  0.5580813495763247  0.1112869147295130  0.0724679391437383   T   T   T
  0.6662838814935549  0.9987337367212116  0.9912941578054582   T   T   T
  0.7773136456944727  0.2218637027572448  0.1532954340270170   T   T   T
  0.8856864894978026  0.1079618816531197  0.3010209979001726   T   T   T
  0.7835830727639861  0.2142003201737894  0.3881334243079242   T   T   T
  0.6612922610317197  0.9908780056966153  0.2306588722186186   T   T   T
  0.8871797282637207  0.1106330462845794  0.0724654606635971   T   T   T
  0.0003219765880584  0.3324911374322267  0.9916473721052146   T   T   T
  0.1090285252072432  0.5554298180467780  0.1478258364158988   T   T   T
  0.2437853959443302  0.4411946825574269  0.3139639582131416   T   T   T
  0.1156011443027047  0.5591623855816940  0.3867052652827249   T   T   T
  0.0099041482322482  0.3382160334222117  0.2308382958572073   T   T   T
  0.2220835187387895  0.4446794524272215  0.0722591370086166   T   T   T
  0.3335016917174797  0.3335358284116651  0.9912059606126196   T   T   T
  0.4461480921103949  0.5586328244064213  0.1459196846928691   T   T   T
  0.5161001085374428  0.4448689016207688  0.3290822615819015   T   T   T
  0.3393184622427699  0.3388939439140431  0.2209561687908157   T   T   T
  0.5564872325678940  0.4439902368148956  0.0708344394256406   T   T   T
  0.6667972157111965  0.3320755378665321  0.9906648073816101   T   T   T
  0.7808163068156088  0.5562019669012032  0.1458565457505072   T   T   T
  0.8949938422707614  0.4472521502975656  0.3060108495356033   T   T   T
  0.7873320837979192  0.5741743552629294  0.3866017539576801   T   T   T
  0.6615242654345849  0.3422402327127588  0.2315576221977754   T   T   T
  0.8877229622965488  0.4415523826065754  0.0722973002947813   T   T   T
  0.9996207295592311  0.6646299562204181  0.9913734184753757   T   T   T
  0.1104367043623181  0.8887323174979344  0.1458667937053302   T   T   T
  0.2195283404276582  0.7745753311479666  0.3036007835738265   T   T   T
  0.0997271071421623  0.8870231932438241  0.3856394320875152   T   T   T
 -0.0002434038918950  0.6691569016018635  0.2282359160361586   T   T   T
  0.2219973219205888  0.7779558775055154  0.0718508842798189   T   T   T
  0.3333008320711996  0.6661155851186874  0.9919755642831690   T   T   T
  0.4431695080054335  0.8886474353693764  0.1495874121527599   T   T   T
  0.5471730409272917  0.7564911495854293  0.3093726153198771   T   T   T
  0.4465578538994074  0.8765956113014333  0.3868797921153361   T   T   T
  0.3302496008895601  0.6646496878269441  0.2285728824674986   T   T   T
  0.5567745051942773  0.7794375576882168  0.0725616998845704   T   T   T
  0.6655989126664187  0.6657402122727618  0.9914081201150160   T   T   T
  0.7782989292731273  0.8877967814274929  0.1495506256998131   T   T   T
  0.8904755953014236  0.7827582393249308  0.3010485607032126   T   T   T
  0.7769307705653239  0.8876293175691359  0.3861290193210429   T   T   T
  0.6666639215523674  0.6592885005378867  0.2291102412403211   T   T   T
  0.8891967004091084  0.7785717474555370  0.0707963471488061   T   T   T
  0.3350474321486180  0.3348044661473214  0.3148022556580990   T   T   T
  0.0018588212832387  0.0087254043568738  0.3489368176618001   T   T   T
  0.2231763868556940  0.1114095384109154  0.1860290774238050   T   T   T
  0.1103168886968184  0.2215312104312779  0.0312886230090609   T   T   T
  0.3333544745922284  0.0022099977465827  0.3521645358801063   T   T   T
  0.5542437603936847  0.1114129351768470  0.1929803397695685   T   T   T
  0.4450419295556346  0.2202715110726940  0.0308303118955527   T   T   T
  0.6652820792667316  0.9987404963095311  0.3467469406951342   T   T   T
  0.8901479428360867  0.1111711658706213  0.1900973269811594   T   T   T
  0.7770738466890356  0.2208779059147738  0.0330940028690077   T   T   T
 -0.0000921723871817  0.3277554351536525  0.3497595290007478   T   T   T
  0.2214745726354043  0.4451660963275675  0.1867541384322553   T   T   T
  0.1098116669898612  0.5540244508450665  0.0323396888807727   T   T   T
  0.5588287083116584  0.4452071478754828  0.1825414427499744   T   T   T
  0.4440658816867118  0.5559274958368469  0.0306455274283806   T   T   T
  0.6698532069480386  0.3338558785045182  0.3537438710027399   T   T   T
  0.8887875327764942  0.4443614805205370  0.1922055226655127   T   T   T
  0.7790805713076909  0.5544281545702162  0.0309817085809608   T   T   T
  0.0014443362267750  0.6699260330998208  0.3449564088816974   T   T   T
  0.2215366421021076  0.7797119769813073  0.1878617876051526   T   T   T
  0.1108048827439685  0.8880707969762062  0.0307689421725536   T   T   T
  0.3229780837344274  0.6689199173925793  0.3419946504914129   T   T   T
  0.5546318075741428  0.7758140706413412  0.1891901947926558   T   T   T
  0.4451399095283959  0.8888911834914127  0.0329096189193271   T   T   T
  0.6839819698534989  0.6758836004031405  0.3421836114816120   T   T   T
  0.8914512135002818  0.7797672039156500  0.1872727443384113   T   T   T
  0.7771198490579532  0.8883551130548278  0.0319680688391160   T   T   T
  0.4372617349467025  0.2312478206914088  0.4539527543486561   T   T   T
 
  0.00000000E+00  0.00000000E+00  0.00000000E+00
  0.00000000E+00  0.00000000E+00  0.00000000E+00
  0.00000000E+00  0.00000000E+00  0.00000000E+00
  0.00000000E+00  0.00000000E+00  0.00000000E+00
  0.00000000E+00  0.00000000E+00  0.00000000E+00
  0.00000000E+00  0.00000000E+00  0.00000000E+00
  0.00000000E+00  0.00000000E+00  0.00000000E+00
  0.00000000E+00  0.00000000E+00  0.00000000E+00
  0.00000000E+00  0.00000000E+00  0.00000000E+00
  0.00000000E+00  0.00000000E+00  0.00000000E+00
  0.00000000E+00  0.00000000E+00  0.00000000E+00
  0.00000000E+00  0.00000000E+00  0.00000000E+00
  0.00000000E+00  0.00000000E+00  0.00000000E+00
  0.00000000E+00  0.00000000E+00  0.00000000E+00
  0.00000000E+00  0.00000000E+00  0.00000000E+00
  0.00000000E+00  0.00000000E+00  0.00000000E+00
  0.00000000E+00  0.00000000E+00  0.00000000E+00
  0.00000000E+00  0.00000000E+00  0.00000000E+00
  0.00000000E+00  0.00000000E+00  0.00000000E+00
  0.00000000E+00  0.00000000E+00  0.00000000E+00
  0.00000000E+00  0.00000000E+00  0.00000000E+00
  0.00000000E+00  0.00000000E+00  0.00000000E+00
  0.00000000E+00  0.00000000E+00  0.00000000E+00
  0.00000000E+00  0.00000000E+00  0.00000000E+00
  0.00000000E+00  0.00000000E+00  0.00000000E+00
  0.00000000E+00  0.00000000E+00  0.00000000E+00
  0.00000000E+00  0.00000000E+00  0.00000000E+00
  0.00000000E+00  0.00000000E+00  0.00000000E+00
  0.00000000E+00  0.00000000E+00  0.00000000E+00
  0.00000000E+00  0.00000000E+00  0.00000000E+00
  0.00000000E+00  0.00000000E+00  0.00000000E+00
  0.00000000E+00  0.00000000E+00  0.00000000E+00
  0.00000000E+00  0.00000000E+00  0.00000000E+00
  0.00000000E+00  0.00000000E+00  0.00000000E+00
  0.00000000E+00  0.00000000E+00  0.00000000E+00
  0.00000000E+00  0.00000000E+00  0.00000000E+00
  0.00000000E+00  0.00000000E+00  0.00000000E+00
  0.00000000E+00  0.00000000E+00  0.00000000E+00
  0.00000000E+00  0.00000000E+00  0.00000000E+00
  0.00000000E+00  0.00000000E+00  0.00000000E+00
  0.00000000E+00  0.00000000E+00  0.00000000E+00
  0.00000000E+00  0.00000000E+00  0.00000000E+00
  0.00000000E+00  0.00000000E+00  0.00000000E+00
  0.00000000E+00  0.00000000E+00  0.00000000E+00
  0.00000000E+00  0.00000000E+00  0.00000000E+00
  0.00000000E+00  0.00000000E+00  0.00000000E+00
  0.00000000E+00  0.00000000E+00  0.00000000E+00
  0.00000000E+00  0.00000000E+00  0.00000000E+00
  0.00000000E+00  0.00000000E+00  0.00000000E+00
  0.00000000E+00  0.00000000E+00  0.00000000E+00
  0.00000000E+00  0.00000000E+00  0.00000000E+00
  0.00000000E+00  0.00000000E+00  0.00000000E+00
  0.00000000E+00  0.00000000E+00  0.00000000E+00
  0.00000000E+00  0.00000000E+00  0.00000000E+00
  0.00000000E+00  0.00000000E+00  0.00000000E+00
  0.00000000E+00  0.00000000E+00  0.00000000E+00
  0.00000000E+00  0.00000000E+00  0.00000000E+00
  0.00000000E+00  0.00000000E+00  0.00000000E+00
  0.00000000E+00  0.00000000E+00  0.00000000E+00
  0.00000000E+00  0.00000000E+00  0.00000000E+00
  0.00000000E+00  0.00000000E+00  0.00000000E+00
  0.00000000E+00  0.00000000E+00  0.00000000E+00
  0.00000000E+00  0.00000000E+00  0.00000000E+00
  0.00000000E+00  0.00000000E+00  0.00000000E+00
  0.00000000E+00  0.00000000E+00  0.00000000E+00
  0.00000000E+00  0.00000000E+00  0.00000000E+00
  0.00000000E+00  0.00000000E+00  0.00000000E+00
  0.00000000E+00  0.00000000E+00  0.00000000E+00
  0.00000000E+00  0.00000000E+00  0.00000000E+00
  0.00000000E+00  0.00000000E+00  0.00000000E+00
  0.00000000E+00  0.00000000E+00  0.00000000E+00
  0.00000000E+00  0.00000000E+00  0.00000000E+00
  0.00000000E+00  0.00000000E+00  0.00000000E+00
  0.00000000E+00  0.00000000E+00  0.00000000E+00
  0.00000000E+00  0.00000000E+00  0.00000000E+00
  0.00000000E+00  0.00000000E+00  0.00000000E+00
  0.00000000E+00  0.00000000E+00  0.00000000E+00
  0.00000000E+00  0.00000000E+00  0.00000000E+00
  0.00000000E+00  0.00000000E+00  0.00000000E+00
  0.00000000E+00  0.00000000E+00  0.00000000E+00
  0.00000000E+00  0.00000000E+00  0.00000000E+00
