CeO2-you-111-you-Rh                     
   1.00000000000000     
     9.8233830256120651   -5.7151154850458745    0.0085572139763985
    -0.0377433497668492   11.3648555634598907   -0.0085572124828213
     0.0091720443586212   -0.0158864459101599   21.1552906720607616
   O    Rh   Ce   H 
    53     1    26     2
Selective dynamics
Direct
  0.9997349586588379  0.9997230007142593  0.9956325738521721   T   T   T
  0.1067482595035898  0.2190411089283586  0.1469821967096863   F   F   F
  0.2372139021351279  0.1330245280615804  0.3079688226767730   T   T   T
  0.1250455423254310  0.2501415554086875  0.3696951531747332   T   T   T
  0.0050824930823416  0.0028918113971378  0.2308333620091899   T   T   T
  0.2219611101243189  0.1110012399914240  0.0755537753479416   F   F   F
  0.3347185858637339  0.0011284954763160  0.9966361711353035   T   T   T
  0.4445964464946357  0.2220695535034025  0.1504681588862624   F   F   F
  0.5619577523464261  0.1154394691343718  0.3045779350730436   T   T   T
  0.4922173012149197  0.2009526507795618  0.4172747018489671   T   T   T
  0.3322775306394298  0.0011503832930578  0.2284506652978790   T   T   T
  0.5567206253174533  0.1099463746820959  0.0778019611246279   F   F   F
  0.6661208194121053  0.0007595492264257  0.9955655900983087   T   T   T
  0.7831418239398573  0.2243361853149892  0.1528153605579519   F   F   F
  0.8862210054511731  0.1078392868081825  0.3039411205192344   T   T   T
  0.7820008223501078  0.2215630550158169  0.3861622640358294   T   T   T
  0.6670584497756319  0.9994408644561187  0.2287382588602018   T   T   T
  0.8859200054187468  0.1091468445733952  0.0755137929034078   F   F   F
  0.9984814561854140  0.3321362281173135  0.9957995423465854   T   T   T
  0.1101590076027392  0.5565079923954812  0.1481003303362058   F   F   F
  0.1150364043632033  0.5504487648488577  0.3786336292556015   T   T   T
  0.0159034932102123  0.3425482153614016  0.2344445908006057   T   T   T
  0.2219721960981147  0.4446938039042720  0.0729376398447812   F   F   F
  0.3336160113762436  0.3328677460301983  0.9957790196092551   T   T   T
  0.4476248910769911  0.5599187404990715  0.1469821967095086   F   F   F
  0.5322368485485871  0.4177460190575504  0.3096662095850122   T   T   T
  0.4197007180688034  0.5411955774202294  0.3686351339748987   T   T   T
  0.3270146057144152  0.3427216983638341  0.2251372892689459   T   T   T
  0.5556657600070096  0.4447048898737762  0.0755537753479061   F   F   F
  0.6656219020666797  0.3319793804683212  0.9966650525891644   T   T   T
  0.7790509066170870  0.5559604189073397  0.1507832535701752   F   F   F
  0.8856855800019972  0.4439508881417641  0.3046610027702886   T   T   T
  0.7732965266895412  0.5567014575837579  0.3816895902942769   T   T   T
  0.6668864546302895  0.3358427741219046  0.2291495734188403   T   T   T
  0.8878151959607052  0.4439819883793987  0.0756837304566886   F   F   F
  0.9998088263102144  0.6669413589669035  0.9960181437033283   T   T   T
  0.1107065810909447  0.8876160933805153  0.1507832535700686   F   F   F
  0.2203220508953087  0.7775893561176684  0.3048071257988315   T   T   T
  0.0951755945226377  0.8851817020940330  0.3842699667510350   T   T   T
 -0.0003612390706896  0.6661108703147425  0.2301262080150724   T   T   T
  0.2226840116197693  0.7788518040381049  0.0756837304567313   F   F   F
  0.3341991727814183  0.6684214885838379  0.9958023231520793   T   T   T
  0.4423298146878878  0.8835251760607079  0.1528153605578382   F   F   F
  0.5591425952571388  0.7797652502576571  0.3027516972612014   T   T   T
  0.4528446549936905  0.8809132167003597  0.3874882957248553   T   T   T
  0.3246344726593107  0.6503894078884520  0.2342525829396626   T   T   T
  0.5575201554285130  0.7807469945830832  0.0755137929034717   F   F   F
  0.6667399714139557  0.6671331602747522  0.9957786576499176   T   T   T
  0.7790871036787408  0.8875798963209220  0.1517029568173314   F   F   F
  0.8854908841400656  0.7770498229393549  0.3017565520695153   T   T   T
  0.7768916662923960  0.8849616551114734  0.3829733166444229   T   T   T
  0.6613457532884618  0.6576603463508687  0.2316704770153401   T   T   T
  0.8887290352241521  0.7779379647742388  0.0757371498371171   F   F   F
  0.3265041784880861  0.3369915941718323  0.3384352271644592   T   T   T
  0.0037910425598362  0.0042595527325221  0.3422209560282236   T   T   T
  0.2245158345307345  0.1138680230470186  0.1909542902904917   F   F   F
  0.1098813268913048  0.2200968262169525  0.0343297958482509   F   F   F
  0.3341623467855222  0.0039618805778299  0.3500582251716852   T   T   T
  0.5560733269253859  0.1105936730766004  0.1912381498259919   F   F   F
  0.4446619495334758  0.2220040504666514  0.0366376587135804   F   F   F
  0.6671906094041382  0.9981053245485576  0.3455507536449242   T   T   T
  0.8902213127736474  0.1111413304429405  0.1907114684468851   F   F   F
  0.7775369626538762  0.2216146221372455  0.0364167763113130   F   F   F
  0.9925358721586982  0.3301441497035442  0.3456867031769723   T   T   T
  0.2225375083891308  0.4441284916058450  0.1818697989153932   F   F   F
  0.1100140069622384  0.5566529930361739  0.0348123138774596   F   F   F
  0.5527989769495107  0.4421501654662876  0.1909542902907333   F   F   F
  0.4465691737825352  0.5567856731090330  0.0343297958480591   F   F   F
  0.6671831324998951  0.3323431092539338  0.3454751512283079   T   T   T
  0.8885807743285454  0.4444496456140712  0.1913607083557380   F   F   F
  0.7774761108293688  0.5548069398153714  0.0369061218954982   F   F   F
 -0.0014455360382083  0.6698118354071155  0.3425026597056561   T   T   T
  0.2222163543904756  0.7780862256823013  0.1913607083561075   F   F   F
  0.1118600601867001  0.8891908891726459  0.0369061218955125   F   F   F
  0.3369557758558586  0.6748573601291951  0.3453663731436108   T   T   T
  0.5555256695506046  0.7764456872259728  0.1907114684471694   F   F   F
  0.4450513778615601  0.8891300373465967  0.0364167763113343   F   F   F
  0.6591745768458869  0.6600918563204146  0.3423839338373582   T   T   T
  0.8892701111932269  0.7773968888104221  0.1901057698811073   F   F   F
  0.7776259981098264  0.8890410018898436  0.0361061343084614   F   F   F
  0.3421693653205402  0.3189547168299007  0.4088649828170878   T   T   T
  0.4515351789537406  0.2457272873285053  0.4405157156357603   T   T   T
 
  0.00000000E+00  0.00000000E+00  0.00000000E+00
  0.00000000E+00  0.00000000E+00  0.00000000E+00
  0.00000000E+00  0.00000000E+00  0.00000000E+00
  0.00000000E+00  0.00000000E+00  0.00000000E+00
  0.00000000E+00  0.00000000E+00  0.00000000E+00
  0.00000000E+00  0.00000000E+00  0.00000000E+00
  0.00000000E+00  0.00000000E+00  0.00000000E+00
  0.00000000E+00  0.00000000E+00  0.00000000E+00
  0.00000000E+00  0.00000000E+00  0.00000000E+00
  0.00000000E+00  0.00000000E+00  0.00000000E+00
  0.00000000E+00  0.00000000E+00  0.00000000E+00
  0.00000000E+00  0.00000000E+00  0.00000000E+00
  0.00000000E+00  0.00000000E+00  0.00000000E+00
  0.00000000E+00  0.00000000E+00  0.00000000E+00
  0.00000000E+00  0.00000000E+00  0.00000000E+00
  0.00000000E+00  0.00000000E+00  0.00000000E+00
  0.00000000E+00  0.00000000E+00  0.00000000E+00
  0.00000000E+00  0.00000000E+00  0.00000000E+00
  0.00000000E+00  0.00000000E+00  0.00000000E+00
  0.00000000E+00  0.00000000E+00  0.00000000E+00
  0.00000000E+00  0.00000000E+00  0.00000000E+00
  0.00000000E+00  0.00000000E+00  0.00000000E+00
  0.00000000E+00  0.00000000E+00  0.00000000E+00
  0.00000000E+00  0.00000000E+00  0.00000000E+00
  0.00000000E+00  0.00000000E+00  0.00000000E+00
  0.00000000E+00  0.00000000E+00  0.00000000E+00
  0.00000000E+00  0.00000000E+00  0.00000000E+00
  0.00000000E+00  0.00000000E+00  0.00000000E+00
  0.00000000E+00  0.00000000E+00  0.00000000E+00
  0.00000000E+00  0.00000000E+00  0.00000000E+00
  0.00000000E+00  0.00000000E+00  0.00000000E+00
  0.00000000E+00  0.00000000E+00  0.00000000E+00
  0.00000000E+00  0.00000000E+00  0.00000000E+00
  0.00000000E+00  0.00000000E+00  0.00000000E+00
  0.00000000E+00  0.00000000E+00  0.00000000E+00
  0.00000000E+00  0.00000000E+00  0.00000000E+00
  0.00000000E+00  0.00000000E+00  0.00000000E+00
  0.00000000E+00  0.00000000E+00  0.00000000E+00
  0.00000000E+00  0.00000000E+00  0.00000000E+00
  0.00000000E+00  0.00000000E+00  0.00000000E+00
  0.00000000E+00  0.00000000E+00  0.00000000E+00
  0.00000000E+00  0.00000000E+00  0.00000000E+00
  0.00000000E+00  0.00000000E+00  0.00000000E+00
  0.00000000E+00  0.00000000E+00  0.00000000E+00
  0.00000000E+00  0.00000000E+00  0.00000000E+00
  0.00000000E+00  0.00000000E+00  0.00000000E+00
  0.00000000E+00  0.00000000E+00  0.00000000E+00
  0.00000000E+00  0.00000000E+00  0.00000000E+00
  0.00000000E+00  0.00000000E+00  0.00000000E+00
  0.00000000E+00  0.00000000E+00  0.00000000E+00
  0.00000000E+00  0.00000000E+00  0.00000000E+00
  0.00000000E+00  0.00000000E+00  0.00000000E+00
  0.00000000E+00  0.00000000E+00  0.00000000E+00
  0.00000000E+00  0.00000000E+00  0.00000000E+00
  0.00000000E+00  0.00000000E+00  0.00000000E+00
  0.00000000E+00  0.00000000E+00  0.00000000E+00
  0.00000000E+00  0.00000000E+00  0.00000000E+00
  0.00000000E+00  0.00000000E+00  0.00000000E+00
  0.00000000E+00  0.00000000E+00  0.00000000E+00
  0.00000000E+00  0.00000000E+00  0.00000000E+00
  0.00000000E+00  0.00000000E+00  0.00000000E+00
  0.00000000E+00  0.00000000E+00  0.00000000E+00
  0.00000000E+00  0.00000000E+00  0.00000000E+00
  0.00000000E+00  0.00000000E+00  0.00000000E+00
  0.00000000E+00  0.00000000E+00  0.00000000E+00
  0.00000000E+00  0.00000000E+00  0.00000000E+00
  0.00000000E+00  0.00000000E+00  0.00000000E+00
  0.00000000E+00  0.00000000E+00  0.00000000E+00
  0.00000000E+00  0.00000000E+00  0.00000000E+00
  0.00000000E+00  0.00000000E+00  0.00000000E+00
  0.00000000E+00  0.00000000E+00  0.00000000E+00
  0.00000000E+00  0.00000000E+00  0.00000000E+00
  0.00000000E+00  0.00000000E+00  0.00000000E+00
  0.00000000E+00  0.00000000E+00  0.00000000E+00
  0.00000000E+00  0.00000000E+00  0.00000000E+00
  0.00000000E+00  0.00000000E+00  0.00000000E+00
  0.00000000E+00  0.00000000E+00  0.00000000E+00
  0.00000000E+00  0.00000000E+00  0.00000000E+00
  0.00000000E+00  0.00000000E+00  0.00000000E+00
  0.00000000E+00  0.00000000E+00  0.00000000E+00
  0.00000000E+00  0.00000000E+00  0.00000000E+00
  0.00000000E+00  0.00000000E+00  0.00000000E+00
