CeO2-you-111-you-Sn                     
   1.00000000000000     
     9.9160831069937903   -5.7250536254581439   -0.0000000008476533
    -0.0417723931599708   11.3777533333409284   -0.0161704452927646
    -0.0175662126666772   -0.0304255676615943   21.1450815087385777
   O    Sn   Ce   H 
    53     1    26     2
Selective dynamics
Direct
  0.0002527967779769  0.0001386974920518  0.9964429943178320   T   T   T
  0.1106845331950908  0.2227347640672477  0.1503646288152751   F   F   F
  0.2389410077966833  0.1329821124609246  0.3094298035123058   T   T   T
  0.1046747520371970  0.2228326734959121  0.3794030409100493   T   T   T
  0.0062468028110600  0.0033407346875908  0.2299428283122898   T   T   T
  0.2229577457558989  0.1125824915118443  0.0757218234961812   F   F   F
  0.3331150794360520  0.0006030121577080  0.9964514871079955   T   T   T
  0.4453832308720536  0.2227347640670274  0.1503646288152609   F   F   F
  0.5612921356718643  0.1154683610262497  0.3040803219018431   T   T   T
  0.4806617592485702  0.2133730198945239  0.4097747449098780   T   T   T
  0.3314865012448486  0.0016110199386545  0.2277073206567983   T   T   T
  0.5559166428726456  0.1118812187479747  0.0753517054648611   F   F   F
  0.6668354136547887  0.9997523037873550  0.9966584230732821   T   T   T
  0.7756077023006256  0.2178814046011581  0.1512459290201633   F   F   F
  0.8856898334638793  0.1097170001686447  0.3010688884634585   T   T   T
  0.7842916569314045  0.2229973184127728  0.3831350114217034   T   T   T
  0.6621913006510691  0.9925327180987652  0.2296263172914390   T   T   T
  0.8892985758753298  0.1118812187480813  0.0753517054648682   F   F   F
  0.0003791226999263  0.3336760412642369  0.9969645231819959   T   T   T
  0.1107772181816955  0.5549153897341057  0.1501275182565891   F   F   F
  0.2444320635447011  0.4538652231647266  0.3081118988323878   T   T   T
  0.1125028618694461  0.5575604822146899  0.3814087319989379   T   T   T
  0.0064773814569424  0.3362022831414123  0.2310456285144789   T   T   T
  0.2232038751422891  0.4448347017416197  0.0760876785654361   F   F   F
  0.3335975442696139  0.3340221344223291  0.9966230596245741   T   T   T
  0.4442882585081662  0.5552445170163764  0.1508423343354650   F   F   F
  0.5308473779747139  0.4255209078319331  0.3105462570860617   T   T   T
  0.3302029008053179  0.3341697531901960  0.2284125646142666   T   T   T
  0.5549648265992744  0.4448347017416339  0.0760876785654361   F   F   F
  0.6668410856101871  0.3336252140680765  0.9969477467210758   T   T   T
  0.7774711715525839  0.5549153897340702  0.1501275182565891   F   F   F
  0.8919686973334296  0.4433418757022187  0.3022294863018544   T   T   T
  0.7844569314541290  0.5474740529836857  0.3832319701258233   T   T   T
  0.6678262146107118  0.3378592922316503  0.2298851115071307   T   T   T
  0.8880736569417351  0.4428133138834767  0.0765972064229956   F   F   F
  0.9989162764915235  0.6651778227143500  0.9969908364311248   T   T   T
  0.1116732791101285  0.8900135582201827  0.1483966773449907   F   F   F
  0.2195354658336349  0.7780180164398089  0.3027551310740510   T   T   T
  0.0975303650722038  0.8847270988028512  0.3841269765235594   T   T   T
 -0.0001718259895778  0.6671464595972546  0.2278668230299156   T   T   T
  0.2217838710264459  0.7779200352344589  0.0749683514567892   F   F   F
  0.3337678798211007  0.6671780033159674  0.9969493015390857   T   T   T
  0.4435115189215892  0.8893637777020800  0.1487789698908486   F   F   F
  0.5437631875098525  0.7629009751160917  0.3075964566402265   T   T   T
  0.4491142061933328  0.8817634694478337  0.3857806570229362   T   T   T
  0.3305722078179152  0.6690572376550954  0.2280901497075455   T   T   T
  0.5556332041798910  0.7779324083598382  0.0762610206641625   F   F   F
  0.6668110681299021  0.6672950563231077  0.9969377634423701   T   T   T
  0.7791852587805792  0.8893637777022860  0.1487789698908415   F   F   F
  0.8917322553507946  0.7793922044750434  0.3013819334832031   T   T   T
  0.7839592737949937  0.8999470729413992  0.3841196196496899   T   T   T
  0.6666933051930529  0.6642981041990534  0.2280557743372066   T   T   T
  0.8894691642079806  0.7779200352344873  0.0749683514567820   F   F   F
  0.3197520968866980  0.3298306738829913  0.3358231984087354   T   T   T
 -0.0012924426422648  0.0013886256635965  0.3439872182369274   T   T   T
  0.2241219086196509  0.1149108172391564  0.1901270880726287   F   F   F
  0.1117023084057251  0.2227067662382183  0.0367265314255150   F   F   F
  0.3343474445439696  0.0019825502809609  0.3495306166279929   T   T   T
  0.5544320319395979  0.1098445328311257  0.1896282102822013   F   F   F
  0.4443374578325532  0.2227067662382964  0.0367265314255150   F   F   F
  0.6668620987176122  0.9975987251945519  0.3436688598194374   T   T   T
  0.8887465008915001  0.1098445328308060  0.1896282102822440   F   F   F
  0.7774360887272209  0.2215381774543843  0.0366823708287143   F   F   F
 -0.0001038107631779  0.3319935333459250  0.3438202297893116   T   T   T
  0.2225160846527032  0.4441503979272099  0.1914755017393830   F   F   F
  0.1108376895890260  0.5545435461096773  0.0367152497105607   F   F   F
  0.5549683132746352  0.4441503979270678  0.1914755017393475   F   F   F
  0.4440628879686273  0.5547937759371777  0.0366541843437105   F   F   F
  0.6744586598224069  0.3335263191969326  0.3436666192851180   T   T   T
  0.8887596352076983  0.4441852704157228  0.1899059141621748   F   F   F
  0.7770388565207185  0.5545435461096915  0.0367152497105465   F   F   F
 -0.0000045720240231  0.6684586523922490  0.3424710745861479   T   T   T
  0.2210475047214047  0.7792205669250407  0.1873378595039128   F   F   F
  0.1112959982202923  0.8892589964406525  0.0353672675805967   F   F   F
  0.3267574946987413  0.6787790983233815  0.3392896029202654   T   T   T
  0.5543783367395108  0.7754226734789427  0.1882579608289632   F   F   F
  0.4442563158563360  0.8888204516103713  0.0357855886489773   F   F   F
  0.6777322281024174  0.6685677834982433  0.3429605743474212   T   T   T
  0.8915060622032200  0.7792205669248631  0.1873378595039981   F   F   F
  0.7778971357540669  0.8888204516103428  0.0357855886489560   F   F   F
  0.3757756041962559  0.4037649497950209  0.4113525951493326   T   T   T
  0.4655355982837875  0.2508821420428817  0.4481871544827194   T   T   T
 
  0.00000000E+00  0.00000000E+00  0.00000000E+00
  0.00000000E+00  0.00000000E+00  0.00000000E+00
  0.00000000E+00  0.00000000E+00  0.00000000E+00
  0.00000000E+00  0.00000000E+00  0.00000000E+00
  0.00000000E+00  0.00000000E+00  0.00000000E+00
  0.00000000E+00  0.00000000E+00  0.00000000E+00
  0.00000000E+00  0.00000000E+00  0.00000000E+00
  0.00000000E+00  0.00000000E+00  0.00000000E+00
  0.00000000E+00  0.00000000E+00  0.00000000E+00
  0.00000000E+00  0.00000000E+00  0.00000000E+00
  0.00000000E+00  0.00000000E+00  0.00000000E+00
  0.00000000E+00  0.00000000E+00  0.00000000E+00
  0.00000000E+00  0.00000000E+00  0.00000000E+00
  0.00000000E+00  0.00000000E+00  0.00000000E+00
  0.00000000E+00  0.00000000E+00  0.00000000E+00
  0.00000000E+00  0.00000000E+00  0.00000000E+00
  0.00000000E+00  0.00000000E+00  0.00000000E+00
  0.00000000E+00  0.00000000E+00  0.00000000E+00
  0.00000000E+00  0.00000000E+00  0.00000000E+00
  0.00000000E+00  0.00000000E+00  0.00000000E+00
  0.00000000E+00  0.00000000E+00  0.00000000E+00
  0.00000000E+00  0.00000000E+00  0.00000000E+00
  0.00000000E+00  0.00000000E+00  0.00000000E+00
  0.00000000E+00  0.00000000E+00  0.00000000E+00
  0.00000000E+00  0.00000000E+00  0.00000000E+00
  0.00000000E+00  0.00000000E+00  0.00000000E+00
  0.00000000E+00  0.00000000E+00  0.00000000E+00
  0.00000000E+00  0.00000000E+00  0.00000000E+00
  0.00000000E+00  0.00000000E+00  0.00000000E+00
  0.00000000E+00  0.00000000E+00  0.00000000E+00
  0.00000000E+00  0.00000000E+00  0.00000000E+00
  0.00000000E+00  0.00000000E+00  0.00000000E+00
  0.00000000E+00  0.00000000E+00  0.00000000E+00
  0.00000000E+00  0.00000000E+00  0.00000000E+00
  0.00000000E+00  0.00000000E+00  0.00000000E+00
  0.00000000E+00  0.00000000E+00  0.00000000E+00
  0.00000000E+00  0.00000000E+00  0.00000000E+00
  0.00000000E+00  0.00000000E+00  0.00000000E+00
  0.00000000E+00  0.00000000E+00  0.00000000E+00
  0.00000000E+00  0.00000000E+00  0.00000000E+00
  0.00000000E+00  0.00000000E+00  0.00000000E+00
  0.00000000E+00  0.00000000E+00  0.00000000E+00
  0.00000000E+00  0.00000000E+00  0.00000000E+00
  0.00000000E+00  0.00000000E+00  0.00000000E+00
  0.00000000E+00  0.00000000E+00  0.00000000E+00
  0.00000000E+00  0.00000000E+00  0.00000000E+00
  0.00000000E+00  0.00000000E+00  0.00000000E+00
  0.00000000E+00  0.00000000E+00  0.00000000E+00
  0.00000000E+00  0.00000000E+00  0.00000000E+00
  0.00000000E+00  0.00000000E+00  0.00000000E+00
  0.00000000E+00  0.00000000E+00  0.00000000E+00
  0.00000000E+00  0.00000000E+00  0.00000000E+00
  0.00000000E+00  0.00000000E+00  0.00000000E+00
  0.00000000E+00  0.00000000E+00  0.00000000E+00
  0.00000000E+00  0.00000000E+00  0.00000000E+00
  0.00000000E+00  0.00000000E+00  0.00000000E+00
  0.00000000E+00  0.00000000E+00  0.00000000E+00
  0.00000000E+00  0.00000000E+00  0.00000000E+00
  0.00000000E+00  0.00000000E+00  0.00000000E+00
  0.00000000E+00  0.00000000E+00  0.00000000E+00
  0.00000000E+00  0.00000000E+00  0.00000000E+00
  0.00000000E+00  0.00000000E+00  0.00000000E+00
  0.00000000E+00  0.00000000E+00  0.00000000E+00
  0.00000000E+00  0.00000000E+00  0.00000000E+00
  0.00000000E+00  0.00000000E+00  0.00000000E+00
  0.00000000E+00  0.00000000E+00  0.00000000E+00
  0.00000000E+00  0.00000000E+00  0.00000000E+00
  0.00000000E+00  0.00000000E+00  0.00000000E+00
  0.00000000E+00  0.00000000E+00  0.00000000E+00
  0.00000000E+00  0.00000000E+00  0.00000000E+00
  0.00000000E+00  0.00000000E+00  0.00000000E+00
  0.00000000E+00  0.00000000E+00  0.00000000E+00
  0.00000000E+00  0.00000000E+00  0.00000000E+00
  0.00000000E+00  0.00000000E+00  0.00000000E+00
  0.00000000E+00  0.00000000E+00  0.00000000E+00
  0.00000000E+00  0.00000000E+00  0.00000000E+00
  0.00000000E+00  0.00000000E+00  0.00000000E+00
  0.00000000E+00  0.00000000E+00  0.00000000E+00
  0.00000000E+00  0.00000000E+00  0.00000000E+00
  0.00000000E+00  0.00000000E+00  0.00000000E+00
  0.00000000E+00  0.00000000E+00  0.00000000E+00
  0.00000000E+00  0.00000000E+00  0.00000000E+00
