CeO2-you-111-you-Ta                     
   1.00000000000000     
     9.8662205681143238   -5.7033363587452612    0.0201248596265449
    -0.0000000022614761   11.4066707063026254   -0.0000000023869641
     0.0444283012517038   -0.0000000045765252   20.9288465998143813
   O    Ta   Ce   H 
    53     1    26     1
Selective dynamics
Direct
  0.0002925646814749  0.0007690448066993  0.9941815554518317   T   T   T
  0.1207093012165695  0.2257769910927129  0.1515768217951532   T   T   T
  0.2228544638496345  0.1236549162659738  0.3063505518952454   T   T   T
  0.1313766175686906  0.2374711614799668  0.3848536741390288   T   T   T
  0.0014819272075230  0.0001419621885255  0.2287485954318339   T   T   T
  0.2207343833110508  0.1088903606169139  0.0727576590097476   T   T   T
  0.3350537112448141 -0.0008874558981877  0.9943297978314659   T   T   T
  0.4387558381713974  0.2134734122496550  0.1474412252241147   T   T   T
  0.5542908152531146  0.1040844134524815  0.3086249904887178   T   T   T
  0.4240643788074114  0.2566795478804418  0.3858163798571442   T   T   T
  0.3296110177121768 -0.0015544453994548  0.2301856684032965   T   T   T
  0.5561302653721348  0.1091421334728533  0.0750814606718783   T   T   T
  0.6701451695742094  0.0010532526594079  0.9952637579106295   T   T   T
  0.7751957728774657  0.2218161046076647  0.1516434841344698   T   T   T
  0.8940447712776231  0.1123526344570463  0.3054473333007106   T   T   T
  0.7853302148409018  0.2168487600744390  0.3886679888983000   T   T   T
  0.6689043709413593 -0.0014134916391588  0.2309135176312450   T   T   T
  0.8918851841980679  0.1117426598016736  0.0772343051991211   T   T   T
  0.0002084317204473  0.3304856482458858  0.9940403797119330   T   T   T
  0.1117258804301502  0.5553420962692092  0.1490054021503354   T   T   T
  0.2168028949859891  0.4347321280382129  0.3034014289419118   T   T   T
  0.1138933696286249  0.5526281222815439  0.3858460053774741   T   T   T
  0.0000982194391863  0.3319367312217545  0.2281618555282307   T   T   T
  0.2203071170549415  0.4427242475404969  0.0725049411217599   T   T   T
  0.3327592731848584  0.3319815001492921  0.9934490299624796   T   T   T
  0.4379243542454724  0.5575026425337990  0.1462326614786027   T   T   T
  0.4337406387393628  0.4938707837705593  0.3711357456601841   T   T   T
  0.3463240524827340  0.3411813900997276  0.2423634992950257   T   T   T
  0.5565754259039812  0.4439971316252057  0.0690339510902062   T   T   T
  0.6694514429803241  0.3307318965418800  0.9945328353204355   T   T   T
  0.7875919891959174  0.5595769649315512  0.1458033073106926   T   T   T
  0.8973031137640983  0.4440061808806227  0.3045959661723216   T   T   T
  0.7838174307829147  0.5561070852262830  0.3844171894523499   T   T   T
  0.6644574894405837  0.3357160503678058  0.2341117618640654   T   T   T
  0.8912743723998261  0.4425286796138424  0.0735988707069570   T   T   T
  0.0022938271050034  0.6660353207873876  0.9936207588429002   T   T   T
  0.1112591007882275  0.8884994472858521  0.1492576856379633   T   T   T
  0.2193165012385773  0.7716063909255464  0.3053769248149555   T   T   T
  0.0967996348193043  0.8836087669841717  0.3873142929160984   T   T   T
  0.9992976350069248  0.6655610780692273  0.2296041876995578   T   T   T
  0.2234654330918669  0.7775618309846700  0.0743987129919256   T   T   T
  0.3348764490779698  0.6670691568974607  0.9939987576520390   T   T   T
  0.4449223093023980  0.8877730730584681  0.1519444762227852   T   T   T
  0.5471547333818790  0.7745405453140564  0.3068396913288776   T   T   T
  0.4417550250064324  0.8730747409307031  0.3898002139085908   T   T   T
  0.3298776548978561  0.6623537087351302  0.2305007870181166   T   T   T
  0.5568492429063426  0.7789659831207816  0.0743251775841781   T   T   T
  0.6695533691875865  0.6695562567874203  0.9942272784957872   T   T   T
  0.7766581358839811  0.8855293892165068  0.1507878252355419   T   T   T
  0.8944752908642556  0.7825270646649199  0.3034604397745522   T   T   T
  0.7823107112762728  0.8973263146419557  0.3874695512989890   T   T   T
  0.6638301107784205  0.6610795784123591  0.2331425984443004   T   T   T
  0.8913247568054319  0.7795101371060992  0.0727365987993710   T   T   T
  0.2977512116752586  0.3237880739407843  0.3346552875298398   T   T   T
 -0.0019401340925134  0.9953952522078352  0.3442016550894298   T   T   T
  0.2230886634140639  0.1080872880530857  0.1892943470680797   T   T   T
  0.1123942636823616  0.2215109901275677  0.0334735004200956   T   T   T
  0.3271211251125957  0.9927993117771622  0.3486302777830153   T   T   T
  0.5545585219836878  0.1106517492448433  0.1926865600937978   T   T   T
  0.4449269064314715  0.2197636357916563  0.0333870838477925   T   T   T
  0.6641114470637863  0.9954722484441388  0.3460642414296973   T   T   T
  0.8897150047923772  0.1104404708278539  0.1902479101222703   T   T   T
  0.7787787777080915  0.2212988095967142  0.0353753075119170   T   T   T
 -0.0027520985232247  0.3324781550869820  0.3447740440267620   T   T   T
  0.2215934714102316  0.4460030444933809  0.1867881398628312   T   T   T
  0.1117776755126926  0.5545701384554941  0.0335128615808822   T   T   T
  0.5578692092667379  0.4453198060238620  0.1819639196144023   T   T   T
  0.4452609134144127  0.5566196006017354  0.0324860049491400   T   T   T
  0.6784846211441411  0.3291597741982629  0.3485615800697931   T   T   T
  0.8877412876244912  0.4435796630785337  0.1895762846443425   T   T   T
  0.7808862413098462  0.5559110658638899  0.0327756173215819   T   T   T
 -0.0029509725359809  0.6655907694218561  0.3449704897560635   T   T   T
  0.2214681249569731  0.7773106948382275  0.1892659472806718   T   T   T
  0.1121414313315256  0.8888871126339078  0.0340170945591446   T   T   T
  0.3288256065756096  0.6672616996355640  0.3435877393175764   T   T   T
  0.5554516396745294  0.7750481066730528  0.1911408763753450   T   T   T
  0.4467217497427380  0.8893371413199394  0.0357639076549688   T   T   T
  0.6725035959945195  0.6732767179101190  0.3493501320046666   T   T   T
  0.8876923435909421  0.7756472909731061  0.1897342112892245   T   T   T
  0.7792228449090445  0.8889178158352206  0.0349052901952393   T   T   T
  0.4474623409258348  0.3101795475151977  0.4249841315161081   T   T   T
 
  0.00000000E+00  0.00000000E+00  0.00000000E+00
  0.00000000E+00  0.00000000E+00  0.00000000E+00
  0.00000000E+00  0.00000000E+00  0.00000000E+00
  0.00000000E+00  0.00000000E+00  0.00000000E+00
  0.00000000E+00  0.00000000E+00  0.00000000E+00
  0.00000000E+00  0.00000000E+00  0.00000000E+00
  0.00000000E+00  0.00000000E+00  0.00000000E+00
  0.00000000E+00  0.00000000E+00  0.00000000E+00
  0.00000000E+00  0.00000000E+00  0.00000000E+00
  0.00000000E+00  0.00000000E+00  0.00000000E+00
  0.00000000E+00  0.00000000E+00  0.00000000E+00
  0.00000000E+00  0.00000000E+00  0.00000000E+00
  0.00000000E+00  0.00000000E+00  0.00000000E+00
  0.00000000E+00  0.00000000E+00  0.00000000E+00
  0.00000000E+00  0.00000000E+00  0.00000000E+00
  0.00000000E+00  0.00000000E+00  0.00000000E+00
  0.00000000E+00  0.00000000E+00  0.00000000E+00
  0.00000000E+00  0.00000000E+00  0.00000000E+00
  0.00000000E+00  0.00000000E+00  0.00000000E+00
  0.00000000E+00  0.00000000E+00  0.00000000E+00
  0.00000000E+00  0.00000000E+00  0.00000000E+00
  0.00000000E+00  0.00000000E+00  0.00000000E+00
  0.00000000E+00  0.00000000E+00  0.00000000E+00
  0.00000000E+00  0.00000000E+00  0.00000000E+00
  0.00000000E+00  0.00000000E+00  0.00000000E+00
  0.00000000E+00  0.00000000E+00  0.00000000E+00
  0.00000000E+00  0.00000000E+00  0.00000000E+00
  0.00000000E+00  0.00000000E+00  0.00000000E+00
  0.00000000E+00  0.00000000E+00  0.00000000E+00
  0.00000000E+00  0.00000000E+00  0.00000000E+00
  0.00000000E+00  0.00000000E+00  0.00000000E+00
  0.00000000E+00  0.00000000E+00  0.00000000E+00
  0.00000000E+00  0.00000000E+00  0.00000000E+00
  0.00000000E+00  0.00000000E+00  0.00000000E+00
  0.00000000E+00  0.00000000E+00  0.00000000E+00
  0.00000000E+00  0.00000000E+00  0.00000000E+00
  0.00000000E+00  0.00000000E+00  0.00000000E+00
  0.00000000E+00  0.00000000E+00  0.00000000E+00
  0.00000000E+00  0.00000000E+00  0.00000000E+00
  0.00000000E+00  0.00000000E+00  0.00000000E+00
  0.00000000E+00  0.00000000E+00  0.00000000E+00
  0.00000000E+00  0.00000000E+00  0.00000000E+00
  0.00000000E+00  0.00000000E+00  0.00000000E+00
  0.00000000E+00  0.00000000E+00  0.00000000E+00
  0.00000000E+00  0.00000000E+00  0.00000000E+00
  0.00000000E+00  0.00000000E+00  0.00000000E+00
  0.00000000E+00  0.00000000E+00  0.00000000E+00
  0.00000000E+00  0.00000000E+00  0.00000000E+00
  0.00000000E+00  0.00000000E+00  0.00000000E+00
  0.00000000E+00  0.00000000E+00  0.00000000E+00
  0.00000000E+00  0.00000000E+00  0.00000000E+00
  0.00000000E+00  0.00000000E+00  0.00000000E+00
  0.00000000E+00  0.00000000E+00  0.00000000E+00
  0.00000000E+00  0.00000000E+00  0.00000000E+00
  0.00000000E+00  0.00000000E+00  0.00000000E+00
  0.00000000E+00  0.00000000E+00  0.00000000E+00
  0.00000000E+00  0.00000000E+00  0.00000000E+00
  0.00000000E+00  0.00000000E+00  0.00000000E+00
  0.00000000E+00  0.00000000E+00  0.00000000E+00
  0.00000000E+00  0.00000000E+00  0.00000000E+00
  0.00000000E+00  0.00000000E+00  0.00000000E+00
  0.00000000E+00  0.00000000E+00  0.00000000E+00
  0.00000000E+00  0.00000000E+00  0.00000000E+00
  0.00000000E+00  0.00000000E+00  0.00000000E+00
  0.00000000E+00  0.00000000E+00  0.00000000E+00
  0.00000000E+00  0.00000000E+00  0.00000000E+00
  0.00000000E+00  0.00000000E+00  0.00000000E+00
  0.00000000E+00  0.00000000E+00  0.00000000E+00
  0.00000000E+00  0.00000000E+00  0.00000000E+00
  0.00000000E+00  0.00000000E+00  0.00000000E+00
  0.00000000E+00  0.00000000E+00  0.00000000E+00
  0.00000000E+00  0.00000000E+00  0.00000000E+00
  0.00000000E+00  0.00000000E+00  0.00000000E+00
  0.00000000E+00  0.00000000E+00  0.00000000E+00
  0.00000000E+00  0.00000000E+00  0.00000000E+00
  0.00000000E+00  0.00000000E+00  0.00000000E+00
  0.00000000E+00  0.00000000E+00  0.00000000E+00
  0.00000000E+00  0.00000000E+00  0.00000000E+00
  0.00000000E+00  0.00000000E+00  0.00000000E+00
  0.00000000E+00  0.00000000E+00  0.00000000E+00
  0.00000000E+00  0.00000000E+00  0.00000000E+00
