CeO2-you-111-you-Au                     
   1.00000000000000     
     9.8369955734897623   -5.7030992167702079    0.0032575686463099
    -0.0205306882040197   11.3706362335589866   -0.0032575680932753
     0.0037086816359108   -0.0064236246406124   21.2355728781112241
   O    Au   Ce   H 
    53     1    26     2
Selective dynamics
Direct
 -0.0001073995370181 -0.0000952061314969  0.9960425857888916   T   T   T
  0.1032286937166731  0.2181832088186724  0.1459789290031424   F   F   F
  0.2178179735580863  0.1413414775121084  0.3199219325533513   T   T   T
  0.0321313241082028  0.1813233814348317  0.4138127387051497   T   T   T
  0.0051454584110588  0.0015560333655465  0.2311071338424556   T   T   T
  0.2217063018345726  0.1111939078571069  0.0761048271691607   F   F   F
  0.3348492400444555  0.0017844588840203  0.9976861339069227   T   T   T
  0.4463704799367889  0.2202955200626064  0.1496065913688014   F   F   F
  0.5591204761982841  0.1155602955303719  0.3042847919928581   T   T   T
  0.4842817022773711  0.2141392037883345  0.4102273486692562   T   T   T
  0.3284565006500325  0.0042008333487371  0.2308306515207835   T   T   T
  0.5581535538892908  0.1085134461106563  0.0777351044466812   F   F   F
  0.6658440260776760  0.0005263765743757  0.9953208408512456   T   T   T
  0.7841339147507611  0.2256156715607531  0.1533539938760029   F   F   F
  0.8880757773557056  0.1096584335435744  0.3040749503211736   T   T   T
  0.7795421741781452  0.2227903090387821  0.3836642483335076   T   T   T
  0.6676016996795680  0.0003825008327294  0.2292788621900796   T   T   T
  0.8846704387656104  0.1087706923480525  0.0749002858676917   F   F   F
  0.9985301549734517  0.3323531179678196  0.9960289856837103   T   T   T
  0.1103978120196274  0.5562691879790194  0.1480409648985415   F   F   F
  0.1157740716012686  0.5420816707895159  0.3776928435995925   T   T   T
  0.0199777913707739  0.3415868403751079  0.2359111365985971   T   T   T
  0.2222521497219745  0.4444138502798864  0.0722487857032093   F   F   F
  0.3337100895630501  0.3319633657165115  0.9961629077503750   T   T   T
  0.4484827911840696  0.5634383062846737  0.1459789290028226   F   F   F
  0.5693991811745845  0.4452269177701174  0.3009738261956839   T   T   T
  0.4222580124892470  0.5446470998112229  0.3741793077638697   T   T   T
  0.3297197570160836  0.3368333895220434  0.2173715395882028   T   T   T
  0.5554730921420727  0.4449596981645456  0.0761048271691891   F   F   F
  0.6656898469172204  0.3322942670689164  0.9976780678441036   T   T   T
  0.7799690891898763  0.5562216725604898  0.1507298420538703   F   F   F
  0.8882837472985287  0.4419242995072291  0.3038853082737813   T   T   T
  0.7803761525299406  0.5561331602498805  0.3838706872692864   T   T   T
  0.6682739597232631  0.3317982237623771  0.2270483162095656   T   T   T
  0.8882867246682338  0.4437503411005395  0.0758399081643333   F   F   F
 -0.0000479052154657  0.6672530158163293  0.9967202551682197   T   T   T
  0.1104453274376951  0.8866979108078183  0.1507298420538703   F   F   F
  0.2212494350333759  0.7768637179743590  0.3049536527874632   T   T   T
  0.0936418257784360  0.8785978302582346  0.3846149476691658   T   T   T
  0.0009372641999681  0.6656293653670702  0.2300692792385365   T   T   T
  0.2229156588990620  0.7783802753309743  0.0758399081642835   F   F   F
  0.3341814806977590  0.6684629562181048  0.9959850691955355   T   T   T
  0.4410503284410794  0.8825330852488094  0.1533539938762303   F   F   F
  0.5545838294440649  0.7781286521097786  0.3021524412666265   T   T   T
  0.4511099181175915  0.8841816091024516  0.3862033538415523   T   T   T
  0.3226214460200882  0.6474556104472868  0.2342892171290200   T   T   T
  0.5578963076531522  0.7819965612358715  0.0749002858675425   F   F   F
  0.6669411431144843  0.6669507734219564  0.9961699989916077   T   T   T
  0.7789934647544285  0.8876735352458098  0.1516407211724555   F   F   F
  0.8839383518683879  0.7715938202546202  0.3017722974923291   T   T   T
  0.7698281037603690  0.8787061143615137  0.3809598532810738   T   T   T
  0.6630482546203368  0.6652976524568270  0.2286434541233584   T   T   T
  0.8884749176783728  0.7781920823205652  0.0760966303688733   F   F   F
  0.3088898616468572  0.3443804172731011  0.3480906615154933   T   T   T
 -0.0077591375786695 -0.0078469758736311  0.3456645068494044   T   T   T
  0.2245837201980834  0.1145954559123084  0.1902358633479153   F   F   F
  0.1094723624957723  0.2198566421473274  0.0340970785101291   F   F   F
  0.3310123475999267  0.0063308580878215  0.3494566866397157   T   T   T
  0.5559931525458310  0.1106738474566882  0.1908156362605666   F   F   F
  0.4447224037440094  0.2219435962562812  0.0371991387490951   F   F   F
  0.6632667477896786 -0.0026694403262202  0.3435353617731616   T   T   T
  0.8903536308195115  0.1111108772044034  0.1903601212234349   F   F   F
  0.7775452538693983  0.2214891683920328  0.0364459625134614   F   F   F
  0.9874998742072568  0.3240237626776778  0.3473170832301446   T   T   T
  0.2229343611696848  0.4437316388217951  0.1802776446620697   F   F   F
  0.1098683728247210  0.5567986271742100  0.0349362957585839   F   F   F
  0.5520715440870276  0.4420822798007222  0.1902358633477945   F   F   F
  0.4468093578514356  0.5571946375036205  0.0340970785101220   F   F   F
  0.6699204138471958  0.3368807621803972  0.3423248727823351   T   T   T
  0.8890154520224200  0.4442822989698243  0.1913605087502077   F   F   F
  0.7775682725926600  0.5550170791481079  0.0377095429075780   F   F   F
 -0.0014744723325744  0.6664280290793239  0.3424722893842258   T   T   T
  0.2223837010341114  0.7776515479861814  0.1913605087502930   F   F   F
  0.1116499208533668  0.8890987274090989  0.0377095429075638   F   F   F
  0.3374072721802183  0.6758932393930284  0.3446975097134569   T   T   T
  0.5555561227898735  0.7763133691787019  0.1903601212235273   F   F   F
  0.4451768316069504  0.8891217461308472  0.0364459625134970   F   F   F
  0.6610237726112967  0.6576153127597273  0.3400488218972482   T   T   T
  0.8891493991304174  0.7775176008725282  0.1898324573634724   F   F   F
  0.7772940297601281  0.8893729702392221  0.0360085220659556   F   F   F
  0.1258854815358167  0.2303803296906828  0.4295393906483668   T   T   T
  0.4555412953483617  0.2571271108681163  0.4413982505713971   T   T   T
 
  0.00000000E+00  0.00000000E+00  0.00000000E+00
  0.00000000E+00  0.00000000E+00  0.00000000E+00
  0.00000000E+00  0.00000000E+00  0.00000000E+00
  0.00000000E+00  0.00000000E+00  0.00000000E+00
  0.00000000E+00  0.00000000E+00  0.00000000E+00
  0.00000000E+00  0.00000000E+00  0.00000000E+00
  0.00000000E+00  0.00000000E+00  0.00000000E+00
  0.00000000E+00  0.00000000E+00  0.00000000E+00
  0.00000000E+00  0.00000000E+00  0.00000000E+00
  0.00000000E+00  0.00000000E+00  0.00000000E+00
  0.00000000E+00  0.00000000E+00  0.00000000E+00
  0.00000000E+00  0.00000000E+00  0.00000000E+00
  0.00000000E+00  0.00000000E+00  0.00000000E+00
  0.00000000E+00  0.00000000E+00  0.00000000E+00
  0.00000000E+00  0.00000000E+00  0.00000000E+00
  0.00000000E+00  0.00000000E+00  0.00000000E+00
  0.00000000E+00  0.00000000E+00  0.00000000E+00
  0.00000000E+00  0.00000000E+00  0.00000000E+00
  0.00000000E+00  0.00000000E+00  0.00000000E+00
  0.00000000E+00  0.00000000E+00  0.00000000E+00
  0.00000000E+00  0.00000000E+00  0.00000000E+00
  0.00000000E+00  0.00000000E+00  0.00000000E+00
  0.00000000E+00  0.00000000E+00  0.00000000E+00
  0.00000000E+00  0.00000000E+00  0.00000000E+00
  0.00000000E+00  0.00000000E+00  0.00000000E+00
  0.00000000E+00  0.00000000E+00  0.00000000E+00
  0.00000000E+00  0.00000000E+00  0.00000000E+00
  0.00000000E+00  0.00000000E+00  0.00000000E+00
  0.00000000E+00  0.00000000E+00  0.00000000E+00
  0.00000000E+00  0.00000000E+00  0.00000000E+00
  0.00000000E+00  0.00000000E+00  0.00000000E+00
  0.00000000E+00  0.00000000E+00  0.00000000E+00
  0.00000000E+00  0.00000000E+00  0.00000000E+00
  0.00000000E+00  0.00000000E+00  0.00000000E+00
  0.00000000E+00  0.00000000E+00  0.00000000E+00
  0.00000000E+00  0.00000000E+00  0.00000000E+00
  0.00000000E+00  0.00000000E+00  0.00000000E+00
  0.00000000E+00  0.00000000E+00  0.00000000E+00
  0.00000000E+00  0.00000000E+00  0.00000000E+00
  0.00000000E+00  0.00000000E+00  0.00000000E+00
  0.00000000E+00  0.00000000E+00  0.00000000E+00
  0.00000000E+00  0.00000000E+00  0.00000000E+00
  0.00000000E+00  0.00000000E+00  0.00000000E+00
  0.00000000E+00  0.00000000E+00  0.00000000E+00
  0.00000000E+00  0.00000000E+00  0.00000000E+00
  0.00000000E+00  0.00000000E+00  0.00000000E+00
  0.00000000E+00  0.00000000E+00  0.00000000E+00
  0.00000000E+00  0.00000000E+00  0.00000000E+00
  0.00000000E+00  0.00000000E+00  0.00000000E+00
  0.00000000E+00  0.00000000E+00  0.00000000E+00
  0.00000000E+00  0.00000000E+00  0.00000000E+00
  0.00000000E+00  0.00000000E+00  0.00000000E+00
  0.00000000E+00  0.00000000E+00  0.00000000E+00
  0.00000000E+00  0.00000000E+00  0.00000000E+00
  0.00000000E+00  0.00000000E+00  0.00000000E+00
  0.00000000E+00  0.00000000E+00  0.00000000E+00
  0.00000000E+00  0.00000000E+00  0.00000000E+00
  0.00000000E+00  0.00000000E+00  0.00000000E+00
  0.00000000E+00  0.00000000E+00  0.00000000E+00
  0.00000000E+00  0.00000000E+00  0.00000000E+00
  0.00000000E+00  0.00000000E+00  0.00000000E+00
  0.00000000E+00  0.00000000E+00  0.00000000E+00
  0.00000000E+00  0.00000000E+00  0.00000000E+00
  0.00000000E+00  0.00000000E+00  0.00000000E+00
  0.00000000E+00  0.00000000E+00  0.00000000E+00
  0.00000000E+00  0.00000000E+00  0.00000000E+00
  0.00000000E+00  0.00000000E+00  0.00000000E+00
  0.00000000E+00  0.00000000E+00  0.00000000E+00
  0.00000000E+00  0.00000000E+00  0.00000000E+00
  0.00000000E+00  0.00000000E+00  0.00000000E+00
  0.00000000E+00  0.00000000E+00  0.00000000E+00
  0.00000000E+00  0.00000000E+00  0.00000000E+00
  0.00000000E+00  0.00000000E+00  0.00000000E+00
  0.00000000E+00  0.00000000E+00  0.00000000E+00
  0.00000000E+00  0.00000000E+00  0.00000000E+00
  0.00000000E+00  0.00000000E+00  0.00000000E+00
  0.00000000E+00  0.00000000E+00  0.00000000E+00
  0.00000000E+00  0.00000000E+00  0.00000000E+00
  0.00000000E+00  0.00000000E+00  0.00000000E+00
  0.00000000E+00  0.00000000E+00  0.00000000E+00
  0.00000000E+00  0.00000000E+00  0.00000000E+00
  0.00000000E+00  0.00000000E+00  0.00000000E+00
