CeO2-you-111-you-Ti                     
   1.00000000000000     
     9.8040322899416275   -5.6603610484190874    0.0000000011997966
     0.0430183905107126   11.3952301378587642    0.0231724018578684
     0.0248657510310825    0.0430687369243788   21.0614675456251419
   O    Ti   Ce   H 
    53     1    26     2
Selective dynamics
Direct
  0.9986110703817899  0.9997623251522441  0.9959214018728423   T   T   T
  0.1112865606943458  0.2226981386548204  0.1486795548592355   F   F   F
  0.2402133176584407  0.1255240186786167  0.3040602110253739   T   T   T
  0.1344319920206503  0.2303486850151712  0.3775515590953801   T   T   T
  0.0051814019224953  0.0011698753668946  0.2289750670692239   T   T   T
  0.2215646423184197  0.1097962846368148  0.0727238651171049   F   F   F
  0.3346285100906804  0.9995288307071146  0.9958603076708198   T   T   T
  0.4447445779600230  0.2226981386542874  0.1486795548592283   F   F   F
  0.5519404726070908  0.1096039454652793  0.3038248527451370   T   T   T
  0.4501087612645834  0.1795134390180906  0.4117107046041890   T   T   T
  0.3301635013593613  0.9975171294986493  0.2272837832566899   T   T   T
  0.5579620876225562  0.1117599049488547  0.0759622435587062   F   F   F
  0.6668391486305772 -0.0002431801204761  0.9960096341529040   T   T   T
  0.7796826048149654  0.2260312096299941  0.1528933463000186   F   F   F
  0.8943903127388393  0.1118248195776488  0.3042378455606600   T   T   T
  0.7862220693927094  0.2170079838530090  0.3862067148851605   T   T   T
  0.6685368756295094  0.0019927163759245  0.2304676761888198   T   T   T
  0.8871318173263560  0.1117599049489542  0.0759622435586778   F   F   F
  0.0007166040891074  0.3331936862599190  0.9959399683404772   T   T   T
  0.1104490249428665  0.5544158001275790  0.1499372173050730   F   F   F
  0.2379168324097469  0.4397779070314305  0.3052556618345732   T   T   T
  0.0991633420359100  0.5451656401783005  0.3853704676561672   T   T   T
  0.0056592091718873  0.3355840139383001  0.2311355032038244   T   T   T
  0.2234290314735574  0.4450907025974118  0.0760169184520905   F   F   F
  0.3335433139507987  0.3338437810912350  0.9958400918429221   T   T   T
  0.4443335996581013  0.5553351993165805  0.1522358902035066   F   F   F
  0.4894863203880361  0.4221205489210198  0.3330246788508461   T   T   T
  0.3285709923049511  0.3269992894507896  0.2286958684903675   T   T   T
  0.5549956711237698  0.4450907025973834  0.0760169184520976   F   F   F
  0.6656410203773501  0.3336531988117584  0.9960233990319352   T   T   T
  0.7772997751846660  0.5544158001274369  0.1499372173050588   F   F   F
  0.8908203442723915  0.4446541086390548  0.3034007479710748   T   T   T
  0.7810783626495801  0.5677680878372767  0.3841055006081413   T   T   T
  0.6579730808165721  0.3406816492207597  0.2331454350043864   T   T   T
  0.8887377165200192  0.4441414330399880  0.0750403469760457   F   F   F
  0.0000728865313330  0.6672468630623054  0.9958477206491992   T   T   T
  0.1102438386743572  0.8871546773482279  0.1475979216302008   F   F   F
  0.2192691024349592  0.7770413264791327  0.3042528613769989   T   T   T
  0.1137883484782055  0.8924524408902962  0.3828432681332016   T   T   T
 -0.0009377753283598  0.6677413489144550  0.2285001101196994   T   T   T
  0.2231626868529020  0.7772888116854233  0.0751013376723790   F   F   F
  0.3345175649940576  0.6665785425704676  0.9960596977344464   T   T   T
  0.4469778217416476  0.8901312101248209  0.1507420093655014   F   F   F
  0.5653452219517109  0.7799637182075039  0.3052419771715585   T   T   T
  0.4518706580797985  0.8983245824936574  0.3852035281116689   T   T   T
  0.3342364528305360  0.6663927661265610  0.2292828403514842   T   T   T
  0.5548036479830643  0.7762732959661207  0.0763467162636360   F   F   F
  0.6667104905562155  0.6670388410939525  0.9959000853894984   T   T   T
  0.7764863883834465  0.8901312101250340  0.1507420093654801   F   F   F
  0.8926611648544190  0.7828832762141706  0.3033309733299563   T   T   T
  0.7895890310360597  0.8954652019102918  0.3859984584441649   T   T   T
  0.6644006770497186  0.6558086566115688  0.2336807065641210   T   T   T
  0.8874591248326453  0.7772888116854801  0.0751013376723861   F   F   F
  0.3023060387523210  0.3155928882890776  0.3220523858483784   T   T   T
  0.0080861770923442  0.0040265961054413  0.3438526522802360   T   T   T
  0.2198367134346171  0.1063404268696075  0.1850444598486618   F   F   F
  0.1109254824283212  0.2231925842443943  0.0352411118878848   F   F   F
  0.3343783239082272 -0.0075156063208535  0.3441363269305414   T   T   T
  0.5550186791460661  0.1117966468499461  0.1906022654831858   F   F   F
  0.4456001018162254  0.2231925842446003  0.0352411118878990   F   F   F
  0.6696918592196756  0.0027525843788090  0.3458413958246492   T   T   T
  0.8901119677035396  0.1117966468491929  0.1906022654832356   F   F   F
  0.7781961731304747  0.2230583462608493  0.0363517225446657   F   F   F
  0.0008266356130309  0.3340574522481365  0.3448649532656787   T   T   T
  0.2252233317537602  0.4449769372704893  0.1915239688870471   F   F   F
  0.1120357749418019  0.5557370265986137  0.0362004293644418   F   F   F
  0.5530876055182716  0.4449769372716048  0.1915239688870898   F   F   F
  0.4446934219580427  0.5560548439160016  0.0360849320718799   F   F   F
  0.6627516182118096  0.3314199132777284  0.3522844599813493   T   T   T
  0.8897215130342815  0.4461090260686404  0.1906724051494422   F   F   F
  0.7770342516568221  0.5557370265986705  0.0362004293644418   F   F   F
 -0.0006818994756763  0.6641071788775779  0.3429989046039140   T   T   T
  0.2224029258480869  0.7771271168917693  0.1890106969936838   F   F   F
  0.1105883807945958  0.8878437615893091  0.0339893220358007   F   F   F
  0.3355505589104202  0.6686116557700892  0.3493221357277059   T   T   T
  0.5562425390684496  0.7791510781370548  0.1927283223422762   F   F   F
  0.4456438414666621  0.8890415121516355  0.0361633376060055   F   F   F
  0.6777012307777976  0.6788821590755602  0.3486237195996034   T   T   T
  0.8880571910428827  0.7771271168915845  0.1890106969937548   F   F   F
  0.7767306706848913  0.8890415121514650  0.0361633376059842   F   F   F
  0.4978193714882944  0.6348147399911404  0.4099555261900109   T   T   T
  0.4075658486456746  0.2067995979163257  0.4441179228704650   T   T   T
 
  0.00000000E+00  0.00000000E+00  0.00000000E+00
  0.00000000E+00  0.00000000E+00  0.00000000E+00
  0.00000000E+00  0.00000000E+00  0.00000000E+00
  0.00000000E+00  0.00000000E+00  0.00000000E+00
  0.00000000E+00  0.00000000E+00  0.00000000E+00
  0.00000000E+00  0.00000000E+00  0.00000000E+00
  0.00000000E+00  0.00000000E+00  0.00000000E+00
  0.00000000E+00  0.00000000E+00  0.00000000E+00
  0.00000000E+00  0.00000000E+00  0.00000000E+00
  0.00000000E+00  0.00000000E+00  0.00000000E+00
  0.00000000E+00  0.00000000E+00  0.00000000E+00
  0.00000000E+00  0.00000000E+00  0.00000000E+00
  0.00000000E+00  0.00000000E+00  0.00000000E+00
  0.00000000E+00  0.00000000E+00  0.00000000E+00
  0.00000000E+00  0.00000000E+00  0.00000000E+00
  0.00000000E+00  0.00000000E+00  0.00000000E+00
  0.00000000E+00  0.00000000E+00  0.00000000E+00
  0.00000000E+00  0.00000000E+00  0.00000000E+00
  0.00000000E+00  0.00000000E+00  0.00000000E+00
  0.00000000E+00  0.00000000E+00  0.00000000E+00
  0.00000000E+00  0.00000000E+00  0.00000000E+00
  0.00000000E+00  0.00000000E+00  0.00000000E+00
  0.00000000E+00  0.00000000E+00  0.00000000E+00
  0.00000000E+00  0.00000000E+00  0.00000000E+00
  0.00000000E+00  0.00000000E+00  0.00000000E+00
  0.00000000E+00  0.00000000E+00  0.00000000E+00
  0.00000000E+00  0.00000000E+00  0.00000000E+00
  0.00000000E+00  0.00000000E+00  0.00000000E+00
  0.00000000E+00  0.00000000E+00  0.00000000E+00
  0.00000000E+00  0.00000000E+00  0.00000000E+00
  0.00000000E+00  0.00000000E+00  0.00000000E+00
  0.00000000E+00  0.00000000E+00  0.00000000E+00
  0.00000000E+00  0.00000000E+00  0.00000000E+00
  0.00000000E+00  0.00000000E+00  0.00000000E+00
  0.00000000E+00  0.00000000E+00  0.00000000E+00
  0.00000000E+00  0.00000000E+00  0.00000000E+00
  0.00000000E+00  0.00000000E+00  0.00000000E+00
  0.00000000E+00  0.00000000E+00  0.00000000E+00
  0.00000000E+00  0.00000000E+00  0.00000000E+00
  0.00000000E+00  0.00000000E+00  0.00000000E+00
  0.00000000E+00  0.00000000E+00  0.00000000E+00
  0.00000000E+00  0.00000000E+00  0.00000000E+00
  0.00000000E+00  0.00000000E+00  0.00000000E+00
  0.00000000E+00  0.00000000E+00  0.00000000E+00
  0.00000000E+00  0.00000000E+00  0.00000000E+00
  0.00000000E+00  0.00000000E+00  0.00000000E+00
  0.00000000E+00  0.00000000E+00  0.00000000E+00
  0.00000000E+00  0.00000000E+00  0.00000000E+00
  0.00000000E+00  0.00000000E+00  0.00000000E+00
  0.00000000E+00  0.00000000E+00  0.00000000E+00
  0.00000000E+00  0.00000000E+00  0.00000000E+00
  0.00000000E+00  0.00000000E+00  0.00000000E+00
  0.00000000E+00  0.00000000E+00  0.00000000E+00
  0.00000000E+00  0.00000000E+00  0.00000000E+00
  0.00000000E+00  0.00000000E+00  0.00000000E+00
  0.00000000E+00  0.00000000E+00  0.00000000E+00
  0.00000000E+00  0.00000000E+00  0.00000000E+00
  0.00000000E+00  0.00000000E+00  0.00000000E+00
  0.00000000E+00  0.00000000E+00  0.00000000E+00
  0.00000000E+00  0.00000000E+00  0.00000000E+00
  0.00000000E+00  0.00000000E+00  0.00000000E+00
  0.00000000E+00  0.00000000E+00  0.00000000E+00
  0.00000000E+00  0.00000000E+00  0.00000000E+00
  0.00000000E+00  0.00000000E+00  0.00000000E+00
  0.00000000E+00  0.00000000E+00  0.00000000E+00
  0.00000000E+00  0.00000000E+00  0.00000000E+00
  0.00000000E+00  0.00000000E+00  0.00000000E+00
  0.00000000E+00  0.00000000E+00  0.00000000E+00
  0.00000000E+00  0.00000000E+00  0.00000000E+00
  0.00000000E+00  0.00000000E+00  0.00000000E+00
  0.00000000E+00  0.00000000E+00  0.00000000E+00
  0.00000000E+00  0.00000000E+00  0.00000000E+00
  0.00000000E+00  0.00000000E+00  0.00000000E+00
  0.00000000E+00  0.00000000E+00  0.00000000E+00
  0.00000000E+00  0.00000000E+00  0.00000000E+00
  0.00000000E+00  0.00000000E+00  0.00000000E+00
  0.00000000E+00  0.00000000E+00  0.00000000E+00
  0.00000000E+00  0.00000000E+00  0.00000000E+00
  0.00000000E+00  0.00000000E+00  0.00000000E+00
  0.00000000E+00  0.00000000E+00  0.00000000E+00
  0.00000000E+00  0.00000000E+00  0.00000000E+00
  0.00000000E+00  0.00000000E+00  0.00000000E+00
