CeO2-you-111-you-Zn                     
   1.00000000000000     
     9.8946253629782284   -5.7126649919462684   -0.0000000014522119
    -0.0440879618334332   11.3489653883517274   -0.0277069836478195
    -0.0299847830364404   -0.0519351588506735   20.9451833422218172
   O    Zn   Ce H
    53     1    26 2
Selective dynamics
Direct
 -0.0000044561124223 -0.0002774531658069  0.9946454518306962   T   T   T
  0.1071023081875608  0.2208647639684184  0.1482542204203364   F   F   F
  0.2337918354866612  0.1342506709755608  0.3097455260745106   T   T   T
  0.0631719651481639  0.2023404738784397  0.3954130560190912   T   T   T
  0.0058634027231706  0.0026475138369790  0.2295938171102727   T   T   T
  0.2224970049503871  0.1116610099009839  0.0742867277849617   F   F   F
  0.3330600029465821 -0.0002774531658335  0.9946454518307246   T   T   T
  0.4470954557805184  0.2208647639679660  0.1482542204203346   F   F   F
  0.5575377581560307  0.1094136380614295  0.3010066982063540   T   T   T
  0.4725015087340441  0.2023404738813614  0.3954130560198743   T   T   T
  0.3301171111140440  0.0026475138356074  0.2295938171100987   T   T   T
  0.5569902729501948  0.1105482426828336  0.0741088149161519   F   F   F
  0.6662435274242006 -0.0008469451517218  0.9937672681140520   T   T   T
  0.7771768028549669  0.2210196057100121  0.1530018942027391   F   F   F
  0.8852098799058354  0.1094136380617392  0.3010066982062319   T   T   T
  0.7750000811431470  0.2166661622857126  0.3845535687746605   T   T   T
  0.6609948511347216 -0.0113442977324760  0.2313361079546098   T   T   T
  0.8868919697320653  0.1105482426822625  0.0741088149159981   F   F   F
 -0.0003712789985487  0.3320867931479248  0.9946247173465617   T   T   T
  0.1095421938702720  0.5554656144749941  0.1491899667487036   F   F   F
  0.2425910651248298  0.4468506209877612  0.3156100635088146   T   T   T
  0.1123671112623579  0.5619054179883253  0.3843916370766733   T   T   T
  0.0086457216797891  0.3386113053501270  0.2316102797590698   T   T   T
  0.2223087701733756  0.4450337324720297  0.0746847582616747   F   F   F
  0.3330307082636297  0.3327284165276641  0.9948239403617762   T   T   T
  0.4466702561412838  0.5600085122836012  0.1480069165506404   F   F   F
  0.5375935558614311  0.4468506209843746  0.3156100635082987   T   T   T
  0.3351439216590212  0.3369548433188774  0.2188966878449925   T   T   T
  0.5560589622983593  0.4450337324718996  0.0746847582616663   F   F   F
  0.6657920721459260  0.3320867931475432  0.9946247173465195   T   T   T
  0.7792564206045414  0.5554656144746030  0.1491899667487293   F   F   F
  0.8884936881226456  0.4436533762449338  0.3056608523565458   T   T   T
  0.7828713067256794  0.5619054179887807  0.3843916370766582   T   T   T
  0.6632995836689045  0.3386113053495401  0.2316102797590024   T   T   T
  0.8877367901336648  0.4421395802665747  0.0748409008446380   F   F   F
 -0.0008574827942027  0.6649520344108283  0.9944582071868778   T   T   T
  0.1107079713998503  0.8880829427988980  0.1475533474148502   F   F   F
  0.2214996997655956  0.7806156816341500  0.3031740703779953   T   T   T
  0.1136610954772808  0.8939891909545721  0.3834904991133891   T   T   T
  0.0005511764257184  0.6677693528514624  0.2292034698882151   T   T   T
  0.2221531810777567  0.7775600786141023  0.0734787697411476   F   F   F
  0.3336520871058462  0.6659517041185439  0.9946699173860508   T   T   T
  0.4431427056157620  0.8885423829665835  0.1496098372040612   F   F   F
  0.5436558474304373  0.7539776948604311  0.3124892291358466   T   T   T
  0.4438824657238339  0.8879977487811805  0.3829636811789121   T   T   T
  0.3305558647136806  0.6665236479482051  0.2292433153961923   T   T   T
  0.5565695764324537  0.7798051528650742  0.0744999043130891   F   F   F
  0.6656326170131207  0.6659517041184647  0.9946699173860226   T   T   T
  0.7787326773508546  0.8885423829665343  0.1496098372040401   F   F   F
  0.8924489818704309  0.7806156816360622  0.3031740703781400   T   T   T
  0.7774482830580345  0.8879977487817977  0.3829636811789159   T   T   T
  0.6693007832344724  0.6665236479483322  0.2292433153961551   T   T   T
  0.8887398975365637  0.7775600786137985  0.0734787697411034   F   F   F
  0.3348969896652411  0.3364609793376201  0.3181971388982667   T   T   T
  0.0064839765294426  0.0109407041903737  0.3468267736671599   T   T   T
  0.2229261731656843  0.1125193463319763  0.1888967773718018   F   F   F
  0.1103682124029041  0.2214195150995273  0.0344989805464761   F   F   F
  0.3377897276605708  0.0109407041917862  0.3468267736670864   T   T   T
  0.5544550473287140  0.1104925278046466  0.1904897848950121   F   F   F
  0.4443843026966561  0.2214195150996890  0.0344989805464933   F   F   F
  0.6655864424854252 -0.0021611150266487  0.3451525493384208   T   T   T
  0.8893714804750045  0.1104925278037156  0.1904897848950174   F   F   F
  0.7771280376889652  0.2209220753777848  0.0348580655715466   F   F   F
 -0.0006659730492043  0.3292943994093080  0.3478315492726637   T   T   T
  0.2218519159385387  0.4448686404085261  0.1880518884017405   F   F   F
  0.1097450967961218  0.5542120859908446  0.0346841624621900   F   F   F
  0.5563507244711234  0.4448686404090438  0.1880518884017587   F   F   F
  0.4445378943813713  0.5557437887625926  0.0339191490966019   F   F   F
  0.6632943724596704  0.3292943994090253  0.3478315492727221   T   T   T
  0.8887907203777192  0.4442474407548438  0.1919998598288636   F   F   F
  0.7777999891949273  0.5542120859908752  0.0346841624621997   F   F   F
  0.0016266467666568  0.6699202935343614  0.3442701884002970   T   T   T
  0.2215445962164747  0.7796439707686171  0.1882631521501480   F   F   F
  0.1108986897510557  0.8884643795021856  0.0336932669391568   F   F   F
  0.3221860331832557  0.6713578500163692  0.3408574611119133   T   T   T
  0.5546491616857168  0.7759643233713432  0.1890558606379034   F   F   F
  0.4445741797304502  0.8885359909069913  0.0342327230043748   F   F   F
  0.6825048168353212  0.6713578500176964  0.3408574611122025   T   T   T
  0.8914323745515407  0.7796439707684409  0.1882631521501353   F   F   F
  0.7772948111761314  0.8885359909064181  0.0342327230042868   F   F   F
0.43348969896652411 0.53364609793376201 0.418197 T T T
0.446598 0.216020 0.433410 T T T 
 
  0.00000000E+00  0.00000000E+00  0.00000000E+00
  0.00000000E+00  0.00000000E+00  0.00000000E+00
  0.00000000E+00  0.00000000E+00  0.00000000E+00
  0.00000000E+00  0.00000000E+00  0.00000000E+00
  0.00000000E+00  0.00000000E+00  0.00000000E+00
  0.00000000E+00  0.00000000E+00  0.00000000E+00
  0.00000000E+00  0.00000000E+00  0.00000000E+00
  0.00000000E+00  0.00000000E+00  0.00000000E+00
  0.00000000E+00  0.00000000E+00  0.00000000E+00
  0.00000000E+00  0.00000000E+00  0.00000000E+00
  0.00000000E+00  0.00000000E+00  0.00000000E+00
  0.00000000E+00  0.00000000E+00  0.00000000E+00
  0.00000000E+00  0.00000000E+00  0.00000000E+00
  0.00000000E+00  0.00000000E+00  0.00000000E+00
  0.00000000E+00  0.00000000E+00  0.00000000E+00
  0.00000000E+00  0.00000000E+00  0.00000000E+00
  0.00000000E+00  0.00000000E+00  0.00000000E+00
  0.00000000E+00  0.00000000E+00  0.00000000E+00
  0.00000000E+00  0.00000000E+00  0.00000000E+00
  0.00000000E+00  0.00000000E+00  0.00000000E+00
  0.00000000E+00  0.00000000E+00  0.00000000E+00
  0.00000000E+00  0.00000000E+00  0.00000000E+00
  0.00000000E+00  0.00000000E+00  0.00000000E+00
  0.00000000E+00  0.00000000E+00  0.00000000E+00
  0.00000000E+00  0.00000000E+00  0.00000000E+00
  0.00000000E+00  0.00000000E+00  0.00000000E+00
  0.00000000E+00  0.00000000E+00  0.00000000E+00
  0.00000000E+00  0.00000000E+00  0.00000000E+00
  0.00000000E+00  0.00000000E+00  0.00000000E+00
  0.00000000E+00  0.00000000E+00  0.00000000E+00
  0.00000000E+00  0.00000000E+00  0.00000000E+00
  0.00000000E+00  0.00000000E+00  0.00000000E+00
  0.00000000E+00  0.00000000E+00  0.00000000E+00
  0.00000000E+00  0.00000000E+00  0.00000000E+00
  0.00000000E+00  0.00000000E+00  0.00000000E+00
  0.00000000E+00  0.00000000E+00  0.00000000E+00
  0.00000000E+00  0.00000000E+00  0.00000000E+00
  0.00000000E+00  0.00000000E+00  0.00000000E+00
  0.00000000E+00  0.00000000E+00  0.00000000E+00
  0.00000000E+00  0.00000000E+00  0.00000000E+00
  0.00000000E+00  0.00000000E+00  0.00000000E+00
  0.00000000E+00  0.00000000E+00  0.00000000E+00
  0.00000000E+00  0.00000000E+00  0.00000000E+00
  0.00000000E+00  0.00000000E+00  0.00000000E+00
  0.00000000E+00  0.00000000E+00  0.00000000E+00
  0.00000000E+00  0.00000000E+00  0.00000000E+00
  0.00000000E+00  0.00000000E+00  0.00000000E+00
  0.00000000E+00  0.00000000E+00  0.00000000E+00
  0.00000000E+00  0.00000000E+00  0.00000000E+00
  0.00000000E+00  0.00000000E+00  0.00000000E+00
  0.00000000E+00  0.00000000E+00  0.00000000E+00
  0.00000000E+00  0.00000000E+00  0.00000000E+00
  0.00000000E+00  0.00000000E+00  0.00000000E+00
  0.00000000E+00  0.00000000E+00  0.00000000E+00
  0.00000000E+00  0.00000000E+00  0.00000000E+00
  0.00000000E+00  0.00000000E+00  0.00000000E+00
  0.00000000E+00  0.00000000E+00  0.00000000E+00
  0.00000000E+00  0.00000000E+00  0.00000000E+00
  0.00000000E+00  0.00000000E+00  0.00000000E+00
  0.00000000E+00  0.00000000E+00  0.00000000E+00
  0.00000000E+00  0.00000000E+00  0.00000000E+00
  0.00000000E+00  0.00000000E+00  0.00000000E+00
  0.00000000E+00  0.00000000E+00  0.00000000E+00
  0.00000000E+00  0.00000000E+00  0.00000000E+00
  0.00000000E+00  0.00000000E+00  0.00000000E+00
  0.00000000E+00  0.00000000E+00  0.00000000E+00
  0.00000000E+00  0.00000000E+00  0.00000000E+00
  0.00000000E+00  0.00000000E+00  0.00000000E+00
  0.00000000E+00  0.00000000E+00  0.00000000E+00
  0.00000000E+00  0.00000000E+00  0.00000000E+00
  0.00000000E+00  0.00000000E+00  0.00000000E+00
  0.00000000E+00  0.00000000E+00  0.00000000E+00
  0.00000000E+00  0.00000000E+00  0.00000000E+00
  0.00000000E+00  0.00000000E+00  0.00000000E+00
  0.00000000E+00  0.00000000E+00  0.00000000E+00
  0.00000000E+00  0.00000000E+00  0.00000000E+00
  0.00000000E+00  0.00000000E+00  0.00000000E+00
  0.00000000E+00  0.00000000E+00  0.00000000E+00
  0.00000000E+00  0.00000000E+00  0.00000000E+00
  0.00000000E+00  0.00000000E+00  0.00000000E+00
