CeO2-you-111-you-Ca                     
   1.00000000000000     
     9.8461627146616539   -5.6905050017676553   -0.0001294330104482
    -0.0000000001760011   11.3810080003937752    0.0000000000230390
    -0.0006274651646469    0.0000000000866862   20.8933217243320435
   O    Ca   Ce H
    53     1    26 2
Selective dynamics
Direct
 -0.0008434675374522  0.0006985581044092  0.9949772351275072   T   T   T
  0.1157630329378394  0.2245480164686001  0.1513176125470493   F   F   F
  0.2179763237677119  0.1048777491307682  0.3045620627488436   T   T   T
  0.0946620861961496  0.2139975430985242  0.3877717026084879   T   T   T
 -0.0012685772181161  0.0006218548078608  0.2286874332795633   T   T   T
  0.2212461733511225  0.1099684046277657  0.0743477086715087   F   F   F
  0.3323390438624001 -0.0005565735115414  0.9936229991265917   T   T   T
  0.4452945947395540  0.2202119560243864  0.1463878220987486   F   F   F
  0.5599239278420417  0.1082155259846867  0.3035221461168962   T   T   T
  0.4588680484155941  0.2311157592913421  0.3775459671322491   T   T   T
  0.3358457466282345  0.0016826177274206  0.2295341668907668   T   T   T
  0.5552119749772443  0.1093801650747158  0.0731934129963000   F   F   F
  0.6691569236865293  0.0012449618433270  0.9946244851743530   T   T   T
  0.7742276064032990  0.2265253714905609  0.1511409663788583   F   F   F
  0.8862902048532690  0.1098116024261740  0.3041296856468613   T   T   T
  0.7783647481782646  0.2200155234633629  0.3881736303756592   T   T   T
  0.6677436598437847  0.0005383299218953  0.2273618566892482   T   T   T
  0.8881122221019333  0.1107226110509486  0.0771839113715818   F   F   F
 -0.0008434675371555  0.3317909743581288  0.9949772351274493   T   T   T
  0.1107083675106008  0.5556356033111665  0.1509633467848376   F   F   F
  0.2179763237665167  0.4464315746364956  0.3045620627490482   T   T   T
  0.1127061696097675  0.5604403496760866  0.3858820704756226   T   T   T
 -0.0012685772169382  0.3314425679736115  0.2286874332795804   T   T   T
  0.2212461733509914  0.4446107687233252  0.0743477086715183   F   F   F
  0.3308913633172043  0.3321121816585387  0.9943599701481963   T   T   T
  0.4452945947380019  0.5584166387160577  0.1463878220985447   F   F   F
  0.4588680484148149  0.5610862891238392  0.3775459671323786   T   T   T
  0.3489820185289089  0.3411575092647907  0.2305484774502173   T   T   T
  0.5550562141234372  0.4441941070620147  0.0709648424299136   F   F   F
  0.6679481206056819  0.3325046205303480  0.9940132290048235   T   T   T
  0.7788485776842803  0.5560912888413573  0.1470453133638060   F   F   F
  0.8914729391551998  0.4423224887912218  0.3055227352081513   T   T   T
  0.7590092846988684  0.5461716423502548  0.3766949940733589   T   T   T
  0.6573825328050446  0.3433041611179035  0.2359486012429638   T   T   T
  0.8901155585031971  0.4446549988279327  0.0743958721179139   F   F   F
 -0.0002748558430106  0.6665295720783424  0.9944725083396989   T   T   T
  0.1107083675101528  0.8884067641984214  0.1509633467847618   F   F   F
  0.2219326800428764  0.7776333400211004  0.3034645046589810   T   T   T
  0.1127061696086086  0.8855998199322608  0.3858820704755710   T   T   T
 -0.0022995141225515  0.6655172429382366  0.2305568051321537   T   T   T
  0.2223866085283006  0.7778603042640775  0.0747014545475141   F   F   F
  0.3323390438622812  0.6662296173738840  0.9936229991265976   T   T   T
  0.4447850646310825  0.8890595323156302  0.1496350837883824   F   F   F
  0.5599239278401579  0.7850414018574648  0.3035221461167007   T   T   T
  0.4436471907233606  0.8884905953617743  0.3843662627347583   T   T   T
  0.3358457466289775  0.6674971289015131  0.2295341668907072   T   T   T
  0.5552119749772967  0.7791648099027907  0.0731934129962452   F   F   F
  0.6679481206057677  0.6687765000755275  0.9940132290047906   T   T   T
  0.7742276064024010  0.8810352349123689  0.1511409663789723   F   F   F
  0.8914729391541252  0.7824834503610074  0.3055227352080465   T   T   T
  0.7783647481770153  0.8916822247132763  0.3881736303753108   T   T   T
  0.6573825328063605  0.6474113716892375  0.2359486012429152   T   T   T
  0.8901155585033945  0.7787935596751855  0.0743958721178094   F   F   F
  0.3192468895576350  0.3262899447786806  0.3487375993525375   T   T   T
  0.0034696090723919  0.0043113855397957  0.3459287799593713   T   T   T
  0.2239796187373939  0.1133418262533509  0.1920492495226174   F   F   F
  0.1111833560791040  0.2222581780394506  0.0355944433043617   F   F   F
  0.3341859867739751  0.0024733071398576  0.3438136372439619   T   T   T
  0.5552920220921392  0.1113535876708574  0.1897571262827924   F   F   F
  0.4428941624815935  0.2196408256877347  0.0325385150889940   F   F   F
  0.6672827718443144  0.0003078859226370  0.3455724149306668   T   T   T
  0.8887793334090025  0.1110561667053559  0.1904915070032442   F   F   F
  0.7778256194205184  0.2224276632330896  0.0346727367147664   F   F   F
  0.0034696090698588  0.3324912235352421  0.3459287799591618   T   T   T
  0.2239796187373281  0.4439707924831370  0.1920492495225661   F   F   F
  0.1106351522538497  0.5545816056713203  0.0352548772333448   F   F   F
  0.5533831622507016  0.4433575811231782  0.1813779990117782   F   F   F
  0.4428941624815715  0.5565873367935883  0.0325385150890020   F   F   F
  0.6707988953702332  0.3244343320806021  0.3481382862742144   T   T   T
  0.8883887046318864  0.4449172710691983  0.1909928615283003   F   F   F
  0.7800223106143279  0.5566781553070906  0.0329415065313206   F   F   F
  0.0025918852173185  0.6679629426109500  0.3443467147153174   T   T   T
  0.2225151427819514  0.7779245713916090  0.1893468719322512   F   F   F
  0.1106351522538392  0.8893875465830320  0.0352548772333171   F   F   F
  0.3341859867735562  0.6650466796318214  0.3438136372436498   T   T   T
  0.5552920220949347  0.7772714344207122  0.1897571262828096   F   F   F
  0.4447671814509024  0.8890505907252814  0.0341805212625016   F   F   F
  0.6707988953698644  0.6796975632871031  0.3481382862748306   T   T   T
  0.8883887046345063  0.7768044335673665  0.1909928615282996   F   F   F
  0.7778256194208784  0.8887309561875805  0.0346727367148174   F   F   F
0.3192468895576350 0.3262899447786806 0.448738 T T T
0.446598 0.216020 0.433410 T T T 
 
  0.00000000E+00  0.00000000E+00  0.00000000E+00
  0.00000000E+00  0.00000000E+00  0.00000000E+00
  0.00000000E+00  0.00000000E+00  0.00000000E+00
  0.00000000E+00  0.00000000E+00  0.00000000E+00
  0.00000000E+00  0.00000000E+00  0.00000000E+00
  0.00000000E+00  0.00000000E+00  0.00000000E+00
  0.00000000E+00  0.00000000E+00  0.00000000E+00
  0.00000000E+00  0.00000000E+00  0.00000000E+00
  0.00000000E+00  0.00000000E+00  0.00000000E+00
  0.00000000E+00  0.00000000E+00  0.00000000E+00
  0.00000000E+00  0.00000000E+00  0.00000000E+00
  0.00000000E+00  0.00000000E+00  0.00000000E+00
  0.00000000E+00  0.00000000E+00  0.00000000E+00
  0.00000000E+00  0.00000000E+00  0.00000000E+00
  0.00000000E+00  0.00000000E+00  0.00000000E+00
  0.00000000E+00  0.00000000E+00  0.00000000E+00
  0.00000000E+00  0.00000000E+00  0.00000000E+00
  0.00000000E+00  0.00000000E+00  0.00000000E+00
  0.00000000E+00  0.00000000E+00  0.00000000E+00
  0.00000000E+00  0.00000000E+00  0.00000000E+00
  0.00000000E+00  0.00000000E+00  0.00000000E+00
  0.00000000E+00  0.00000000E+00  0.00000000E+00
  0.00000000E+00  0.00000000E+00  0.00000000E+00
  0.00000000E+00  0.00000000E+00  0.00000000E+00
  0.00000000E+00  0.00000000E+00  0.00000000E+00
  0.00000000E+00  0.00000000E+00  0.00000000E+00
  0.00000000E+00  0.00000000E+00  0.00000000E+00
  0.00000000E+00  0.00000000E+00  0.00000000E+00
  0.00000000E+00  0.00000000E+00  0.00000000E+00
  0.00000000E+00  0.00000000E+00  0.00000000E+00
  0.00000000E+00  0.00000000E+00  0.00000000E+00
  0.00000000E+00  0.00000000E+00  0.00000000E+00
  0.00000000E+00  0.00000000E+00  0.00000000E+00
  0.00000000E+00  0.00000000E+00  0.00000000E+00
  0.00000000E+00  0.00000000E+00  0.00000000E+00
  0.00000000E+00  0.00000000E+00  0.00000000E+00
  0.00000000E+00  0.00000000E+00  0.00000000E+00
  0.00000000E+00  0.00000000E+00  0.00000000E+00
  0.00000000E+00  0.00000000E+00  0.00000000E+00
  0.00000000E+00  0.00000000E+00  0.00000000E+00
  0.00000000E+00  0.00000000E+00  0.00000000E+00
  0.00000000E+00  0.00000000E+00  0.00000000E+00
  0.00000000E+00  0.00000000E+00  0.00000000E+00
  0.00000000E+00  0.00000000E+00  0.00000000E+00
  0.00000000E+00  0.00000000E+00  0.00000000E+00
  0.00000000E+00  0.00000000E+00  0.00000000E+00
  0.00000000E+00  0.00000000E+00  0.00000000E+00
  0.00000000E+00  0.00000000E+00  0.00000000E+00
  0.00000000E+00  0.00000000E+00  0.00000000E+00
  0.00000000E+00  0.00000000E+00  0.00000000E+00
  0.00000000E+00  0.00000000E+00  0.00000000E+00
  0.00000000E+00  0.00000000E+00  0.00000000E+00
  0.00000000E+00  0.00000000E+00  0.00000000E+00
  0.00000000E+00  0.00000000E+00  0.00000000E+00
  0.00000000E+00  0.00000000E+00  0.00000000E+00
  0.00000000E+00  0.00000000E+00  0.00000000E+00
  0.00000000E+00  0.00000000E+00  0.00000000E+00
  0.00000000E+00  0.00000000E+00  0.00000000E+00
  0.00000000E+00  0.00000000E+00  0.00000000E+00
  0.00000000E+00  0.00000000E+00  0.00000000E+00
  0.00000000E+00  0.00000000E+00  0.00000000E+00
  0.00000000E+00  0.00000000E+00  0.00000000E+00
  0.00000000E+00  0.00000000E+00  0.00000000E+00
  0.00000000E+00  0.00000000E+00  0.00000000E+00
  0.00000000E+00  0.00000000E+00  0.00000000E+00
  0.00000000E+00  0.00000000E+00  0.00000000E+00
  0.00000000E+00  0.00000000E+00  0.00000000E+00
  0.00000000E+00  0.00000000E+00  0.00000000E+00
  0.00000000E+00  0.00000000E+00  0.00000000E+00
  0.00000000E+00  0.00000000E+00  0.00000000E+00
  0.00000000E+00  0.00000000E+00  0.00000000E+00
  0.00000000E+00  0.00000000E+00  0.00000000E+00
  0.00000000E+00  0.00000000E+00  0.00000000E+00
  0.00000000E+00  0.00000000E+00  0.00000000E+00
  0.00000000E+00  0.00000000E+00  0.00000000E+00
  0.00000000E+00  0.00000000E+00  0.00000000E+00
  0.00000000E+00  0.00000000E+00  0.00000000E+00
  0.00000000E+00  0.00000000E+00  0.00000000E+00
  0.00000000E+00  0.00000000E+00  0.00000000E+00
  0.00000000E+00  0.00000000E+00  0.00000000E+00
