CeO2-you-111-you-Re                     
   1.00000000000000     
     9.9165469040078182   -5.7092775955436030    0.0178086753781414
    -0.0000000080234057   11.4185531679348156   -0.0000000020253978
     0.0402668556878463   -0.0000000040140923   21.0086698896929960
   O    Re   Ce   H 
    53     1    26     1
Selective dynamics
Direct
  0.9997206219993197  0.0008826117545212  0.9959421073293341   T   T   T
  0.1231892095931975  0.2281940239452163  0.1510989852473001   T   T   T
  0.2328258669096331  0.1362990390147066  0.3034256798306444   T   T   T
  0.1594814798524590  0.2429514332800720  0.3901869807202660   T   T   T
  0.0063327877273766  0.0027707943246991  0.2272967620470138   T   T   T
  0.2215593577567346  0.1100883814035709  0.0728151585413628   T   T   T
  0.3353992648401276  0.0008874821059884  0.9951866307216736   T   T   T
  0.4417097475009901  0.2222957114093663  0.1465601458259550   T   T   T
  0.5460382961453144  0.1071741692266627  0.3035105387285422   T   T   T
  0.4229070110942172  0.2323185567838436  0.3862791301246357   T   T   T
  0.3279363229507462  0.0007037622853302  0.2285030907976953   T   T   T
  0.5552230432282935  0.1102165537070249  0.0754958189980039   T   T   T
  0.6702151048898142  0.0009268874983896  0.9974805065197683   T   T   T
  0.7743481798896413  0.2242248825411328  0.1525341039012695   T   T   T
  0.8882342741963826  0.1112185884351156  0.3038800613466454   T   T   T
  0.7659138440228516  0.2086984457477689  0.3892734819467489   T   T   T
  0.6655458238484621 -0.0000015276537691  0.2294729643913029   T   T   T
  0.8919301699682196  0.1122389515396595  0.0786567007943458   T   T   T
  0.9992355429114937  0.3306727015154429  0.9955818185388784   T   T   T
  0.1111523073251268  0.5566417878753345  0.1473249526817157   T   T   T
  0.2227701383779757  0.4228010661376619  0.3033059417061511   T   T   T
  0.1047999562484490  0.5621212885925946  0.3866486152378333   T   T   T
  0.0047420066390590  0.3371942281185797  0.2257421470838867   T   T   T
  0.2214316083606963  0.4456684624065641  0.0726203516808669   T   T   T
  0.3331907539988072  0.3331742227131763  0.9950041882252976   T   T   T
  0.4420630582288206  0.5520175482491188  0.1466098416326926   T   T   T
  0.4427207801201423  0.4689139089945899  0.3699191518114113   T   T   T
  0.3606166626714981  0.3471745255657828  0.2411934363497605   T   T   T
  0.5580228125176636  0.4453908008048650  0.0708256655642482   T   T   T
  0.6686622120774204  0.3313183940014811  0.9952748086789865   T   T   T
  0.7803291293161276  0.5572555928883203  0.1460039974670926   T   T   T
  0.8894826458829292  0.4434399703878803  0.3012307663699079   T   T   T
  0.7854928100757284  0.5580157531722403  0.3852550192214219   T   T   T
  0.6570150063278477  0.3418802669434624  0.2314124403541907   T   T   T
  0.8900387362927963  0.4442384980092267  0.0736038326604853   T   T   T
  0.0007610020081194  0.6676246006914649  0.9946547883790884   T   T   T
  0.1120382500568524  0.8894157633203317  0.1479739193436320   T   T   T
  0.2224085831300229  0.7783169823725323  0.2999931776303372   T   T   T
  0.1241678264395211  0.8889461893906165  0.3834470524301142   T   T   T
 -0.0007883493903203  0.6667510284433528  0.2271488584714308   T   T   T
  0.2232905851222874  0.7778663661439580  0.0732493543140338   T   T   T
  0.3375084058192893  0.6690851148563638  0.9950452338595694   T   T   T
  0.4436717781768938  0.8879868040385671  0.1517448570665966   T   T   T
  0.5527316362606404  0.7759762663305515  0.3052095246993723   T   T   T
  0.4398713482323133  0.8951093716447714  0.3865297063467057   T   T   T
  0.3284539278879784  0.6585772012537451  0.2279163197280676   T   T   T
  0.5561676134648330  0.7782403657540633  0.0763671323173132   T   T   T
  0.6682727060844529  0.6698516079215732  0.9955173922415370   T   T   T
  0.7752590206635421  0.8844735206743112  0.1537943347153207   T   T   T
  0.8928224211462567  0.7806614773756970  0.3034351113548428   T   T   T
  0.7705391941047200  0.8951793834758364  0.3905434176048957   T   T   T
  0.6595789550907248  0.6492243048970191  0.2320977437872498   T   T   T
  0.8899983504901746  0.7794156420126248  0.0745521614972124   T   T   T
  0.3045909952051285  0.3232473173951814  0.3329650224237928   T   T   T
 -0.0006568827668892  0.9992023770045060  0.3481345386162286   T   T   T
  0.2223957441640445  0.1093239022426373  0.1871891738864554   T   T   T
  0.1114575821239682  0.2220891662432915  0.0348359363406403   T   T   T
  0.3292820486199569  0.9906085846678422  0.3424610775241321   T   T   T
  0.5540349211719566  0.1116345183629914  0.1915064774933352   T   T   T
  0.4447429388868838  0.2204344722343792  0.0328820277136953   T   T   T
  0.6645840042368155  0.9985868402612333  0.3457261337761227   T   T   T
  0.8902484525458848  0.1122490483196064  0.1933727523300141   T   T   T
  0.7785655864351478  0.2220903726213994  0.0371186732565184   T   T   T
  0.9925280963652993  0.3331065720951254  0.3494677281266035   T   T   T
  0.2213761954088588  0.4469007126129058  0.1858790405827852   T   T   T
  0.1109255073807285  0.5554051300123322  0.0341198494555911   T   T   T
  0.5601465499080273  0.4469013370272349  0.1803276807192470   T   T   T
  0.4454855100556128  0.5580745103356255  0.0331408097393269   T   T   T
  0.6732862107468219  0.3316102861328092  0.3489231651627662   T   T   T
  0.8885483392935580  0.4446063437349413  0.1904755751588925   T   T   T
  0.7809034677202409  0.5572018525977899  0.0332550826918147   T   T   T
 -0.0016094959516883  0.6637524617503028  0.3440266355115477   T   T   T
  0.2210070964089061  0.7766231583851599  0.1878465909304544   T   T   T
  0.1112527798458589  0.8896239659079839  0.0346201361486694   T   T   T
  0.3267015110166607  0.6700554324373033  0.3449328958745277   T   T   T
  0.5544250246610921  0.7752247985981190  0.1932435595124534   T   T   T
  0.4465556974843933  0.8894529266196898  0.0366795880533879   T   T   T
  0.6802002972013924  0.6795749488014797  0.3495142893433567   T   T   T
  0.8894941859497431  0.7779591290733697  0.1910744821495590   T   T   T
  0.7785060583482420  0.8894372544733838  0.0378393136661186   T   T   T
  0.4150337489586756  0.2538888257283874  0.4303998549474142   T   T   T
 
  0.00000000E+00  0.00000000E+00  0.00000000E+00
  0.00000000E+00  0.00000000E+00  0.00000000E+00
  0.00000000E+00  0.00000000E+00  0.00000000E+00
  0.00000000E+00  0.00000000E+00  0.00000000E+00
  0.00000000E+00  0.00000000E+00  0.00000000E+00
  0.00000000E+00  0.00000000E+00  0.00000000E+00
  0.00000000E+00  0.00000000E+00  0.00000000E+00
  0.00000000E+00  0.00000000E+00  0.00000000E+00
  0.00000000E+00  0.00000000E+00  0.00000000E+00
  0.00000000E+00  0.00000000E+00  0.00000000E+00
  0.00000000E+00  0.00000000E+00  0.00000000E+00
  0.00000000E+00  0.00000000E+00  0.00000000E+00
  0.00000000E+00  0.00000000E+00  0.00000000E+00
  0.00000000E+00  0.00000000E+00  0.00000000E+00
  0.00000000E+00  0.00000000E+00  0.00000000E+00
  0.00000000E+00  0.00000000E+00  0.00000000E+00
  0.00000000E+00  0.00000000E+00  0.00000000E+00
  0.00000000E+00  0.00000000E+00  0.00000000E+00
  0.00000000E+00  0.00000000E+00  0.00000000E+00
  0.00000000E+00  0.00000000E+00  0.00000000E+00
  0.00000000E+00  0.00000000E+00  0.00000000E+00
  0.00000000E+00  0.00000000E+00  0.00000000E+00
  0.00000000E+00  0.00000000E+00  0.00000000E+00
  0.00000000E+00  0.00000000E+00  0.00000000E+00
  0.00000000E+00  0.00000000E+00  0.00000000E+00
  0.00000000E+00  0.00000000E+00  0.00000000E+00
  0.00000000E+00  0.00000000E+00  0.00000000E+00
  0.00000000E+00  0.00000000E+00  0.00000000E+00
  0.00000000E+00  0.00000000E+00  0.00000000E+00
  0.00000000E+00  0.00000000E+00  0.00000000E+00
  0.00000000E+00  0.00000000E+00  0.00000000E+00
  0.00000000E+00  0.00000000E+00  0.00000000E+00
  0.00000000E+00  0.00000000E+00  0.00000000E+00
  0.00000000E+00  0.00000000E+00  0.00000000E+00
  0.00000000E+00  0.00000000E+00  0.00000000E+00
  0.00000000E+00  0.00000000E+00  0.00000000E+00
  0.00000000E+00  0.00000000E+00  0.00000000E+00
  0.00000000E+00  0.00000000E+00  0.00000000E+00
  0.00000000E+00  0.00000000E+00  0.00000000E+00
  0.00000000E+00  0.00000000E+00  0.00000000E+00
  0.00000000E+00  0.00000000E+00  0.00000000E+00
  0.00000000E+00  0.00000000E+00  0.00000000E+00
  0.00000000E+00  0.00000000E+00  0.00000000E+00
  0.00000000E+00  0.00000000E+00  0.00000000E+00
  0.00000000E+00  0.00000000E+00  0.00000000E+00
  0.00000000E+00  0.00000000E+00  0.00000000E+00
  0.00000000E+00  0.00000000E+00  0.00000000E+00
  0.00000000E+00  0.00000000E+00  0.00000000E+00
  0.00000000E+00  0.00000000E+00  0.00000000E+00
  0.00000000E+00  0.00000000E+00  0.00000000E+00
  0.00000000E+00  0.00000000E+00  0.00000000E+00
  0.00000000E+00  0.00000000E+00  0.00000000E+00
  0.00000000E+00  0.00000000E+00  0.00000000E+00
  0.00000000E+00  0.00000000E+00  0.00000000E+00
  0.00000000E+00  0.00000000E+00  0.00000000E+00
  0.00000000E+00  0.00000000E+00  0.00000000E+00
  0.00000000E+00  0.00000000E+00  0.00000000E+00
  0.00000000E+00  0.00000000E+00  0.00000000E+00
  0.00000000E+00  0.00000000E+00  0.00000000E+00
  0.00000000E+00  0.00000000E+00  0.00000000E+00
  0.00000000E+00  0.00000000E+00  0.00000000E+00
  0.00000000E+00  0.00000000E+00  0.00000000E+00
  0.00000000E+00  0.00000000E+00  0.00000000E+00
  0.00000000E+00  0.00000000E+00  0.00000000E+00
  0.00000000E+00  0.00000000E+00  0.00000000E+00
  0.00000000E+00  0.00000000E+00  0.00000000E+00
  0.00000000E+00  0.00000000E+00  0.00000000E+00
  0.00000000E+00  0.00000000E+00  0.00000000E+00
  0.00000000E+00  0.00000000E+00  0.00000000E+00
  0.00000000E+00  0.00000000E+00  0.00000000E+00
  0.00000000E+00  0.00000000E+00  0.00000000E+00
  0.00000000E+00  0.00000000E+00  0.00000000E+00
  0.00000000E+00  0.00000000E+00  0.00000000E+00
  0.00000000E+00  0.00000000E+00  0.00000000E+00
  0.00000000E+00  0.00000000E+00  0.00000000E+00
  0.00000000E+00  0.00000000E+00  0.00000000E+00
  0.00000000E+00  0.00000000E+00  0.00000000E+00
  0.00000000E+00  0.00000000E+00  0.00000000E+00
  0.00000000E+00  0.00000000E+00  0.00000000E+00
  0.00000000E+00  0.00000000E+00  0.00000000E+00
  0.00000000E+00  0.00000000E+00  0.00000000E+00
