CeO2-you-111-you-Ga                     
   1.00000000000000     
     9.8876431343028308   -5.7086337991742777   -0.0000000010916693
    -0.0311152723953399   11.3633723600030585   -0.0213616081628288
    -0.0230628615661555   -0.0399460412993359   20.7297998887013506
   O    Ga   Ce   H 
    53     1    26     1
Selective dynamics
Direct
  0.9995427820659889  0.0000942770847144  0.9910982283263132   T   T   T
  0.1088389842744820  0.2198089986217985  0.1458581585794494   T   T   T
  0.2397295842586732  0.1388347527630543  0.3144758142249299   T   T   T
  0.0618547828580206  0.1983924404238285  0.3995021714132734   T   T   T
  0.0092078617372097  0.0049533809945088  0.2304474279059047   T   T   T
  0.2221763942504184  0.1104878744755725  0.0711358904933118   T   T   T
  0.3349533901431427  0.0002516186742803  0.9914673915239429   T   T   T
  0.4457094530338472  0.2208928404538534  0.1463851910275566   T   T   T
  0.5524662621985699  0.1171228761011617  0.3047030091021407   T   T   T
  0.4728508286820262  0.1958193407349749  0.4126400308800854   T   T   T
  0.3287635802475705  0.0019176866246143  0.2294356850010286   T   T   T
  0.5574467732426613  0.1107854833476337  0.0728355895227393   T   T   T
  0.6660071450592352  0.9993114531409475  0.9913820672071981   T   T   T
  0.7783579609051284  0.2234044592334183  0.1517254278950445   T   T   T
  0.8869151761314545  0.1115434654610388  0.3017778240819811   T   T   T
  0.7763791599646894  0.2222700400944698  0.3861124866306075   T   T   T
  0.6625241450236924  0.9980542207482138  0.2303461551882920   T   T   T
  0.8868493701765851  0.1104411736305897  0.0723377489199985   T   T   T
 -0.0000442045684454  0.3325087885478734  0.9910456516087731   T   T   T
  0.1090709705931220  0.5560536934687479  0.1463083868225718   T   T   T
  0.2448384603721323  0.4327054350770226  0.3213200195250795   T   T   T
  0.0975868653936896  0.5494917272454464  0.3871729087727432   T   T   T
  0.0131695374040657  0.3404932006883427  0.2304088213714430   T   T   T
  0.2223142236412929  0.4449129113765134  0.0718552723541352   T   T   T
  0.3339794116593558  0.3338360677588767  0.9917353660806228   T   T   T
  0.4472856740573488  0.5591763803001580  0.1465506364513612   T   T   T
  0.5227691185853593  0.4273520966481786  0.3235758678383563   T   T   T
  0.3347238812688366  0.3351752693927011  0.2204499958612266   T   T   T
  0.5569586881749373  0.4449165616640272  0.0718958030153546   T   T   T
  0.6660801325360211  0.3325220204848579  0.9912091413033801   T   T   T
  0.7811595575262479  0.5574357077878087  0.1467150605230400   T   T   T
  0.8876612275741643  0.4405075270663039  0.3029638845147561   T   T   T
  0.7846813843416467  0.5483399419650863  0.3874608961185421   T   T   T
  0.6631292382846827  0.3407534426100462  0.2307542579582336   T   T   T
  0.8878689537850554  0.4423244377156721  0.0715772582289388   T   T   T
  0.9995250314388162  0.6656579988008090  0.9908736868972073   T   T   T
  0.1098229305936725  0.8876708019340648  0.1466399758880942   T   T   T
  0.2198500348915335  0.7799238369141944  0.3042655976812257   T   T   T
  0.1177566611714692  0.8943073033178298  0.3866890059845358   T   T   T
  0.0000121292338808  0.6669115761842782  0.2287648573676476   T   T   T
  0.2221457615852498  0.7782922123056133  0.0715869318636677   T   T   T
  0.3336318363132817  0.6666070384430145  0.9916700546762689   T   T   T
  0.4428224664300868  0.8881409693783725  0.1501079707949669   T   T   T
  0.5532453945312740  0.7729929869483455  0.3079432291094039   T   T   T
  0.4486812087501565  0.9013133187834259  0.3874620772409462   T   T   T
  0.3267422425997817  0.6594180750031607  0.2284575469726148   T   T   T
  0.5571333124531139  0.7798396545939853  0.0729407550623873   T   T   T
  0.6656184470746863  0.6660491122654011  0.9915190689429156   T   T   T
  0.7788445686244774  0.8887498619761917  0.1512048762285448   T   T   T
  0.8952617225332977  0.7825842093263345  0.3057099816251713   T   T   T
  0.7817678772203162  0.9017515227828825  0.3891516619301027   T   T   T
  0.6663478104733026  0.6597074228109635  0.2293880656659236   T   T   T
  0.8889022305579739  0.7788609346117668  0.0712944881289260   T   T   T
  0.3327018355781299  0.3311059594474240  0.3145766687882030   T   T   T
  0.0010809399487812  0.0084542388851008  0.3507933120155395   T   T   T
  0.2212866261113907  0.1094320104836459  0.1858850686413209   T   T   T
  0.1099662439546560  0.2210825013770718  0.0309689676618130   T   T   T
  0.3321430460738485 -0.0007874482748967  0.3478839049214566   T   T   T
  0.5544099512337319  0.1117549668585822  0.1902720896668482   T   T   T
  0.4450016747562893  0.2211642049679992  0.0310643261668702   T   T   T
  0.6655673499176534 -0.0002432501605047  0.3468766587312755   T   T   T
  0.8904684808774356  0.1120459299398752  0.1904255709787447   T   T   T
  0.7772439807392798  0.2211024161981366  0.0324283078773238   T   T   T
  0.0003175956797010  0.3285383943034638  0.3501222183243229   T   T   T
  0.2218683227717796  0.4456272676107428  0.1847183589980622   T   T   T
  0.1101180103497261  0.5550537798264235  0.0312530023003831   T   T   T
  0.5585548147822105  0.4464032798885024  0.1845416956166123   T   T   T
  0.4454004367333179  0.5569940799286245  0.0312486729543249   T   T   T
  0.6716964351907342  0.3348163918244670  0.3477684375239251   T   T   T
  0.8897884608979345  0.4448473084299241  0.1900074412649191   T   T   T
  0.7787005644092000  0.5555072818332417  0.0315218069456195   T   T   T
  0.0002857752888493  0.6651013704123657  0.3456056795519618   T   T   T
  0.2214668427218189  0.7778174170537341  0.1884186327126588   T   T   T
  0.1105368705146015  0.8881190625018262  0.0311330804871752   T   T   T
  0.3257272927952673  0.6702740623270750  0.3462075086854609   T   T   T
  0.5548195067694154  0.7766277259324724  0.1920531028286338   T   T   T
  0.4451131366874660  0.8886609949979607  0.0328167369947372   T   T   T
  0.6794643271301962  0.6729120272856678  0.3469663319754485   T   T   T
  0.8904570799616466  0.7792919621472296  0.1900157184191678   T   T   T
  0.7770286126105219  0.8885271908169330  0.0329025737496376   T   T   T
  0.4390213641551368  0.2285624443699303  0.4472757668847633   T   T   T
 
  0.00000000E+00  0.00000000E+00  0.00000000E+00
  0.00000000E+00  0.00000000E+00  0.00000000E+00
  0.00000000E+00  0.00000000E+00  0.00000000E+00
  0.00000000E+00  0.00000000E+00  0.00000000E+00
  0.00000000E+00  0.00000000E+00  0.00000000E+00
  0.00000000E+00  0.00000000E+00  0.00000000E+00
  0.00000000E+00  0.00000000E+00  0.00000000E+00
  0.00000000E+00  0.00000000E+00  0.00000000E+00
  0.00000000E+00  0.00000000E+00  0.00000000E+00
  0.00000000E+00  0.00000000E+00  0.00000000E+00
  0.00000000E+00  0.00000000E+00  0.00000000E+00
  0.00000000E+00  0.00000000E+00  0.00000000E+00
  0.00000000E+00  0.00000000E+00  0.00000000E+00
  0.00000000E+00  0.00000000E+00  0.00000000E+00
  0.00000000E+00  0.00000000E+00  0.00000000E+00
  0.00000000E+00  0.00000000E+00  0.00000000E+00
  0.00000000E+00  0.00000000E+00  0.00000000E+00
  0.00000000E+00  0.00000000E+00  0.00000000E+00
  0.00000000E+00  0.00000000E+00  0.00000000E+00
  0.00000000E+00  0.00000000E+00  0.00000000E+00
  0.00000000E+00  0.00000000E+00  0.00000000E+00
  0.00000000E+00  0.00000000E+00  0.00000000E+00
  0.00000000E+00  0.00000000E+00  0.00000000E+00
  0.00000000E+00  0.00000000E+00  0.00000000E+00
  0.00000000E+00  0.00000000E+00  0.00000000E+00
  0.00000000E+00  0.00000000E+00  0.00000000E+00
  0.00000000E+00  0.00000000E+00  0.00000000E+00
  0.00000000E+00  0.00000000E+00  0.00000000E+00
  0.00000000E+00  0.00000000E+00  0.00000000E+00
  0.00000000E+00  0.00000000E+00  0.00000000E+00
  0.00000000E+00  0.00000000E+00  0.00000000E+00
  0.00000000E+00  0.00000000E+00  0.00000000E+00
  0.00000000E+00  0.00000000E+00  0.00000000E+00
  0.00000000E+00  0.00000000E+00  0.00000000E+00
  0.00000000E+00  0.00000000E+00  0.00000000E+00
  0.00000000E+00  0.00000000E+00  0.00000000E+00
  0.00000000E+00  0.00000000E+00  0.00000000E+00
  0.00000000E+00  0.00000000E+00  0.00000000E+00
  0.00000000E+00  0.00000000E+00  0.00000000E+00
  0.00000000E+00  0.00000000E+00  0.00000000E+00
  0.00000000E+00  0.00000000E+00  0.00000000E+00
  0.00000000E+00  0.00000000E+00  0.00000000E+00
  0.00000000E+00  0.00000000E+00  0.00000000E+00
  0.00000000E+00  0.00000000E+00  0.00000000E+00
  0.00000000E+00  0.00000000E+00  0.00000000E+00
  0.00000000E+00  0.00000000E+00  0.00000000E+00
  0.00000000E+00  0.00000000E+00  0.00000000E+00
  0.00000000E+00  0.00000000E+00  0.00000000E+00
  0.00000000E+00  0.00000000E+00  0.00000000E+00
  0.00000000E+00  0.00000000E+00  0.00000000E+00
  0.00000000E+00  0.00000000E+00  0.00000000E+00
  0.00000000E+00  0.00000000E+00  0.00000000E+00
  0.00000000E+00  0.00000000E+00  0.00000000E+00
  0.00000000E+00  0.00000000E+00  0.00000000E+00
  0.00000000E+00  0.00000000E+00  0.00000000E+00
  0.00000000E+00  0.00000000E+00  0.00000000E+00
  0.00000000E+00  0.00000000E+00  0.00000000E+00
  0.00000000E+00  0.00000000E+00  0.00000000E+00
  0.00000000E+00  0.00000000E+00  0.00000000E+00
  0.00000000E+00  0.00000000E+00  0.00000000E+00
  0.00000000E+00  0.00000000E+00  0.00000000E+00
  0.00000000E+00  0.00000000E+00  0.00000000E+00
  0.00000000E+00  0.00000000E+00  0.00000000E+00
  0.00000000E+00  0.00000000E+00  0.00000000E+00
  0.00000000E+00  0.00000000E+00  0.00000000E+00
  0.00000000E+00  0.00000000E+00  0.00000000E+00
  0.00000000E+00  0.00000000E+00  0.00000000E+00
  0.00000000E+00  0.00000000E+00  0.00000000E+00
  0.00000000E+00  0.00000000E+00  0.00000000E+00
  0.00000000E+00  0.00000000E+00  0.00000000E+00
  0.00000000E+00  0.00000000E+00  0.00000000E+00
  0.00000000E+00  0.00000000E+00  0.00000000E+00
  0.00000000E+00  0.00000000E+00  0.00000000E+00
  0.00000000E+00  0.00000000E+00  0.00000000E+00
  0.00000000E+00  0.00000000E+00  0.00000000E+00
  0.00000000E+00  0.00000000E+00  0.00000000E+00
  0.00000000E+00  0.00000000E+00  0.00000000E+00
  0.00000000E+00  0.00000000E+00  0.00000000E+00
  0.00000000E+00  0.00000000E+00  0.00000000E+00
  0.00000000E+00  0.00000000E+00  0.00000000E+00
  0.00000000E+00  0.00000000E+00  0.00000000E+00
