CeO2-you-111-you-Ir                     
   1.00000000000000     
     9.7946173991500292   -5.6549253639947050    0.0000000000000000
     0.0000000058605909   11.3098487478467575    0.0000000000000000
     0.0000000000000000    0.0000000000000000   21.2413357326235079
   O    Ir   Ce   H 
    54     1    26     2
Selective dynamics
Direct
  0.0006661646887840  0.0004623637392992  0.9955722245300802   T   T   T
  0.1030169576341288  0.2165961460536074  0.1480560923862820   T   T   T
  0.2400573157522328  0.1460420834195829  0.3090045521323136   T   T   T
  0.1197083406282379  0.2284306096976824  0.3848488264723250   T   T   T
  0.0062588360576966  0.0007245881468209  0.2320428952914348   T   T   T
  0.2235453313071223  0.1115976718611182  0.0757609459199350   T   T   T
  0.3334052266343405  0.0003775327672349  0.9953147377477872   T   T   T
  0.4498542063272553  0.2182042621985304  0.1482402798543393   T   T   T
  0.5595347395011014  0.1191418326536275  0.3064621536465311   T   T   T
  0.4362363209973382  0.2395913064735772  0.3984977294411194   T   T   T
  0.3301263392811589 -0.0005430033170696  0.2300578468727817   T   T   T
  0.5570915277266542  0.1085024347399025  0.0748945813700763   T   T   T
  0.6671624161183061  0.0003684313008012  0.9933471231355806   T   T   T
  0.7781980156297675  0.2223530385070227  0.1518616283581628   T   T   T
  0.8915436665565776  0.1109418957608602  0.3052416232604542   T   T   T
  0.7810908361761063  0.2243821765407016  0.3842118689644714   T   T   T
  0.6663750113640530 -0.0000986221217603  0.2317038324324980   T   T   T
  0.8844703210483846  0.1082834266851953  0.0751694240831813   T   T   T
  0.0002958541604052  0.3321631470443871  0.9954463424001319   T   T   T
  0.1110993031063923  0.5557215801254864  0.1486817258559615   T   T   T
  0.2382258222699799  0.4278113216073113  0.3049739220399353   T   T   T
  0.1148103814178327  0.5497036537616907  0.3817225603420510   T   T   T
  0.0056881442271544  0.3364219593603278  0.2308851293791557   T   T   T
  0.2228288095392791  0.4436675733157617  0.0747532183857647   T   T   T
  0.3329473215741279  0.3321560722551558  0.9954108244124708   T   T   T
  0.4494421697212876  0.5631044473857946  0.1467438743419829   T   T   T
  0.5229435890193876  0.4219730957026382  0.3083517286473882   T   T   T
  0.4416558555436205  0.5478361862356166  0.3839954941192379   T   T   T
  0.3342702554311564  0.3333771008195879  0.2130814354651899   T   T   T
  0.5552180950153148  0.4434292711375706  0.0745864234535487   T   T   T
  0.6667021015560476  0.3323902471816303  0.9950750987314144   T   T   T
  0.7796359541945982  0.5563200942077626  0.1483215811650692   T   T   T
  0.8914404754448114  0.4441523264650600  0.3036619975144084   T   T   T
  0.7732226859588033  0.5500030009440776  0.3807616478122532   T   T   T
  0.6688695964605167  0.3396828899022514  0.2307952633433684   T   T   T
  0.8886661154737510  0.4428607333647896  0.0747258287619337   T   T   T
  0.0003360837830075  0.6669346273381564  0.9958096699152018   T   T   T
  0.1103881780908662  0.8866463725080155  0.1493255533533771   T   T   T
  0.2192767665417197  0.7702172068410942  0.3040942252298506   T   T   T
  0.0987494698581333  0.8834637340623321  0.3834817208158185   T   T   T
 -0.0003749856446429  0.6657714140981119  0.2292210772955154   T   T   T
  0.2242852516153566  0.7783223343530429  0.0749740617633045   T   T   T
  0.3334566710495208  0.6657766064266941  0.9950000919676459   T   T   T
  0.4450045736543279  0.8880512663820372  0.1515116272472523   T   T   T
  0.5565702646666368  0.7734140179317887  0.3032860536247395   T   T   T
  0.4518656971352978  0.8805560718094531  0.3845086284152232   T   T   T
  0.3304113074150050  0.6602607370996199  0.2302698609065694   T   T   T
  0.5577357819560921  0.7815081499031071  0.0742344063380890   T   T   T
  0.6670559104674184  0.6663337807978362  0.9952205075999779   T   T   T
  0.7783261406788246  0.8882210170166251  0.1524321465930393   T   T   T
  0.8864343999967019  0.7747882952038159  0.3030145406396110   T   T   T
  0.7772116266379959  0.8861956579977017  0.3832808458175448   T   T   T
  0.6641238819163725  0.6583648215104376  0.2309628895613238   T   T   T
  0.8887902992839367  0.7792100685163041  0.0750024564204472   T   T   T
  0.3304231403076542  0.3367510584081431  0.3512213798593136   T   T   T
  0.0024823141422838  0.0011208024893313  0.3438036289893179   T   T   T
  0.2246623418216563  0.1131994909335741  0.1892199632839725   T   T   T
  0.1104471739911091  0.2210236650885238  0.0352553984239011   T   T   T
  0.3302567529812215 -0.0035147909928095  0.3458841665747744   T   T   T
  0.5554784950973589  0.1105733500065433  0.1910279513265380   T   T   T
  0.4449955546476677  0.2212081204148136  0.0350033110511931   T   T   T
  0.6669382706332565 -0.0021868779485171  0.3451593551943075   T   T   T
  0.8895083673532463  0.1108450373014396  0.1908045852138540   T   T   T
  0.7772724169130296  0.2208441133650952  0.0350130403662048   T   T   T
  0.0053501146976214  0.3321735393348366  0.3436976484380337   T   T   T
  0.2240287446964627  0.4422413689552759  0.1872730333525309   T   T   T
  0.1114832241522675  0.5554239186797693  0.0352751874721318   T   T   T
  0.5531605934311097  0.4423568094380582  0.1874415082287614   T   T   T
  0.4450859791994686  0.5558945936818649  0.0344796033205238   T   T   T
  0.6733736110902278  0.3353684391176882  0.3413060265620477   T   T   T
  0.8905703858675506  0.4448741512294281  0.1888633276633349   T   T   T
  0.7783308892170451  0.5556205231849235  0.0353826099501721   T   T   T
  0.0006756484342771  0.6662645557499235  0.3419082722931459   T   T   T
  0.2227010004538001  0.7773139787199603  0.1901322294881713   T   T   T
  0.1116036391986853  0.8888950008015928  0.0361546592684787   T   T   T
  0.3353391870697640  0.6623885497774098  0.3431542368817627   T   T   T
  0.5554805917845977  0.7766368658062331  0.1900095428210052   T   T   T
  0.4454554770365873  0.8892207794457448  0.0349969479663290   T   T   T
  0.6626349080338614  0.6614352409716278  0.3425381356431811   T   T   T
  0.8892832081514075  0.7769300657387468  0.1899557255704308   T   T   T
  0.7777094313932765  0.8892719579302167  0.0350295429897432   T   T   T
  0.3162273235616817  0.3523417946977832  0.4225272526462228   T   T   T
  0.4330207919955460  0.2526678419529965  0.4436299035855691   T   T   T
 
  0.00000000E+00  0.00000000E+00  0.00000000E+00
  0.00000000E+00  0.00000000E+00  0.00000000E+00
  0.00000000E+00  0.00000000E+00  0.00000000E+00
  0.00000000E+00  0.00000000E+00  0.00000000E+00
  0.00000000E+00  0.00000000E+00  0.00000000E+00
  0.00000000E+00  0.00000000E+00  0.00000000E+00
  0.00000000E+00  0.00000000E+00  0.00000000E+00
  0.00000000E+00  0.00000000E+00  0.00000000E+00
  0.00000000E+00  0.00000000E+00  0.00000000E+00
  0.00000000E+00  0.00000000E+00  0.00000000E+00
  0.00000000E+00  0.00000000E+00  0.00000000E+00
  0.00000000E+00  0.00000000E+00  0.00000000E+00
  0.00000000E+00  0.00000000E+00  0.00000000E+00
  0.00000000E+00  0.00000000E+00  0.00000000E+00
  0.00000000E+00  0.00000000E+00  0.00000000E+00
  0.00000000E+00  0.00000000E+00  0.00000000E+00
  0.00000000E+00  0.00000000E+00  0.00000000E+00
  0.00000000E+00  0.00000000E+00  0.00000000E+00
  0.00000000E+00  0.00000000E+00  0.00000000E+00
  0.00000000E+00  0.00000000E+00  0.00000000E+00
  0.00000000E+00  0.00000000E+00  0.00000000E+00
  0.00000000E+00  0.00000000E+00  0.00000000E+00
  0.00000000E+00  0.00000000E+00  0.00000000E+00
  0.00000000E+00  0.00000000E+00  0.00000000E+00
  0.00000000E+00  0.00000000E+00  0.00000000E+00
  0.00000000E+00  0.00000000E+00  0.00000000E+00
  0.00000000E+00  0.00000000E+00  0.00000000E+00
  0.00000000E+00  0.00000000E+00  0.00000000E+00
  0.00000000E+00  0.00000000E+00  0.00000000E+00
  0.00000000E+00  0.00000000E+00  0.00000000E+00
  0.00000000E+00  0.00000000E+00  0.00000000E+00
  0.00000000E+00  0.00000000E+00  0.00000000E+00
  0.00000000E+00  0.00000000E+00  0.00000000E+00
  0.00000000E+00  0.00000000E+00  0.00000000E+00
  0.00000000E+00  0.00000000E+00  0.00000000E+00
  0.00000000E+00  0.00000000E+00  0.00000000E+00
  0.00000000E+00  0.00000000E+00  0.00000000E+00
  0.00000000E+00  0.00000000E+00  0.00000000E+00
  0.00000000E+00  0.00000000E+00  0.00000000E+00
  0.00000000E+00  0.00000000E+00  0.00000000E+00
  0.00000000E+00  0.00000000E+00  0.00000000E+00
  0.00000000E+00  0.00000000E+00  0.00000000E+00
  0.00000000E+00  0.00000000E+00  0.00000000E+00
  0.00000000E+00  0.00000000E+00  0.00000000E+00
  0.00000000E+00  0.00000000E+00  0.00000000E+00
  0.00000000E+00  0.00000000E+00  0.00000000E+00
  0.00000000E+00  0.00000000E+00  0.00000000E+00
  0.00000000E+00  0.00000000E+00  0.00000000E+00
  0.00000000E+00  0.00000000E+00  0.00000000E+00
  0.00000000E+00  0.00000000E+00  0.00000000E+00
  0.00000000E+00  0.00000000E+00  0.00000000E+00
  0.00000000E+00  0.00000000E+00  0.00000000E+00
  0.00000000E+00  0.00000000E+00  0.00000000E+00
  0.00000000E+00  0.00000000E+00  0.00000000E+00
  0.00000000E+00  0.00000000E+00  0.00000000E+00
  0.00000000E+00  0.00000000E+00  0.00000000E+00
  0.00000000E+00  0.00000000E+00  0.00000000E+00
  0.00000000E+00  0.00000000E+00  0.00000000E+00
  0.00000000E+00  0.00000000E+00  0.00000000E+00
  0.00000000E+00  0.00000000E+00  0.00000000E+00
  0.00000000E+00  0.00000000E+00  0.00000000E+00
  0.00000000E+00  0.00000000E+00  0.00000000E+00
  0.00000000E+00  0.00000000E+00  0.00000000E+00
  0.00000000E+00  0.00000000E+00  0.00000000E+00
  0.00000000E+00  0.00000000E+00  0.00000000E+00
  0.00000000E+00  0.00000000E+00  0.00000000E+00
  0.00000000E+00  0.00000000E+00  0.00000000E+00
  0.00000000E+00  0.00000000E+00  0.00000000E+00
  0.00000000E+00  0.00000000E+00  0.00000000E+00
  0.00000000E+00  0.00000000E+00  0.00000000E+00
  0.00000000E+00  0.00000000E+00  0.00000000E+00
  0.00000000E+00  0.00000000E+00  0.00000000E+00
  0.00000000E+00  0.00000000E+00  0.00000000E+00
  0.00000000E+00  0.00000000E+00  0.00000000E+00
  0.00000000E+00  0.00000000E+00  0.00000000E+00
  0.00000000E+00  0.00000000E+00  0.00000000E+00
  0.00000000E+00  0.00000000E+00  0.00000000E+00
  0.00000000E+00  0.00000000E+00  0.00000000E+00
  0.00000000E+00  0.00000000E+00  0.00000000E+00
  0.00000000E+00  0.00000000E+00  0.00000000E+00
  0.00000000E+00  0.00000000E+00  0.00000000E+00
  0.00000000E+00  0.00000000E+00  0.00000000E+00
  0.00000000E+00  0.00000000E+00  0.00000000E+00
