CeO2-you-111-you-Co                     
   1.00000000000000     
     9.8251019935621891   -5.6688690845164036   -0.0060933432773853
     0.0031666819258298   11.3432210274887062    0.0060933422472463
    -0.0063576088724889    0.0110117010449115   21.0600758742251379
   O    Co   Ce   H 
    53     1    26     1
Selective dynamics
Direct
 -0.0000087466928429 -0.0001058597299306  0.9943715334228084   T   T   T
  0.1094967870348878  0.2192413584975246  0.1464021447728966   T   T   T
  0.2314163415728948  0.1110667748314712  0.3038860617513924   T   T   T
  0.1356406487636601  0.2514840394472461  0.3651933625112108   T   T   T
  0.0029743921593192  0.0022221455205115  0.2296897519182065   T   T   T
  0.2230474711443160  0.1105865941415274  0.0742209530396063   T   T   T
  0.3349746241334113  0.0004937081190676  0.9953802322545388   T   T   T
  0.4417358758838052  0.2247055985566162  0.1525717660433701   T   T   T
  0.5493904432813487  0.1062536735814263  0.3067422585691675   T   T   T
  0.4361855988337189  0.2158252676818748  0.4007187104318388   T   T   T
  0.3334983300767450 -0.0032361837294773  0.2283438970510152   T   T   T
  0.5558381387993088  0.1113195647166789  0.0779126201464769   T   T   T
  0.6652607925744983  0.0005434240173096  0.9950443852295441   T   T   T
  0.7843556740867027  0.2247631646350669  0.1518089340588410   T   T   T
  0.8882309846879251  0.1081983259453987  0.3034193970064935   T   T   T
  0.7851395660147388  0.2129228858129778  0.3886429858993218   T   T   T
  0.6672294151397907  0.0009533170885138  0.2293542024698306   T   T   T
  0.8875116865596588  0.1099882713911105  0.0740130377117884   T   T   T
  0.9979551706514123  0.3326424993536066  0.9942348142762335   T   T   T
  0.1103924568000965  0.5554212633321057  0.1469466625036723   T   T   T
  0.1194914273082830  0.5480228142368259  0.3791048189703856   T   T   T
  0.0178666942557543  0.3414652827865346  0.2340242731730862   T   T   T
  0.2223972036089862  0.4438763958313596  0.0714256750470582   T   T   T
  0.3342028389653663  0.3322499467491095  0.9940682668214921   T   T   T
  0.4466378518176006  0.5575883327717007  0.1474605691617169   T   T   T
  0.5491419289953642  0.4410720399548526  0.3043067087795827   T   T   T
  0.4152846770823406  0.5365449425661476  0.3689619006728171   T   T   T
  0.3221903815879386  0.3405488011313717  0.2335430691863628   T   T   T
  0.5557006496768125  0.4442130390659437  0.0744605772255928   T   T   T
  0.6656774814869068  0.3314028805269467  0.9955767924898622   T   T   T
  0.7776016139960498  0.5553825766838979  0.1509313115455834   T   T   T
  0.8925977250699456  0.4464702417446338  0.3050240867037509   T   T   T
  0.7853096897210283  0.5716052494665080  0.3859903563321408   T   T   T
  0.6678275324213372  0.3318739415613324  0.2286585633607910   T   T   T
  0.8878204703275940  0.4443099500608431  0.0745710345780615   T   T   T
  0.9996642577024595  0.6670931278872719  0.9948721219704626   T   T   T
  0.1116082422708382  0.8885580779727580  0.1501911809828500   T   T   T
  0.2226453856207534  0.7787968177150879  0.3046446175027253   T   T   T
  0.1108790890093512  0.8897939889897236  0.3841288832103942   T   T   T
  0.0012910197272113  0.6661531439316603  0.2293843494790627   T   T   T
  0.2225435171652847  0.7782327771528447  0.0745122798960940   T   T   T
  0.3342022316759412  0.6683818024918777  0.9943732907133686   T   T   T
  0.4422316872050926  0.8823041192860320  0.1518066978093094   T   T   T
  0.5586089464393907  0.7810827456699010  0.3044665803255530   T   T   T
  0.4446647983646378  0.8867612798011608  0.3876142190617177   T   T   T
  0.3239421630666200  0.6480263630061668  0.2346643641307939   T   T   T
  0.5568419943729787  0.7785093627904615  0.0743568874875995   T   T   T
  0.6671453338547398  0.6669945825120414  0.9945633166368488   T   T   T
  0.7777571463425453  0.8891885128704987  0.1505720428815200   T   T   T
  0.8915012611726366  0.7805641404398103  0.3024041779921903   T   T   T
  0.7811413764813326  0.8896965498485442  0.3833937236748714   T   T   T
  0.6666866305659400  0.6667080820058687  0.2299946693519208   T   T   T
  0.8888824861206692  0.7782412815041750  0.0748776742654064   T   T   T
  0.3353604824648543  0.3350061932898127  0.3329691614898453   T   T   T
  0.0073631856862852  0.0052093211314995  0.3414332595189402   T   T   T
  0.2237256668291058  0.1127319398096664  0.1917284986900431   T   T   T
  0.1102903901630344  0.2199522713081552  0.0328432346008206   T   T   T
  0.3308191537462856 -0.0034760124972021  0.3437385418445690   T   T   T
  0.5561145728900413  0.1113719933576629  0.1919888973264603   T   T   T
  0.4445572812481493  0.2224596740013322  0.0360082215776730   T   T   T
  0.6690391932794302 -0.0004042753061399  0.3460410534490020   T   T   T
  0.8904487400318521  0.1116503400515449  0.1900935822469288   T   T   T
  0.7775045552618793  0.2223209323605878  0.0356076089687734   T   T   T
  0.9939262561176483  0.3270196974615792  0.3462241981631713   T   T   T
  0.2230213472720509  0.4430670016715050  0.1811956303614368   T   T   T
  0.1097579502352678  0.5562856387975833  0.0330792691611907   T   T   T
  0.5535351898872324  0.4431856510454544  0.1937487807186704   T   T   T
  0.4467266967643647  0.5562625071165825  0.0332419491440195   T   T   T
  0.6668893912130749  0.3357309154352205  0.3489143616333308   T   T   T
  0.8892972101975829  0.4443605062448820  0.1912925084762997   T   T   T
  0.7767807999017904  0.5545771178997425  0.0361241108138005   T   T   T
  0.9989100316273527  0.6671425412808160  0.3432834313604567   T   T   T
  0.2216799704754553  0.7755703436478421  0.1899478420050027   T   T   T
  0.1120740926177233  0.8894929467270142  0.0355055947617723   T   T   T
  0.3395784657513113  0.6731288159957860  0.3470100620263673   T   T   T
  0.5553953080787986  0.7767073201281960  0.1905086911264054   T   T   T
  0.4446529211924974  0.8889391664146156  0.0354890116362923   T   T   T
  0.6641987900071239  0.6627482719658010  0.3423181473147165   T   T   T
  0.8896182205198867  0.7776459869210443  0.1891355373382486   T   T   T
  0.7772872178492637  0.8891577597059072  0.0350161760226278   T   T   T
  0.4135715337054807  0.2267284098089494  0.4440198457340297   T   T   T
 
  0.00000000E+00  0.00000000E+00  0.00000000E+00
  0.00000000E+00  0.00000000E+00  0.00000000E+00
  0.00000000E+00  0.00000000E+00  0.00000000E+00
  0.00000000E+00  0.00000000E+00  0.00000000E+00
  0.00000000E+00  0.00000000E+00  0.00000000E+00
  0.00000000E+00  0.00000000E+00  0.00000000E+00
  0.00000000E+00  0.00000000E+00  0.00000000E+00
  0.00000000E+00  0.00000000E+00  0.00000000E+00
  0.00000000E+00  0.00000000E+00  0.00000000E+00
  0.00000000E+00  0.00000000E+00  0.00000000E+00
  0.00000000E+00  0.00000000E+00  0.00000000E+00
  0.00000000E+00  0.00000000E+00  0.00000000E+00
  0.00000000E+00  0.00000000E+00  0.00000000E+00
  0.00000000E+00  0.00000000E+00  0.00000000E+00
  0.00000000E+00  0.00000000E+00  0.00000000E+00
  0.00000000E+00  0.00000000E+00  0.00000000E+00
  0.00000000E+00  0.00000000E+00  0.00000000E+00
  0.00000000E+00  0.00000000E+00  0.00000000E+00
  0.00000000E+00  0.00000000E+00  0.00000000E+00
  0.00000000E+00  0.00000000E+00  0.00000000E+00
  0.00000000E+00  0.00000000E+00  0.00000000E+00
  0.00000000E+00  0.00000000E+00  0.00000000E+00
  0.00000000E+00  0.00000000E+00  0.00000000E+00
  0.00000000E+00  0.00000000E+00  0.00000000E+00
  0.00000000E+00  0.00000000E+00  0.00000000E+00
  0.00000000E+00  0.00000000E+00  0.00000000E+00
  0.00000000E+00  0.00000000E+00  0.00000000E+00
  0.00000000E+00  0.00000000E+00  0.00000000E+00
  0.00000000E+00  0.00000000E+00  0.00000000E+00
  0.00000000E+00  0.00000000E+00  0.00000000E+00
  0.00000000E+00  0.00000000E+00  0.00000000E+00
  0.00000000E+00  0.00000000E+00  0.00000000E+00
  0.00000000E+00  0.00000000E+00  0.00000000E+00
  0.00000000E+00  0.00000000E+00  0.00000000E+00
  0.00000000E+00  0.00000000E+00  0.00000000E+00
  0.00000000E+00  0.00000000E+00  0.00000000E+00
  0.00000000E+00  0.00000000E+00  0.00000000E+00
  0.00000000E+00  0.00000000E+00  0.00000000E+00
  0.00000000E+00  0.00000000E+00  0.00000000E+00
  0.00000000E+00  0.00000000E+00  0.00000000E+00
  0.00000000E+00  0.00000000E+00  0.00000000E+00
  0.00000000E+00  0.00000000E+00  0.00000000E+00
  0.00000000E+00  0.00000000E+00  0.00000000E+00
  0.00000000E+00  0.00000000E+00  0.00000000E+00
  0.00000000E+00  0.00000000E+00  0.00000000E+00
  0.00000000E+00  0.00000000E+00  0.00000000E+00
  0.00000000E+00  0.00000000E+00  0.00000000E+00
  0.00000000E+00  0.00000000E+00  0.00000000E+00
  0.00000000E+00  0.00000000E+00  0.00000000E+00
  0.00000000E+00  0.00000000E+00  0.00000000E+00
  0.00000000E+00  0.00000000E+00  0.00000000E+00
  0.00000000E+00  0.00000000E+00  0.00000000E+00
  0.00000000E+00  0.00000000E+00  0.00000000E+00
  0.00000000E+00  0.00000000E+00  0.00000000E+00
  0.00000000E+00  0.00000000E+00  0.00000000E+00
  0.00000000E+00  0.00000000E+00  0.00000000E+00
  0.00000000E+00  0.00000000E+00  0.00000000E+00
  0.00000000E+00  0.00000000E+00  0.00000000E+00
  0.00000000E+00  0.00000000E+00  0.00000000E+00
  0.00000000E+00  0.00000000E+00  0.00000000E+00
  0.00000000E+00  0.00000000E+00  0.00000000E+00
  0.00000000E+00  0.00000000E+00  0.00000000E+00
  0.00000000E+00  0.00000000E+00  0.00000000E+00
  0.00000000E+00  0.00000000E+00  0.00000000E+00
  0.00000000E+00  0.00000000E+00  0.00000000E+00
  0.00000000E+00  0.00000000E+00  0.00000000E+00
  0.00000000E+00  0.00000000E+00  0.00000000E+00
  0.00000000E+00  0.00000000E+00  0.00000000E+00
  0.00000000E+00  0.00000000E+00  0.00000000E+00
  0.00000000E+00  0.00000000E+00  0.00000000E+00
  0.00000000E+00  0.00000000E+00  0.00000000E+00
  0.00000000E+00  0.00000000E+00  0.00000000E+00
  0.00000000E+00  0.00000000E+00  0.00000000E+00
  0.00000000E+00  0.00000000E+00  0.00000000E+00
  0.00000000E+00  0.00000000E+00  0.00000000E+00
  0.00000000E+00  0.00000000E+00  0.00000000E+00
  0.00000000E+00  0.00000000E+00  0.00000000E+00
  0.00000000E+00  0.00000000E+00  0.00000000E+00
  0.00000000E+00  0.00000000E+00  0.00000000E+00
  0.00000000E+00  0.00000000E+00  0.00000000E+00
  0.00000000E+00  0.00000000E+00  0.00000000E+00
