CeO2-you-111-you-Au                     
   1.00000000000000     
     9.8423850000000002   -5.6825039999999998    0.0000000000000000
     0.0000000000000000   11.3650059999999993    0.0000000000000000
     0.0000000000000000    0.0000000000000000   21.0000000000000000
   O    Au   Ce
    54     1    26
Selective dynamics
Direct
  0.0000913407217407  0.0000497236552153  0.9949279758213778   T   T   T
  0.1028076650203866  0.2180703325101949  0.1478343564048225   T   T   T
  0.2324532188318015  0.1315734376635999  0.3052522543601636   T   T   T
  0.1192913380388786  0.2263121690194410  0.3861773411850533   T   T   T
  0.0032799310718044  0.0006436557764225  0.2311249273562657   T   T   T
  0.2225763503515975  0.1118197007031918  0.0743328670724147   T   T   T
  0.3332913829334779  0.0000497236552153  0.9949279758213778   T   T   T
  0.4485956674898045  0.2180703325101949  0.1478343564048225   T   T   T
  0.5542222783231697  0.1124447216768340  0.3059375082930419   T   T   T
  0.4403538309805585  0.2263121690194410  0.3861773411850533   T   T   T
  0.3306967247046212  0.0006436557764225  0.2311249273562657   T   T   T
  0.5573116448476365  0.1093553551523676  0.0741232469330878   T   T   T
  0.6666669999999968 -0.0000000000000000  0.9933835642754134   T   T   T
  0.7778424489514862  0.2223508979029794  0.1512398201321916   T   T   T
  0.8915564433536646  0.1124447216768340  0.3059375082930419   T   T   T
  0.7776584081878243  0.2219828163756549  0.3843577631077685   T   T   T
  0.6666669999999968 -0.0000000000000000  0.2317087421626110   T   T   T
  0.8853777103047321  0.1093553551523676  0.0741232469330878   T   T   T
  0.0000913407217407  0.3333746170665285  0.9949279758213778   T   T   T
  0.1105445876401337  0.5561224123598701  0.1493607888566967   T   T   T
  0.2324532188318015  0.4342127811681978  0.3052522543601636   T   T   T
  0.1133170326512307  0.5533499673487733  0.3816556648138025   T   T   T
  0.0032799310718044  0.3359692752953852  0.2311249273562657   T   T   T
  0.2225763503515975  0.4440896496484017  0.0743328670724147   T   T   T
  0.3333330000000032  0.3333330000000032  0.9947823083014943   T   T   T
  0.4485956674898045  0.5638593349796174  0.1478343564048225   T   T   T
  0.5350935623364040  0.4342127811681978  0.3052522543601636   T   T   T
  0.4403538309805585  0.5473756619611254  0.3861773411850533   T   T   T
  0.3333330000000032  0.3333330000000032  0.2126838327912083   T   T   T
  0.5548472992968119  0.4440896496484017  0.0743328670724147   T   T   T
  0.6666172763447815  0.3333746170665285  0.9949279758213778   T   T   T
  0.7789108247197328  0.5561224123598701  0.1493607888566967   T   T   T
  0.8888680363905727  0.4444020727811446  0.3050877957865903   T   T   T
  0.7733659346975386  0.5533499673487733  0.3816556648138025   T   T   T
  0.6660233442235739  0.3359692752953852  0.2311249273562657   T   T   T
  0.8884060958255098  0.4434781916510190  0.0747828006874950   T   T   T
  0.0000000000000000  0.6666669999999968  0.9951319084476810   T   T   T
  0.1105445876401337  0.8877561752802640  0.1493607888566967   T   T   T
  0.2222639272188548  0.7777989636094241  0.3050877957865903   T   T   T
  0.1133170326512307  0.8933010653024582  0.3816556648138025   T   T   T
  0.0000000000000000  0.6666669999999968  0.2300907322273268   T   T   T
  0.2231878083489803  0.7782609041744870  0.0747828006874950   T   T   T
  0.3332913829334779  0.6665756592782562  0.9949279758213778   T   T   T
  0.4443151020970200  0.8888245510485105  0.1512398201321916   T   T   T
  0.5542222783231697  0.7751105566463322  0.3059375082930419   T   T   T
  0.4446831836243444  0.8890085918121725  0.3843577631077685   T   T   T
  0.3306967247046212  0.6633870689281927  0.2311249273562657   T   T   T
  0.5573116448476365  0.7812892896952647  0.0741232469330878   T   T   T
  0.6666172763447815  0.6665756592782562  0.9949279758213778   T   T   T
  0.7778424489514862  0.8888245510485105  0.1512398201321916   T   T   T
  0.8888680363905727  0.7777989636094241  0.3050877957865903   T   T   T
  0.7776584081878243  0.8890085918121725  0.3843577631077685   T   T   T
  0.6660233442235739  0.6633870689281927  0.2311249273562657   T   T   T
  0.8884060958255098  0.7782609041744870  0.0747828006874950   T   T   T
  0.3333330000000032  0.3333330000000032  0.3495043121998140   T   T   T
  0.0028136511251163  0.0031977467047789  0.3443972553245340   T   T   T
  0.2235194549800010  0.1137059099599988  0.1880062822642886   T   T   T
  0.1102973221787121  0.2218151610893576  0.0342101881717361   T   T   T
  0.3337170955796657  0.0031977467047789  0.3443972553245340   T   T   T
  0.5555677846851529  0.1110992153148512  0.1902601426382103   T   T   T
  0.4448508389106416  0.2218151610893576  0.0342101881717361   T   T   T
  0.6666669999999968 -0.0000000000000000  0.3461328191872951   T   T   T
  0.8888654306296992  0.1110992153148512  0.1902601426382103   T   T   T
  0.7773793063532400  0.2214246127064864  0.0345334596056603   T   T   T
  0.0028136511251163  0.3329489044203407  0.3443972553245340   T   T   T
  0.2235194549800010  0.4431465450199983  0.1880062822642886   T   T   T
  0.1110191330235152  0.5556478669764887  0.0350331809180578   T   T   T
  0.5529610900400052  0.4431465450199983  0.1880062822642886   T   T   T
  0.4448508389106416  0.5563696778212918  0.0342101881717361   T   T   T
  0.6634692532952179  0.3329489044203407  0.3443972553245340   T   T   T
  0.8888888186335191  0.4444436372670373  0.1900195210646729   T   T   T
  0.7779617339529699  0.5556478669764888  0.0350331809180578   T   T   T
  0.0000000000000000  0.6666669999999968  0.3426518825069376   T   T   T
  0.2222223627329620  0.7777781813664777  0.1900195210646729   T   T   T
  0.1110191330235152  0.8887052660470269  0.0350331809180578   T   T   T
  0.3337170955796657  0.6638533488748806  0.3443972553245340   T   T   T
  0.5555677846851529  0.7778015693702975  0.1902601426382103   T   T   T
  0.4452413872935130  0.8892876936467567  0.0345334596056603   T   T   T
  0.6634692532952179  0.6638533488748806  0.3443972553245340   T   T   T
  0.8888888186335191  0.7777781813664777  0.1900195210646729   T   T   T
  0.7773793063532400  0.8892876936467567  0.0345334596056603   T   T   T
 
  0.00000000E+00  0.00000000E+00  0.00000000E+00
  0.00000000E+00  0.00000000E+00  0.00000000E+00
  0.00000000E+00  0.00000000E+00  0.00000000E+00
  0.00000000E+00  0.00000000E+00  0.00000000E+00
  0.00000000E+00  0.00000000E+00  0.00000000E+00
  0.00000000E+00  0.00000000E+00  0.00000000E+00
  0.00000000E+00  0.00000000E+00  0.00000000E+00
  0.00000000E+00  0.00000000E+00  0.00000000E+00
  0.00000000E+00  0.00000000E+00  0.00000000E+00
  0.00000000E+00  0.00000000E+00  0.00000000E+00
  0.00000000E+00  0.00000000E+00  0.00000000E+00
  0.00000000E+00  0.00000000E+00  0.00000000E+00
  0.00000000E+00  0.00000000E+00  0.00000000E+00
  0.00000000E+00  0.00000000E+00  0.00000000E+00
  0.00000000E+00  0.00000000E+00  0.00000000E+00
  0.00000000E+00  0.00000000E+00  0.00000000E+00
  0.00000000E+00  0.00000000E+00  0.00000000E+00
  0.00000000E+00  0.00000000E+00  0.00000000E+00
  0.00000000E+00  0.00000000E+00  0.00000000E+00
  0.00000000E+00  0.00000000E+00  0.00000000E+00
  0.00000000E+00  0.00000000E+00  0.00000000E+00
  0.00000000E+00  0.00000000E+00  0.00000000E+00
  0.00000000E+00  0.00000000E+00  0.00000000E+00
  0.00000000E+00  0.00000000E+00  0.00000000E+00
  0.00000000E+00  0.00000000E+00  0.00000000E+00
  0.00000000E+00  0.00000000E+00  0.00000000E+00
  0.00000000E+00  0.00000000E+00  0.00000000E+00
  0.00000000E+00  0.00000000E+00  0.00000000E+00
  0.00000000E+00  0.00000000E+00  0.00000000E+00
  0.00000000E+00  0.00000000E+00  0.00000000E+00
  0.00000000E+00  0.00000000E+00  0.00000000E+00
  0.00000000E+00  0.00000000E+00  0.00000000E+00
  0.00000000E+00  0.00000000E+00  0.00000000E+00
  0.00000000E+00  0.00000000E+00  0.00000000E+00
  0.00000000E+00  0.00000000E+00  0.00000000E+00
  0.00000000E+00  0.00000000E+00  0.00000000E+00
  0.00000000E+00  0.00000000E+00  0.00000000E+00
  0.00000000E+00  0.00000000E+00  0.00000000E+00
  0.00000000E+00  0.00000000E+00  0.00000000E+00
  0.00000000E+00  0.00000000E+00  0.00000000E+00
  0.00000000E+00  0.00000000E+00  0.00000000E+00
  0.00000000E+00  0.00000000E+00  0.00000000E+00
  0.00000000E+00  0.00000000E+00  0.00000000E+00
  0.00000000E+00  0.00000000E+00  0.00000000E+00
  0.00000000E+00  0.00000000E+00  0.00000000E+00
  0.00000000E+00  0.00000000E+00  0.00000000E+00
  0.00000000E+00  0.00000000E+00  0.00000000E+00
  0.00000000E+00  0.00000000E+00  0.00000000E+00
  0.00000000E+00  0.00000000E+00  0.00000000E+00
  0.00000000E+00  0.00000000E+00  0.00000000E+00
  0.00000000E+00  0.00000000E+00  0.00000000E+00
  0.00000000E+00  0.00000000E+00  0.00000000E+00
  0.00000000E+00  0.00000000E+00  0.00000000E+00
  0.00000000E+00  0.00000000E+00  0.00000000E+00
  0.00000000E+00  0.00000000E+00  0.00000000E+00
  0.00000000E+00  0.00000000E+00  0.00000000E+00
  0.00000000E+00  0.00000000E+00  0.00000000E+00
  0.00000000E+00  0.00000000E+00  0.00000000E+00
  0.00000000E+00  0.00000000E+00  0.00000000E+00
  0.00000000E+00  0.00000000E+00  0.00000000E+00
  0.00000000E+00  0.00000000E+00  0.00000000E+00
  0.00000000E+00  0.00000000E+00  0.00000000E+00
  0.00000000E+00  0.00000000E+00  0.00000000E+00
  0.00000000E+00  0.00000000E+00  0.00000000E+00
  0.00000000E+00  0.00000000E+00  0.00000000E+00
  0.00000000E+00  0.00000000E+00  0.00000000E+00
  0.00000000E+00  0.00000000E+00  0.00000000E+00
  0.00000000E+00  0.00000000E+00  0.00000000E+00
  0.00000000E+00  0.00000000E+00  0.00000000E+00
  0.00000000E+00  0.00000000E+00  0.00000000E+00
  0.00000000E+00  0.00000000E+00  0.00000000E+00
  0.00000000E+00  0.00000000E+00  0.00000000E+00
  0.00000000E+00  0.00000000E+00  0.00000000E+00
  0.00000000E+00  0.00000000E+00  0.00000000E+00
  0.00000000E+00  0.00000000E+00  0.00000000E+00
  0.00000000E+00  0.00000000E+00  0.00000000E+00
  0.00000000E+00  0.00000000E+00  0.00000000E+00
  0.00000000E+00  0.00000000E+00  0.00000000E+00
  0.00000000E+00  0.00000000E+00  0.00000000E+00
  0.00000000E+00  0.00000000E+00  0.00000000E+00
  0.00000000E+00  0.00000000E+00  0.00000000E+00
