CeO2-you-111-you-Sr                     
   1.00000000000000     
     9.9169523318763151   -5.7255554712298169   -0.0000000008394493
    -0.0299713307685903   11.3991970630059196   -0.0161423527768271
    -0.0171424659473466   -0.0296916169763733   21.1815644597184658
   O    Sr   Ce   H 
    53     1    26     1
Selective dynamics
Direct
  0.0000777341869271  0.0000186329572255  0.9958891291543628   T   T   T
  0.1093691568120175  0.2217294132170237  0.1486427945321476   T   T   T
  0.2234139204724977  0.1038201489995999  0.3020882386400972   T   T   T
  0.0884521550655532  0.2111005462191163  0.3844713320674882   T   T   T
  0.0017952478825485  0.0020272049530842  0.2270541253211362   T   T   T
  0.2231572064055678  0.1121805721773240  0.0743513642990765   T   T   T
  0.3336366403789154  0.0002187991089860  0.9961278682751802   T   T   T
  0.4463629596586657  0.2224768926095631  0.1499225906526752   T   T   T
  0.5488990320124980  0.1085398286739171  0.3037054160994151   T   T   T
  0.4429932769127056  0.2099652376061831  0.4038140474767781   T   T   T
  0.3327054003001051 -0.0021127636972224  0.2258144225636959   T   T   T
  0.5565107146260878  0.1117033680256053  0.0752912206749233   T   T   T
  0.6664939527205428  0.9998154698001026  0.9959863986512453   T   T   T
  0.7769701949300336  0.2190301344607491  0.1516904191614946   T   T   T
  0.8854008475488840  0.1090902806690312  0.2996547656259189   T   T   T
  0.7811186862892990  0.2112803526055205  0.3835031785994202   T   T   T
  0.6588450474757468  0.9892849390632773  0.2319196816098849   T   T   T
  0.8887328794118542  0.1115077812495991  0.0742246420881865   T   T   T
  0.0003605140236365  0.3337771193066553  0.9964888973797410   T   T   T
  0.1112909660514126  0.5541022919220756  0.1489581555557189   T   T   T
  0.2279750895226666  0.4572372369644608  0.3079541796795787   T   T   T
  0.1124608975658177  0.5636911743293165  0.3852413731434370   T   T   T
  0.0041348712943948  0.3342064518473685  0.2293188568574223   T   T   T
  0.2234571191467259  0.4444376879687945  0.0754945513008168   T   T   T
  0.3336927278937981  0.3336033184109723  0.9961839700166351   T   T   T
  0.4456976009790464  0.5576213724613532  0.1503262011623815   T   T   T
  0.5590609395259794  0.4609263590614082  0.3099540361291050   T   T   T
  0.3333013617774479  0.3338450187704796  0.2248586371284605   T   T   T
  0.5544639555274217  0.4444743464802246  0.0760826556260580   T   T   T
  0.6665526073534606  0.3334684137282801  0.9968140400004292   T   T   T
  0.7769514037179835  0.5557802508640485  0.1493919042085095   T   T   T
  0.8961556011216952  0.4481105693301428  0.3034414781317691   T   T   T
  0.7940910746717471  0.5763404874513092  0.3863329993303585   T   T   T
  0.6665920873430945  0.3362883152536577  0.2289372079444776   T   T   T
  0.8876557109568992  0.4426479998293947  0.0761190246581863   T   T   T
  0.9991114863582359  0.6651580400353614  0.9965142040881129   T   T   T
  0.1110220732724199  0.8897096158406445  0.1468331062513337   T   T   T
  0.2180871063827403  0.7786978476280155  0.2998759726386968   T   T   T
  0.1141368444207148  0.8898372213106662  0.3828956748036959   T   T   T
  0.0001085005260658  0.6672297134523413  0.2258738195826055   T   T   T
  0.2214822932658004  0.7773357971866132  0.0737585097353557   T   T   T
  0.3332821810159214  0.6660444643460308  0.9966277642831338   T   T   T
  0.4450848204426160  0.8886941694874309  0.1476126985058550   T   T   T
  0.5420180435804290  0.7528467409125851  0.3151657251888971   T   T   T
  0.4374371902152991  0.8881378842417853  0.3809672526706582   T   T   T
  0.3342008728670662  0.6716807186971172  0.2275575790421527   T   T   T
  0.5559322392259615  0.7775952678763204  0.0749487977302418   T   T   T
  0.6660885784742806  0.6658669489027996  0.9963143291646137   T   T   T
  0.7776670812176093  0.8900702095259974  0.1480375167775971   T   T   T
  0.8969714515094569  0.7826835204317989  0.2998691642354359   T   T   T
  0.7826764571752447  0.8921758252357535  0.3801389657771709   T   T   T
  0.6718219644879956  0.6733389091090953  0.2276889083467580   T   T   T
  0.8887247919802924  0.7779725512379621  0.0737346275309916   T   T   T
  0.3257221406269492  0.3243245420407669  0.3455833649619219   T   T   T
  0.0032685588246287  0.0052662362816143  0.3413413239402966   T   T   T
  0.2236221974239824  0.1131519886950658  0.1884205623958628   T   T   T
  0.1115218639182416  0.2225155847219363  0.0358439969595121   T   T   T
  0.3286241215713797 -0.0045925814096259  0.3401474789728431   T   T   T
  0.5546769631106641  0.1111241202636010  0.1903244843687908   T   T   T
  0.4449110318545112  0.2226419378784035  0.0364703257586863   T   T   T
  0.6661153537587711 -0.0001430032131700  0.3429595461349176   T   T   T
  0.8894331633697764  0.1106669352221287  0.1889341340175860   T   T   T
  0.7773541060183458  0.2216317993665200  0.0366398377710957   T   T   T
 -0.0008889743275434  0.3304304512666253  0.3430354166704340   T   T   T
  0.2232964551222508  0.4438714094311987  0.1900224980093104   T   T   T
  0.1104203291533640  0.5538864183283349  0.0358362521082704   T   T   T
  0.5549954725592584  0.4448273502147340  0.1914172372519392   T   T   T
  0.4442992092687962  0.5546829298805023  0.0358945123376855   T   T   T
  0.6734420125268127  0.3386529639650654  0.3458865913698296   T   T   T
  0.8891245855207109  0.4448655874603347  0.1901746633163139   T   T   T
  0.7766988217920466  0.5542451960603760  0.0364146111100742   T   T   T
  0.0013846861718128  0.6686492829648699  0.3438008432957386   T   T   T
  0.2207152391172179  0.7779167374279645  0.1851611113657292   T   T   T
  0.1110668069493365  0.8891111829006907  0.0341499303401820   T   T   T
  0.3199133361445491  0.6729398706614691  0.3379609133750722   T   T   T
  0.5547094927593516  0.7768509500601186  0.1875003573295576   T   T   T
  0.4448540857729005  0.8890128828302237  0.0352351543344536   T   T   T
  0.6888700644407124  0.6770079268930531  0.3378734850746672   T   T   T
  0.8915796439838162  0.7795541536922421  0.1860560908061804   T   T   T
  0.7775213924633887  0.8888560528093875  0.0350032134729725   T   T   T
  0.4402182821221430  0.2012043951686475  0.4495346430506958   T   T   T
 
  0.00000000E+00  0.00000000E+00  0.00000000E+00
  0.00000000E+00  0.00000000E+00  0.00000000E+00
  0.00000000E+00  0.00000000E+00  0.00000000E+00
  0.00000000E+00  0.00000000E+00  0.00000000E+00
  0.00000000E+00  0.00000000E+00  0.00000000E+00
  0.00000000E+00  0.00000000E+00  0.00000000E+00
  0.00000000E+00  0.00000000E+00  0.00000000E+00
  0.00000000E+00  0.00000000E+00  0.00000000E+00
  0.00000000E+00  0.00000000E+00  0.00000000E+00
  0.00000000E+00  0.00000000E+00  0.00000000E+00
  0.00000000E+00  0.00000000E+00  0.00000000E+00
  0.00000000E+00  0.00000000E+00  0.00000000E+00
  0.00000000E+00  0.00000000E+00  0.00000000E+00
  0.00000000E+00  0.00000000E+00  0.00000000E+00
  0.00000000E+00  0.00000000E+00  0.00000000E+00
  0.00000000E+00  0.00000000E+00  0.00000000E+00
  0.00000000E+00  0.00000000E+00  0.00000000E+00
  0.00000000E+00  0.00000000E+00  0.00000000E+00
  0.00000000E+00  0.00000000E+00  0.00000000E+00
  0.00000000E+00  0.00000000E+00  0.00000000E+00
  0.00000000E+00  0.00000000E+00  0.00000000E+00
  0.00000000E+00  0.00000000E+00  0.00000000E+00
  0.00000000E+00  0.00000000E+00  0.00000000E+00
  0.00000000E+00  0.00000000E+00  0.00000000E+00
  0.00000000E+00  0.00000000E+00  0.00000000E+00
  0.00000000E+00  0.00000000E+00  0.00000000E+00
  0.00000000E+00  0.00000000E+00  0.00000000E+00
  0.00000000E+00  0.00000000E+00  0.00000000E+00
  0.00000000E+00  0.00000000E+00  0.00000000E+00
  0.00000000E+00  0.00000000E+00  0.00000000E+00
  0.00000000E+00  0.00000000E+00  0.00000000E+00
  0.00000000E+00  0.00000000E+00  0.00000000E+00
  0.00000000E+00  0.00000000E+00  0.00000000E+00
  0.00000000E+00  0.00000000E+00  0.00000000E+00
  0.00000000E+00  0.00000000E+00  0.00000000E+00
  0.00000000E+00  0.00000000E+00  0.00000000E+00
  0.00000000E+00  0.00000000E+00  0.00000000E+00
  0.00000000E+00  0.00000000E+00  0.00000000E+00
  0.00000000E+00  0.00000000E+00  0.00000000E+00
  0.00000000E+00  0.00000000E+00  0.00000000E+00
  0.00000000E+00  0.00000000E+00  0.00000000E+00
  0.00000000E+00  0.00000000E+00  0.00000000E+00
  0.00000000E+00  0.00000000E+00  0.00000000E+00
  0.00000000E+00  0.00000000E+00  0.00000000E+00
  0.00000000E+00  0.00000000E+00  0.00000000E+00
  0.00000000E+00  0.00000000E+00  0.00000000E+00
  0.00000000E+00  0.00000000E+00  0.00000000E+00
  0.00000000E+00  0.00000000E+00  0.00000000E+00
  0.00000000E+00  0.00000000E+00  0.00000000E+00
  0.00000000E+00  0.00000000E+00  0.00000000E+00
  0.00000000E+00  0.00000000E+00  0.00000000E+00
  0.00000000E+00  0.00000000E+00  0.00000000E+00
  0.00000000E+00  0.00000000E+00  0.00000000E+00
  0.00000000E+00  0.00000000E+00  0.00000000E+00
  0.00000000E+00  0.00000000E+00  0.00000000E+00
  0.00000000E+00  0.00000000E+00  0.00000000E+00
  0.00000000E+00  0.00000000E+00  0.00000000E+00
  0.00000000E+00  0.00000000E+00  0.00000000E+00
  0.00000000E+00  0.00000000E+00  0.00000000E+00
  0.00000000E+00  0.00000000E+00  0.00000000E+00
  0.00000000E+00  0.00000000E+00  0.00000000E+00
  0.00000000E+00  0.00000000E+00  0.00000000E+00
  0.00000000E+00  0.00000000E+00  0.00000000E+00
  0.00000000E+00  0.00000000E+00  0.00000000E+00
  0.00000000E+00  0.00000000E+00  0.00000000E+00
  0.00000000E+00  0.00000000E+00  0.00000000E+00
  0.00000000E+00  0.00000000E+00  0.00000000E+00
  0.00000000E+00  0.00000000E+00  0.00000000E+00
  0.00000000E+00  0.00000000E+00  0.00000000E+00
  0.00000000E+00  0.00000000E+00  0.00000000E+00
  0.00000000E+00  0.00000000E+00  0.00000000E+00
  0.00000000E+00  0.00000000E+00  0.00000000E+00
  0.00000000E+00  0.00000000E+00  0.00000000E+00
  0.00000000E+00  0.00000000E+00  0.00000000E+00
  0.00000000E+00  0.00000000E+00  0.00000000E+00
  0.00000000E+00  0.00000000E+00  0.00000000E+00
  0.00000000E+00  0.00000000E+00  0.00000000E+00
  0.00000000E+00  0.00000000E+00  0.00000000E+00
  0.00000000E+00  0.00000000E+00  0.00000000E+00
  0.00000000E+00  0.00000000E+00  0.00000000E+00
  0.00000000E+00  0.00000000E+00  0.00000000E+00
