CeO2-you-111-you-Tc                     
   1.00000000000000     
     9.9021175223002249   -5.7221574093603635   -0.0204527692015940
    -0.0044746042946972   11.4365625633025250    0.0204527659267855
    -0.0232945596399572    0.0403473592903142   20.5798311179572551
   O    Tc   Ce   H 
    53     1    26     2
Selective dynamics
Direct
  0.9989468561012161  0.0004058039422234  0.9912745897585071   T   T   T
  0.1168635033280694  0.2238616313201618  0.1483690915438629   F   F   F
  0.2590242645477335  0.1326018125860367  0.3043527923894340   T   T   T
  0.1492902355517900  0.2469677133506724  0.3627265486249193   T   T   T
  0.0067443781232840  0.0012224418997601  0.2316207179209983   T   T   T
  0.2214880400298398  0.1092923457376855  0.0716153961045478   F   F   F
  0.3358076926082628  0.0015201002570696  0.9929878557646805   T   T   T
  0.4367766916288218  0.2298893083724494  0.1532864046498190   F   F   F
  0.5580382090461907  0.1138651744186802  0.3074203186048541   T   T   T
  0.4331040957813100  0.2304394395035408  0.4065210384007648   T   T   T
  0.3332895768025159  0.9954102798274744  0.2257516893097987   T   T   T
  0.5538604843162602  0.1128065156812070  0.0776874610363549   F   F   F
  0.6659589411349586  0.0018102240448386  0.9950950092883586   T   T   T
  0.7846112007551866  0.2231269432596932  0.1516222529160061   F   F   F
  0.8856712811468969  0.1000432492904125  0.3070469706370451   T   T   T
  0.7720143641891661  0.2165172931888767  0.3920468678131044   T   T   T
  0.6673215321065058  0.0008787318418879  0.2294833824516892   T   T   T
  0.8911637643898800  0.1110324795954796  0.0739369873855722   F   F   F
  0.9973690437722357  0.3320754998441934  0.9921546264867417   T   T   T
  0.1104593364757349  0.5562076635282125  0.1455189777198171   F   F   F
  0.1075297556265929  0.5592841208843493  0.3863914405770905   T   T   T
  0.0109959200786466  0.3392151785256940  0.2324535318536627   T   T   T
  0.2220843503678438  0.4445816496324824  0.0696736101453936   F   F   F
  0.3336459416708754  0.3323917710007156  0.9918184788072456   T   T   T
  0.4428043686863319  0.5498034966711884  0.1483690915440263   F   F   F
  0.5327778662543607  0.4019966744601913  0.3042775467987432   T   T   T
  0.4304106390404812  0.5258770292434232  0.3634794105403789   T   T   T
  0.3111931853100855  0.3608192689329766  0.2507238901410291   T   T   T
  0.5573746542565132  0.4451779599647097  0.0716153961045407   F   F   F
  0.6652916297621683  0.3306575780589754  0.9930855988387822   T   T   T
  0.7778424405890547  0.5555582126236516  0.1475387595073272   F   F   F
  0.8849697826406847  0.4463838147280121  0.3052821418053207   T   T   T
  0.7707376187809765  0.5571317129927388  0.3859180778091943   T   T   T
  0.6710701829177222  0.3339803103718066  0.2272294198843683   T   T   T
  0.8881571897823193  0.4443855395478877  0.0720891937767050   F   F   F
 -0.0001075102327966  0.6667368992681291  0.9908826597070449   T   T   T
  0.1111087873733467  0.8888245594050943  0.1475387595074267   F   F   F
  0.2159517295605573  0.7762748960509946  0.3046032377507048   T   T   T
  0.0989350363874743  0.8904622450246409  0.3876952312720107   T   T   T
 -0.0013273476936913  0.6661874004720701  0.2278775068953589   T   T   T
  0.2222804604492765  0.7785098102149774  0.0720891937767334   F   F   F
  0.3349815322914190  0.6696023341145581  0.9922806634533022   T   T   T
  0.4435390567459336  0.8820557992478797  0.1516222529154732   F   F   F
  0.5675415081832667  0.7809343908607875  0.3046147017543196   T   T   T
  0.4637531489682608  0.8903193342462449  0.3937520150805215   T   T   T
  0.3277265986542626  0.6560740498930816  0.2320403363669520   T   T   T
  0.5556345204057038  0.7755032356135629  0.0739369873855296   F   F   F
  0.6663085547082419  0.6675484827345297  0.9914383545658154   T   T   T
  0.7776896334904819  0.8889773665108649  0.1497012637776365   F   F   F
  0.8885917497944216  0.7784767180380461  0.3031615610751003   T   T   T
  0.7830890167521773  0.8812329406976145  0.3896897115256065   T   T   T
  0.6666228050482645  0.6582978917791776  0.2316351137630176   T   T   T
  0.8888343251177417  0.7778326748801447  0.0710019146070380   F   F   F
  0.3462579991153825  0.3187107284304718  0.3408451783032859   T   T   T
 -0.0006782635738176  0.9959449994282166  0.3451124613193685   T   T   T
  0.2202903310808608  0.1063697714933767  0.1902816245533145   F   F   F
  0.1101866123332655  0.2200680487132942  0.0312774273334284   F   F   F
  0.3345090906271223  0.9921020700489206  0.3508147324959708   T   T   T
  0.5560972118112915  0.1105697881956687  0.1931893849783037   F   F   F
  0.4440624787898528  0.2226035212124771  0.0338123295405452   F   F   F
  0.6692017867483361  0.9971095053744833  0.3492910320461888   T   T   T
  0.8915520564429329  0.1118405857738196  0.1918892587035899   F   F   F
  0.7779653815486824  0.2224104409745777  0.0349515500625444   F   F   F
  0.9946449539537436  0.3309319159229711  0.3514949651977886   T   T   T
  0.2196814070034705  0.4469845929904182  0.1814275986903127   F   F   F
  0.1100708088185272  0.5565961911787127  0.0301728675022588   F   F   F
  0.5602972285012271  0.4463756689140794  0.1902816245535490   F   F   F
  0.4465979512865204  0.5564803876661912  0.0312774273330660   F   F   F
  0.6731834767184079  0.3316319223029885  0.3467458891013938   T   T   T
  0.8905044302477521  0.4444918233920419  0.1907135748732003   F   F   F
  0.7770215209781384  0.5542524547480667  0.0316173919694336   F   F   F
 -0.0000849091231110  0.6657117795338782  0.3457222618347354   T   T   T
  0.2221741766195322  0.7761625697703991  0.1907135748739819   F   F   F
  0.1124145452548078  0.8896454790249422  0.0316173919695331   F   F   F
  0.3379327885819077  0.6708807474731728  0.3510528243078555   T   T   T
  0.5548264142151211  0.7751149435536036  0.1918892587037249   F   F   F
  0.4442555590253718  0.8887016184541920  0.0349515500623809   F   F   F
  0.6670905398921337  0.6647539763105359  0.3456996853478571   T   T   T
  0.8899853827561728  0.7766816172473696  0.1863865400883924   F   F   F
  0.7772736574288217  0.8893933425708553  0.0336081125146848   F   F   F
  0.3262177455363935  0.3482074887289405  0.4160495457756733   T   T   T
  0.4278462706702255  0.2457494380474486  0.4526867483014242   T   T   T
 
  0.00000000E+00  0.00000000E+00  0.00000000E+00
  0.00000000E+00  0.00000000E+00  0.00000000E+00
  0.00000000E+00  0.00000000E+00  0.00000000E+00
  0.00000000E+00  0.00000000E+00  0.00000000E+00
  0.00000000E+00  0.00000000E+00  0.00000000E+00
  0.00000000E+00  0.00000000E+00  0.00000000E+00
  0.00000000E+00  0.00000000E+00  0.00000000E+00
  0.00000000E+00  0.00000000E+00  0.00000000E+00
  0.00000000E+00  0.00000000E+00  0.00000000E+00
  0.00000000E+00  0.00000000E+00  0.00000000E+00
  0.00000000E+00  0.00000000E+00  0.00000000E+00
  0.00000000E+00  0.00000000E+00  0.00000000E+00
  0.00000000E+00  0.00000000E+00  0.00000000E+00
  0.00000000E+00  0.00000000E+00  0.00000000E+00
  0.00000000E+00  0.00000000E+00  0.00000000E+00
  0.00000000E+00  0.00000000E+00  0.00000000E+00
  0.00000000E+00  0.00000000E+00  0.00000000E+00
  0.00000000E+00  0.00000000E+00  0.00000000E+00
  0.00000000E+00  0.00000000E+00  0.00000000E+00
  0.00000000E+00  0.00000000E+00  0.00000000E+00
  0.00000000E+00  0.00000000E+00  0.00000000E+00
  0.00000000E+00  0.00000000E+00  0.00000000E+00
  0.00000000E+00  0.00000000E+00  0.00000000E+00
  0.00000000E+00  0.00000000E+00  0.00000000E+00
  0.00000000E+00  0.00000000E+00  0.00000000E+00
  0.00000000E+00  0.00000000E+00  0.00000000E+00
  0.00000000E+00  0.00000000E+00  0.00000000E+00
  0.00000000E+00  0.00000000E+00  0.00000000E+00
  0.00000000E+00  0.00000000E+00  0.00000000E+00
  0.00000000E+00  0.00000000E+00  0.00000000E+00
  0.00000000E+00  0.00000000E+00  0.00000000E+00
  0.00000000E+00  0.00000000E+00  0.00000000E+00
  0.00000000E+00  0.00000000E+00  0.00000000E+00
  0.00000000E+00  0.00000000E+00  0.00000000E+00
  0.00000000E+00  0.00000000E+00  0.00000000E+00
  0.00000000E+00  0.00000000E+00  0.00000000E+00
  0.00000000E+00  0.00000000E+00  0.00000000E+00
  0.00000000E+00  0.00000000E+00  0.00000000E+00
  0.00000000E+00  0.00000000E+00  0.00000000E+00
  0.00000000E+00  0.00000000E+00  0.00000000E+00
  0.00000000E+00  0.00000000E+00  0.00000000E+00
  0.00000000E+00  0.00000000E+00  0.00000000E+00
  0.00000000E+00  0.00000000E+00  0.00000000E+00
  0.00000000E+00  0.00000000E+00  0.00000000E+00
  0.00000000E+00  0.00000000E+00  0.00000000E+00
  0.00000000E+00  0.00000000E+00  0.00000000E+00
  0.00000000E+00  0.00000000E+00  0.00000000E+00
  0.00000000E+00  0.00000000E+00  0.00000000E+00
  0.00000000E+00  0.00000000E+00  0.00000000E+00
  0.00000000E+00  0.00000000E+00  0.00000000E+00
  0.00000000E+00  0.00000000E+00  0.00000000E+00
  0.00000000E+00  0.00000000E+00  0.00000000E+00
  0.00000000E+00  0.00000000E+00  0.00000000E+00
  0.00000000E+00  0.00000000E+00  0.00000000E+00
  0.00000000E+00  0.00000000E+00  0.00000000E+00
  0.00000000E+00  0.00000000E+00  0.00000000E+00
  0.00000000E+00  0.00000000E+00  0.00000000E+00
  0.00000000E+00  0.00000000E+00  0.00000000E+00
  0.00000000E+00  0.00000000E+00  0.00000000E+00
  0.00000000E+00  0.00000000E+00  0.00000000E+00
  0.00000000E+00  0.00000000E+00  0.00000000E+00
  0.00000000E+00  0.00000000E+00  0.00000000E+00
  0.00000000E+00  0.00000000E+00  0.00000000E+00
  0.00000000E+00  0.00000000E+00  0.00000000E+00
  0.00000000E+00  0.00000000E+00  0.00000000E+00
  0.00000000E+00  0.00000000E+00  0.00000000E+00
  0.00000000E+00  0.00000000E+00  0.00000000E+00
  0.00000000E+00  0.00000000E+00  0.00000000E+00
  0.00000000E+00  0.00000000E+00  0.00000000E+00
  0.00000000E+00  0.00000000E+00  0.00000000E+00
  0.00000000E+00  0.00000000E+00  0.00000000E+00
  0.00000000E+00  0.00000000E+00  0.00000000E+00
  0.00000000E+00  0.00000000E+00  0.00000000E+00
  0.00000000E+00  0.00000000E+00  0.00000000E+00
  0.00000000E+00  0.00000000E+00  0.00000000E+00
  0.00000000E+00  0.00000000E+00  0.00000000E+00
  0.00000000E+00  0.00000000E+00  0.00000000E+00
  0.00000000E+00  0.00000000E+00  0.00000000E+00
  0.00000000E+00  0.00000000E+00  0.00000000E+00
  0.00000000E+00  0.00000000E+00  0.00000000E+00
  0.00000000E+00  0.00000000E+00  0.00000000E+00
  0.00000000E+00  0.00000000E+00  0.00000000E+00
