CeO2-you-111-you-Hg                     
   1.00000000000000     
     9.8473991398808440   -5.6663496674554708   -0.0113280449897092
     0.0164971283772079   11.3612712033253196    0.0113280430811782
    -0.0119521546181674    0.0207017380785078   21.1052204750493431
   O    Hg   Ce   H 
    53     1    26     2
Selective dynamics
Direct
  0.0000157992844493  0.9997651843630097  0.9948074985751622   T   T   T
  0.1050508538888053  0.2188214134794393  0.1461319533683536   F   F   F
  0.2177136897060526  0.0979511408045097  0.3040089229998593   T   T   T
  0.0994754795815804  0.2316309505171232  0.3838472580801105   T   T   T
  0.9988029170312691  0.0007825242440812  0.2288439903506343   T   T   T
  0.2210962139903643  0.1106452849368509  0.0751827621295291   F   F   F
  0.3342897844872112  0.0011386905474027  0.9965461218918766   T   T   T
  0.4441448565101354  0.2225211434893879  0.1506163984529323   F   F   F
  0.5519441172035697  0.1139379247055158  0.3038089163205820   T   T   T
  0.4721002698605034  0.1943204484406341  0.4062365309133644   T   T   T
  0.3343458157612127  0.9981993084822141  0.2276964816180076   T   T   T
  0.5570038045750252  0.1096631954248366  0.0775629211489459   F   F   F
  0.6654208878724793  0.0011099293475581  0.9946780668673535   T   T   T
  0.7851326682834383  0.2259801131742947  0.1513383149131329   F   F   F
  0.8854604120490989  0.1089993720488037  0.3028020565442263   T   T   T
  0.7760055253947187  0.2210724219612089  0.3834599817461643   T   T   T
  0.6660464922666041  0.0010630020735939  0.2288354484000618   T   T   T
  0.8865553681488691  0.1094806308900260  0.0734325143365950   F   F   F
  0.9979354833393707  0.3328896375237818  0.9948556582188417   T   T   T
  0.1109573202326430  0.5557096797644974  0.1470938110643587   F   F   F
  0.1193184334833180  0.5473790705261934  0.3760951432084766   T   T   T
  0.0188624089451136  0.3431827114003201  0.2350482668727347   T   T   T
  0.2227286029040059  0.4439373970977414  0.0714841692203194   F   F   F
  0.3342438683435709  0.3318821489169754  0.9951403090696398   T   T   T
  0.4478445865245604  0.5616161461125984  0.1461319533679699   F   F   F
  0.5680917753222513  0.4494131987911398  0.3042667881820680   T   T   T
  0.4345554643128557  0.5671998304226648  0.3838921665804303   T   T   T
  0.3282694395838369  0.3385477516439467  0.2214277992254053   T   T   T
  0.5560217150630109  0.4455697860090950  0.0751827621296073   F   F   F
  0.6653672410001513  0.3321238496436821  0.9965899973730089   T   T   T
  0.7789138385458045  0.5558316749158507  0.1508301152456895   F   F   F
  0.8855252912151378  0.4446912184554958  0.3044555976675521   T   T   T
  0.7814699351135893  0.5593364230280666  0.3857713890166811   T   T   T
  0.6678534191741857  0.3321373828610221  0.2281402785797979   T   T   T
  0.8886385752566284  0.4449567788325268  0.0749624389375612   F   F   F
  0.9993618689945197  0.6673928100382764  0.9955702337507679   T   T   T
  0.1108353250819505  0.8877531614520606  0.1508301152456681   F   F   F
  0.2212821386149785  0.7808552669842744  0.3043728196737449   T   T   T
  0.1074003435392231  0.8849467692781475  0.3856307172823109   T   T   T
  0.0006303292234125  0.6654537563169226  0.2297105177883543   T   T   T
  0.2217092211673588  0.7780284247432192  0.0749624389374475   F   F   F
  0.3335917297867397  0.6682277563094592  0.9948151295635081   T   T   T
  0.4406858868265999  0.8815343317159758  0.1513383149134881   F   F   F
  0.5577550851357765  0.7816519020949291  0.3028393607077289   T   T   T
  0.4455200608717264  0.8906498771065581  0.3833621653917311   T   T   T
  0.3233230482744598  0.6475403443289629  0.2351476972976830   T   T   T
  0.5571863691110011  0.7801116318520585  0.0734325143364671   F   F   F
  0.6673724722414885  0.6670224462150389  0.9948623365895782   T   T   T
  0.7767489830699930  0.8899180169303591  0.1492479796937900   F   F   F
  0.8892834544572085  0.7772704938851548  0.3034478823901305   T   T   T
  0.7781701868808367  0.8891779576295008  0.3815964049416435   T   T   T
  0.6661184063794263  0.6682925246421818  0.2289737922768944   T   T   T
  0.8883512591971652  0.7783157408020713  0.0751709762983239   F   F   F
  0.3104057872553514  0.3553965951991431  0.4307176420625720   T   T   T
  0.0034422616057108  0.0025567344222384  0.3425203524830789   T   T   T
  0.2230259737605493  0.1140542383393139  0.1916401758847925   F   F   F
  0.1097637815145589  0.2199737720567754  0.0333082965756191   F   F   F
  0.3283382963971966 -0.0005788431898328  0.3428304250287200   T   T   T
  0.5554480872232475  0.1112189127790373  0.1903754413466032   F   F   F
  0.4441270225700293  0.2225389774299416  0.0370121744743415   F   F   F
  0.6663537910886360  0.0004542680351309  0.3430086716161743   T   T   T
  0.8893612982630827  0.1111516499236629  0.1891920470616313   F   F   F
  0.7775989924289206  0.2222864667962625  0.0354264723370292   F   F   F
  0.9877019722002318  0.3259047437930425  0.3456027281274697   T   T   T
  0.2241168054633604  0.4425491945279774  0.1807027101062673   F   F   F
  0.1098310481409825  0.5568359518585950  0.0336928982750706   F   F   F
  0.5526127616604271  0.4436400262389384  0.1916401758847002   F   F   F
  0.4466922279416181  0.5569032184846350  0.0333082965756830   F   F   F
  0.6668256003287140  0.3383185140319485  0.3428333539289769   T   T   T
  0.8903821751778267  0.4449718340360178  0.1902175379679605   F   F   F
  0.7769994000342706  0.5551589947222553  0.0363766872984925   F   F   F
 -0.0015843332382934  0.6679989677500607  0.3432097917398976   T   T   T
  0.2216941659672855  0.7762848248294532  0.1902175379680031   F   F   F
  0.1115080052795605  0.8896675999673249  0.0363766872984428   F   F   F
  0.3405531882691412  0.6789042551604697  0.3456041881017093   T   T   T
  0.5555153500706638  0.7773057017355711  0.1891920470616029   F   F   F
  0.4443795332025005  0.8890680075710762  0.0354264723370790   F   F   F
  0.6638830951337235  0.6633421592849693  0.3426044420899266   T   T   T
  0.8887029791960899  0.7779640208061522  0.1884914816002308   F   F   F
  0.7770098206936638  0.8896571793055159  0.0344925591618335   F   F   F
  0.3605318504199928  0.3062326857717085  0.4942761427355691   T   T   T
  0.4449944441191695  0.2219837316680126  0.4447642346497184   T   T   T
 
  0.00000000E+00  0.00000000E+00  0.00000000E+00
  0.00000000E+00  0.00000000E+00  0.00000000E+00
  0.00000000E+00  0.00000000E+00  0.00000000E+00
  0.00000000E+00  0.00000000E+00  0.00000000E+00
  0.00000000E+00  0.00000000E+00  0.00000000E+00
  0.00000000E+00  0.00000000E+00  0.00000000E+00
  0.00000000E+00  0.00000000E+00  0.00000000E+00
  0.00000000E+00  0.00000000E+00  0.00000000E+00
  0.00000000E+00  0.00000000E+00  0.00000000E+00
  0.00000000E+00  0.00000000E+00  0.00000000E+00
  0.00000000E+00  0.00000000E+00  0.00000000E+00
  0.00000000E+00  0.00000000E+00  0.00000000E+00
  0.00000000E+00  0.00000000E+00  0.00000000E+00
  0.00000000E+00  0.00000000E+00  0.00000000E+00
  0.00000000E+00  0.00000000E+00  0.00000000E+00
  0.00000000E+00  0.00000000E+00  0.00000000E+00
  0.00000000E+00  0.00000000E+00  0.00000000E+00
  0.00000000E+00  0.00000000E+00  0.00000000E+00
  0.00000000E+00  0.00000000E+00  0.00000000E+00
  0.00000000E+00  0.00000000E+00  0.00000000E+00
  0.00000000E+00  0.00000000E+00  0.00000000E+00
  0.00000000E+00  0.00000000E+00  0.00000000E+00
  0.00000000E+00  0.00000000E+00  0.00000000E+00
  0.00000000E+00  0.00000000E+00  0.00000000E+00
  0.00000000E+00  0.00000000E+00  0.00000000E+00
  0.00000000E+00  0.00000000E+00  0.00000000E+00
  0.00000000E+00  0.00000000E+00  0.00000000E+00
  0.00000000E+00  0.00000000E+00  0.00000000E+00
  0.00000000E+00  0.00000000E+00  0.00000000E+00
  0.00000000E+00  0.00000000E+00  0.00000000E+00
  0.00000000E+00  0.00000000E+00  0.00000000E+00
  0.00000000E+00  0.00000000E+00  0.00000000E+00
  0.00000000E+00  0.00000000E+00  0.00000000E+00
  0.00000000E+00  0.00000000E+00  0.00000000E+00
  0.00000000E+00  0.00000000E+00  0.00000000E+00
  0.00000000E+00  0.00000000E+00  0.00000000E+00
  0.00000000E+00  0.00000000E+00  0.00000000E+00
  0.00000000E+00  0.00000000E+00  0.00000000E+00
  0.00000000E+00  0.00000000E+00  0.00000000E+00
  0.00000000E+00  0.00000000E+00  0.00000000E+00
  0.00000000E+00  0.00000000E+00  0.00000000E+00
  0.00000000E+00  0.00000000E+00  0.00000000E+00
  0.00000000E+00  0.00000000E+00  0.00000000E+00
  0.00000000E+00  0.00000000E+00  0.00000000E+00
  0.00000000E+00  0.00000000E+00  0.00000000E+00
  0.00000000E+00  0.00000000E+00  0.00000000E+00
  0.00000000E+00  0.00000000E+00  0.00000000E+00
  0.00000000E+00  0.00000000E+00  0.00000000E+00
  0.00000000E+00  0.00000000E+00  0.00000000E+00
  0.00000000E+00  0.00000000E+00  0.00000000E+00
  0.00000000E+00  0.00000000E+00  0.00000000E+00
  0.00000000E+00  0.00000000E+00  0.00000000E+00
  0.00000000E+00  0.00000000E+00  0.00000000E+00
  0.00000000E+00  0.00000000E+00  0.00000000E+00
  0.00000000E+00  0.00000000E+00  0.00000000E+00
  0.00000000E+00  0.00000000E+00  0.00000000E+00
  0.00000000E+00  0.00000000E+00  0.00000000E+00
  0.00000000E+00  0.00000000E+00  0.00000000E+00
  0.00000000E+00  0.00000000E+00  0.00000000E+00
  0.00000000E+00  0.00000000E+00  0.00000000E+00
  0.00000000E+00  0.00000000E+00  0.00000000E+00
  0.00000000E+00  0.00000000E+00  0.00000000E+00
  0.00000000E+00  0.00000000E+00  0.00000000E+00
  0.00000000E+00  0.00000000E+00  0.00000000E+00
  0.00000000E+00  0.00000000E+00  0.00000000E+00
  0.00000000E+00  0.00000000E+00  0.00000000E+00
  0.00000000E+00  0.00000000E+00  0.00000000E+00
  0.00000000E+00  0.00000000E+00  0.00000000E+00
  0.00000000E+00  0.00000000E+00  0.00000000E+00
  0.00000000E+00  0.00000000E+00  0.00000000E+00
  0.00000000E+00  0.00000000E+00  0.00000000E+00
  0.00000000E+00  0.00000000E+00  0.00000000E+00
  0.00000000E+00  0.00000000E+00  0.00000000E+00
  0.00000000E+00  0.00000000E+00  0.00000000E+00
  0.00000000E+00  0.00000000E+00  0.00000000E+00
  0.00000000E+00  0.00000000E+00  0.00000000E+00
  0.00000000E+00  0.00000000E+00  0.00000000E+00
  0.00000000E+00  0.00000000E+00  0.00000000E+00
  0.00000000E+00  0.00000000E+00  0.00000000E+00
  0.00000000E+00  0.00000000E+00  0.00000000E+00
  0.00000000E+00  0.00000000E+00  0.00000000E+00
  0.00000000E+00  0.00000000E+00  0.00000000E+00
