CeO2-you-111-you-Rh                     
   1.00000000000000     
     9.8592337751549231   -5.6510315450753357   -0.0052103695414149
    -0.0000000014603464   11.3020610987174663    0.0000000006536288
    -0.0108483545421253    0.0000000011502282   21.1174367235843938
   O    Rh   Ce   H 
    53     1    26     1
Selective dynamics
Direct
  0.0002302945184907  0.0006531685558755  0.9954419758330780   T   T   T
  0.1137407351785136  0.2230786451539853  0.1499738697573473   T   T   T
  0.2291933852019102  0.1307673595135500  0.3080078687008694   T   T   T
  0.0602903893357950  0.1948149037961277  0.3974242834741759   T   T   T
  0.0050464281203296  0.0022363976054262  0.2290585256572488   T   T   T
  0.2228879439098683  0.1109815694557928  0.0745609567013864   T   T   T
  0.3340097045660054 -0.0002811987420958  0.9947525620657198   T   T   T
  0.4455547832063378  0.2180533857883926  0.1466971410113214   T   T   T
  0.5457683337697322  0.1064856991641012  0.3057621022873540   T   T   T
  0.4412261348969552  0.2506387552811615  0.3892011242612541   T   T   T
  0.3287139844038610 -0.0008458241596507  0.2303635270088722   T   T   T
  0.5565715984631665  0.1089343969434972  0.0745777293415371   T   T   T
  0.6698150826811078  0.0011548706205572  0.9949863731731812   T   T   T
  0.7750993210249393  0.2235398533267731  0.1521195558092427   T   T   T
  0.8848975247192901  0.1064430689467223  0.3011149454637121   T   T   T
  0.7783624256562431  0.2126808649610915  0.3863463595162046   T   T   T
  0.6633034789689021  0.9996951120892652  0.2296610876002349   T   T   T
  0.8888652272155690  0.1101988906489167  0.0771445026821807   T   T   T
  0.0006480867464534  0.3318719714419165  0.9956393203448057   T   T   T
  0.1100644329821632  0.5547993558075409  0.1499964334772771   T   T   T
  0.2265571155603701  0.4259932971687030  0.3047253015052553   T   T   T
  0.1192226179838924  0.5548380593401653  0.3828079164911306   T   T   T
  0.0026782207602063  0.3328167654246331  0.2289966443858311   T   T   T
  0.2235640532947963  0.4453286112795968  0.0744241480149864   T   T   T
  0.3329994002472830  0.3325317991385333  0.9947640387816181   T   T   T
  0.4471199946876326  0.5597280677621249  0.1464929283753483   T   T   T
  0.4542620963582993  0.5374954193659753  0.3724469638254411   T   T   T
  0.3492932881631213  0.3396242878701115  0.2256360483645860   T   T   T
  0.5566797576894150  0.4441201019285970  0.0719222999784513   T   T   T
  0.6686287381111010  0.3325497387376261  0.9949717886045427   T   T   T
  0.7807281557068088  0.5572992898891393  0.1471557700942321   T   T   T
  0.8974366145326410  0.4458187923527568  0.3045900266254852   T   T   T
  0.7796718455168690  0.5642715445723930  0.3810069229267345   T   T   T
  0.6613546678964007  0.3411758481599930  0.2327601439975941   T   T   T
  0.8903588491483468  0.4441924379733107  0.0747788223689332   T   T   T
  0.0008658683813878  0.6672089690967526  0.9951961649721669   T   T   T
  0.1109905008607774  0.8871581793233043  0.1495454478250202   T   T   T
  0.2221213598823259  0.7743698894133630  0.3025367852114934   T   T   T
  0.1174655601492527  0.8897982199166146  0.3829619054895874   T   T   T
  0.9991095310561140  0.6664797029215390  0.2297270615549099   T   T   T
  0.2236175663616195  0.7775536590246200  0.0745364911257100   T   T   T
  0.3345841212394007  0.6671624877372162  0.9941352878019649   T   T   T
  0.4428806348474206  0.8870683205862375  0.1513823714788420   T   T   T
  0.5549007468232484  0.7777209180492958  0.3038910988907794   T   T   T
  0.4381507258764914  0.8824023586355815  0.3835385787509567   T   T   T
  0.3310649916340019  0.6600290535420693  0.2305134662208738   T   T   T
  0.5568205071561552  0.7803779160907847  0.0744851116351914   T   T   T
  0.6685948894199227  0.6686282117475594  0.9949163885875510   T   T   T
  0.7746294768335272  0.8835473175569633  0.1530646138530983   T   T   T
  0.8934331819432467  0.7840844462748037  0.3040371893420305   T   T   T
  0.7727783496370080  0.8871830521311890  0.3857852529143392   T   T   T
  0.6606307501923443  0.6496864195388994  0.2346818945479600   T   T   T
  0.8901564569140299  0.7802198405557063  0.0749199408324636   T   T   T
  0.3446362098623717  0.3430165186548652  0.3352206308325484   T   T   T
  0.0038170576833500  0.0080933016058252  0.3464354303039441   T   T   T
  0.2240029973360886  0.1137901197352442  0.1910351248526496   T   T   T
  0.1120315600367815  0.2220929160577637  0.0354333165787829   T   T   T
  0.3275239478758247 -0.0069774561492115  0.3416317858260438   T   T   T
  0.5543327320534914  0.1112829390289278  0.1911638923605286   T   T   T
  0.4442717414268040  0.2198286242541790  0.0334235250380035   T   T   T
  0.6638550983370507 -0.0017000034209636  0.3448607859662833   T   T   T
  0.8891281422685515  0.1108469266980922  0.1907950822370208   T   T   T
  0.7783039664768728  0.2219478766800532  0.0359224953211863   T   T   T
  0.0020980023424721  0.3254927660528279  0.3467907112860883   T   T   T
  0.2237416514558552  0.4417630554099548  0.1899812753140775   T   T   T
  0.1113157167203512  0.5546794611593500  0.0354804459977663   T   T   T
  0.5564392488039059  0.4435775701563845  0.1814257830170048   T   T   T
  0.4446071870401596  0.5569945143851687  0.0332597143246888   T   T   T
  0.6761517273564414  0.3324681316294688  0.3482344903015635   T   T   T
  0.8891483607339246  0.4437085272841982  0.1913126182485366   T   T   T
  0.7808217895966330  0.5568391514097777  0.0339865485953341   T   T   T
  0.0020342126778861  0.6659507496929921  0.3427039986762712   T   T   T
  0.2210681751083706  0.7757412854467051  0.1887302751233504   T   T   T
  0.1113680874187136  0.8895171098264077  0.0357968447841596   T   T   T
  0.3325106748114028  0.6563816234186124  0.3425898675942262   T   T   T
  0.5545246159522220  0.7760295787411308  0.1906567472879980   T   T   T
  0.4457455853001513  0.8891047073416587  0.0351027204534567   T   T   T
  0.6738992136205911  0.6761540026533743  0.3456828281411868   T   T   T
  0.8902409330247427  0.7782134183519744  0.1909040639012783   T   T   T
  0.7784714054088334  0.8893006846329814  0.0355782941864065   T   T   T
  0.4173120288390624  0.2630736299571589  0.4320296439076072   T   T   T
 
  0.00000000E+00  0.00000000E+00  0.00000000E+00
  0.00000000E+00  0.00000000E+00  0.00000000E+00
  0.00000000E+00  0.00000000E+00  0.00000000E+00
  0.00000000E+00  0.00000000E+00  0.00000000E+00
  0.00000000E+00  0.00000000E+00  0.00000000E+00
  0.00000000E+00  0.00000000E+00  0.00000000E+00
  0.00000000E+00  0.00000000E+00  0.00000000E+00
  0.00000000E+00  0.00000000E+00  0.00000000E+00
  0.00000000E+00  0.00000000E+00  0.00000000E+00
  0.00000000E+00  0.00000000E+00  0.00000000E+00
  0.00000000E+00  0.00000000E+00  0.00000000E+00
  0.00000000E+00  0.00000000E+00  0.00000000E+00
  0.00000000E+00  0.00000000E+00  0.00000000E+00
  0.00000000E+00  0.00000000E+00  0.00000000E+00
  0.00000000E+00  0.00000000E+00  0.00000000E+00
  0.00000000E+00  0.00000000E+00  0.00000000E+00
  0.00000000E+00  0.00000000E+00  0.00000000E+00
  0.00000000E+00  0.00000000E+00  0.00000000E+00
  0.00000000E+00  0.00000000E+00  0.00000000E+00
  0.00000000E+00  0.00000000E+00  0.00000000E+00
  0.00000000E+00  0.00000000E+00  0.00000000E+00
  0.00000000E+00  0.00000000E+00  0.00000000E+00
  0.00000000E+00  0.00000000E+00  0.00000000E+00
  0.00000000E+00  0.00000000E+00  0.00000000E+00
  0.00000000E+00  0.00000000E+00  0.00000000E+00
  0.00000000E+00  0.00000000E+00  0.00000000E+00
  0.00000000E+00  0.00000000E+00  0.00000000E+00
  0.00000000E+00  0.00000000E+00  0.00000000E+00
  0.00000000E+00  0.00000000E+00  0.00000000E+00
  0.00000000E+00  0.00000000E+00  0.00000000E+00
  0.00000000E+00  0.00000000E+00  0.00000000E+00
  0.00000000E+00  0.00000000E+00  0.00000000E+00
  0.00000000E+00  0.00000000E+00  0.00000000E+00
  0.00000000E+00  0.00000000E+00  0.00000000E+00
  0.00000000E+00  0.00000000E+00  0.00000000E+00
  0.00000000E+00  0.00000000E+00  0.00000000E+00
  0.00000000E+00  0.00000000E+00  0.00000000E+00
  0.00000000E+00  0.00000000E+00  0.00000000E+00
  0.00000000E+00  0.00000000E+00  0.00000000E+00
  0.00000000E+00  0.00000000E+00  0.00000000E+00
  0.00000000E+00  0.00000000E+00  0.00000000E+00
  0.00000000E+00  0.00000000E+00  0.00000000E+00
  0.00000000E+00  0.00000000E+00  0.00000000E+00
  0.00000000E+00  0.00000000E+00  0.00000000E+00
  0.00000000E+00  0.00000000E+00  0.00000000E+00
  0.00000000E+00  0.00000000E+00  0.00000000E+00
  0.00000000E+00  0.00000000E+00  0.00000000E+00
  0.00000000E+00  0.00000000E+00  0.00000000E+00
  0.00000000E+00  0.00000000E+00  0.00000000E+00
  0.00000000E+00  0.00000000E+00  0.00000000E+00
  0.00000000E+00  0.00000000E+00  0.00000000E+00
  0.00000000E+00  0.00000000E+00  0.00000000E+00
  0.00000000E+00  0.00000000E+00  0.00000000E+00
  0.00000000E+00  0.00000000E+00  0.00000000E+00
  0.00000000E+00  0.00000000E+00  0.00000000E+00
  0.00000000E+00  0.00000000E+00  0.00000000E+00
  0.00000000E+00  0.00000000E+00  0.00000000E+00
  0.00000000E+00  0.00000000E+00  0.00000000E+00
  0.00000000E+00  0.00000000E+00  0.00000000E+00
  0.00000000E+00  0.00000000E+00  0.00000000E+00
  0.00000000E+00  0.00000000E+00  0.00000000E+00
  0.00000000E+00  0.00000000E+00  0.00000000E+00
  0.00000000E+00  0.00000000E+00  0.00000000E+00
  0.00000000E+00  0.00000000E+00  0.00000000E+00
  0.00000000E+00  0.00000000E+00  0.00000000E+00
  0.00000000E+00  0.00000000E+00  0.00000000E+00
  0.00000000E+00  0.00000000E+00  0.00000000E+00
  0.00000000E+00  0.00000000E+00  0.00000000E+00
  0.00000000E+00  0.00000000E+00  0.00000000E+00
  0.00000000E+00  0.00000000E+00  0.00000000E+00
  0.00000000E+00  0.00000000E+00  0.00000000E+00
  0.00000000E+00  0.00000000E+00  0.00000000E+00
  0.00000000E+00  0.00000000E+00  0.00000000E+00
  0.00000000E+00  0.00000000E+00  0.00000000E+00
  0.00000000E+00  0.00000000E+00  0.00000000E+00
  0.00000000E+00  0.00000000E+00  0.00000000E+00
  0.00000000E+00  0.00000000E+00  0.00000000E+00
  0.00000000E+00  0.00000000E+00  0.00000000E+00
  0.00000000E+00  0.00000000E+00  0.00000000E+00
  0.00000000E+00  0.00000000E+00  0.00000000E+00
  0.00000000E+00  0.00000000E+00  0.00000000E+00
