CeO2-you-111-you-Sr                     
   1.00000000000000     
     9.9169523318763151   -5.7255554712298169   -0.0000000008394493
    -0.0299713307685903   11.3991970630059196   -0.0161423527768271
    -0.0171424659473466   -0.0296916169763733   21.1815644597184658
   O    Sr   Ce   H 
    53     1    26     2
Selective dynamics
Direct
  0.0003628882757406  0.0003900745093363  0.9971736094437071   T   T   T
  0.1093548198940724  0.2224122517810727  0.1499562360007545   F   F   F
  0.2223826320864974  0.1024487741718512  0.3019676700240501   T   T   T
  0.0890699580367189  0.2102334622426122  0.3843922732709311   T   T   T
  0.0009803980088185  0.0020743529115799  0.2273586471890151   T   T   T
  0.2227438216314042  0.1121546432627412  0.0759537442633018   F   F   F
  0.3334020308260712  0.0003159524110696  0.9969508998991659   T   T   T
  0.4463904318868259  0.2224122517808951  0.1499562360007758   F   F   F
  0.5480747707682484  0.1077388408017159  0.3046369257386307   T   T   T
  0.4415080261528838  0.2107290886467352  0.4040286031372661   T   T   T
  0.3339116345857606 -0.0017111422469163  0.2264035457162628   T   T   T
  0.5570631250746629  0.1116822250993508  0.0756117487806804   F   F   F
  0.6666786195437264  0.9995433411487729  0.9966663012429419   T   T   T
  0.7768100765895340  0.2202861531790887  0.1527567747187106   F   F   F
  0.8856753172600960  0.1087120298607642  0.3002745330725512   T   T   T
  0.7810586670375576  0.2113715135931095  0.3829798166565374   T   T   T
  0.6591491424502752  0.9896774841804865  0.2317775455931231   T   T   T
  0.8879531000247880  0.1116822250995071  0.0756117487806875   F   F   F
  0.0009196292488575  0.3336865120814902  0.9974888151719757   T   T   T
  0.1105487640217078  0.5545588155722712  0.1499912045375282   F   F   F
  0.2275717403200037  0.4566707775189776  0.3076379811569538   T   T   T
  0.1139943353332835  0.5639380056354217  0.3857048018602454   T   T   T
  0.0026498933963562  0.3341278328770957  0.2301473813790479   T   T   T
  0.2233183726831669  0.4446515177049832  0.0767316974300272   F   F   F
  0.3337126817308068  0.3336151590739758  0.9971120576392437   T   T   T
  0.4451738370647504  0.5570156741299996  0.1509617398858651   F   F   F
  0.5592689081750067  0.4609200884940107  0.3098334810320678   T   T   T
  0.3336764021884614  0.3337342140848628  0.2253672925264344   T   T   T
  0.5546671450216820  0.4446515177049051  0.0767316974300272   F   F   F
  0.6668426938508676  0.3337289860088738  0.9977099612282695   T   T   T
  0.7773430515502966  0.5545588155720935  0.1499912045375211   F   F   F
  0.8968011864476417  0.4483678814763923  0.3047944864838474   T   T   T
  0.7933401199130671  0.5768768745980630  0.3864407600716852   T   T   T
  0.6656899977305608  0.3355230840621055  0.2292849181425980   T   T   T
  0.8878981491854816  0.4424622983709696  0.0767246964072328   F   F   F
  0.9987649886289114  0.6648687828762092  0.9975647786840243   T   T   T
  0.1114491950605370  0.8895653901206373  0.1481396980291976   F   F   F
  0.2181403421967790  0.7781649826780942  0.3003136228335104   T   T   T
  0.1146069211327096  0.8888561895819441  0.3835898165692060   T   T   T
 -0.0004660327132795  0.6665654990741468  0.2273222762810007   T   T   T
  0.2219756122952248  0.7778744383878617  0.0747969064336615   F   F   F
  0.3331753242653376  0.6659804775348668  0.9975772375851004   T   T   T
  0.4444499817896386  0.8889731228118407  0.1482195371882540   F   F   F
  0.5425456161511398  0.7542633943207413  0.3140839564786187   T   T   T
  0.4373722507750922  0.8869908517019409  0.3821190436938169   T   T   T
  0.3344621171984827  0.6721884550682850  0.2280727125768405   T   T   T
  0.5553955584437062  0.7774571168873905  0.0756393399531916   F   F   F
  0.6663677397516129  0.6663955395081541  0.9972808841194494   T   T   T
  0.7778561410225322  0.8889731228120894  0.1482195371882611   F   F   F
  0.8973753114815269  0.7833742307857264  0.3004286954414937   T   T   T
  0.7811190126817373  0.8911212657855527  0.3807153587882447   T   T   T
  0.6717664889094366  0.6724632748363942  0.2276526997496062   T   T   T
  0.8892318260927325  0.7778744383878902  0.0747969064336544   F   F   F
  0.3254888573588471  0.3229832092497655  0.3444441059792754   T   T   T
  0.0027094634994630  0.0039965539468680  0.3419686835595527   T   T   T
  0.2233364276635470  0.1133398553281424  0.1898381241846039   F   F   F
  0.1113864942348215  0.2225409924313269  0.0373235110466865   F   F   F
  0.3291822575388609 -0.0052455488401198  0.3408222908093588   T   T   T
  0.5545814778339277  0.1101698582754054  0.1895486424964119   F   F   F
  0.4444874981965725  0.2225409924314761  0.0373235110466794   F   F   F
  0.6655799447404325 -0.0003621418427917  0.3430197328796125   T   T   T
  0.8889223804406257  0.1101698582745811  0.1895486424963977   F   F   F
  0.7775704280661273  0.2218068561321900  0.0371285038514273   F   F   F
 -0.0016695399860036  0.3298276825042528  0.3433802004568918   T   T   T
  0.2231876862061952  0.4440284400365186  0.1912495509566767   F   F   F
  0.1105699711457717  0.5541693069013292  0.0371595402114053   F   F   F
  0.5541747538320081  0.4440284400371937  0.1912495509566270   F   F   F
  0.4439831684513109  0.5546343369024811  0.0368839891796853   F   F   F
  0.6728823910210117  0.3381319014330765  0.3462357320090234   T   T   T
  0.8892401539279930  0.4451463078555946  0.1906083998510297   F   F   F
  0.7769323357555962  0.5541693069014286  0.0371595402114053   F   F   F
  0.0014873607942101  0.6681152086762587  0.3445502072361884   T   T   T
  0.2211484866733429  0.7793571123141447  0.1865806165809190   F   F   F
  0.1112714028154116  0.8892098056310545  0.0354232388682689   F   F   F
  0.3198959002833646  0.6721289083366635  0.3384908380009464   T   T   T
  0.5547522743889814  0.7761705487779409  0.1877835275893744   F   F   F
  0.4446350079443704  0.8886677549241710  0.0359254787877177   F   F   F
  0.6884942627290642  0.6767255841514733  0.3379198125435814   T   T   T
  0.8915416256400377  0.7793571123137468  0.1865806165809047   F   F   F
  0.7773657469796973  0.8886677549241355  0.0359254787877248   F   F   F
  0.4423066329213625  0.5496987921448754  0.4232330544181243   T   T   T
  0.4418889676479525  0.2048096431492750  0.4498287521272631   T   T   T
 
  0.00000000E+00  0.00000000E+00  0.00000000E+00
  0.00000000E+00  0.00000000E+00  0.00000000E+00
  0.00000000E+00  0.00000000E+00  0.00000000E+00
  0.00000000E+00  0.00000000E+00  0.00000000E+00
  0.00000000E+00  0.00000000E+00  0.00000000E+00
  0.00000000E+00  0.00000000E+00  0.00000000E+00
  0.00000000E+00  0.00000000E+00  0.00000000E+00
  0.00000000E+00  0.00000000E+00  0.00000000E+00
  0.00000000E+00  0.00000000E+00  0.00000000E+00
  0.00000000E+00  0.00000000E+00  0.00000000E+00
  0.00000000E+00  0.00000000E+00  0.00000000E+00
  0.00000000E+00  0.00000000E+00  0.00000000E+00
  0.00000000E+00  0.00000000E+00  0.00000000E+00
  0.00000000E+00  0.00000000E+00  0.00000000E+00
  0.00000000E+00  0.00000000E+00  0.00000000E+00
  0.00000000E+00  0.00000000E+00  0.00000000E+00
  0.00000000E+00  0.00000000E+00  0.00000000E+00
  0.00000000E+00  0.00000000E+00  0.00000000E+00
  0.00000000E+00  0.00000000E+00  0.00000000E+00
  0.00000000E+00  0.00000000E+00  0.00000000E+00
  0.00000000E+00  0.00000000E+00  0.00000000E+00
  0.00000000E+00  0.00000000E+00  0.00000000E+00
  0.00000000E+00  0.00000000E+00  0.00000000E+00
  0.00000000E+00  0.00000000E+00  0.00000000E+00
  0.00000000E+00  0.00000000E+00  0.00000000E+00
  0.00000000E+00  0.00000000E+00  0.00000000E+00
  0.00000000E+00  0.00000000E+00  0.00000000E+00
  0.00000000E+00  0.00000000E+00  0.00000000E+00
  0.00000000E+00  0.00000000E+00  0.00000000E+00
  0.00000000E+00  0.00000000E+00  0.00000000E+00
  0.00000000E+00  0.00000000E+00  0.00000000E+00
  0.00000000E+00  0.00000000E+00  0.00000000E+00
  0.00000000E+00  0.00000000E+00  0.00000000E+00
  0.00000000E+00  0.00000000E+00  0.00000000E+00
  0.00000000E+00  0.00000000E+00  0.00000000E+00
  0.00000000E+00  0.00000000E+00  0.00000000E+00
  0.00000000E+00  0.00000000E+00  0.00000000E+00
  0.00000000E+00  0.00000000E+00  0.00000000E+00
  0.00000000E+00  0.00000000E+00  0.00000000E+00
  0.00000000E+00  0.00000000E+00  0.00000000E+00
  0.00000000E+00  0.00000000E+00  0.00000000E+00
  0.00000000E+00  0.00000000E+00  0.00000000E+00
  0.00000000E+00  0.00000000E+00  0.00000000E+00
  0.00000000E+00  0.00000000E+00  0.00000000E+00
  0.00000000E+00  0.00000000E+00  0.00000000E+00
  0.00000000E+00  0.00000000E+00  0.00000000E+00
  0.00000000E+00  0.00000000E+00  0.00000000E+00
  0.00000000E+00  0.00000000E+00  0.00000000E+00
  0.00000000E+00  0.00000000E+00  0.00000000E+00
  0.00000000E+00  0.00000000E+00  0.00000000E+00
  0.00000000E+00  0.00000000E+00  0.00000000E+00
  0.00000000E+00  0.00000000E+00  0.00000000E+00
  0.00000000E+00  0.00000000E+00  0.00000000E+00
  0.00000000E+00  0.00000000E+00  0.00000000E+00
  0.00000000E+00  0.00000000E+00  0.00000000E+00
  0.00000000E+00  0.00000000E+00  0.00000000E+00
  0.00000000E+00  0.00000000E+00  0.00000000E+00
  0.00000000E+00  0.00000000E+00  0.00000000E+00
  0.00000000E+00  0.00000000E+00  0.00000000E+00
  0.00000000E+00  0.00000000E+00  0.00000000E+00
  0.00000000E+00  0.00000000E+00  0.00000000E+00
  0.00000000E+00  0.00000000E+00  0.00000000E+00
  0.00000000E+00  0.00000000E+00  0.00000000E+00
  0.00000000E+00  0.00000000E+00  0.00000000E+00
  0.00000000E+00  0.00000000E+00  0.00000000E+00
  0.00000000E+00  0.00000000E+00  0.00000000E+00
  0.00000000E+00  0.00000000E+00  0.00000000E+00
  0.00000000E+00  0.00000000E+00  0.00000000E+00
  0.00000000E+00  0.00000000E+00  0.00000000E+00
  0.00000000E+00  0.00000000E+00  0.00000000E+00
  0.00000000E+00  0.00000000E+00  0.00000000E+00
  0.00000000E+00  0.00000000E+00  0.00000000E+00
  0.00000000E+00  0.00000000E+00  0.00000000E+00
  0.00000000E+00  0.00000000E+00  0.00000000E+00
  0.00000000E+00  0.00000000E+00  0.00000000E+00
  0.00000000E+00  0.00000000E+00  0.00000000E+00
  0.00000000E+00  0.00000000E+00  0.00000000E+00
  0.00000000E+00  0.00000000E+00  0.00000000E+00
  0.00000000E+00  0.00000000E+00  0.00000000E+00
  0.00000000E+00  0.00000000E+00  0.00000000E+00
  0.00000000E+00  0.00000000E+00  0.00000000E+00
  0.00000000E+00  0.00000000E+00  0.00000000E+00
