CeO2-you-111-you-Ir                     
   1.00000000000000     
     9.8393639207085020   -5.6945770500708228    0.0032647703247930
    -0.0119661037972027   11.3684261974431973   -0.0032647695880576
     0.0029772132499499   -0.0051566837878197   21.0724412952429354
   O    Ir   Ce   H 
    53     1    26     2
Selective dynamics
Direct
 -0.0002034522137421 -0.0002320629089875  0.9954424227344273   T   T   T
  0.1110789750158432  0.2202337777865466  0.1476565365849396   F   F   F
  0.2563279793637224  0.1362753222776964  0.3076025089701246   T   T   T
  0.1383240495456203  0.2469118039344342  0.3677243724314288   T   T   T
  0.0080757244585179  0.0041027193950852  0.2327857485475982   T   T   T
  0.2224483139590134  0.1100515397933179  0.0742178826329436   F   F   F
  0.3349810756698955  0.0003425052682583  0.9957419907127649   T   T   T
  0.4398106038380405  0.2268553961646589  0.1517865560300677   F   F   F
  0.5530201114462818  0.1127792935538505  0.3034359511633739   T   T   T
  0.4821914167329734  0.1841194193974418  0.4145038616937889   T   T   T
  0.3325879007311072 -0.0007233868882740  0.2280711951197668   T   T   T
  0.5546892113515085  0.1119777886478062  0.0781515302317075   F   F   F
  0.6659006537228360  0.0005559956217511  0.9967237288380391   T   T   T
  0.7836130295694375  0.2233340544149200  0.1518960545362305   F   F   F
  0.8848284220584935  0.1047523428411489  0.3051157306358679   T   T   T
  0.7681931354885736  0.2170486710418829  0.3867037421492190   T   T   T
  0.6658863554777310  0.0006126026434092  0.2296194050161008   T   T   T
  0.8883821287452918  0.1095887540486729  0.0758076905624492   F   F   F
  0.9980130572823133  0.3314888388410919  0.9954200535998234   T   T   T
  0.1098140588769070  0.5568529411291934  0.1468602377039119   F   F   F
  0.1022243438851971  0.5649571884914263  0.3858978150615600   T   T   T
  0.0147059953457785  0.3430241965483230  0.2333222314687970   T   T   T
  0.2220931741538976  0.4445728258476436  0.0723359147601883   F   F   F
  0.3338586619050552  0.3326397929342501  0.9950225336228130   T   T   T
  0.4464322222154564  0.5555880249853331  0.1476565365868794   F   F   F
  0.5294794434885096  0.4096123415313049  0.3076419122440675   T   T   T
  0.4183359842594473  0.5272720175559729  0.3675893030369387   T   T   T
  0.3229530621274282  0.3438570391878213  0.2290823437278587   T   T   T
  0.5566154602038083  0.4442176860376463  0.0742178826325528   F   F   F
  0.6661505925121952  0.3313502579601756  0.9957568387002136   T   T   T
  0.7774623922272639  0.5555940843917497  0.1503242333513128   F   F   F
  0.8814312710098696  0.4472868863275474  0.3038888964903037   T   T   T
  0.7676449199305282  0.5559838141934292  0.3829053003328308   T   T   T
  0.6670434078198547  0.3335731539095528  0.2279621652646786   T   T   T
  0.8877462259875202  0.4439474872375442  0.0748740445256360   F   F   F
  0.9998264547398225  0.6669838114933706  0.9953408574062323   T   T   T
  0.1110729156046375  0.8892046077684341  0.1503242333511139   F   F   F
  0.2189819193494429  0.7849413454672973  0.3039454928744987   T   T   T
  0.1096660892985887  0.8981973690372498  0.3831408996021058   T   T   T
 -0.0002528563267912  0.6670903198219611  0.2291625410481652   T   T   T
  0.2227185127613254  0.7789207740110058  0.0748740445260552   F   F   F
  0.3346258096572257  0.6685251362267434  0.9955219983580162   T   T   T
  0.4433319455848306  0.8830539704287688  0.1518960545343262   F   F   F
  0.5625906349411105  0.7816345864125019  0.3052044552121262   T   T   T
  0.4495851756641935  0.8975185875804089  0.3865122040720583   T   T   T
  0.3249690026972251  0.6535691443086679  0.2332367079131559   T   T   T
  0.5570782459553030  0.7782848712579096  0.0758076905627263   F   F   F
  0.6678078329294652  0.6678929876709214  0.9955399378104647   T   T   T
  0.7778641596969535  0.8888028403025530  0.1529529022347518   F   F   F
  0.8869911755345167  0.7798519270241743  0.3038573623209798   T   T   T
  0.7799561862587979  0.8873830967772072  0.3861272798163385   T   T   T
  0.6627438770634692  0.6585614094532641  0.2328793949885035   T   T   T
  0.8888486212300677  0.7778183787688917  0.0756854678549956   F   F   F
  0.3337205944235979  0.3320456481199932  0.3402998718448407   T   T   T
  0.0028157186780919  0.0046943538910765  0.3437606058723026   T   T   T
  0.2218913953631656  0.1109208418313870  0.1894994693895882   F   F   F
  0.1098913728896989  0.2200573364101714  0.0341054210490555   F   F   F
  0.3350875278845991 -0.0002758482345405  0.3456887035484655   T   T   T
  0.5557336433035474  0.1109333567006772  0.1909863111652257   F   F   F
  0.4444605930877685  0.2222054069131190  0.0352323703447723   F   F   F
  0.6667619045770126 -0.0001528665526009  0.3459720490149037   T   T   T
  0.8906034023596874  0.1123958334047614  0.1923640416775854   F   F   F
  0.7780069155290121  0.2218988220013145  0.0366503079044307   F   F   F
  0.9914669662459468  0.3346684135958852  0.3504881693105170   T   T   T
  0.2208319439411426  0.4458340560605620  0.1824994018170116   F   F   F
  0.1103471268960163  0.5563198731038597  0.0340153931598337   F   F   F
  0.5557461581657606  0.4447746046334231  0.1894994693898653   F   F   F
  0.4466086635886271  0.5567756271093458  0.0341054210488423   F   F   F
  0.6662490551753711  0.3310464546288667  0.3457181926187338   T   T   T
  0.8896670416058825  0.4441511751003944  0.1912499089582838   F   F   F
  0.7777190192836230  0.5547895908734333  0.0358482697394820   F   F   F
 -0.0022209063540616  0.6688462973829484  0.3437587414000837   T   T   T
  0.2225148249062201  0.7769999584056038  0.1912499089599109   F   F   F
  0.1118774091260946  0.8889479807159972  0.0358482697398586   F   F   F
  0.3321627675451801  0.6750425103461847  0.3503205065659268   T   T   T
  0.5542711665873838  0.7760635976371404  0.1923640416780117   F   F   F
  0.4447671779976332  0.8886600844706720  0.0366503079039830   F   F   F
  0.6620455241007779  0.6637372630700026  0.3437535883830476   T   T   T
  0.8893375945830186  0.7773294054211419  0.1899444986971162   F   F   F
  0.7776271732136877  0.8890398267872399  0.0369883284718782   F   F   F
  0.3525776090033306  0.3129758202201216  0.4121534273609292   T   T   T
  0.4385917847758886  0.2268499494954981  0.4372185332162851   T   T   T
 
  0.00000000E+00  0.00000000E+00  0.00000000E+00
  0.00000000E+00  0.00000000E+00  0.00000000E+00
  0.00000000E+00  0.00000000E+00  0.00000000E+00
  0.00000000E+00  0.00000000E+00  0.00000000E+00
  0.00000000E+00  0.00000000E+00  0.00000000E+00
  0.00000000E+00  0.00000000E+00  0.00000000E+00
  0.00000000E+00  0.00000000E+00  0.00000000E+00
  0.00000000E+00  0.00000000E+00  0.00000000E+00
  0.00000000E+00  0.00000000E+00  0.00000000E+00
  0.00000000E+00  0.00000000E+00  0.00000000E+00
  0.00000000E+00  0.00000000E+00  0.00000000E+00
  0.00000000E+00  0.00000000E+00  0.00000000E+00
  0.00000000E+00  0.00000000E+00  0.00000000E+00
  0.00000000E+00  0.00000000E+00  0.00000000E+00
  0.00000000E+00  0.00000000E+00  0.00000000E+00
  0.00000000E+00  0.00000000E+00  0.00000000E+00
  0.00000000E+00  0.00000000E+00  0.00000000E+00
  0.00000000E+00  0.00000000E+00  0.00000000E+00
  0.00000000E+00  0.00000000E+00  0.00000000E+00
  0.00000000E+00  0.00000000E+00  0.00000000E+00
  0.00000000E+00  0.00000000E+00  0.00000000E+00
  0.00000000E+00  0.00000000E+00  0.00000000E+00
  0.00000000E+00  0.00000000E+00  0.00000000E+00
  0.00000000E+00  0.00000000E+00  0.00000000E+00
  0.00000000E+00  0.00000000E+00  0.00000000E+00
  0.00000000E+00  0.00000000E+00  0.00000000E+00
  0.00000000E+00  0.00000000E+00  0.00000000E+00
  0.00000000E+00  0.00000000E+00  0.00000000E+00
  0.00000000E+00  0.00000000E+00  0.00000000E+00
  0.00000000E+00  0.00000000E+00  0.00000000E+00
  0.00000000E+00  0.00000000E+00  0.00000000E+00
  0.00000000E+00  0.00000000E+00  0.00000000E+00
  0.00000000E+00  0.00000000E+00  0.00000000E+00
  0.00000000E+00  0.00000000E+00  0.00000000E+00
  0.00000000E+00  0.00000000E+00  0.00000000E+00
  0.00000000E+00  0.00000000E+00  0.00000000E+00
  0.00000000E+00  0.00000000E+00  0.00000000E+00
  0.00000000E+00  0.00000000E+00  0.00000000E+00
  0.00000000E+00  0.00000000E+00  0.00000000E+00
  0.00000000E+00  0.00000000E+00  0.00000000E+00
  0.00000000E+00  0.00000000E+00  0.00000000E+00
  0.00000000E+00  0.00000000E+00  0.00000000E+00
  0.00000000E+00  0.00000000E+00  0.00000000E+00
  0.00000000E+00  0.00000000E+00  0.00000000E+00
  0.00000000E+00  0.00000000E+00  0.00000000E+00
  0.00000000E+00  0.00000000E+00  0.00000000E+00
  0.00000000E+00  0.00000000E+00  0.00000000E+00
  0.00000000E+00  0.00000000E+00  0.00000000E+00
  0.00000000E+00  0.00000000E+00  0.00000000E+00
  0.00000000E+00  0.00000000E+00  0.00000000E+00
  0.00000000E+00  0.00000000E+00  0.00000000E+00
  0.00000000E+00  0.00000000E+00  0.00000000E+00
  0.00000000E+00  0.00000000E+00  0.00000000E+00
  0.00000000E+00  0.00000000E+00  0.00000000E+00
  0.00000000E+00  0.00000000E+00  0.00000000E+00
  0.00000000E+00  0.00000000E+00  0.00000000E+00
  0.00000000E+00  0.00000000E+00  0.00000000E+00
  0.00000000E+00  0.00000000E+00  0.00000000E+00
  0.00000000E+00  0.00000000E+00  0.00000000E+00
  0.00000000E+00  0.00000000E+00  0.00000000E+00
  0.00000000E+00  0.00000000E+00  0.00000000E+00
  0.00000000E+00  0.00000000E+00  0.00000000E+00
  0.00000000E+00  0.00000000E+00  0.00000000E+00
  0.00000000E+00  0.00000000E+00  0.00000000E+00
  0.00000000E+00  0.00000000E+00  0.00000000E+00
  0.00000000E+00  0.00000000E+00  0.00000000E+00
  0.00000000E+00  0.00000000E+00  0.00000000E+00
  0.00000000E+00  0.00000000E+00  0.00000000E+00
  0.00000000E+00  0.00000000E+00  0.00000000E+00
  0.00000000E+00  0.00000000E+00  0.00000000E+00
  0.00000000E+00  0.00000000E+00  0.00000000E+00
  0.00000000E+00  0.00000000E+00  0.00000000E+00
  0.00000000E+00  0.00000000E+00  0.00000000E+00
  0.00000000E+00  0.00000000E+00  0.00000000E+00
  0.00000000E+00  0.00000000E+00  0.00000000E+00
  0.00000000E+00  0.00000000E+00  0.00000000E+00
  0.00000000E+00  0.00000000E+00  0.00000000E+00
  0.00000000E+00  0.00000000E+00  0.00000000E+00
  0.00000000E+00  0.00000000E+00  0.00000000E+00
  0.00000000E+00  0.00000000E+00  0.00000000E+00
  0.00000000E+00  0.00000000E+00  0.00000000E+00
  0.00000000E+00  0.00000000E+00  0.00000000E+00
