CeO2-you-111-you-Tc                     
   1.00000000000000     
     9.9021175223002249   -5.7221574093603635   -0.0204527692015940
    -0.0044746042946972   11.4365625633025250    0.0204527659267855
    -0.0232945596399572    0.0403473592903142   20.5798311179572551
   O    Tc   Ce
    53     1    26
Selective dynamics
Direct
 -0.0006994400065383  0.0008403556390913  0.9915593211655860   T   T   T
  0.1168635033280702  0.2238616313201601  0.1483690915438630   T   T   T
  0.2280911604948104  0.1164980742961002  0.3025561077406880   T   T   T
  0.1666126659672309  0.2647372717653969  0.3720751398233296   T   T   T
  0.0011178163507308 -0.0020367507146815  0.2282636408665151   T   T   T
  0.2214880400298387  0.1092923457376853  0.0716153961045464   T   T   T
  0.3361771236001895  0.0015673048477469  0.9930862710017483   T   T   T
  0.4367766916288210  0.2298893083724489  0.1532864046498174   T   T   T
  0.5552993086737116  0.1113676913256645  0.3063904215411283   T   T   T
  0.4117148722709204  0.2549511277547916  0.3916298043410488   T   T   T
  0.3333004786345512 -0.0020007461563143  0.2259590015378269   T   T   T
  0.5538604843162594  0.1128065156812064  0.0776874610363522   T   T   T
  0.6653973857258043  0.0012696142751052  0.9953004001732833   T   T   T
  0.7846112007551896  0.2231269432596935  0.1516222529160032   T   T   T
  0.8941507321412311  0.1059027416015316  0.3073275269292249   T   T   T
  0.7739082134927794  0.2071229886146464  0.3930381410772933   T   T   T
  0.6679496807882197 -0.0012826807900270  0.2306890505635094   T   T   T
  0.8911637643898813  0.1110324795954783  0.0739369873855695   T   T   T
 -0.0025120792394721  0.3320139196844157  0.9923468765963048   T   T   T
  0.1104593364757323  0.5562076635282155  0.1455189777198190   T   T   T
  0.1064116006439662  0.5602553993843249  0.3889537739544241   T   T   T
  0.0166625226469279  0.3424320176690924  0.2332972179583166   T   T   T
  0.2220843503678441  0.4445816496324803  0.0696736101453957   T   T   T
  0.3338375621278002  0.3328284378693212  0.9921050677209911   T   T   T
  0.4428043686863298  0.5498034966711913  0.1483690915440241   T   T   T
  0.5501689256745428  0.4385748394787380  0.3025561077441435   T   T   T
  0.4019287282631612  0.5000543340664959  0.3720751398274821   T   T   T
  0.3151461989134048  0.3515198010769714  0.2514917541786967   T   T   T
  0.5573746542565142  0.4451779599647082  0.0716153961045407   T   T   T
  0.6650996951535356  0.3304888763991390  0.9930862710016178   T   T   T
  0.7778424405890564  0.5555582126236532  0.1475387595073250   T   T   T
  0.8872688662829263  0.4469471024483355  0.3050786121170704   T   T   T
  0.7810110652049156  0.5695410573411976  0.3880421624575917   T   T   T
  0.6686677461494090  0.3333655213620698  0.2259590015379041   T   T   T
  0.8881571897823193  0.4443855395478863  0.0720891937767019   T   T   T
  0.0001188363351853  0.6665481636638838  0.9909591325924677   T   T   T
  0.1111087873733479  0.8888245594050934  0.1475387595074285   T   T   T
  0.2197188975406426  0.7793981336989555  0.3050786121166558   T   T   T
  0.0971259426662643  0.8856559347928677  0.3880421624577482   T   T   T
  0.0005581271755636  0.6661088728197179  0.2276645278091743   T   T   T
  0.2222804604492732  0.7785098102149800  0.0720891937767322   T   T   T
  0.3346520803184911  0.6691790792451319  0.9923468765965138   T   T   T
  0.4435390567459344  0.8820557992478810  0.1516222529154752   T   T   T
  0.5607642584084130  0.7725162678568135  0.3073275269280072   T   T   T
  0.4595430113894676  0.8927587864996487  0.3930381410782913   T   T   T
  0.3242339823470652  0.6500044773683935  0.2332972179611165   T   T   T
  0.5556345204057059  0.7755032356135660  0.0739369873855306   T   T   T
  0.6658266443590428  0.6673664400051041  0.9915593211656373   T   T   T
  0.7776896334904810  0.8889773665108680  0.1497012637776335   T   T   T
  0.8893377010578215  0.7773292989377129  0.3016172716487678   T   T   T
  0.7838413598760491  0.8828256401240724  0.3867328623801048   T   T   T
  0.6687037507096881  0.6655491836435056  0.2282636408653933   T   T   T
  0.8888343251177416  0.7778326748801452  0.0710019146070365   T   T   T
  0.3392440742403806  0.3274219257749858  0.3410895392206375   T   T   T
  0.0000093917589620 -0.0074210678099399  0.3428974490601434   T   T   T
  0.2202903310808625  0.1063697714933759  0.1902816245533175   T   T   T
  0.1101866123332686  0.2200680487132913  0.0312774273334280   T   T   T
  0.3310552786033165 -0.0036449186435275  0.3485852800297958   T   T   T
  0.5560972118112918  0.1105697881956654  0.1931893849783043   T   T   T
  0.4440624787898547  0.2226035212124749  0.0338123295405478   T   T   T
  0.6681477954504156 -0.0014807954391840  0.3491292592737133   T   T   T
  0.8915520564429358  0.1118405857738169  0.1918892587035926   T   T   T
  0.7779653815486856  0.2224104409745777  0.0349515500625418   T   T   T
 -0.0093328062860639  0.3320418837243417  0.3535517680065024   T   T   T
  0.2196814070034701  0.4469845929904175  0.1814275986903118   T   T   T
  0.1100708088185239  0.5565961911787105  0.0301728675022562   T   T   T
  0.5602972285012259  0.4463756689140814  0.1902816245535503   T   T   T
  0.4465979512865190  0.5564803876661911  0.0312774273330690   T   T   T
  0.6703119186334769  0.3356107213838777  0.3485852800309115   T   T   T
  0.8905044302477514  0.4444918233920426  0.1907135748732011   T   T   T
  0.7770215209781407  0.5542524547480657  0.0316173919694308   T   T   T
  0.0006647790827045  0.6660022209319632  0.3465706191473459   T   T   T
  0.2221741766195353  0.7761625697703989  0.1907135748739842   T   T   T
  0.1124145452548054  0.8896454790249426  0.0316173919695299   T   T   T
  0.3346241162511943  0.6759998062670801  0.3535517680029044   T   T   T
  0.5548264142151195  0.7751149435536013  0.1918892587037229   T   T   T
  0.4442555590253689  0.8887016184541946  0.0349515500623830   T   T   T
  0.6740880677964612  0.6666576082340325  0.3428974490625137   T   T   T
  0.8899853827561723  0.7766816172473719  0.1863865400883914   T   T   T
  0.7772736574288220  0.8893933425708522  0.0336081125146821   T   T   T
 
  0.00000000E+00  0.00000000E+00  0.00000000E+00
  0.00000000E+00  0.00000000E+00  0.00000000E+00
  0.00000000E+00  0.00000000E+00  0.00000000E+00
  0.00000000E+00  0.00000000E+00  0.00000000E+00
  0.00000000E+00  0.00000000E+00  0.00000000E+00
  0.00000000E+00  0.00000000E+00  0.00000000E+00
  0.00000000E+00  0.00000000E+00  0.00000000E+00
  0.00000000E+00  0.00000000E+00  0.00000000E+00
  0.00000000E+00  0.00000000E+00  0.00000000E+00
  0.00000000E+00  0.00000000E+00  0.00000000E+00
  0.00000000E+00  0.00000000E+00  0.00000000E+00
  0.00000000E+00  0.00000000E+00  0.00000000E+00
  0.00000000E+00  0.00000000E+00  0.00000000E+00
  0.00000000E+00  0.00000000E+00  0.00000000E+00
  0.00000000E+00  0.00000000E+00  0.00000000E+00
  0.00000000E+00  0.00000000E+00  0.00000000E+00
  0.00000000E+00  0.00000000E+00  0.00000000E+00
  0.00000000E+00  0.00000000E+00  0.00000000E+00
  0.00000000E+00  0.00000000E+00  0.00000000E+00
  0.00000000E+00  0.00000000E+00  0.00000000E+00
  0.00000000E+00  0.00000000E+00  0.00000000E+00
  0.00000000E+00  0.00000000E+00  0.00000000E+00
  0.00000000E+00  0.00000000E+00  0.00000000E+00
  0.00000000E+00  0.00000000E+00  0.00000000E+00
  0.00000000E+00  0.00000000E+00  0.00000000E+00
  0.00000000E+00  0.00000000E+00  0.00000000E+00
  0.00000000E+00  0.00000000E+00  0.00000000E+00
  0.00000000E+00  0.00000000E+00  0.00000000E+00
  0.00000000E+00  0.00000000E+00  0.00000000E+00
  0.00000000E+00  0.00000000E+00  0.00000000E+00
  0.00000000E+00  0.00000000E+00  0.00000000E+00
  0.00000000E+00  0.00000000E+00  0.00000000E+00
  0.00000000E+00  0.00000000E+00  0.00000000E+00
  0.00000000E+00  0.00000000E+00  0.00000000E+00
  0.00000000E+00  0.00000000E+00  0.00000000E+00
  0.00000000E+00  0.00000000E+00  0.00000000E+00
  0.00000000E+00  0.00000000E+00  0.00000000E+00
  0.00000000E+00  0.00000000E+00  0.00000000E+00
  0.00000000E+00  0.00000000E+00  0.00000000E+00
  0.00000000E+00  0.00000000E+00  0.00000000E+00
  0.00000000E+00  0.00000000E+00  0.00000000E+00
  0.00000000E+00  0.00000000E+00  0.00000000E+00
  0.00000000E+00  0.00000000E+00  0.00000000E+00
  0.00000000E+00  0.00000000E+00  0.00000000E+00
  0.00000000E+00  0.00000000E+00  0.00000000E+00
  0.00000000E+00  0.00000000E+00  0.00000000E+00
  0.00000000E+00  0.00000000E+00  0.00000000E+00
  0.00000000E+00  0.00000000E+00  0.00000000E+00
  0.00000000E+00  0.00000000E+00  0.00000000E+00
  0.00000000E+00  0.00000000E+00  0.00000000E+00
  0.00000000E+00  0.00000000E+00  0.00000000E+00
  0.00000000E+00  0.00000000E+00  0.00000000E+00
  0.00000000E+00  0.00000000E+00  0.00000000E+00
  0.00000000E+00  0.00000000E+00  0.00000000E+00
  0.00000000E+00  0.00000000E+00  0.00000000E+00
  0.00000000E+00  0.00000000E+00  0.00000000E+00
  0.00000000E+00  0.00000000E+00  0.00000000E+00
  0.00000000E+00  0.00000000E+00  0.00000000E+00
  0.00000000E+00  0.00000000E+00  0.00000000E+00
  0.00000000E+00  0.00000000E+00  0.00000000E+00
  0.00000000E+00  0.00000000E+00  0.00000000E+00
  0.00000000E+00  0.00000000E+00  0.00000000E+00
  0.00000000E+00  0.00000000E+00  0.00000000E+00
  0.00000000E+00  0.00000000E+00  0.00000000E+00
  0.00000000E+00  0.00000000E+00  0.00000000E+00
  0.00000000E+00  0.00000000E+00  0.00000000E+00
  0.00000000E+00  0.00000000E+00  0.00000000E+00
  0.00000000E+00  0.00000000E+00  0.00000000E+00
  0.00000000E+00  0.00000000E+00  0.00000000E+00
  0.00000000E+00  0.00000000E+00  0.00000000E+00
  0.00000000E+00  0.00000000E+00  0.00000000E+00
  0.00000000E+00  0.00000000E+00  0.00000000E+00
  0.00000000E+00  0.00000000E+00  0.00000000E+00
  0.00000000E+00  0.00000000E+00  0.00000000E+00
  0.00000000E+00  0.00000000E+00  0.00000000E+00
  0.00000000E+00  0.00000000E+00  0.00000000E+00
  0.00000000E+00  0.00000000E+00  0.00000000E+00
  0.00000000E+00  0.00000000E+00  0.00000000E+00
  0.00000000E+00  0.00000000E+00  0.00000000E+00
  0.00000000E+00  0.00000000E+00  0.00000000E+00
