CeO2-you-111-you-Ge                     
   1.00000000000000     
     9.8521147621421363   -5.6498604839235886   -0.0130751294360552
     0.0331349869597751   11.3571104565652803    0.0130751271948454
    -0.0139934801802886    0.0242374173118659   21.1576572424859037
   O    Ge   Ce   H 
    53     1    26     2
Selective dynamics
Direct
  0.0001183052650714  0.9998590693007106  0.9958917947472038   T   T   T
  0.1061745875722622  0.2192019750242764  0.1459796950368428   F   F   F
  0.2385740566131305  0.1356023916268065  0.3055168372402406   T   T   T
  0.0651545786738941  0.1945807481575697  0.3911491028200331   T   T   T
  0.0076731331543198  0.0049834940454215  0.2300352122721382   T   T   T
  0.2218610494480160  0.1102872278400113  0.0757827803600719   F   F   F
  0.3348089948096022  0.0016974244628740  0.9973828363587933   T   T   T
  0.4444078732582994  0.2222581267413020  0.1504600128503029   F   F   F
  0.5545623999568058  0.1116340350225180  0.3048809607074758   T   T   T
  0.4213560214863417  0.2459331758957767  0.3962822226849199   T   T   T
  0.3291563221249279 -0.0007179298033209  0.2281694122803880   T   T   T
  0.5572345017837890  0.1094324982156181  0.0778344040165351   F   F   F
  0.6659256711545937  0.0007714889990831  0.9957129657971657   T   T   T
  0.7847589855097752  0.2277675686009815  0.1516124212075809   F   F   F
  0.8799142531206581  0.1062511445787323  0.2994611041788057   T   T   T
  0.7800878268456488  0.2146610668405507  0.3881956973981195   T   T   T
  0.6648042724899700  0.0013697710278326  0.2252857276771577   T   T   T
  0.8861141477602530  0.1091902740175783  0.0743645441093719   F   F   F
  0.9986839643352340  0.3323579151408973  0.9956641786314993   T   T   T
  0.1105090462158813  0.5561579537821117  0.1478514039285628   F   F   F
  0.1281474375518829  0.5370351456235820  0.3782095971633976   T   T   T
  0.0225574659032284  0.3407174442724262  0.2344260370573496   T   T   T
  0.2225110101660448  0.4441549898354040  0.0720423259798650   F   F   F
  0.3342455706567891  0.3319146271699948  0.9960324967668555   T   T   T
  0.4474640249809170  0.5604924124293760  0.1459796950368641   F   F   F
  0.5304450220970530  0.4273101058341885  0.3050471456077199   T   T   T
  0.4706123564721142  0.5994421228578354  0.3906656225801058   T   T   T
  0.3258948316263410  0.3401828060842457  0.2317900571807617   T   T   T
  0.5563797721598220  0.4448049505512870  0.0757827803601430   F   F   F
  0.6656451250225595  0.3319196782406031  0.9974090906790252   T   T   T
  0.7797046844776716  0.5564130772135130  0.1512656167867021   F   F   F
  0.8937525142081890  0.4441469087623829  0.3046630712563807   T   T   T
  0.7851854213929476  0.5692411419745542  0.3830256200185888   T   T   T
  0.6675772113571227  0.3374077530417331  0.2281443657534684   T   T   T
  0.8894668857302577  0.4454256281044238  0.0752306000499487   F   F   F
  0.9992275038656983  0.6675018491722940  0.9962339794536595   T   T   T
  0.1102539227844588  0.8869623155200088  0.1512656167867306   F   F   F
  0.2217251651764512  0.7719546426230648  0.3047910217341417   T   T   T
  0.0967035827630596  0.8805527552562685  0.3829858319433726   T   T   T
  0.0006737194153628  0.6659139429328828  0.2296229805173752   T   T   T
  0.2212403718945737  0.7772001142687301  0.0752306000498280   F   F   F
  0.3342182940323841  0.6684980019564797  0.9955984070585006   T   T   T
  0.4388984313999771  0.8819080144887224  0.1516124212076591   F   F   F
  0.5596326535307186  0.7860482419850373  0.2995599487327196   T   T   T
  0.4512270596420129  0.8855489971217704  0.3881950715322410   T   T   T
  0.3256984486525627  0.6438754904168018  0.2344150344224763   T   T   T
  0.5574767259841522  0.7805528522409517  0.0743645441093364   F   F   F
  0.6667886131703411  0.6663921436411417  0.9958274466131631   T   T   T
  0.7782236573278212  0.8884433426730070  0.1510020905383413   F   F   F
  0.8866530043163463  0.7789285127088689  0.3009879978905501   T   T   T
  0.7765090666495328  0.8892724210247563  0.3836365527052539   T   T   T
  0.6609171894037370  0.6587815781280157  0.2299337172255248   T   T   T
  0.8883092510108668  0.7783577489882560  0.0760163569589025   F   F   F
  0.3518150304512254  0.3141726669666998  0.3250751267991712   T   T   T
  0.9939282954133196 -0.0007813603039419  0.3458566207198631   T   T   T
  0.2228977891496697  0.1141610021513770  0.1905690068860650   F   F   F
  0.1098609021926222  0.2200077682294221  0.0339561571928684   F   F   F
  0.3286624641281280 -0.0080745575817456  0.3469169225809191   T   T   T
  0.5554835663946562  0.1111834336075930  0.1900297224573393   F   F   F
  0.4444271942331355  0.2222388057677804  0.0369972007189929   F   F   F
  0.6648969878922734  0.0010355767586565  0.3432743947975191   T   T   T
  0.8899762065800871  0.1116909547226541  0.1893416694146595   F   F   F
  0.7777765564878152  0.2224324923693715  0.0361693312989644   F   F   F
  0.9888962537363142  0.3187649494710056  0.3491876320759413   T   T   T
  0.2233298180198631  0.4433361819711976  0.1811312568209047   F   F   F
  0.1097865973027581  0.5568804026979990  0.0344373341625612   F   F   F
  0.5525059978463673  0.4437682108495196  0.1905690068859585   F   F   F
  0.4466582317677208  0.5568060978062377  0.0339561571929679   F   F   F
  0.6738453293321796  0.3372159804033711  0.3467934233274753   T   T   T
  0.8907961619453388  0.4447608898552673  0.1907972823811477   F   F   F
  0.7776322436315652  0.5558376609809983  0.0373032446539270   F   F   F
 -0.0013925491418305  0.6671028660306959  0.3418275529587007   T   T   T
  0.2219051101490379  0.7758708380640797  0.1907972823811335   F   F   F
  0.1108293390220254  0.8890347563709469  0.0373032446539341   F   F   F
  0.3469067062698206  0.6767178143494472  0.3491858744358444   T   T   T
  0.5549760452695480  0.7766907934193270  0.1893416694145955   F   F   F
  0.4442335076290078  0.8888904435124161  0.0361693312989146   F   F   F
  0.6666118206507250  0.6719427875603744  0.3456810168401449   T   T   T
  0.8887674115965609  0.7778995884065125  0.1903016193375962   F   F   F
  0.7772495466484912  0.8894174533502408  0.0356651224175977   F   F   F
  0.2812151649209315  0.3844148464907788  0.3566416046799314   T   T   T
  0.3987638213121295  0.2696997453778099  0.4369220294287333   T   T   T
 
  0.00000000E+00  0.00000000E+00  0.00000000E+00
  0.00000000E+00  0.00000000E+00  0.00000000E+00
  0.00000000E+00  0.00000000E+00  0.00000000E+00
  0.00000000E+00  0.00000000E+00  0.00000000E+00
  0.00000000E+00  0.00000000E+00  0.00000000E+00
  0.00000000E+00  0.00000000E+00  0.00000000E+00
  0.00000000E+00  0.00000000E+00  0.00000000E+00
  0.00000000E+00  0.00000000E+00  0.00000000E+00
  0.00000000E+00  0.00000000E+00  0.00000000E+00
  0.00000000E+00  0.00000000E+00  0.00000000E+00
  0.00000000E+00  0.00000000E+00  0.00000000E+00
  0.00000000E+00  0.00000000E+00  0.00000000E+00
  0.00000000E+00  0.00000000E+00  0.00000000E+00
  0.00000000E+00  0.00000000E+00  0.00000000E+00
  0.00000000E+00  0.00000000E+00  0.00000000E+00
  0.00000000E+00  0.00000000E+00  0.00000000E+00
  0.00000000E+00  0.00000000E+00  0.00000000E+00
  0.00000000E+00  0.00000000E+00  0.00000000E+00
  0.00000000E+00  0.00000000E+00  0.00000000E+00
  0.00000000E+00  0.00000000E+00  0.00000000E+00
  0.00000000E+00  0.00000000E+00  0.00000000E+00
  0.00000000E+00  0.00000000E+00  0.00000000E+00
  0.00000000E+00  0.00000000E+00  0.00000000E+00
  0.00000000E+00  0.00000000E+00  0.00000000E+00
  0.00000000E+00  0.00000000E+00  0.00000000E+00
  0.00000000E+00  0.00000000E+00  0.00000000E+00
  0.00000000E+00  0.00000000E+00  0.00000000E+00
  0.00000000E+00  0.00000000E+00  0.00000000E+00
  0.00000000E+00  0.00000000E+00  0.00000000E+00
  0.00000000E+00  0.00000000E+00  0.00000000E+00
  0.00000000E+00  0.00000000E+00  0.00000000E+00
  0.00000000E+00  0.00000000E+00  0.00000000E+00
  0.00000000E+00  0.00000000E+00  0.00000000E+00
  0.00000000E+00  0.00000000E+00  0.00000000E+00
  0.00000000E+00  0.00000000E+00  0.00000000E+00
  0.00000000E+00  0.00000000E+00  0.00000000E+00
  0.00000000E+00  0.00000000E+00  0.00000000E+00
  0.00000000E+00  0.00000000E+00  0.00000000E+00
  0.00000000E+00  0.00000000E+00  0.00000000E+00
  0.00000000E+00  0.00000000E+00  0.00000000E+00
  0.00000000E+00  0.00000000E+00  0.00000000E+00
  0.00000000E+00  0.00000000E+00  0.00000000E+00
  0.00000000E+00  0.00000000E+00  0.00000000E+00
  0.00000000E+00  0.00000000E+00  0.00000000E+00
  0.00000000E+00  0.00000000E+00  0.00000000E+00
  0.00000000E+00  0.00000000E+00  0.00000000E+00
  0.00000000E+00  0.00000000E+00  0.00000000E+00
  0.00000000E+00  0.00000000E+00  0.00000000E+00
  0.00000000E+00  0.00000000E+00  0.00000000E+00
  0.00000000E+00  0.00000000E+00  0.00000000E+00
  0.00000000E+00  0.00000000E+00  0.00000000E+00
  0.00000000E+00  0.00000000E+00  0.00000000E+00
  0.00000000E+00  0.00000000E+00  0.00000000E+00
  0.00000000E+00  0.00000000E+00  0.00000000E+00
  0.00000000E+00  0.00000000E+00  0.00000000E+00
  0.00000000E+00  0.00000000E+00  0.00000000E+00
  0.00000000E+00  0.00000000E+00  0.00000000E+00
  0.00000000E+00  0.00000000E+00  0.00000000E+00
  0.00000000E+00  0.00000000E+00  0.00000000E+00
  0.00000000E+00  0.00000000E+00  0.00000000E+00
  0.00000000E+00  0.00000000E+00  0.00000000E+00
  0.00000000E+00  0.00000000E+00  0.00000000E+00
  0.00000000E+00  0.00000000E+00  0.00000000E+00
  0.00000000E+00  0.00000000E+00  0.00000000E+00
  0.00000000E+00  0.00000000E+00  0.00000000E+00
  0.00000000E+00  0.00000000E+00  0.00000000E+00
  0.00000000E+00  0.00000000E+00  0.00000000E+00
  0.00000000E+00  0.00000000E+00  0.00000000E+00
  0.00000000E+00  0.00000000E+00  0.00000000E+00
  0.00000000E+00  0.00000000E+00  0.00000000E+00
  0.00000000E+00  0.00000000E+00  0.00000000E+00
  0.00000000E+00  0.00000000E+00  0.00000000E+00
  0.00000000E+00  0.00000000E+00  0.00000000E+00
  0.00000000E+00  0.00000000E+00  0.00000000E+00
  0.00000000E+00  0.00000000E+00  0.00000000E+00
  0.00000000E+00  0.00000000E+00  0.00000000E+00
  0.00000000E+00  0.00000000E+00  0.00000000E+00
  0.00000000E+00  0.00000000E+00  0.00000000E+00
  0.00000000E+00  0.00000000E+00  0.00000000E+00
  0.00000000E+00  0.00000000E+00  0.00000000E+00
  0.00000000E+00  0.00000000E+00  0.00000000E+00
  0.00000000E+00  0.00000000E+00  0.00000000E+00
