CeO2-you-111-you-Ag                     
   1.00000000000000     
     9.8582940952841156   -5.6916891212466432   -0.0000000001264945
    -0.0085402156232054   11.3685841528536091   -0.0024443338986595
    -0.0027083124120834   -0.0046909339072592   21.1747678366137215
   O    Ag   Ce   H 
    53     1    26     2
Selective dynamics
Direct
  0.0000271680316446  0.0001681360767007  0.9961645126834248   T   T   T
  0.1052532485171085  0.2198843066128973  0.1490356331826916   F   F   F
  0.2395996554657807  0.1232119241814454  0.3056501842762692   T   T   T
  0.1162227447143411  0.2214060498210908  0.3847326802728950   T   T   T
  0.0048161683313693  0.0009234101201080  0.2292327807514910   T   T   T
  0.2225804721089233  0.1118279442177581  0.0751495065327816   F   F   F
  0.3338550421856080  0.0007101019583476  0.9963110265524732   T   T   T
  0.4479640580955504  0.2198843066126841  0.1490356331827059   F   F   F
  0.5520341849541065  0.1061567320551863  0.3040470614389795   T   T   T
  0.4603384770727686  0.1778766415989078  0.4129172291531090   T   T   T
  0.3309518115660965 -0.0022936297659218  0.2279366203447197   T   T   T
  0.5584148171069572  0.1107534247832760  0.0756232261836374   F   F   F
  0.6666784676547667  0.9997935321738415  0.9953284117975496   T   T   T
  0.7777747478627219  0.2222154957255071  0.1538870120895197   F   F   F
  0.8938963356770523  0.1103420725804029  0.3035799147765889   T   T   T
  0.7863386852639375  0.2123584354034880  0.3843232871699563   T   T   T
  0.6640651173257431  0.9920155656901871  0.2330118163765411   T   T   T
  0.8856726076764332  0.1107534247835105  0.0756232261836374   F   F   F
  0.0007624855032066  0.3333598735809093  0.9966555000646496   T   T   T
  0.1101946209889135  0.5546623315969370  0.1498127888534384   F   F   F
  0.2194949582310640  0.4577344559970289  0.3014130081047287   T   T   T
  0.1127226586748706  0.5602435491463342  0.3857494679930393   T   T   T
 -0.0003084055597835  0.3311442150908255  0.2293329174995772   T   T   T
  0.2234411531742140  0.4445881942009038  0.0764004692199762   F   F   F
  0.3333194166475508  0.3332653902423564  0.9963779480574774   T   T   T
  0.4472199189541897  0.5611078379086152  0.1496855912103641   F   F   F
  0.5251230720371477  0.4409485787682265  0.3264347112213094   T   T   T
  0.3338892008430522  0.3332983103210180  0.2193596752835872   T   T   T
  0.5544810410264631  0.4445881942006835  0.0764004692199691   F   F   F
  0.6662019793333733  0.3337724552378313  0.9967460808263908   T   T   T
  0.7778007106078135  0.5546623315967238  0.1498127888534526   F   F   F
  0.8954524942658240  0.4469406941904119  0.3048630677820046   T   T   T
  0.7900799802569755  0.5720524616417595  0.3852030235923574   T   T   T
  0.6617184101786299  0.3389477854338279  0.2323284930369215   T   T   T
  0.8876659147526809  0.4419978295054179  0.0766010987790580   F   F   F
  0.9995690672994307  0.6659156909953470  0.9969083945571448   T   T   T
  0.1105390224651970  0.8877450449300213  0.1479151441072517   F   F   F
  0.2202078061746419  0.7760667074305410  0.3015634434730303   T   T   T
  0.1158879648613386  0.8917333749426144  0.3819279157019385   T   T   T
  0.0000570531275721  0.6681896141719581  0.2282909248375436   T   T   T
  0.2232350960197351  0.7781649725244577  0.0748164739807677   F   F   F
  0.3326812989047009  0.6653879013987904  0.9964476428911573   T   T   T
  0.4460123585241291  0.8885825132071972  0.1490406183715152   F   F   F
  0.5480803701268741  0.7553580289090418  0.3129341683858579   T   T   T
  0.4411285941589902  0.8821605630298310  0.3811192086203856   T   T   T
  0.3377391918031627  0.6738994149527150  0.2276840758877310   T   T   T
  0.5559931443340176  0.7786522886680629  0.0747353170192184   F   F   F
  0.6663783805091871  0.6660350077658257  0.9962496905098248   T   T   T
  0.7759031546832773  0.8885825132075027  0.1490406183715081   F   F   F
  0.8944610499632799  0.7818563708142640  0.3018729466072418   T   T   T
  0.7845259062542441  0.8903765872295558  0.3827478311271951   T   T   T
  0.6681803815804882  0.6622567390056687  0.2312439078130331   T   T   T
  0.8882628765048821  0.7781649725244577  0.0748164739807748   F   F   F
  0.3193610539324237  0.3167298391110323  0.3557397024330723   T   T   T
  0.0095684550569865  0.0057626847323297  0.3422590914961965   T   T   T
  0.2225274367339338  0.1117218734688734  0.1890318616756304   F   F   F
  0.1107772653446517  0.2223417026223657  0.0365482199872389   F   F   F
  0.3344843728057638 -0.0036725679735861  0.3424957497230504   T   T   T
  0.5549697843787342  0.1103373803090193  0.1904270544491524   F   F   F
  0.4448974372777315  0.2223417026225150  0.0365482199872389   F   F   F
  0.6696394947582351 -0.0012818868777928  0.3449144901841781   T   T   T
  0.8887015959293620  0.1103373803080387  0.1904270544491666   F   F   F
  0.7776456618700607  0.2219573237400354  0.0365806481051862   F   F   F
  0.0033967818389480  0.3346698376293488  0.3424162919429907   T   T   T
  0.2245553174881962  0.4430615803347067  0.1900041496565947   F   F   F
  0.1108555129294189  0.5546897242497053  0.0367521756388740   F   F   F
  0.5518402628480032  0.4430615803354385  0.1900041496566089   F   F   F
  0.4443420954117059  0.5553521908232355  0.0354998511733839   F   F   F
  0.6675675500531214  0.3322935379298739  0.3500131833553226   T   T   T
  0.8892064808001052  0.4450789615998900  0.1915467937525364   F   F   F
  0.7771672113203962  0.5546897242499185  0.0367521756388811   F   F   F
  0.0016012617461527  0.6670735281192887  0.3432474505170324   T   T   T
  0.2217996618792952  0.7781560965902727  0.1871498303147092   F   F   F
  0.1113180458912808  0.8893030917827360  0.0351866533430822   F   F   F
  0.3223000782148851  0.6672192083891428  0.3385943701283635   T   T   T
  0.5551365505641073  0.7769391011280646  0.1887862966522036   F   F   F
  0.4454068263715030  0.8891160206756723  0.0353584749988087   F   F   F
  0.6831358470517107  0.6718654715758994  0.3416852357064287   T   T   T
  0.8896894347103697  0.7781560965900240  0.1871498303147092   F   F   F
  0.7770421943041157  0.8891160206756794  0.0353584749988016   F   F   F
  0.3621082433478118  0.4376379034867350  0.4029793105136895   T   T   T
  0.4334015581360896  0.1901728295207734  0.4547852808288934   T   T   T
 
  0.00000000E+00  0.00000000E+00  0.00000000E+00
  0.00000000E+00  0.00000000E+00  0.00000000E+00
  0.00000000E+00  0.00000000E+00  0.00000000E+00
  0.00000000E+00  0.00000000E+00  0.00000000E+00
  0.00000000E+00  0.00000000E+00  0.00000000E+00
  0.00000000E+00  0.00000000E+00  0.00000000E+00
  0.00000000E+00  0.00000000E+00  0.00000000E+00
  0.00000000E+00  0.00000000E+00  0.00000000E+00
  0.00000000E+00  0.00000000E+00  0.00000000E+00
  0.00000000E+00  0.00000000E+00  0.00000000E+00
  0.00000000E+00  0.00000000E+00  0.00000000E+00
  0.00000000E+00  0.00000000E+00  0.00000000E+00
  0.00000000E+00  0.00000000E+00  0.00000000E+00
  0.00000000E+00  0.00000000E+00  0.00000000E+00
  0.00000000E+00  0.00000000E+00  0.00000000E+00
  0.00000000E+00  0.00000000E+00  0.00000000E+00
  0.00000000E+00  0.00000000E+00  0.00000000E+00
  0.00000000E+00  0.00000000E+00  0.00000000E+00
  0.00000000E+00  0.00000000E+00  0.00000000E+00
  0.00000000E+00  0.00000000E+00  0.00000000E+00
  0.00000000E+00  0.00000000E+00  0.00000000E+00
  0.00000000E+00  0.00000000E+00  0.00000000E+00
  0.00000000E+00  0.00000000E+00  0.00000000E+00
  0.00000000E+00  0.00000000E+00  0.00000000E+00
  0.00000000E+00  0.00000000E+00  0.00000000E+00
  0.00000000E+00  0.00000000E+00  0.00000000E+00
  0.00000000E+00  0.00000000E+00  0.00000000E+00
  0.00000000E+00  0.00000000E+00  0.00000000E+00
  0.00000000E+00  0.00000000E+00  0.00000000E+00
  0.00000000E+00  0.00000000E+00  0.00000000E+00
  0.00000000E+00  0.00000000E+00  0.00000000E+00
  0.00000000E+00  0.00000000E+00  0.00000000E+00
  0.00000000E+00  0.00000000E+00  0.00000000E+00
  0.00000000E+00  0.00000000E+00  0.00000000E+00
  0.00000000E+00  0.00000000E+00  0.00000000E+00
  0.00000000E+00  0.00000000E+00  0.00000000E+00
  0.00000000E+00  0.00000000E+00  0.00000000E+00
  0.00000000E+00  0.00000000E+00  0.00000000E+00
  0.00000000E+00  0.00000000E+00  0.00000000E+00
  0.00000000E+00  0.00000000E+00  0.00000000E+00
  0.00000000E+00  0.00000000E+00  0.00000000E+00
  0.00000000E+00  0.00000000E+00  0.00000000E+00
  0.00000000E+00  0.00000000E+00  0.00000000E+00
  0.00000000E+00  0.00000000E+00  0.00000000E+00
  0.00000000E+00  0.00000000E+00  0.00000000E+00
  0.00000000E+00  0.00000000E+00  0.00000000E+00
  0.00000000E+00  0.00000000E+00  0.00000000E+00
  0.00000000E+00  0.00000000E+00  0.00000000E+00
  0.00000000E+00  0.00000000E+00  0.00000000E+00
  0.00000000E+00  0.00000000E+00  0.00000000E+00
  0.00000000E+00  0.00000000E+00  0.00000000E+00
  0.00000000E+00  0.00000000E+00  0.00000000E+00
  0.00000000E+00  0.00000000E+00  0.00000000E+00
  0.00000000E+00  0.00000000E+00  0.00000000E+00
  0.00000000E+00  0.00000000E+00  0.00000000E+00
  0.00000000E+00  0.00000000E+00  0.00000000E+00
  0.00000000E+00  0.00000000E+00  0.00000000E+00
  0.00000000E+00  0.00000000E+00  0.00000000E+00
  0.00000000E+00  0.00000000E+00  0.00000000E+00
  0.00000000E+00  0.00000000E+00  0.00000000E+00
  0.00000000E+00  0.00000000E+00  0.00000000E+00
  0.00000000E+00  0.00000000E+00  0.00000000E+00
  0.00000000E+00  0.00000000E+00  0.00000000E+00
  0.00000000E+00  0.00000000E+00  0.00000000E+00
  0.00000000E+00  0.00000000E+00  0.00000000E+00
  0.00000000E+00  0.00000000E+00  0.00000000E+00
  0.00000000E+00  0.00000000E+00  0.00000000E+00
  0.00000000E+00  0.00000000E+00  0.00000000E+00
  0.00000000E+00  0.00000000E+00  0.00000000E+00
  0.00000000E+00  0.00000000E+00  0.00000000E+00
  0.00000000E+00  0.00000000E+00  0.00000000E+00
  0.00000000E+00  0.00000000E+00  0.00000000E+00
  0.00000000E+00  0.00000000E+00  0.00000000E+00
  0.00000000E+00  0.00000000E+00  0.00000000E+00
  0.00000000E+00  0.00000000E+00  0.00000000E+00
  0.00000000E+00  0.00000000E+00  0.00000000E+00
  0.00000000E+00  0.00000000E+00  0.00000000E+00
  0.00000000E+00  0.00000000E+00  0.00000000E+00
  0.00000000E+00  0.00000000E+00  0.00000000E+00
  0.00000000E+00  0.00000000E+00  0.00000000E+00
  0.00000000E+00  0.00000000E+00  0.00000000E+00
  0.00000000E+00  0.00000000E+00  0.00000000E+00
