CeO2-you-111-you-Mo                     
   1.00000000000000     
     9.9059185507015428   -5.7212532296641152   -0.0230118922262670
    -0.0017910490466321   11.4394022578460159    0.0230118882484359
    -0.0263015096193510    0.0455555481336310   19.9394090318852939
   O    Mo   Ce   H 
    53     1    26     2
Selective dynamics
Direct
  0.9992105815495679  0.0001541899642333  0.9850386502235733   T   T   T
  0.1162145104725951  0.2243099266579094  0.1470724173714828   F   F   F
  0.2617778284450001  0.1421489067382181  0.3146683020808498   T   T   T
  0.1587797978154745  0.2634276312699864  0.3723878217153342   T   T   T
  0.0065906460546845  0.0002320148250854  0.2332933913250272   T   T   T
  0.2211719946710602  0.1098055171482528  0.0682517819103481   F   F   F
  0.3355979593653731  0.0019287994475251  0.9868843487865788   T   T   T
  0.4377717074145124  0.2288942925849327  0.1512870348242714   F   F   F
  0.5595149710134519  0.1160419099533112  0.3111240763987208   T   T   T
  0.4473079194413526  0.2308409071284520  0.4129908720420508   T   T   T
  0.3331408209776884  0.9982068148827390  0.2287115076778398   T   T   T
  0.5543472666848075  0.1123197333154025  0.0739638617868650   F   F   F
  0.6652763099216010  0.0016401670966610  0.9884681453286096   T   T   T
  0.7849106979931335  0.2231677316710972  0.1505248417781786   F   F   F
  0.8902350671180970  0.1043291751049414  0.3120472663677088   T   T   T
  0.7716114012112046  0.2181302484543575  0.3979712098827232   T   T   T
  0.6687381657911292  0.0015721625603929  0.2316759252129182   T   T   T
  0.8910214156491847  0.1113218202267490  0.0699541166715960   F   F   F
  0.9968404948482759  0.3317928955827462  0.9859224906296762   T   T   T
  0.1107848871759671  0.5558821128236886  0.1442774158106630   F   F   F
  0.1066117323186813  0.5603414102545671  0.3951679154722691   T   T   T
  0.0129052013073990  0.3402800935824374  0.2352817548219371   T   T   T
  0.2215533605082882  0.4451126394911213  0.0659181955844019   F   F   F
  0.3337632255860559  0.3330029824280500  0.9859637358138408   T   T   T
  0.4423560733472058  0.5504524895297465  0.1470724173718807   F   F   F
  0.5294017625762052  0.4037693314377081  0.3151293891891939   T   T   T
  0.3945156087462374  0.5008194037386416  0.3689293248073545   T   T   T
  0.3222399100211140  0.3458040010340169  0.2351436947518767   T   T   T
  0.5568614828507776  0.4454940053278662  0.0682517819105684   F   F   F
  0.6648247497170705  0.3308404563104709  0.9870173747940389   T   T   T
  0.7777647052344321  0.5554687123596551  0.1463791084703914   F   F   F
  0.8871456620899657  0.4453631572544139  0.3078128722514924   T   T   T
  0.7799653107927270  0.5442475293584450  0.3944197988941304   T   T   T
  0.6697237136315602  0.3347125287641432  0.2299609398223145   T   T   T
  0.8880793181643440  0.4441982879855004  0.0684992375266660   F   F   F
  0.9998074846718799  0.6675123740962582  0.9847475629969521   T   T   T
  0.1111982876398230  0.8889022947637812  0.1463791084703416   F   F   F
  0.2168538161959997  0.7777396988251949  0.3089388735966287   T   T   T
  0.0978178985898306  0.8887305599296470  0.3949454956867289   T   T   T
 -0.0009197479448409  0.6656717830305832  0.2287873331929776   T   T   T
  0.2224677120129499  0.7785876818341961  0.0684992375266233   F   F   F
  0.3343429006096657  0.6697351354067363  0.9858113636934467   T   T   T
  0.4434982683296482  0.8817563020076804  0.1505248417781573   F   F   F
  0.5615922040665380  0.7816639773518214  0.3102676069959497   T   T   T
  0.4610951340285439  0.8940326622719965  0.4007625304299554   T   T   T
  0.3257795384131741  0.6543023975815753  0.2345177852067583   T   T   T
  0.5553451797738802  0.7756455843508760  0.0699541166717665   F   F   F
  0.6668839537407506  0.6679394845573147  0.9854070954148494   T   T   T
  0.7774299366892237  0.8892370633111355  0.1474071925852130   F   F   F
  0.8888823141949936  0.7764825038335774  0.3077873382296156   T   T   T
  0.7883696464091869  0.8934492731030623  0.3977102391274367   T   T   T
  0.6656122084788466  0.6595659639946559  0.2310992214913380   T   T   T
  0.8887989112645087  0.7778680887357012  0.0676993542514310   F   F   F
  0.3424245575993708  0.3186267327052867  0.3597491462975970   T   T   T
  0.9927831457572474  0.9886563238338067  0.3510086471857535   T   T   T
  0.2204391029512180  0.1070138035425288  0.1901041438495241   F   F   F
  0.1100536703343593  0.2205070494083685  0.0262605511511609   F   F   F
  0.3338944870714526  0.9925583838394959  0.3561010938771133   T   T   T
  0.5560652256549403  0.1106017743460228  0.1932341011917842   F   F   F
  0.4441007608465455  0.2225652391559834  0.0289590155246060   F   F   F
  0.6684981525569980  0.9967411005631505  0.3540286920215165   T   T   T
  0.8914321147753057  0.1117585976331341  0.1919953882560321   F   F   F
  0.7779467359035124  0.2224444465463833  0.0298895824747802   F   F   F
  0.9932920205564817  0.3336829880445322  0.3576409001737973   T   T   T
  0.2199732373753065  0.4466927626171397  0.1813614688270349   F   F   F
  0.1098650990588439  0.5568019009389502  0.0252927488780728   F   F   F
  0.5596531964562246  0.4462268970516874  0.1901041438484512   F   F   F
  0.4461589505930519  0.5566133296656233  0.0262605511509122   F   F   F
  0.6771702458991147  0.3333111752491812  0.3511486854297162   T   T   T
  0.8903263326853335  0.4443507991620734  0.1909109942078970   F   F   F
  0.7768030206097905  0.5543637583289893  0.0269028809196001   F   F   F
 -0.0005467613821640  0.6649792203975988  0.3516524212805292   T   T   T
  0.2223152008417060  0.7763406673203121  0.1909109942075489   F   F   F
  0.1123032416721657  0.8898639793898298  0.0269028809193514   F   F   F
  0.3349981532273666  0.6772735147279286  0.3565724073006401   T   T   T
  0.5549084023583788  0.7752348852249469  0.1919953882552363   F   F   F
  0.4442215534526923  0.8887202640966052  0.0298895824749223   F   F   F
  0.6669156695079291  0.6611683475798739  0.3524575446901684   T   T   T
  0.8898542185897327  0.7768127814103636  0.1859085863843504   F   F   F
  0.7772584431244667  0.8894085568760346  0.0284716120583894   F   F   F
  0.3319061685183659  0.3262357388384312  0.4444135892797511   T   T   T
  0.4373451043061428  0.2422290656883270  0.4604997143497462   T   T   T
 
  0.00000000E+00  0.00000000E+00  0.00000000E+00
  0.00000000E+00  0.00000000E+00  0.00000000E+00
  0.00000000E+00  0.00000000E+00  0.00000000E+00
  0.00000000E+00  0.00000000E+00  0.00000000E+00
  0.00000000E+00  0.00000000E+00  0.00000000E+00
  0.00000000E+00  0.00000000E+00  0.00000000E+00
  0.00000000E+00  0.00000000E+00  0.00000000E+00
  0.00000000E+00  0.00000000E+00  0.00000000E+00
  0.00000000E+00  0.00000000E+00  0.00000000E+00
  0.00000000E+00  0.00000000E+00  0.00000000E+00
  0.00000000E+00  0.00000000E+00  0.00000000E+00
  0.00000000E+00  0.00000000E+00  0.00000000E+00
  0.00000000E+00  0.00000000E+00  0.00000000E+00
  0.00000000E+00  0.00000000E+00  0.00000000E+00
  0.00000000E+00  0.00000000E+00  0.00000000E+00
  0.00000000E+00  0.00000000E+00  0.00000000E+00
  0.00000000E+00  0.00000000E+00  0.00000000E+00
  0.00000000E+00  0.00000000E+00  0.00000000E+00
  0.00000000E+00  0.00000000E+00  0.00000000E+00
  0.00000000E+00  0.00000000E+00  0.00000000E+00
  0.00000000E+00  0.00000000E+00  0.00000000E+00
  0.00000000E+00  0.00000000E+00  0.00000000E+00
  0.00000000E+00  0.00000000E+00  0.00000000E+00
  0.00000000E+00  0.00000000E+00  0.00000000E+00
  0.00000000E+00  0.00000000E+00  0.00000000E+00
  0.00000000E+00  0.00000000E+00  0.00000000E+00
  0.00000000E+00  0.00000000E+00  0.00000000E+00
  0.00000000E+00  0.00000000E+00  0.00000000E+00
  0.00000000E+00  0.00000000E+00  0.00000000E+00
  0.00000000E+00  0.00000000E+00  0.00000000E+00
  0.00000000E+00  0.00000000E+00  0.00000000E+00
  0.00000000E+00  0.00000000E+00  0.00000000E+00
  0.00000000E+00  0.00000000E+00  0.00000000E+00
  0.00000000E+00  0.00000000E+00  0.00000000E+00
  0.00000000E+00  0.00000000E+00  0.00000000E+00
  0.00000000E+00  0.00000000E+00  0.00000000E+00
  0.00000000E+00  0.00000000E+00  0.00000000E+00
  0.00000000E+00  0.00000000E+00  0.00000000E+00
  0.00000000E+00  0.00000000E+00  0.00000000E+00
  0.00000000E+00  0.00000000E+00  0.00000000E+00
  0.00000000E+00  0.00000000E+00  0.00000000E+00
  0.00000000E+00  0.00000000E+00  0.00000000E+00
  0.00000000E+00  0.00000000E+00  0.00000000E+00
  0.00000000E+00  0.00000000E+00  0.00000000E+00
  0.00000000E+00  0.00000000E+00  0.00000000E+00
  0.00000000E+00  0.00000000E+00  0.00000000E+00
  0.00000000E+00  0.00000000E+00  0.00000000E+00
  0.00000000E+00  0.00000000E+00  0.00000000E+00
  0.00000000E+00  0.00000000E+00  0.00000000E+00
  0.00000000E+00  0.00000000E+00  0.00000000E+00
  0.00000000E+00  0.00000000E+00  0.00000000E+00
  0.00000000E+00  0.00000000E+00  0.00000000E+00
  0.00000000E+00  0.00000000E+00  0.00000000E+00
  0.00000000E+00  0.00000000E+00  0.00000000E+00
  0.00000000E+00  0.00000000E+00  0.00000000E+00
  0.00000000E+00  0.00000000E+00  0.00000000E+00
  0.00000000E+00  0.00000000E+00  0.00000000E+00
  0.00000000E+00  0.00000000E+00  0.00000000E+00
  0.00000000E+00  0.00000000E+00  0.00000000E+00
  0.00000000E+00  0.00000000E+00  0.00000000E+00
  0.00000000E+00  0.00000000E+00  0.00000000E+00
  0.00000000E+00  0.00000000E+00  0.00000000E+00
  0.00000000E+00  0.00000000E+00  0.00000000E+00
  0.00000000E+00  0.00000000E+00  0.00000000E+00
  0.00000000E+00  0.00000000E+00  0.00000000E+00
  0.00000000E+00  0.00000000E+00  0.00000000E+00
  0.00000000E+00  0.00000000E+00  0.00000000E+00
  0.00000000E+00  0.00000000E+00  0.00000000E+00
  0.00000000E+00  0.00000000E+00  0.00000000E+00
  0.00000000E+00  0.00000000E+00  0.00000000E+00
  0.00000000E+00  0.00000000E+00  0.00000000E+00
  0.00000000E+00  0.00000000E+00  0.00000000E+00
  0.00000000E+00  0.00000000E+00  0.00000000E+00
  0.00000000E+00  0.00000000E+00  0.00000000E+00
  0.00000000E+00  0.00000000E+00  0.00000000E+00
  0.00000000E+00  0.00000000E+00  0.00000000E+00
  0.00000000E+00  0.00000000E+00  0.00000000E+00
  0.00000000E+00  0.00000000E+00  0.00000000E+00
  0.00000000E+00  0.00000000E+00  0.00000000E+00
  0.00000000E+00  0.00000000E+00  0.00000000E+00
  0.00000000E+00  0.00000000E+00  0.00000000E+00
  0.00000000E+00  0.00000000E+00  0.00000000E+00
