CeO2-you-111-you-Nb                     
   1.00000000000000     
     9.8785384935704208   -5.6895714531972557   -0.0163022250235876
     0.0119561460113382   11.3998495547891121    0.0163022222147260
    -0.0180484713549104    0.0312608674732001   20.8988297668117013
   O    Nb   Ce   H 
    53     1    26     2
Selective dynamics
Direct
 -0.0004310036332351  0.0000483442576541  0.9948671117087328   T   T   T
  0.1097974982090832  0.2137732990996213  0.1484924324930077   F   F   F
  0.2468149828445197  0.1343557623728807  0.3074451822190735   T   T   T
  0.1529449614861060  0.2649953631091695  0.3671979001652677   T   T   T
  0.0039900192632457 -0.0004646627326685  0.2316761757445251   T   T   T
  0.2233665161573271  0.1092641645720533  0.0735395886530199   F   F   F
  0.3348193435810695  0.0005231612486040  0.9941674891106033   T   T   T
  0.4400281894222502  0.2266378105762286  0.1522255995929527   F   F   F
  0.5592797030012193  0.1169682157634095  0.3038120919197835   T   T   T
  0.4485755398646882  0.2314743557338150  0.3985376729256274   T   T   T
  0.3330919497420535  0.9980409965146776  0.2265213180991588   T   T   T
  0.5544692613890447  0.1121977386109521  0.0767575835659215   F   F   F
  0.6662235277403160  0.0007220172733479  0.9956332671298489   T   T   T
  0.7811486184553686  0.2222246225461433  0.1507331611471514   F   F   F
  0.8889964964255378  0.1051873692392980  0.3073000028530538   T   T   T
  0.7671398937621318  0.2185745704363774  0.3883879842479037   T   T   T
  0.6675093772493845  0.0001414071286220  0.2300448428745655   T   T   T
  0.8890189930821748  0.1104892403790032  0.0750756312327638   F   F   F
  0.9979906457438142  0.3319710534448405  0.9947400975017053   T   T   T
  0.1072863618988933  0.5593806381014019  0.1465272912770530   F   F   F
  0.1047857397177241  0.5618445818656693  0.3871254530403240   T   T   T
  0.0146788392304811  0.3417284822770832  0.2327192297561576   T   T   T
  0.2224036024815845  0.4442623975182158  0.0702529926929643   F   F   F
  0.3334123909598131  0.3319876368708865  0.9946077522314919   T   T   T
  0.4528927009009465  0.5568695017921215  0.1484924324930219   F   F   F
  0.5421858001819519  0.4199834016599355  0.3053559912537455   T   T   T
  0.4082683303318055  0.5130903326586306  0.3634562655142471   T   T   T
  0.3222347263080044  0.3469364240696399  0.2310066466888935   T   T   T
  0.5574028354277161  0.4432994838418267  0.0735395886530412   F   F   F
  0.6662225187052948  0.3319019029516973  0.9940642017399642   T   T   T
  0.7781462524330820  0.5556453419760103  0.1495671728430708   F   F   F
  0.8852543629417781  0.4473131615630994  0.3032469085712288   T   T   T
  0.7720940122646337  0.5563012520499727  0.3825342068385638   T   T   T
  0.6701983477864213  0.3340499779181154  0.2269136269488743   T   T   T
  0.8866987499339842  0.4430086445697725  0.0736931008080361   F   F   F
 -0.0003143490099069  0.6669752213313035  0.9944786518183690   T   T   T
  0.1110216580233612  0.8885207475669858  0.1495671728431063   F   F   F
  0.2170229259205967  0.7770505070135705  0.3033095432120791   T   T   T
  0.0970254554608954  0.8883934318412783  0.3853643814798894   T   T   T
 -0.0008590023792713  0.6666065266509724  0.2285131257984808   T   T   T
  0.2236573554301060  0.7799682500661476  0.0736931008081001   F   F   F
  0.3343559226099327  0.6682769174044403  0.9944634851398733   T   T   T
  0.4444413774536002  0.8855183815457508  0.1507331611470804   F   F   F
  0.5624597883167651  0.7769289155279091  0.3050563143279523   T   T   T
  0.4623061367050617  0.8948574441224009  0.3899432929288269   T   T   T
  0.3254359769514036  0.6514508804471073  0.2320674097615614   T   T   T
  0.5561777596209865  0.7776480069182483  0.0750756312327638   F   F   F
  0.6668245548889850  0.6676497035984997  0.9947423183745612   T   T   T
  0.7768908553353029  0.8897761446657810  0.1511816242796229   F   F   F
  0.8869104132407083  0.7774230825427448  0.3024811610989892   T   T   T
  0.7809928973780897  0.8817179271715662  0.3853211406133890   T   T   T
  0.6665655016262331  0.6618414212703586  0.2309299450592090   T   T   T
  0.8886453057548991  0.7780216942450693  0.0744106141239556   F   F   F
  0.3375494772688702  0.3230670517107964  0.3538521696574639   T   T   T
 -0.0007320800059735  0.9954538145244211  0.3427339064687525   T   T   T
  0.2203096807894482  0.1076220677132724  0.1893329077075734   F   F   F
  0.1100522339342263  0.2202500689788138  0.0339551806792358   F   F   F
  0.3329704897403968  0.9958951196211125  0.3462089000463597   T   T   T
  0.5555056057166041  0.1111613942822629  0.1899808585872620   F   F   F
  0.4443060627468967  0.2223599372541898  0.0342425868798628   F   F   F
  0.6671180983074922  0.9981318323924855  0.3461970386764063   T   T   T
  0.8905140934812223  0.1122882032938932  0.1917062151582059   F   F   F
  0.7779192272140918  0.2222455904392859  0.0351422418553540   F   F   F
  0.9897569295718849  0.3342560920778083  0.3519067292277357   T   T   T
  0.2217543334613623  0.4449116665366688  0.1836168649927075   F   F   F
  0.1104404387963527  0.5562265612005746  0.0334914126192345   F   F   F
  0.5590449322828306  0.4463563192145372  0.1893329077069836   F   F   F
  0.4464159310248306  0.5566147660658558  0.0339551806793423   F   F   F
  0.6718913354059313  0.3340088756453313  0.3412597191954179   T   T   T
  0.8909416761266229  0.4441956531106754  0.1901347917914293   F   F   F
  0.7773030810590882  0.5546402934837005  0.0341724416260476   F   F   F
  0.0005959351986324  0.6678207528709945  0.3439992422023554   T   T   T
  0.2224703468943545  0.7757253238752355  0.1901347917914293   F   F   F
  0.1120267065165947  0.8893639189406528  0.0341724416261542   F   F   F
  0.3342430251947903  0.6758592492520656  0.3510965823633200   T   T   T
  0.5543787967010942  0.7761529065181634  0.1917062151578435   F   F   F
  0.4444204095610047  0.8887477727847681  0.0351422418553184   F   F   F
  0.6678635959634337  0.6636174353435647  0.3414438430718938   T   T   T
  0.8895952005870384  0.7770717994128020  0.1881876199573114   F   F   F
  0.7771498373516721  0.8895171626484171  0.0358540890499057   F   F   F
  0.3337824136721737  0.3257035296940843  0.4398252149275739   T   T   T
  0.4379386490190523  0.2487899804022020  0.4432365945848050   T   T   T
 
  0.00000000E+00  0.00000000E+00  0.00000000E+00
  0.00000000E+00  0.00000000E+00  0.00000000E+00
  0.00000000E+00  0.00000000E+00  0.00000000E+00
  0.00000000E+00  0.00000000E+00  0.00000000E+00
  0.00000000E+00  0.00000000E+00  0.00000000E+00
  0.00000000E+00  0.00000000E+00  0.00000000E+00
  0.00000000E+00  0.00000000E+00  0.00000000E+00
  0.00000000E+00  0.00000000E+00  0.00000000E+00
  0.00000000E+00  0.00000000E+00  0.00000000E+00
  0.00000000E+00  0.00000000E+00  0.00000000E+00
  0.00000000E+00  0.00000000E+00  0.00000000E+00
  0.00000000E+00  0.00000000E+00  0.00000000E+00
  0.00000000E+00  0.00000000E+00  0.00000000E+00
  0.00000000E+00  0.00000000E+00  0.00000000E+00
  0.00000000E+00  0.00000000E+00  0.00000000E+00
  0.00000000E+00  0.00000000E+00  0.00000000E+00
  0.00000000E+00  0.00000000E+00  0.00000000E+00
  0.00000000E+00  0.00000000E+00  0.00000000E+00
  0.00000000E+00  0.00000000E+00  0.00000000E+00
  0.00000000E+00  0.00000000E+00  0.00000000E+00
  0.00000000E+00  0.00000000E+00  0.00000000E+00
  0.00000000E+00  0.00000000E+00  0.00000000E+00
  0.00000000E+00  0.00000000E+00  0.00000000E+00
  0.00000000E+00  0.00000000E+00  0.00000000E+00
  0.00000000E+00  0.00000000E+00  0.00000000E+00
  0.00000000E+00  0.00000000E+00  0.00000000E+00
  0.00000000E+00  0.00000000E+00  0.00000000E+00
  0.00000000E+00  0.00000000E+00  0.00000000E+00
  0.00000000E+00  0.00000000E+00  0.00000000E+00
  0.00000000E+00  0.00000000E+00  0.00000000E+00
  0.00000000E+00  0.00000000E+00  0.00000000E+00
  0.00000000E+00  0.00000000E+00  0.00000000E+00
  0.00000000E+00  0.00000000E+00  0.00000000E+00
  0.00000000E+00  0.00000000E+00  0.00000000E+00
  0.00000000E+00  0.00000000E+00  0.00000000E+00
  0.00000000E+00  0.00000000E+00  0.00000000E+00
  0.00000000E+00  0.00000000E+00  0.00000000E+00
  0.00000000E+00  0.00000000E+00  0.00000000E+00
  0.00000000E+00  0.00000000E+00  0.00000000E+00
  0.00000000E+00  0.00000000E+00  0.00000000E+00
  0.00000000E+00  0.00000000E+00  0.00000000E+00
  0.00000000E+00  0.00000000E+00  0.00000000E+00
  0.00000000E+00  0.00000000E+00  0.00000000E+00
  0.00000000E+00  0.00000000E+00  0.00000000E+00
  0.00000000E+00  0.00000000E+00  0.00000000E+00
  0.00000000E+00  0.00000000E+00  0.00000000E+00
  0.00000000E+00  0.00000000E+00  0.00000000E+00
  0.00000000E+00  0.00000000E+00  0.00000000E+00
  0.00000000E+00  0.00000000E+00  0.00000000E+00
  0.00000000E+00  0.00000000E+00  0.00000000E+00
  0.00000000E+00  0.00000000E+00  0.00000000E+00
  0.00000000E+00  0.00000000E+00  0.00000000E+00
  0.00000000E+00  0.00000000E+00  0.00000000E+00
  0.00000000E+00  0.00000000E+00  0.00000000E+00
  0.00000000E+00  0.00000000E+00  0.00000000E+00
  0.00000000E+00  0.00000000E+00  0.00000000E+00
  0.00000000E+00  0.00000000E+00  0.00000000E+00
  0.00000000E+00  0.00000000E+00  0.00000000E+00
  0.00000000E+00  0.00000000E+00  0.00000000E+00
  0.00000000E+00  0.00000000E+00  0.00000000E+00
  0.00000000E+00  0.00000000E+00  0.00000000E+00
  0.00000000E+00  0.00000000E+00  0.00000000E+00
  0.00000000E+00  0.00000000E+00  0.00000000E+00
  0.00000000E+00  0.00000000E+00  0.00000000E+00
  0.00000000E+00  0.00000000E+00  0.00000000E+00
  0.00000000E+00  0.00000000E+00  0.00000000E+00
  0.00000000E+00  0.00000000E+00  0.00000000E+00
  0.00000000E+00  0.00000000E+00  0.00000000E+00
  0.00000000E+00  0.00000000E+00  0.00000000E+00
  0.00000000E+00  0.00000000E+00  0.00000000E+00
  0.00000000E+00  0.00000000E+00  0.00000000E+00
  0.00000000E+00  0.00000000E+00  0.00000000E+00
  0.00000000E+00  0.00000000E+00  0.00000000E+00
  0.00000000E+00  0.00000000E+00  0.00000000E+00
  0.00000000E+00  0.00000000E+00  0.00000000E+00
  0.00000000E+00  0.00000000E+00  0.00000000E+00
  0.00000000E+00  0.00000000E+00  0.00000000E+00
  0.00000000E+00  0.00000000E+00  0.00000000E+00
  0.00000000E+00  0.00000000E+00  0.00000000E+00
  0.00000000E+00  0.00000000E+00  0.00000000E+00
  0.00000000E+00  0.00000000E+00  0.00000000E+00
  0.00000000E+00  0.00000000E+00  0.00000000E+00
