CeO2-you-111-you-Cr                     
   1.00000000000000     
     9.8344047641525556   -5.6950953211830591    0.0293028764663970
     0.0000000016193329   11.3901886407394457   -0.0000000034013756
     0.0640122589146498   -0.0000000064823737   20.8403983577812362
   O    Cr   Ce   H 
    53     1    26     2
Selective dynamics
Direct
  0.9996269481934428  0.0007905155742655  0.9947354552306656   T   T   T
  0.1204185694477644  0.2268757847235463  0.1518952922766417   F   F   F
  0.2201892303213669  0.1091440672522316  0.3049890275526208   T   T   T
  0.1154384234941022  0.2241402089363157  0.3817190010776135   T   T   T
  0.9973272497738946 -0.0005840391985148  0.2285891821806703   T   T   T
  0.2219952832282743  0.1101843423613147  0.0732654244439033   F   F   F
  0.3345610669517523 -0.0000782585945827  0.9936514925547990   T   T   T
  0.4417426255767012  0.2227988709695268  0.1491327529876685   F   F   F
  0.5454452529805383  0.1053405087700024  0.3098208362634822   T   T   T
  0.4272420205958314  0.2594822116755089  0.3830726716484332   T   T   T
  0.3320175811264772  0.9972198266914832  0.2296455946069731   T   T   T
  0.5547181809995934  0.1118557823622766  0.0746599483660972   F   F   F
  0.6696824629684771  0.0011709233802726  0.9955971015580762   T   T   T
  0.7728994110121974  0.2240988804432220  0.1516672373264996   F   F   F
  0.8885972682786015  0.1109010806157878  0.3044187006768786   T   T   T
  0.7809134511101181  0.2152936574226200  0.3893440616481716   T   T   T
  0.6655173817906556  0.0015657449588123  0.2310413524791765   T   T   T
  0.8900495286891044  0.1116912643442802  0.0778614337379437   F   F   F
  0.9988299711880441  0.3310594449566603  0.9947728247149030   T   T   T
  0.1106294643025123  0.5549550452539975  0.1499105418335418   F   F   F
  0.2155549948715430  0.4324338805850833  0.3064576670234025   T   T   T
  0.1147509972113066  0.5562226481521790  0.3859171598393164   T   T   T
  0.9973179278131040  0.3318663039547100  0.2286917189517898   T   T   T
  0.2219952832279475  0.4451439408657478  0.0732654244439672   F   F   F
  0.3332122481468964  0.3334552056601285  0.9934343291422404   T   T   T
  0.4417426255733830  0.5522777546104081  0.1491327529872635   F   F   F
  0.4336847372327857  0.5181004342926583  0.3648176774417191   T   T   T
  0.3478325685330255  0.3410204020910546  0.2331658817294248   T   T   T
  0.5557152544608144  0.4445236272312769  0.0726011751578781   F   F   F
  0.6685423446755453  0.3336861872261755  0.9938380780273778   T   T   T
  0.7775215166110243  0.5554277583048375  0.1474597341215258   F   F   F
  0.8950206226004506  0.4444558582755975  0.3052838480285180   T   T   T
  0.7864912698696224  0.5593021871500663  0.3876068432948748   T   T   T
  0.6593581313579512  0.3405114892965697  0.2357269836806440   T   T   T
  0.8900168632594472  0.4447211595099816  0.0742740019578605   F   F   F
  0.0017022488261052  0.6674810738434366  0.9937769652950526   T   T   T
  0.1106294643002954  0.8890084190457799  0.1499105418334921   F   F   F
  0.2212536921259934  0.7756557243575103  0.3038351733505890   T   T   T
  0.1151494815034399  0.8876456638786109  0.3876229741719552   T   T   T
  0.9981030155496404  0.6655646154150732  0.2294578811883562   T   T   T
  0.2229831527753490  0.7781585763871846  0.0741892030503521   F   F   F
  0.3343074174359329  0.6677601358752164  0.9935528685776324   T   T   T
  0.4471270480650134  0.8902305240325461  0.1498686896844887   F   F   F
  0.5518504378968559  0.7810163597211321  0.3068341129930170   T   T   T
  0.4344331293506234  0.8804074929640489  0.3878740387851133   T   T   T
  0.3313321204414416  0.6643715155049228  0.2308744768441685   T   T   T
  0.5547181809999202  0.7761953986385208  0.0746599483662891   F   F   F
  0.6688897150604813  0.6688268597146205  0.9941789892751679   T   T   T
  0.7728994110091350  0.8821335305674651  0.1516672373265990   F   F   F
  0.8975221231783561  0.7846137250552409  0.3054932312966486   T   T   T
  0.7828626954959044  0.9019749801427397  0.3890532940650291   T   T   T
  0.6609131331119825  0.6528108498534604  0.2348020360316657   T   T   T
  0.8900168632597598  0.7786287037494830  0.0742740019578108   F   F   F
  0.3005992316854644  0.3367413998880824  0.3508920630661147   T   T   T
  0.0034340406417819  0.0030414208409293  0.3441247513029273   T   T   T
  0.2209211818171610  0.1088289018672981  0.1908877929846042   F   F   F
  0.1122229903486058  0.2227779951743756  0.0350498289977565   F   F   F
  0.3242499204740207  0.9910268630311915  0.3433818209120473   T   T   T
  0.5550041303299906  0.1120867975237090  0.1921981124109067   F   F   F
  0.4444016873622942  0.2212405301183225  0.0331784194224127   F   F   F
  0.6639938589847112 -0.0018459456836756  0.3476435868412878   T   T   T
  0.8881386056692122  0.1107358028362384  0.1911058860017718   F   F   F
  0.7782305995452816  0.2229791795130751  0.0355687700993315   F   F   F
 -0.0016093492852792  0.3307366455431867  0.3452703752111915   T   T   T
  0.2209211818183334  0.4454252799466261  0.1908877929847250   F   F   F
  0.1115558935353960  0.5552421311027445  0.0341637872513516   F   F   F
  0.5544717004266602  0.4439018502102812  0.1845517022596610   F   F   F
  0.4444016873619887  0.5564951572434538  0.0331784194225264   F   F   F
  0.6755718039347418  0.3321037851781558  0.3519117112384888   T   T   T
  0.8868847680955767  0.4448496271272617  0.1912963042280182   F   F   F
  0.7799418819010882  0.5566379409500186  0.0332073878035217   F   F   F
 -0.0008830245406096  0.6653104741320418  0.3463406404612571   T   T   T
  0.2214579831501240  0.7773959915771442  0.1883974260270449   F   F   F
  0.1115558935352041  0.8896477624346772  0.0341637872513871   F   F   F
  0.3299928578856048  0.6616346208883189  0.3441506235062802   T   T   T
  0.5550041303365134  0.7762503328053896  0.1921981124109848   F   F   F
  0.4461698550394715  0.8897519275195265  0.0349711882026043   F   F   F
  0.6738924138388876  0.6765415270731814  0.3522964719912666   T   T   T
  0.8868847681030871  0.7753681409797579  0.1912963042281675   F   F   F
  0.7782305995466530  0.8885844200326716  0.0355687700996299   F   F   F
  0.3006275083055759  0.3515924894200682  0.4253619466728226   T   T   T
  0.4230111059460700  0.2768005753267518  0.4286730925784360   T   T   T
 
  0.00000000E+00  0.00000000E+00  0.00000000E+00
  0.00000000E+00  0.00000000E+00  0.00000000E+00
  0.00000000E+00  0.00000000E+00  0.00000000E+00
  0.00000000E+00  0.00000000E+00  0.00000000E+00
  0.00000000E+00  0.00000000E+00  0.00000000E+00
  0.00000000E+00  0.00000000E+00  0.00000000E+00
  0.00000000E+00  0.00000000E+00  0.00000000E+00
  0.00000000E+00  0.00000000E+00  0.00000000E+00
  0.00000000E+00  0.00000000E+00  0.00000000E+00
  0.00000000E+00  0.00000000E+00  0.00000000E+00
  0.00000000E+00  0.00000000E+00  0.00000000E+00
  0.00000000E+00  0.00000000E+00  0.00000000E+00
  0.00000000E+00  0.00000000E+00  0.00000000E+00
  0.00000000E+00  0.00000000E+00  0.00000000E+00
  0.00000000E+00  0.00000000E+00  0.00000000E+00
  0.00000000E+00  0.00000000E+00  0.00000000E+00
  0.00000000E+00  0.00000000E+00  0.00000000E+00
  0.00000000E+00  0.00000000E+00  0.00000000E+00
  0.00000000E+00  0.00000000E+00  0.00000000E+00
  0.00000000E+00  0.00000000E+00  0.00000000E+00
  0.00000000E+00  0.00000000E+00  0.00000000E+00
  0.00000000E+00  0.00000000E+00  0.00000000E+00
  0.00000000E+00  0.00000000E+00  0.00000000E+00
  0.00000000E+00  0.00000000E+00  0.00000000E+00
  0.00000000E+00  0.00000000E+00  0.00000000E+00
  0.00000000E+00  0.00000000E+00  0.00000000E+00
  0.00000000E+00  0.00000000E+00  0.00000000E+00
  0.00000000E+00  0.00000000E+00  0.00000000E+00
  0.00000000E+00  0.00000000E+00  0.00000000E+00
  0.00000000E+00  0.00000000E+00  0.00000000E+00
  0.00000000E+00  0.00000000E+00  0.00000000E+00
  0.00000000E+00  0.00000000E+00  0.00000000E+00
  0.00000000E+00  0.00000000E+00  0.00000000E+00
  0.00000000E+00  0.00000000E+00  0.00000000E+00
  0.00000000E+00  0.00000000E+00  0.00000000E+00
  0.00000000E+00  0.00000000E+00  0.00000000E+00
  0.00000000E+00  0.00000000E+00  0.00000000E+00
  0.00000000E+00  0.00000000E+00  0.00000000E+00
  0.00000000E+00  0.00000000E+00  0.00000000E+00
  0.00000000E+00  0.00000000E+00  0.00000000E+00
  0.00000000E+00  0.00000000E+00  0.00000000E+00
  0.00000000E+00  0.00000000E+00  0.00000000E+00
  0.00000000E+00  0.00000000E+00  0.00000000E+00
  0.00000000E+00  0.00000000E+00  0.00000000E+00
  0.00000000E+00  0.00000000E+00  0.00000000E+00
  0.00000000E+00  0.00000000E+00  0.00000000E+00
  0.00000000E+00  0.00000000E+00  0.00000000E+00
  0.00000000E+00  0.00000000E+00  0.00000000E+00
  0.00000000E+00  0.00000000E+00  0.00000000E+00
  0.00000000E+00  0.00000000E+00  0.00000000E+00
  0.00000000E+00  0.00000000E+00  0.00000000E+00
  0.00000000E+00  0.00000000E+00  0.00000000E+00
  0.00000000E+00  0.00000000E+00  0.00000000E+00
  0.00000000E+00  0.00000000E+00  0.00000000E+00
  0.00000000E+00  0.00000000E+00  0.00000000E+00
  0.00000000E+00  0.00000000E+00  0.00000000E+00
  0.00000000E+00  0.00000000E+00  0.00000000E+00
  0.00000000E+00  0.00000000E+00  0.00000000E+00
  0.00000000E+00  0.00000000E+00  0.00000000E+00
  0.00000000E+00  0.00000000E+00  0.00000000E+00
  0.00000000E+00  0.00000000E+00  0.00000000E+00
  0.00000000E+00  0.00000000E+00  0.00000000E+00
  0.00000000E+00  0.00000000E+00  0.00000000E+00
  0.00000000E+00  0.00000000E+00  0.00000000E+00
  0.00000000E+00  0.00000000E+00  0.00000000E+00
  0.00000000E+00  0.00000000E+00  0.00000000E+00
  0.00000000E+00  0.00000000E+00  0.00000000E+00
  0.00000000E+00  0.00000000E+00  0.00000000E+00
  0.00000000E+00  0.00000000E+00  0.00000000E+00
  0.00000000E+00  0.00000000E+00  0.00000000E+00
  0.00000000E+00  0.00000000E+00  0.00000000E+00
  0.00000000E+00  0.00000000E+00  0.00000000E+00
  0.00000000E+00  0.00000000E+00  0.00000000E+00
  0.00000000E+00  0.00000000E+00  0.00000000E+00
  0.00000000E+00  0.00000000E+00  0.00000000E+00
  0.00000000E+00  0.00000000E+00  0.00000000E+00
  0.00000000E+00  0.00000000E+00  0.00000000E+00
  0.00000000E+00  0.00000000E+00  0.00000000E+00
  0.00000000E+00  0.00000000E+00  0.00000000E+00
  0.00000000E+00  0.00000000E+00  0.00000000E+00
  0.00000000E+00  0.00000000E+00  0.00000000E+00
  0.00000000E+00  0.00000000E+00  0.00000000E+00
