CeO2-you-111-you-Ni                     
   1.00000000000000     
     9.8234290324758256   -5.7071325726892885    0.0150836183815059
     0.0000000027702485   11.4142631414718814   -0.0000000017981664
     0.0310227981531066   -0.0000000031917047   20.4797779470182419
   O    Ni   Ce
    53     1    26
Selective dynamics
Direct
 -0.0010835530105357  0.0003120686079418  0.9916137532401111   T   T   T
  0.1160442697101736  0.2246886348544746  0.1496208404035509   T   T   T
  0.2288486507210122  0.1187067296916336  0.3070000852382278   T   T   T
  0.1137354596733513  0.2235342298347089  0.3813336280687183   T   T   T
  0.0005400301788978 -0.0004515514297730  0.2300681133459050   T   T   T
  0.2214617405354673  0.1099907021756097  0.0714856238548998   T   T   T
  0.3338303768310023 -0.0000813643647783  0.9902757873235192   T   T   T
  0.4440466459297469  0.2212082444044131  0.1464602018822747   T   T   T
  0.5622360496060976  0.1087192262797544  0.3043269875604176   T   T   T
  0.4708431527404333  0.2052896148249793  0.3955663396983605   T   T   T
  0.3337522578348590  0.0010231261026095  0.2310429176634818   T   T   T
  0.5563410681977435  0.1113230328421265  0.0718852011134601   T   T   T
  0.6674460620460595  0.0003895310230216  0.9913213094052440   T   T   T
  0.7757861455803361  0.2273072088099008  0.1514418437697312   T   T   T
  0.8868635499004158  0.1100982749496542  0.3060622659667522   T   T   T
  0.7831440729155806  0.2212002396011766  0.3916930642627477   T   T   T
  0.6683434042671560  0.0008382021339046  0.2276502721584551   T   T   T
  0.8869450343332757  0.1101390171663846  0.0748850484464917   T   T   T
 -0.0010835530090568  0.3319373783820264  0.9916137532397364   T   T   T
  0.1101587967269924  0.5557630947376966  0.1497875490784166   T   T   T
  0.2288486507241005  0.4434749210264325  0.3070000852373976   T   T   T
  0.1117191919402220  0.5560491674754560  0.3880594518320244   T   T   T
  0.0005400301793578  0.3343245816077421  0.2300681133458525   T   T   T
  0.2214617405367638  0.4448040383593342  0.0714856238548154   T   T   T
  0.3324090329972217  0.3328710164982437  0.9900837780124425   T   T   T
  0.4440466459285372  0.5561724015271395  0.1464602018818439   T   T   T
  0.4708431527449710  0.5988875379150922  0.3955663397001091   T   T   T
  0.3457359452290067  0.3395344726110823  0.2357138550027699   T   T   T
  0.5557795514139261  0.4445557757077533  0.0697021592779602   T   T   T
  0.6670370023059464  0.3329424214057925  0.9897452908727136   T   T   T
  0.7787788978410276  0.5560564489197666  0.1473700361599386   T   T   T
  0.8903022230227455  0.4427033059070926  0.3078161123949493   T   T   T
  0.7592798226984006  0.5463069113539658  0.3818126598189687   T   T   T
  0.6555864663339794  0.3430440584619076  0.2373424272505046   T   T   T
  0.8885796922289373  0.4448392847180322  0.0719090981348068   T   T   T
  0.0007738233717549  0.6670539116858824  0.9898443557719638   T   T   T
  0.1101587967257212  0.8877297019884208  0.1497875490781431   T   T   T
  0.2229797377551283  0.7781568688778346  0.3075743896698697   T   T   T
  0.1117191919405088  0.8890040244648028  0.3880594518315205   T   T   T
 -0.0018579554292497  0.6657380222849141  0.2318625488594870   T   T   T
  0.2220079956523285  0.7776709978258999  0.0723283145987412   T   T   T
  0.3338303768312040  0.6672457411955708  0.9902757873234332   T   T   T
  0.4446470844352025  0.8889905422177939  0.1491070349187184   T   T   T
  0.5622360496068075  0.7868498233311202  0.3043269875601175   T   T   T
  0.4475139534567585  0.8904239767286692  0.3892362347994254   T   T   T
  0.3337522578345774  0.6660631317317085  0.2310429176635851   T   T   T
  0.5563410681993515  0.7783510353562187  0.0718852011132377   T   T   T
  0.6670370023067209  0.6674275809014940  0.9897452908728388   T   T   T
  0.7757861455786904  0.8818119367693290  0.1514418437699035   T   T   T
  0.8903022230224922  0.7809319171141945  0.3078161123946460   T   T   T
  0.7831440729165656  0.8952768333162853  0.3916930642617544   T   T   T
  0.6555864663403524  0.6458754078808057  0.2373424272504960   T   T   T
  0.8885796922298678  0.7770734075126550  0.0719090981345584   T   T   T
  0.2373501549487407  0.2853415774706852  0.3117068615373215   T   T   T
  0.0036826555513527  0.0016979552444809  0.3473589889256942   T   T   T
  0.2231644285701909  0.1106009573346396  0.1900542407257638   T   T   T
  0.1110736403818385  0.2222033201913745  0.0321607201139251   T   T   T
  0.3395778830173107  0.0049778788199268  0.3505936416331613   T   T   T
  0.5548560672931572  0.1113803227552586  0.1904737072472070   T   T   T
  0.4438932533593963  0.2207206607298882  0.0294847450165217   T   T   T
  0.6687617573798496  0.0010473786914837  0.3483168941258262   T   T   T
  0.8895584344137153  0.1114457172076464  0.1909051194758126   T   T   T
  0.7777316032727378  0.2227760808237154  0.0321581607064425   T   T   T
  0.0036826555512240  0.3353177003046006  0.3473589889258333   T   T   T
  0.2231644285708536  0.4458964712334989  0.1900542407257028   T   T   T
  0.1109616929557889  0.5557126255819900  0.0320167533045254   T   T   T
  0.5539151404496081  0.4436235702228169  0.1832184705093912   T   T   T
  0.4438932533591212  0.5565065926284682  0.0294847450166763   T   T   T
  0.6690121670503084  0.3220791343866556  0.3544600515082355   T   T   T
  0.8870788293162265  0.4449862569063420  0.1915045213195281   T   T   T
  0.7794414619063971  0.5563877309533419  0.0297540482307605   T   T   T
  0.0021578998875733  0.6677459499468129  0.3473584123199311   T   T   T
  0.2231510398045229  0.7782425199030047  0.1909907165371003   T   T   T
  0.1109616929554379  0.8885830673748353  0.0320167533043924   T   T   T
  0.3395778830197777  0.6679340041991674  0.3505936416330880   T   T   T
  0.5548560672965611  0.7768087445378458  0.1904737072474283   T   T   T
  0.4454316194414454  0.8893828097199407  0.0317547080047799   T   T   T
  0.6690121670455721  0.6802660326607981  0.3544600515086634   T   T   T
  0.8870788293202799  0.7754255724164137  0.1915045213194501   T   T   T
  0.7777316032720756  0.8882885224484728  0.0321581607069115   T   T   T
 
  0.00000000E+00  0.00000000E+00  0.00000000E+00
  0.00000000E+00  0.00000000E+00  0.00000000E+00
  0.00000000E+00  0.00000000E+00  0.00000000E+00
  0.00000000E+00  0.00000000E+00  0.00000000E+00
  0.00000000E+00  0.00000000E+00  0.00000000E+00
  0.00000000E+00  0.00000000E+00  0.00000000E+00
  0.00000000E+00  0.00000000E+00  0.00000000E+00
  0.00000000E+00  0.00000000E+00  0.00000000E+00
  0.00000000E+00  0.00000000E+00  0.00000000E+00
  0.00000000E+00  0.00000000E+00  0.00000000E+00
  0.00000000E+00  0.00000000E+00  0.00000000E+00
  0.00000000E+00  0.00000000E+00  0.00000000E+00
  0.00000000E+00  0.00000000E+00  0.00000000E+00
  0.00000000E+00  0.00000000E+00  0.00000000E+00
  0.00000000E+00  0.00000000E+00  0.00000000E+00
  0.00000000E+00  0.00000000E+00  0.00000000E+00
  0.00000000E+00  0.00000000E+00  0.00000000E+00
  0.00000000E+00  0.00000000E+00  0.00000000E+00
  0.00000000E+00  0.00000000E+00  0.00000000E+00
  0.00000000E+00  0.00000000E+00  0.00000000E+00
  0.00000000E+00  0.00000000E+00  0.00000000E+00
  0.00000000E+00  0.00000000E+00  0.00000000E+00
  0.00000000E+00  0.00000000E+00  0.00000000E+00
  0.00000000E+00  0.00000000E+00  0.00000000E+00
  0.00000000E+00  0.00000000E+00  0.00000000E+00
  0.00000000E+00  0.00000000E+00  0.00000000E+00
  0.00000000E+00  0.00000000E+00  0.00000000E+00
  0.00000000E+00  0.00000000E+00  0.00000000E+00
  0.00000000E+00  0.00000000E+00  0.00000000E+00
  0.00000000E+00  0.00000000E+00  0.00000000E+00
  0.00000000E+00  0.00000000E+00  0.00000000E+00
  0.00000000E+00  0.00000000E+00  0.00000000E+00
  0.00000000E+00  0.00000000E+00  0.00000000E+00
  0.00000000E+00  0.00000000E+00  0.00000000E+00
  0.00000000E+00  0.00000000E+00  0.00000000E+00
  0.00000000E+00  0.00000000E+00  0.00000000E+00
  0.00000000E+00  0.00000000E+00  0.00000000E+00
  0.00000000E+00  0.00000000E+00  0.00000000E+00
  0.00000000E+00  0.00000000E+00  0.00000000E+00
  0.00000000E+00  0.00000000E+00  0.00000000E+00
  0.00000000E+00  0.00000000E+00  0.00000000E+00
  0.00000000E+00  0.00000000E+00  0.00000000E+00
  0.00000000E+00  0.00000000E+00  0.00000000E+00
  0.00000000E+00  0.00000000E+00  0.00000000E+00
  0.00000000E+00  0.00000000E+00  0.00000000E+00
  0.00000000E+00  0.00000000E+00  0.00000000E+00
  0.00000000E+00  0.00000000E+00  0.00000000E+00
  0.00000000E+00  0.00000000E+00  0.00000000E+00
  0.00000000E+00  0.00000000E+00  0.00000000E+00
  0.00000000E+00  0.00000000E+00  0.00000000E+00
  0.00000000E+00  0.00000000E+00  0.00000000E+00
  0.00000000E+00  0.00000000E+00  0.00000000E+00
  0.00000000E+00  0.00000000E+00  0.00000000E+00
  0.00000000E+00  0.00000000E+00  0.00000000E+00
  0.00000000E+00  0.00000000E+00  0.00000000E+00
  0.00000000E+00  0.00000000E+00  0.00000000E+00
  0.00000000E+00  0.00000000E+00  0.00000000E+00
  0.00000000E+00  0.00000000E+00  0.00000000E+00
  0.00000000E+00  0.00000000E+00  0.00000000E+00
  0.00000000E+00  0.00000000E+00  0.00000000E+00
  0.00000000E+00  0.00000000E+00  0.00000000E+00
  0.00000000E+00  0.00000000E+00  0.00000000E+00
  0.00000000E+00  0.00000000E+00  0.00000000E+00
  0.00000000E+00  0.00000000E+00  0.00000000E+00
  0.00000000E+00  0.00000000E+00  0.00000000E+00
  0.00000000E+00  0.00000000E+00  0.00000000E+00
  0.00000000E+00  0.00000000E+00  0.00000000E+00
  0.00000000E+00  0.00000000E+00  0.00000000E+00
  0.00000000E+00  0.00000000E+00  0.00000000E+00
  0.00000000E+00  0.00000000E+00  0.00000000E+00
  0.00000000E+00  0.00000000E+00  0.00000000E+00
  0.00000000E+00  0.00000000E+00  0.00000000E+00
  0.00000000E+00  0.00000000E+00  0.00000000E+00
  0.00000000E+00  0.00000000E+00  0.00000000E+00
  0.00000000E+00  0.00000000E+00  0.00000000E+00
  0.00000000E+00  0.00000000E+00  0.00000000E+00
  0.00000000E+00  0.00000000E+00  0.00000000E+00
  0.00000000E+00  0.00000000E+00  0.00000000E+00
  0.00000000E+00  0.00000000E+00  0.00000000E+00
  0.00000000E+00  0.00000000E+00  0.00000000E+00
