CeO2-you-111-you-Ir                     
   1.00000000000000     
     9.7946173991500292   -5.6549253639947050    0.0000000000000000
     0.0000000058605909   11.3098487478467575    0.0000000000000000
     0.0000000000000000    0.0000000000000000   21.2413357326235079
   O    Ir   Ce   H 
    54     1    26     1
Selective dynamics
Direct
  0.0004352862861615  0.0002734263091986  0.9960004860795834   T   T   T
  0.1026126173827038  0.2179728086913002  0.1482326908923994   F   F   F
  0.2415173750283847  0.1386196903934028  0.3072639011161643   T   T   T
  0.1244627228406086  0.2302987365038963  0.3846511001029574   T   T   T
  0.0050194515369206  0.0012185637782466  0.2317050395962353   T   T   T
  0.2224799923122234  0.1116269846243938  0.0753759698790972   F   F   F
  0.3332802822495600  0.0001951156575615  0.9958451201456424   T   T   T
  0.4486931913085925  0.2179728086912576  0.1482326908923994   F   F   F
  0.5492455993621934  0.1173905641651101  0.3079613060264835   T   T   T
  0.4299010207972674  0.2375595629104554  0.3982349342505986   T   T   T
  0.3298807660446628 -0.0010272155969573  0.2309343303053301   T   T   T
  0.5574491454765891  0.1092178545234432  0.0754236273047724   F   F   F
  0.6667525551846957 -0.0000267534999652  0.9944072794357839   T   T   T
  0.7774761527814249  0.2216183055628846  0.1519006596018215   F   F   F
  0.8921159897048454  0.1114818238318644  0.3054056053271119   T   T   T
  0.7779050714008124  0.2230681481153635  0.3829436915480078   T   T   T
  0.6649638573784409  0.0008256598300450  0.2331959594202967   T   T   T
  0.8851027090468406  0.1092178545234290  0.0754236273047724   F   F   F
  0.0000566822169482  0.3332818114516469  0.9958900300489273   T   T   T
  0.1102991356236487  0.5563678643765968  0.1496559215048947   F   F   F
  0.2373734992085614  0.4296561112366453  0.3028769279926317   T   T   T
  0.1150113296954743  0.5516667482583094  0.3806353156301504   T   T   T
  0.0031122913984941  0.3357765117688869  0.2312898744820245   T   T   T
  0.2224799923123442  0.4441860076878328  0.0753759698790972   F   F   F
  0.3332469593936665  0.3332474474264288  0.9957227710012778   T   T   T
  0.4486931913086991  0.5640543826174493  0.1482326908923994   F   F   F
  0.5281853661810748  0.4251335364347271  0.3072134608339802   T   T   T
  0.4362926559573969  0.5420654505250713  0.3846525170491735   T   T   T
  0.3338372920947458  0.3327424050118968  0.2111040824765327   T   T   T
  0.5550400153754325  0.4441860076877759  0.0753759698790972   F   F   F
  0.6666344808706013  0.3333408277841259  0.9958196810588765   T   T   T
  0.7794017287528732  0.5563678643765257  0.1496559215048947   F   F   F
  0.8901329620367447  0.4460274429620116  0.3044764960992115   T   T   T
  0.7742897821369182  0.5522433470617741  0.3820964058349974   T   T   T
  0.6676974842480393  0.3363225924315438  0.2311481134804421   T   T   T
  0.8881159545161026  0.4428979090322400  0.0759795797674272   F   F   F
 -0.0001234808494225  0.6667769941748112  0.9964334725246632   T   T   T
  0.1102991356234782  0.8872652712468891  0.1496559215048947   F   F   F
  0.2217351070878915  0.7769569940700057  0.3044519475963691   T   T   T
  0.1148069200690031  0.8926749663180634  0.3822090240127669   T   T   T
 -0.0000851758852382  0.6671467745226063  0.2302280416482884   T   T   T
  0.2237680909678659  0.7785510454838942  0.0759795797674272   F   F   F
  0.3333500422161219  0.6666280357093372  0.9958457949409336   T   T   T
  0.4450476944371999  0.8891908472185719  0.1519006596018215   F   F   F
  0.5544956583648529  0.7740375127785620  0.3051910096317383   T   T   T
  0.4445755392627835  0.8895994623108354  0.3830360943490806   T   T   T
  0.3308226280523561  0.6634665794426170  0.2311653722639713   T   T   T
  0.5574491454765749  0.7815642909531277  0.0754236273047724   F   F   F
  0.6667446402346899  0.6667290652458232  0.9959082283633954   T   T   T
  0.7774761527813610  0.8891908472185435  0.1519006596018215   F   F   F
  0.8895484066833448  0.7780014476556227  0.3052918174080775   T   T   T
  0.7761297990998153  0.8892466918302278  0.3838796225535450   T   T   T
  0.6657011652032071  0.6617334083877110  0.2316885109447523   T   T   T
  0.8881159545160315  0.7785510454838587  0.0759795797674272   F   F   F
  0.3306674224614594  0.3362019048809845  0.3489866082384164   T   T   T
  0.0062163295495341  0.0063560118111706  0.3439136051619076   T   T   T
  0.2233072346575327  0.1132814693151332  0.1881244706453487   F   F   F
  0.1102902676306456  0.2218116338154488  0.0354307699150453   F   F   F
  0.3292413459574955 -0.0035140492865281  0.3420977369706974   T   T   T
  0.5556245361878069  0.1110424638129146  0.1907412891955644   F   F   F
  0.4448543661848063  0.2218116338155625  0.0354307699150453   F   F   F
  0.6669094079094181 -0.0004986919876216  0.3460163390026259   T   T   T
  0.8887519276248881  0.1110424638126943  0.1907412891955644   F   F   F
  0.7773510937142305  0.2213681874284532  0.0356753162892431   F   F   F
  0.0074559886953489  0.3322547545383578  0.3435876446440149   T   T   T
  0.2233072346573550  0.4433587653423956  0.1881244706453487   F   F   F
  0.1110274512921876  0.5556395487074113  0.0363024093668542   F   F   F
  0.5533855306851194  0.4433587653424738  0.1881244706453487   F   F   F
  0.4448543661845505  0.5563767323689888  0.0354307699150453   F   F   F
  0.6704316143670983  0.3377038729013869  0.3421577982593124   T   T   T
  0.8888737874559283  0.4444135749118701  0.1903079640581211   F   F   F
  0.7779450974153477  0.5556395487075392  0.0363024093668542   F   F   F
  0.0003260207385993  0.6667611572260094  0.3420535447527335   T   T   T
  0.2222524250881719  0.7777932125440685  0.1903079640581211   F   F   F
  0.1110274512924647  0.8887219025850541  0.0363024093668542   F   F   F
  0.3344878748413704  0.6590731887388531  0.3435354566528054   T   T   T
  0.5556245361873096  0.7779150723743911  0.1907412891955644   F   F   F
  0.4452978125715035  0.8893159062857663  0.0356753162892431   F   F   F
  0.6603731312994752  0.6605869380246167  0.3439234716016120   T   T   T
  0.8888737874558998  0.7777932125440543  0.1903079640581211   F   F   F
  0.7773510937142589  0.8893159062857805  0.0356753162892431   F   F   F
  0.4199938585072803  0.2468353871885964  0.4432099356561002   T   T   T
 
  0.00000000E+00  0.00000000E+00  0.00000000E+00
  0.00000000E+00  0.00000000E+00  0.00000000E+00
  0.00000000E+00  0.00000000E+00  0.00000000E+00
  0.00000000E+00  0.00000000E+00  0.00000000E+00
  0.00000000E+00  0.00000000E+00  0.00000000E+00
  0.00000000E+00  0.00000000E+00  0.00000000E+00
  0.00000000E+00  0.00000000E+00  0.00000000E+00
  0.00000000E+00  0.00000000E+00  0.00000000E+00
  0.00000000E+00  0.00000000E+00  0.00000000E+00
  0.00000000E+00  0.00000000E+00  0.00000000E+00
  0.00000000E+00  0.00000000E+00  0.00000000E+00
  0.00000000E+00  0.00000000E+00  0.00000000E+00
  0.00000000E+00  0.00000000E+00  0.00000000E+00
  0.00000000E+00  0.00000000E+00  0.00000000E+00
  0.00000000E+00  0.00000000E+00  0.00000000E+00
  0.00000000E+00  0.00000000E+00  0.00000000E+00
  0.00000000E+00  0.00000000E+00  0.00000000E+00
  0.00000000E+00  0.00000000E+00  0.00000000E+00
  0.00000000E+00  0.00000000E+00  0.00000000E+00
  0.00000000E+00  0.00000000E+00  0.00000000E+00
  0.00000000E+00  0.00000000E+00  0.00000000E+00
  0.00000000E+00  0.00000000E+00  0.00000000E+00
  0.00000000E+00  0.00000000E+00  0.00000000E+00
  0.00000000E+00  0.00000000E+00  0.00000000E+00
  0.00000000E+00  0.00000000E+00  0.00000000E+00
  0.00000000E+00  0.00000000E+00  0.00000000E+00
  0.00000000E+00  0.00000000E+00  0.00000000E+00
  0.00000000E+00  0.00000000E+00  0.00000000E+00
  0.00000000E+00  0.00000000E+00  0.00000000E+00
  0.00000000E+00  0.00000000E+00  0.00000000E+00
  0.00000000E+00  0.00000000E+00  0.00000000E+00
  0.00000000E+00  0.00000000E+00  0.00000000E+00
  0.00000000E+00  0.00000000E+00  0.00000000E+00
  0.00000000E+00  0.00000000E+00  0.00000000E+00
  0.00000000E+00  0.00000000E+00  0.00000000E+00
  0.00000000E+00  0.00000000E+00  0.00000000E+00
  0.00000000E+00  0.00000000E+00  0.00000000E+00
  0.00000000E+00  0.00000000E+00  0.00000000E+00
  0.00000000E+00  0.00000000E+00  0.00000000E+00
  0.00000000E+00  0.00000000E+00  0.00000000E+00
  0.00000000E+00  0.00000000E+00  0.00000000E+00
  0.00000000E+00  0.00000000E+00  0.00000000E+00
  0.00000000E+00  0.00000000E+00  0.00000000E+00
  0.00000000E+00  0.00000000E+00  0.00000000E+00
  0.00000000E+00  0.00000000E+00  0.00000000E+00
  0.00000000E+00  0.00000000E+00  0.00000000E+00
  0.00000000E+00  0.00000000E+00  0.00000000E+00
  0.00000000E+00  0.00000000E+00  0.00000000E+00
  0.00000000E+00  0.00000000E+00  0.00000000E+00
  0.00000000E+00  0.00000000E+00  0.00000000E+00
  0.00000000E+00  0.00000000E+00  0.00000000E+00
  0.00000000E+00  0.00000000E+00  0.00000000E+00
  0.00000000E+00  0.00000000E+00  0.00000000E+00
  0.00000000E+00  0.00000000E+00  0.00000000E+00
  0.00000000E+00  0.00000000E+00  0.00000000E+00
  0.00000000E+00  0.00000000E+00  0.00000000E+00
  0.00000000E+00  0.00000000E+00  0.00000000E+00
  0.00000000E+00  0.00000000E+00  0.00000000E+00
  0.00000000E+00  0.00000000E+00  0.00000000E+00
  0.00000000E+00  0.00000000E+00  0.00000000E+00
  0.00000000E+00  0.00000000E+00  0.00000000E+00
  0.00000000E+00  0.00000000E+00  0.00000000E+00
  0.00000000E+00  0.00000000E+00  0.00000000E+00
  0.00000000E+00  0.00000000E+00  0.00000000E+00
  0.00000000E+00  0.00000000E+00  0.00000000E+00
  0.00000000E+00  0.00000000E+00  0.00000000E+00
  0.00000000E+00  0.00000000E+00  0.00000000E+00
  0.00000000E+00  0.00000000E+00  0.00000000E+00
  0.00000000E+00  0.00000000E+00  0.00000000E+00
  0.00000000E+00  0.00000000E+00  0.00000000E+00
  0.00000000E+00  0.00000000E+00  0.00000000E+00
  0.00000000E+00  0.00000000E+00  0.00000000E+00
  0.00000000E+00  0.00000000E+00  0.00000000E+00
  0.00000000E+00  0.00000000E+00  0.00000000E+00
  0.00000000E+00  0.00000000E+00  0.00000000E+00
  0.00000000E+00  0.00000000E+00  0.00000000E+00
  0.00000000E+00  0.00000000E+00  0.00000000E+00
  0.00000000E+00  0.00000000E+00  0.00000000E+00
  0.00000000E+00  0.00000000E+00  0.00000000E+00
  0.00000000E+00  0.00000000E+00  0.00000000E+00
  0.00000000E+00  0.00000000E+00  0.00000000E+00
  0.00000000E+00  0.00000000E+00  0.00000000E+00
