CeO2-you-111-you-Cd                     
   1.00000000000000     
     9.8826232238119580   -5.7057355508434409   -0.0000000010332488
    -0.0188243856376406   11.3788643032791974   -0.0197355970220452
    -0.0214139146441252   -0.0370899818634447   20.8517932097645478
   O    Cd   Ce   H 
    53     1    26     2
Selective dynamics
Direct
  0.9996703006675298  0.9997603886821946  0.9945420705475313   T   T   T
  0.1074000949386402  0.2214031922555577  0.1486671905887249   F   F   F
  0.2332740083156870  0.1197705635472955  0.3095192110286773   T   T   T
  0.0930006980859317  0.2175617085858211  0.3878641414885786   T   T   T
  0.0043177226637553  0.0016243320111721  0.2299811069475808   T   T   T
  0.2223883661336146  0.1114437322671904  0.0733940480996438   F   F   F
  0.3331452786295723  0.9994841860441956  0.9941201280685042   T   T   T
  0.4473360973166578  0.2214031922553445  0.1486671905887249   F   F   F
  0.5509480488569690  0.1149168018893652  0.3059103266385987   T   T   T
  0.4642285980481516  0.2141473331020100  0.4059571875182693   T   T   T
  0.3304638048199240 -0.0010928504566880  0.2289963339748751   T   T   T
  0.5578191353848752  0.1108213802453406  0.0739457026747203   F   F   F
  0.6659727837412271  0.9985056002366011  0.9931254943201847   T   T   T
  0.7774139727183353  0.2214939454367340  0.1531493870427312   F   F   F
  0.8859102998263522  0.1085202434395508  0.3039942933342560   T   T   T
  0.7764146330024241  0.2213575310889483  0.3836638918410260   T   T   T
  0.6611357572595603  0.9941444759314878  0.2325588668530883   T   T   T
  0.8863362448605088  0.1108213802454543  0.0739457026747345   F   F   F
  0.0004527571741022  0.3325947105150092  0.9942793725206885   T   T   T
  0.1102320183045364  0.5545455109459567  0.1493801187211830   F   F   F
  0.2207151932744801  0.4543939418529746  0.3041561372500171   T   T   T
  0.1115306826791595  0.5613425131344871  0.3870885800929186   T   T   T
  0.0001186722565486  0.3324317422499918  0.2304285164953234   T   T   T
  0.2236892033003528  0.4448518809980868  0.0747237725323870   F   F   F
  0.3330814610895407  0.3324961855984120  0.9941258335160815   T   T   T
  0.4460834438151480  0.5588348876306384  0.1499580686157813   F   F   F
  0.5625893803291998  0.4479695233047968  0.3073288159190330   T   T   T
  0.3334334865387767  0.3335637136799499  0.2236242730360372   T   T   T
  0.5544966776975286  0.4448518809979163  0.0747237725323870   F   F   F
  0.6659851279911430  0.3326104094761355  0.9942211152824624   T   T   T
  0.7776464926412103  0.5545455109457151  0.1493801187211901   F   F   F
  0.8916698449584004  0.4484455522518127  0.3056534541142006   T   T   T
  0.7829151267764267  0.5601289008045656  0.3870178083895080   T   T   T
  0.6676674446908833  0.3345175582318252  0.2306456791138708   T   T   T
  0.8875392953545642  0.4417445907091846  0.0748288939726791   F   F   F
  0.9984300172155626  0.6643934707559668  0.9941806416174812   T   T   T
  0.1111368559240375  0.8889407118477095  0.1469857020464573   F   F   F
  0.2201694760354969  0.7791815511653776  0.3044080917106324   T   T   T
  0.1133166644369625  0.8918735762278562  0.3863359798573714   T   T   T
  0.0009777732521341  0.6697830260672247  0.2290762480882970   T   T   T
  0.2221714841607536  0.7770346078886092  0.0729841223776617   F   F   F
  0.3328182741842228  0.6652903013357733  0.9937667514190460   T   T   T
  0.4450863517328330  0.8888443776589980  0.1484638519298116   F   F   F
  0.5481216965081087  0.7622454589599654  0.3111732341245091   T   T   T
  0.4420578543342619  0.8886462071766879  0.3834917193839242   T   T   T
  0.3346372179602708  0.6724558684486222  0.2288843371445238   T   T   T
  0.5554266294353170  0.7775192588705977  0.0737230945975966   F   F   F
  0.6660967121028257  0.6653678420872675  0.9937709364033487   T   T   T
  0.7770910259264099  0.8888443776592325  0.1484638519298045   F   F   F
  0.8912044391695991  0.7799779683698701  0.3049422846969199   T   T   T
  0.7777720785014819  0.8891010895364804  0.3847500430108374   T   T   T
  0.6702143431407712  0.6700425920988078  0.2295130438531910   T   T   T
  0.8881961237279583  0.7770346078885524  0.0729841223776617   F   F   F
  0.3309474500668910  0.3438995278896897  0.3482040816840427   T   T   T
  0.0052924441629342  0.0083570174904807  0.3459678730701753   T   T   T
  0.2227181035218990  0.1121032070445693  0.1886905897093172   F   F   F
  0.1107073081491663  0.2220181466176143  0.0343842769402158   F   F   F
  0.3297971244008905  0.0001470304924765  0.3444654327104767   T   T   T
  0.5547720389240354  0.1107057560756104  0.1902593036789355   F   F   F
  0.4446438384684939  0.2220181466176996  0.0343842769402016   F   F   F
  0.6649788453190659 -0.0017636718974417  0.3454957930362476   T   T   T
  0.8892677171508296  0.1107057560748785  0.1902593036789426   F   F   F
  0.7773164394028882  0.2212988788056762  0.0345836465945339   F   F   F
  0.0014215078469813  0.3326513017589091  0.3455806252222637   T   T   T
  0.2239311181280570  0.4440371653511690  0.1905857593403155   F   F   F
  0.1103613052063110  0.5537249349916067  0.0344948589869745   F   F   F
  0.5534400472243988  0.4440371653515882  0.1905857593402800   F   F   F
  0.4440104559497939  0.5546889118994471  0.0337563760733630   F   F   F
  0.6733886708688001  0.3385816991217094  0.3443319285949186   T   T   T
  0.8894075830371477  0.4454811660740177  0.1913990468564677   F   F   F
  0.7766966297853344  0.5537249349917133  0.0344948589869745   F   F   F
  0.0018586878049774  0.6702860373729412  0.3459078781219356   T   T   T
  0.2215475198780581  0.7790003029487167  0.1871081588742811   F   F   F
  0.1108411340735458  0.8883492681472944  0.0328529640002557   F   F   F
  0.3240072237074604  0.6680636805221630  0.3422398236268508   T   T   T
  0.5551631745564478  0.7769923491128878  0.1888297462233766   F   F   F
  0.4447204369394413  0.8881963355443716  0.0334112790651915   F   F   F
  0.6774957738554610  0.6694283019935461  0.3424561601445735   T   T   T
  0.8907857830700863  0.7790003029484680  0.1871081588742882   F   F   F
  0.7768088986048269  0.8881963355442721  0.0334112790651986   F   F   F
  0.4245369608462749  0.5206286645298307  0.3927580956776085   T   T   T
  0.4521355087021453  0.2319293685642419  0.4503994924320282   T   T   T
 
  0.00000000E+00  0.00000000E+00  0.00000000E+00
  0.00000000E+00  0.00000000E+00  0.00000000E+00
  0.00000000E+00  0.00000000E+00  0.00000000E+00
  0.00000000E+00  0.00000000E+00  0.00000000E+00
  0.00000000E+00  0.00000000E+00  0.00000000E+00
  0.00000000E+00  0.00000000E+00  0.00000000E+00
  0.00000000E+00  0.00000000E+00  0.00000000E+00
  0.00000000E+00  0.00000000E+00  0.00000000E+00
  0.00000000E+00  0.00000000E+00  0.00000000E+00
  0.00000000E+00  0.00000000E+00  0.00000000E+00
  0.00000000E+00  0.00000000E+00  0.00000000E+00
  0.00000000E+00  0.00000000E+00  0.00000000E+00
  0.00000000E+00  0.00000000E+00  0.00000000E+00
  0.00000000E+00  0.00000000E+00  0.00000000E+00
  0.00000000E+00  0.00000000E+00  0.00000000E+00
  0.00000000E+00  0.00000000E+00  0.00000000E+00
  0.00000000E+00  0.00000000E+00  0.00000000E+00
  0.00000000E+00  0.00000000E+00  0.00000000E+00
  0.00000000E+00  0.00000000E+00  0.00000000E+00
  0.00000000E+00  0.00000000E+00  0.00000000E+00
  0.00000000E+00  0.00000000E+00  0.00000000E+00
  0.00000000E+00  0.00000000E+00  0.00000000E+00
  0.00000000E+00  0.00000000E+00  0.00000000E+00
  0.00000000E+00  0.00000000E+00  0.00000000E+00
  0.00000000E+00  0.00000000E+00  0.00000000E+00
  0.00000000E+00  0.00000000E+00  0.00000000E+00
  0.00000000E+00  0.00000000E+00  0.00000000E+00
  0.00000000E+00  0.00000000E+00  0.00000000E+00
  0.00000000E+00  0.00000000E+00  0.00000000E+00
  0.00000000E+00  0.00000000E+00  0.00000000E+00
  0.00000000E+00  0.00000000E+00  0.00000000E+00
  0.00000000E+00  0.00000000E+00  0.00000000E+00
  0.00000000E+00  0.00000000E+00  0.00000000E+00
  0.00000000E+00  0.00000000E+00  0.00000000E+00
  0.00000000E+00  0.00000000E+00  0.00000000E+00
  0.00000000E+00  0.00000000E+00  0.00000000E+00
  0.00000000E+00  0.00000000E+00  0.00000000E+00
  0.00000000E+00  0.00000000E+00  0.00000000E+00
  0.00000000E+00  0.00000000E+00  0.00000000E+00
  0.00000000E+00  0.00000000E+00  0.00000000E+00
  0.00000000E+00  0.00000000E+00  0.00000000E+00
  0.00000000E+00  0.00000000E+00  0.00000000E+00
  0.00000000E+00  0.00000000E+00  0.00000000E+00
  0.00000000E+00  0.00000000E+00  0.00000000E+00
  0.00000000E+00  0.00000000E+00  0.00000000E+00
  0.00000000E+00  0.00000000E+00  0.00000000E+00
  0.00000000E+00  0.00000000E+00  0.00000000E+00
  0.00000000E+00  0.00000000E+00  0.00000000E+00
  0.00000000E+00  0.00000000E+00  0.00000000E+00
  0.00000000E+00  0.00000000E+00  0.00000000E+00
  0.00000000E+00  0.00000000E+00  0.00000000E+00
  0.00000000E+00  0.00000000E+00  0.00000000E+00
  0.00000000E+00  0.00000000E+00  0.00000000E+00
  0.00000000E+00  0.00000000E+00  0.00000000E+00
  0.00000000E+00  0.00000000E+00  0.00000000E+00
  0.00000000E+00  0.00000000E+00  0.00000000E+00
  0.00000000E+00  0.00000000E+00  0.00000000E+00
  0.00000000E+00  0.00000000E+00  0.00000000E+00
  0.00000000E+00  0.00000000E+00  0.00000000E+00
  0.00000000E+00  0.00000000E+00  0.00000000E+00
  0.00000000E+00  0.00000000E+00  0.00000000E+00
  0.00000000E+00  0.00000000E+00  0.00000000E+00
  0.00000000E+00  0.00000000E+00  0.00000000E+00
  0.00000000E+00  0.00000000E+00  0.00000000E+00
  0.00000000E+00  0.00000000E+00  0.00000000E+00
  0.00000000E+00  0.00000000E+00  0.00000000E+00
  0.00000000E+00  0.00000000E+00  0.00000000E+00
  0.00000000E+00  0.00000000E+00  0.00000000E+00
  0.00000000E+00  0.00000000E+00  0.00000000E+00
  0.00000000E+00  0.00000000E+00  0.00000000E+00
  0.00000000E+00  0.00000000E+00  0.00000000E+00
  0.00000000E+00  0.00000000E+00  0.00000000E+00
  0.00000000E+00  0.00000000E+00  0.00000000E+00
  0.00000000E+00  0.00000000E+00  0.00000000E+00
  0.00000000E+00  0.00000000E+00  0.00000000E+00
  0.00000000E+00  0.00000000E+00  0.00000000E+00
  0.00000000E+00  0.00000000E+00  0.00000000E+00
  0.00000000E+00  0.00000000E+00  0.00000000E+00
  0.00000000E+00  0.00000000E+00  0.00000000E+00
  0.00000000E+00  0.00000000E+00  0.00000000E+00
  0.00000000E+00  0.00000000E+00  0.00000000E+00
  0.00000000E+00  0.00000000E+00  0.00000000E+00
