CeO2-you-111-you-W                      
   1.00000000000000     
     9.8995193200815148   -5.7215529037668436   -0.0069812518972450
    -0.0052501885204351   11.4340102010680482    0.0069812506500436
    -0.0081968241093345    0.0141973147682163   20.9131243535194962
   O    W    Ce
    53     1    26
Selective dynamics
Direct
 -0.0006547541024337  0.0000309105344355  0.9951221153546678   T   T   T
  0.1103643996031451  0.2147834931056717  0.1479900856838501   T   T   T
  0.2279630626522976  0.1195065549051508  0.3033422157237881   T   T   T
  0.1665677482601162  0.2723312465747075  0.3676064449581047   T   T   T
  0.0013533955567712 -0.0021341081924811  0.2294467064038972   T   T   T
  0.2231302440935813  0.1092213394852683  0.0736638623281432   T   T   T
  0.3357093755383082  0.0012226193553130  0.9952523113375362   T   T   T
  0.4390257178958525  0.2276402821013475  0.1531959832774386   T   T   T
  0.5567753999089183  0.1098916000952697  0.3058166817968546   T   T   T
  0.4164956678152150  0.2501703321549254  0.3876743363999618   T   T   T
  0.3323705515574339 -0.0010668902967347  0.2272598809930473   T   T   T
  0.5539045297459896  0.1127624702533400  0.0784889352218271   T   T   T
  0.6653841172039722  0.0012828827963822  0.9968702690615266   T   T   T
  0.7816068136109434  0.2218974032791282  0.1521923739992354   T   T   T
  0.8946726820468368  0.1074748300437146  0.3073876105954166   T   T   T
  0.7794453099736062  0.2119277421420722  0.3890084950767815   T   T   T
  0.6686517517445513 -0.0019847517453182  0.2311150825200280   T   T   T
  0.8885557462390907  0.1103288057481741  0.0752491431608954   T   T   T
 -0.0028538273254523  0.3314357922190307  0.9954130023233648   T   T   T
  0.1069777135606664  0.5596892864318016  0.1465542871665504   T   T   T
  0.1143968816541183  0.5522701183524528  0.3810112304469583   T   T   T
  0.0048474201672878  0.3358196498172148  0.2346072497958390   T   T   T
  0.2222960266001982  0.4443699733998416  0.0701323203630067   T   T   T
  0.3343293752011471  0.3323366247984683  0.9950686588931604   T   T   T
  0.4518825069071447  0.5563026004003682  0.1479900856842493   T   T   T
  0.5471604450670501  0.4387029373469021  0.3033422157230253   T   T   T
  0.3943347534142353  0.5000992517895078  0.3676064449518199   T   T   T
  0.3251048398436847  0.3415611601535181  0.2452394590610528   T   T   T
  0.5574456605142303  0.4435357559063001  0.0736638623281178   T   T   T
  0.6654443806440347  0.3309566244606674  0.9952523113374541   T   T   T
  0.7782199469394956  0.5557207250778855  0.1488965432217327   T   T   T
  0.8877866499468752  0.4484770796657150  0.3052745024571694   T   T   T
  0.7817612993400042  0.5710054212891158  0.3855253500447701   T   T   T
  0.6677338902897522  0.3342954484351326  0.2272598809931117   T   T   T
  0.8860099849340558  0.4425343466479096  0.0742076390527324   T   T   T
  0.0001985905166513  0.6664684094828396  0.9948623362740913   T   T   T
  0.1109462749208421  0.8884470530583252  0.1488965432218268   T   T   T
  0.2181889203281702  0.7788803500514885  0.3052745024568305   T   T   T
  0.0956615787034361  0.8849057006568648  0.3855253500437517   T   T   T
 -0.0001598641349784  0.6668268641325967  0.2291149195087269   T   T   T
  0.2241316533518788  0.7806570150650924  0.0742076390528741   T   T   T
  0.3352302077815625  0.6695208273265170  0.9954130023235339   T   T   T
  0.4447685967210139  0.8850601863897722  0.1521923739991258   T   T   T
  0.5591921699645562  0.7719943179529719  0.3073876105954894   T   T   T
  0.4547382578603217  0.8872216900220394  0.3890084950775309   T   T   T
  0.3308463501822232  0.6618195798370005  0.2346072497954078   T   T   T
  0.5563381942518706  0.7781112537610758  0.0752491431610095   T   T   T
  0.6666360894661183  0.6673217541028544  0.9951221153547307   T   T   T
  0.7782520008308359  0.8884149991704090  0.1502271177179671   T   T   T
  0.8889274915700104  0.7777395084282962  0.3009349532358710   T   T   T
  0.7825680801234257  0.8840989198767499  0.3838904591455798   T   T   T
  0.6688011081946762  0.6653136044474585  0.2294467064036599   T   T   T
  0.8891105327072772  0.7775564672932209  0.0734309611376458   T   T   T
  0.3404936269200114  0.3261723731096298  0.3365378981724769   T   T   T
 -0.0004536939938714 -0.0070165047809562  0.3411451558298238   T   T   T
  0.2204780615463275  0.1073157025814719  0.1893308644772323   T   T   T
  0.1102732313205212  0.2204861907285696  0.0339186318709473   T   T   T
  0.3315998468224784 -0.0008168924256670  0.3475229033023648   T   T   T
  0.5557010606306497  0.1109659393700654  0.1928008461049845   T   T   T
  0.4444213661882058  0.2222446338133714  0.0352584941984373   T   T   T
  0.6682466796600324 -0.0015796796654375  0.3459184241499597   T   T   T
  0.8911523812141223  0.1116574105997643  0.1907236385199244   T   T   T
  0.7772751731840174  0.2219873667756606  0.0363988290636785   T   T   T
 -0.0115864156199576  0.3312707513098913  0.3472540816559304   T   T   T
  0.2206075566032680  0.4460584433926114  0.1827112311956034   T   T   T
  0.1104100580191012  0.5562569419794398  0.0337505156896775   T   T   T
  0.5593512974261811  0.4461879384546644  0.1893308644774341   T   T   T
  0.4461798092728645  0.5563937686787914  0.0339186318711335   T   T   T
  0.6674838924297553  0.3350661531785116  0.3475229033025471   T   T   T
  0.8895197440868183  0.4440154380372659  0.1904257523274851   T   T   T
  0.7771992614621869  0.5539563062196984  0.0342140655486478   T   T   T
 -0.0005246304105660  0.6671916304174611  0.3431740835739245   T   T   T
  0.2226505619657002  0.7771472559166630  0.1904257523273105   T   T   T
  0.1127106937802937  0.8894677385385034  0.0342140655487241   T   T   T
  0.3353952486892238  0.6782534156085009  0.3472540816566183   T   T   T
  0.5550095893949257  0.7755146187835604  0.1907236385198803   T   T   T
  0.4446786332245177  0.8893918268152643  0.0363988290635440   T   T   T
  0.6736835047792271  0.6671206939937274  0.3411451558301379   T   T   T
  0.8898744764414953  0.7767925235603965  0.1867857708994987   T   T   T
  0.7773710445798542  0.8892959554208072  0.0355998345794150   T   T   T
 
  0.00000000E+00  0.00000000E+00  0.00000000E+00
  0.00000000E+00  0.00000000E+00  0.00000000E+00
  0.00000000E+00  0.00000000E+00  0.00000000E+00
  0.00000000E+00  0.00000000E+00  0.00000000E+00
  0.00000000E+00  0.00000000E+00  0.00000000E+00
  0.00000000E+00  0.00000000E+00  0.00000000E+00
  0.00000000E+00  0.00000000E+00  0.00000000E+00
  0.00000000E+00  0.00000000E+00  0.00000000E+00
  0.00000000E+00  0.00000000E+00  0.00000000E+00
  0.00000000E+00  0.00000000E+00  0.00000000E+00
  0.00000000E+00  0.00000000E+00  0.00000000E+00
  0.00000000E+00  0.00000000E+00  0.00000000E+00
  0.00000000E+00  0.00000000E+00  0.00000000E+00
  0.00000000E+00  0.00000000E+00  0.00000000E+00
  0.00000000E+00  0.00000000E+00  0.00000000E+00
  0.00000000E+00  0.00000000E+00  0.00000000E+00
  0.00000000E+00  0.00000000E+00  0.00000000E+00
  0.00000000E+00  0.00000000E+00  0.00000000E+00
  0.00000000E+00  0.00000000E+00  0.00000000E+00
  0.00000000E+00  0.00000000E+00  0.00000000E+00
  0.00000000E+00  0.00000000E+00  0.00000000E+00
  0.00000000E+00  0.00000000E+00  0.00000000E+00
  0.00000000E+00  0.00000000E+00  0.00000000E+00
  0.00000000E+00  0.00000000E+00  0.00000000E+00
  0.00000000E+00  0.00000000E+00  0.00000000E+00
  0.00000000E+00  0.00000000E+00  0.00000000E+00
  0.00000000E+00  0.00000000E+00  0.00000000E+00
  0.00000000E+00  0.00000000E+00  0.00000000E+00
  0.00000000E+00  0.00000000E+00  0.00000000E+00
  0.00000000E+00  0.00000000E+00  0.00000000E+00
  0.00000000E+00  0.00000000E+00  0.00000000E+00
  0.00000000E+00  0.00000000E+00  0.00000000E+00
  0.00000000E+00  0.00000000E+00  0.00000000E+00
  0.00000000E+00  0.00000000E+00  0.00000000E+00
  0.00000000E+00  0.00000000E+00  0.00000000E+00
  0.00000000E+00  0.00000000E+00  0.00000000E+00
  0.00000000E+00  0.00000000E+00  0.00000000E+00
  0.00000000E+00  0.00000000E+00  0.00000000E+00
  0.00000000E+00  0.00000000E+00  0.00000000E+00
  0.00000000E+00  0.00000000E+00  0.00000000E+00
  0.00000000E+00  0.00000000E+00  0.00000000E+00
  0.00000000E+00  0.00000000E+00  0.00000000E+00
  0.00000000E+00  0.00000000E+00  0.00000000E+00
  0.00000000E+00  0.00000000E+00  0.00000000E+00
  0.00000000E+00  0.00000000E+00  0.00000000E+00
  0.00000000E+00  0.00000000E+00  0.00000000E+00
  0.00000000E+00  0.00000000E+00  0.00000000E+00
  0.00000000E+00  0.00000000E+00  0.00000000E+00
  0.00000000E+00  0.00000000E+00  0.00000000E+00
  0.00000000E+00  0.00000000E+00  0.00000000E+00
  0.00000000E+00  0.00000000E+00  0.00000000E+00
  0.00000000E+00  0.00000000E+00  0.00000000E+00
  0.00000000E+00  0.00000000E+00  0.00000000E+00
  0.00000000E+00  0.00000000E+00  0.00000000E+00
  0.00000000E+00  0.00000000E+00  0.00000000E+00
  0.00000000E+00  0.00000000E+00  0.00000000E+00
  0.00000000E+00  0.00000000E+00  0.00000000E+00
  0.00000000E+00  0.00000000E+00  0.00000000E+00
  0.00000000E+00  0.00000000E+00  0.00000000E+00
  0.00000000E+00  0.00000000E+00  0.00000000E+00
  0.00000000E+00  0.00000000E+00  0.00000000E+00
  0.00000000E+00  0.00000000E+00  0.00000000E+00
  0.00000000E+00  0.00000000E+00  0.00000000E+00
  0.00000000E+00  0.00000000E+00  0.00000000E+00
  0.00000000E+00  0.00000000E+00  0.00000000E+00
  0.00000000E+00  0.00000000E+00  0.00000000E+00
  0.00000000E+00  0.00000000E+00  0.00000000E+00
  0.00000000E+00  0.00000000E+00  0.00000000E+00
  0.00000000E+00  0.00000000E+00  0.00000000E+00
  0.00000000E+00  0.00000000E+00  0.00000000E+00
  0.00000000E+00  0.00000000E+00  0.00000000E+00
  0.00000000E+00  0.00000000E+00  0.00000000E+00
  0.00000000E+00  0.00000000E+00  0.00000000E+00
  0.00000000E+00  0.00000000E+00  0.00000000E+00
  0.00000000E+00  0.00000000E+00  0.00000000E+00
  0.00000000E+00  0.00000000E+00  0.00000000E+00
  0.00000000E+00  0.00000000E+00  0.00000000E+00
  0.00000000E+00  0.00000000E+00  0.00000000E+00
  0.00000000E+00  0.00000000E+00  0.00000000E+00
  0.00000000E+00  0.00000000E+00  0.00000000E+00
