CeO2-you-111-you-Pd                     
   1.00000000000000     
     9.8190258224034288   -5.6690175720206017    0.0000000005384357
     0.0100070328233557   11.3553658369564161    0.0100923443991119
     0.0104990367008895    0.0181848618904444   21.2674952597521951
   O    Pd   Ce   H 
    53     1    26     1
Selective dynamics
Direct
  0.0003134706063432  0.0002859963465257  0.9957896898617686   T   T   T
  0.1066390275267520  0.2195032041811938  0.1477154511667120   T   T   T
  0.2180334161091771  0.0913857856426190  0.2969399833334450   T   T   T
  0.1232477315259116  0.2256715284732975  0.3805452472638438   T   T   T
  0.9989049867957257  0.9997218921070108  0.2265061532189096   T   T   T
  0.2231773433248308  0.1108181984049748  0.0740748868570024   T   T   T
  0.3344951598719783  0.0000524358055774  0.9955816185663046   T   T   T
  0.4489268050247546  0.2188168373355831  0.1481463684761933   T   T   T
  0.5486157436422137  0.1102613290646189  0.3065701932400651   T   T   T
  0.4121305097425268  0.2255041159888118  0.3958746591004811   T   T   T
  0.3361345509702331  0.9948580715100446  0.2256873083269287   T   T   T
  0.5584488605200063  0.1097845852571932  0.0752874254404012   T   T   T
  0.6673800783791929  0.0000697531709909  0.9948797671241332   T   T   T
  0.7787282136485397  0.2229544061274676  0.1536772022586348   T   T   T
  0.8931015000015747  0.1116361704795921  0.3031024974537722   T   T   T
  0.7851452614426558  0.2143000770956951  0.3846412781194486   T   T   T
  0.6641280851092808  0.9949423876769028  0.2329851128934316   T   T   T
  0.8859825407894306  0.1101985037426539  0.0752111149109935   T   T   T
  0.0007136048716620  0.3331191104851545  0.9960243056708887   T   T   T
  0.1104003573336970  0.5534234153591729  0.1489078730378967   T   T   T
  0.2495828270543155  0.4506677852770146  0.3109390731394136   T   T   T
  0.1150880128127940  0.5565985281117475  0.3822321589960518   T   T   T
  0.0106336077796087  0.3376481309462922  0.2321744811491471   T   T   T
  0.2237337456250041  0.4437297275319353  0.0754386067669388   T   T   T
  0.3335879375347290  0.3327852188238251  0.9957652857509011   T   T   T
  0.4484752434124342  0.5618282068288803  0.1484116020646330   T   T   T
  0.5271633156145261  0.4571873848197590  0.3210097652096254   T   T   T
  0.3345481594500921  0.3315182473124878  0.2167455182027753   T   T   T
  0.5544291593643350  0.4437065790249258  0.0756514301130141   T   T   T
  0.6666549622943706  0.3334129042291861  0.9965220808866746   T   T   T
  0.7785709988421078  0.5548420009683729  0.1486709984695588   T   T   T
  0.8940246504365715  0.4448353494911107  0.3042522718541663   T   T   T
  0.7896148569789168  0.5711048767069264  0.3842303034156487   T   T   T
  0.6625931651253961  0.3394501923123465  0.2320009386875701   T   T   T
  0.8882830292880769  0.4421792604284886  0.0755829327637175   T   T   T
  0.0000510489100568  0.6658246278792510  0.9962075643737758   T   T   T
  0.1113363530934193  0.8873706800625433  0.1473689375843538   T   T   T
  0.2206214165234399  0.7759802539963601  0.3008353269415127   T   T   T
  0.1131839314302817  0.8863574240742141  0.3833783771734989   T   T   T
  0.0006408465548189  0.6658207445281278  0.2276246384379309   T   T   T
  0.2237485788516709  0.7770863858368452  0.0741172392399959   T   T   T
  0.3332702908784290  0.6649736715840161  0.9954736641765571   T   T   T
  0.4476966362773733  0.8876796007814716  0.1490408810525519   T   T   T
  0.5489263178847990  0.7634136127834290  0.3104861300567892   T   T   T
  0.4390711591203060  0.8848770818115639  0.3824624922839613   T   T   T
  0.3317604707701224  0.6650250183192384  0.2288200214866962   T   T   T
  0.5569131594057765  0.7784900069568554  0.0740760043316982   T   T   T
  0.6671820605661197  0.6659973083816613  0.9956542269850011   T   T   T
  0.7756299518694431  0.8880545935254714  0.1496132719466722   T   T   T
  0.8958784827179209  0.7812967311690464  0.3005869093226511   T   T   T
  0.7821906099259017  0.8910229658343725  0.3812231788812870   T   T   T
  0.6690495391353469  0.6647459353015691  0.2292726095553083   T   T   T
  0.8888171202275732  0.7781932469722543  0.0744336237738607   T   T   T
  0.3281515854466606  0.3444995082657450  0.3536814393691387   T   T   T
  0.0104034869463114  0.0053248675916705  0.3403985632130633   T   T   T
  0.2238604450244203  0.1107692125793735  0.1880733152465948   T   T   T
  0.1112122049793301  0.2217792125822603  0.0355788652105378   T   T   T
  0.3267403915657508 -0.0060452694449913  0.3393973133865869   T   T   T
  0.5560108573627780  0.1111188818426251  0.1911916711269018   T   T   T
  0.4452251245283015  0.2214743936383001  0.0357512241837577   T   T   T
  0.6693559934599483  0.0016150092748747  0.3446341701077349   T   T   T
  0.8903667756454499  0.1109408297426271  0.1900892843074979   T   T   T
  0.7779343156163298  0.2219307984937436  0.0363005794042623   T   T   T
  0.0062780081495460  0.3312038266964640  0.3436782941241519   T   T   T
  0.2257783225615080  0.4419279818087969  0.1883164896327389   T   T   T
  0.1108648145143260  0.5539032068085181  0.0357765343724437   T   T   T
  0.5524670750074976  0.4426683454234331  0.1880005395529053   T   T   T
  0.4449024561768799  0.5554583558823288  0.0346836173007184   T   T   T
  0.6667316252210862  0.3377123845040482  0.3471104179450776   T   T   T
  0.8894404396352792  0.4448327136797551  0.1915308483455773   T   T   T
  0.7779482058532227  0.5547961287649568  0.0361132686252603   T   T   T
  0.0006953697584052  0.6653447745992016  0.3423286186373158   T   T   T
  0.2222997735099436  0.7759077396564394  0.1859009268120169   T   T   T
  0.1117011198495227  0.8888805472237699  0.0345789260435918   T   T   T
  0.3268671944067384  0.6699761285082223  0.3394414534788903   T   T   T
  0.5560489459536713  0.7770439892706348  0.1892226061320046   T   T   T
  0.4464508137959163  0.8890875251845844  0.0351130447932090   T   T   T
  0.6827509071258305  0.6741663452575923  0.3397810014016724   T   T   T
  0.8903804447641006  0.7777569381746713  0.1870291389965767   T   T   T
  0.7774959209009012  0.8890716183707172  0.0351133613904145   T   T   T
  0.3961924892477624  0.2263059187529170  0.4408208054642945   T   T   T
 
  0.00000000E+00  0.00000000E+00  0.00000000E+00
  0.00000000E+00  0.00000000E+00  0.00000000E+00
  0.00000000E+00  0.00000000E+00  0.00000000E+00
  0.00000000E+00  0.00000000E+00  0.00000000E+00
  0.00000000E+00  0.00000000E+00  0.00000000E+00
  0.00000000E+00  0.00000000E+00  0.00000000E+00
  0.00000000E+00  0.00000000E+00  0.00000000E+00
  0.00000000E+00  0.00000000E+00  0.00000000E+00
  0.00000000E+00  0.00000000E+00  0.00000000E+00
  0.00000000E+00  0.00000000E+00  0.00000000E+00
  0.00000000E+00  0.00000000E+00  0.00000000E+00
  0.00000000E+00  0.00000000E+00  0.00000000E+00
  0.00000000E+00  0.00000000E+00  0.00000000E+00
  0.00000000E+00  0.00000000E+00  0.00000000E+00
  0.00000000E+00  0.00000000E+00  0.00000000E+00
  0.00000000E+00  0.00000000E+00  0.00000000E+00
  0.00000000E+00  0.00000000E+00  0.00000000E+00
  0.00000000E+00  0.00000000E+00  0.00000000E+00
  0.00000000E+00  0.00000000E+00  0.00000000E+00
  0.00000000E+00  0.00000000E+00  0.00000000E+00
  0.00000000E+00  0.00000000E+00  0.00000000E+00
  0.00000000E+00  0.00000000E+00  0.00000000E+00
  0.00000000E+00  0.00000000E+00  0.00000000E+00
  0.00000000E+00  0.00000000E+00  0.00000000E+00
  0.00000000E+00  0.00000000E+00  0.00000000E+00
  0.00000000E+00  0.00000000E+00  0.00000000E+00
  0.00000000E+00  0.00000000E+00  0.00000000E+00
  0.00000000E+00  0.00000000E+00  0.00000000E+00
  0.00000000E+00  0.00000000E+00  0.00000000E+00
  0.00000000E+00  0.00000000E+00  0.00000000E+00
  0.00000000E+00  0.00000000E+00  0.00000000E+00
  0.00000000E+00  0.00000000E+00  0.00000000E+00
  0.00000000E+00  0.00000000E+00  0.00000000E+00
  0.00000000E+00  0.00000000E+00  0.00000000E+00
  0.00000000E+00  0.00000000E+00  0.00000000E+00
  0.00000000E+00  0.00000000E+00  0.00000000E+00
  0.00000000E+00  0.00000000E+00  0.00000000E+00
  0.00000000E+00  0.00000000E+00  0.00000000E+00
  0.00000000E+00  0.00000000E+00  0.00000000E+00
  0.00000000E+00  0.00000000E+00  0.00000000E+00
  0.00000000E+00  0.00000000E+00  0.00000000E+00
  0.00000000E+00  0.00000000E+00  0.00000000E+00
  0.00000000E+00  0.00000000E+00  0.00000000E+00
  0.00000000E+00  0.00000000E+00  0.00000000E+00
  0.00000000E+00  0.00000000E+00  0.00000000E+00
  0.00000000E+00  0.00000000E+00  0.00000000E+00
  0.00000000E+00  0.00000000E+00  0.00000000E+00
  0.00000000E+00  0.00000000E+00  0.00000000E+00
  0.00000000E+00  0.00000000E+00  0.00000000E+00
  0.00000000E+00  0.00000000E+00  0.00000000E+00
  0.00000000E+00  0.00000000E+00  0.00000000E+00
  0.00000000E+00  0.00000000E+00  0.00000000E+00
  0.00000000E+00  0.00000000E+00  0.00000000E+00
  0.00000000E+00  0.00000000E+00  0.00000000E+00
  0.00000000E+00  0.00000000E+00  0.00000000E+00
  0.00000000E+00  0.00000000E+00  0.00000000E+00
  0.00000000E+00  0.00000000E+00  0.00000000E+00
  0.00000000E+00  0.00000000E+00  0.00000000E+00
  0.00000000E+00  0.00000000E+00  0.00000000E+00
  0.00000000E+00  0.00000000E+00  0.00000000E+00
  0.00000000E+00  0.00000000E+00  0.00000000E+00
  0.00000000E+00  0.00000000E+00  0.00000000E+00
  0.00000000E+00  0.00000000E+00  0.00000000E+00
  0.00000000E+00  0.00000000E+00  0.00000000E+00
  0.00000000E+00  0.00000000E+00  0.00000000E+00
  0.00000000E+00  0.00000000E+00  0.00000000E+00
  0.00000000E+00  0.00000000E+00  0.00000000E+00
  0.00000000E+00  0.00000000E+00  0.00000000E+00
  0.00000000E+00  0.00000000E+00  0.00000000E+00
  0.00000000E+00  0.00000000E+00  0.00000000E+00
  0.00000000E+00  0.00000000E+00  0.00000000E+00
  0.00000000E+00  0.00000000E+00  0.00000000E+00
  0.00000000E+00  0.00000000E+00  0.00000000E+00
  0.00000000E+00  0.00000000E+00  0.00000000E+00
  0.00000000E+00  0.00000000E+00  0.00000000E+00
  0.00000000E+00  0.00000000E+00  0.00000000E+00
  0.00000000E+00  0.00000000E+00  0.00000000E+00
  0.00000000E+00  0.00000000E+00  0.00000000E+00
  0.00000000E+00  0.00000000E+00  0.00000000E+00
  0.00000000E+00  0.00000000E+00  0.00000000E+00
  0.00000000E+00  0.00000000E+00  0.00000000E+00
