CeO2-you-111-you-Ag                     
   1.00000000000000     
     9.8522462015026377   -5.6703356668448226   -0.0020373084543065
    -0.0000000008511444   11.3406693364836286    0.0000000002416394
    -0.0047629991041393    0.0000000004984505   21.2041039872240198
   O    Ag   Ce   H 
    53     1    26     1
Selective dynamics
Direct
  0.0000786736501937  0.0010682299876879  0.9965891212680604   T   T   T
  0.1124992582979461  0.2220736262793848  0.1507656358873016   T   T   T
  0.2258602729606258  0.1068282181454940  0.3053173745783877   T   T   T
  0.0808599257335373  0.2057185304196139  0.3892768909245320   T   T   T
  0.0010079957486987  0.0007335291664764  0.2294852838967083   T   T   T
  0.2225927627133191  0.1104612103433613  0.0755313368949500   T   T   T
  0.3325411463586062 -0.0003058264842060  0.9951400797526196   T   T   T
  0.4463838046559999  0.2188084877030312  0.1466292563381396   T   T   T
  0.5543338683833131  0.1136037819382183  0.3041764761129995   T   T   T
  0.4652321024364139  0.2161417256816273  0.3993638483080664   T   T   T
  0.3341942154588829 -0.0015080477198790  0.2288425921623246   T   T   T
  0.5557850866910143  0.1095624181346634  0.0737711780060865   T   T   T
  0.6691445644078905  0.0013768385158729  0.9951900072039647   T   T   T
  0.7735570585323343  0.2262426660563343  0.1509855238162629   T   T   T
  0.8863059198806802  0.1100057201557126  0.3015323626747090   T   T   T
  0.7774189977708087  0.2204029298421127  0.3846903805613738   T   T   T
  0.6655019716899355  0.0028506626133546  0.2280637270229794   T   T   T
  0.8873857199592760  0.1098571136353003  0.0774362742310831   T   T   T
 -0.0009076662033398  0.3312798284485240  0.9962796449381538   T   T   T
  0.1096622422258301  0.5553771606750668  0.1499563527356564   T   T   T
  0.2160505432326550  0.4497888310672218  0.3008027523265386   T   T   T
  0.1123801818087150  0.5591521726878058  0.3840174518202467   T   T   T
 -0.0017781477704823  0.3315053265214313  0.2271193679859658   T   T   T
  0.2222781846039147  0.4449753002684801  0.0747792856986225   T   T   T
  0.3312721109013562  0.3319784893888501  0.9953936295125270   T   T   T
  0.4466050187417916  0.5603391303597675  0.1460161516092599   T   T   T
  0.4625246877067182  0.5681695007420539  0.3794743092440689   T   T   T
  0.3452153098861523  0.3391049451774985  0.2236360549823339   T   T   T
  0.5552679437159711  0.4439258713120832  0.0718720034269880   T   T   T
  0.6682855356691887  0.3334070291587920  0.9951012413881647   T   T   T
  0.7785847374173789  0.5561180421792049  0.1472663870040827   T   T   T
  0.8920824465563042  0.4415511606374039  0.3041419428274089   T   T   T
  0.7589076088678092  0.5421272193443222  0.3760293878114008   T   T   T
  0.6578938827272132  0.3441987001405537  0.2358026620949840   T   T   T
  0.8902236369840834  0.4450104335561357  0.0747108426180971   T   T   T
  0.0001386055660706  0.6673649563596121  0.9957867212750113   T   T   T
  0.1096942755014109  0.8869691170195322  0.1510787809746901   T   T   T
  0.2189892555622875  0.7738517779973595  0.3013464423160495   T   T   T
  0.1127547165377464  0.8829412180037115  0.3840538790163757   T   T   T
  0.9965759251931503  0.6642920938614806  0.2297811249066466   T   T   T
  0.2225786870423455  0.7777073622431240  0.0747050728597794   T   T   T
  0.3329289075528588  0.6665179111415506  0.9949782926188173   T   T   T
  0.4445845597206198  0.8888619370256569  0.1491626761286747   T   T   T
  0.5587194932851574  0.7839023005142715  0.3011461611359771   T   T   T
  0.4422512394166447  0.8866777285193561  0.3803615120362011   T   T   T
  0.3362644033816511  0.6681174637359852  0.2281444604640510   T   T   T
  0.5566237915142278  0.7800780617289025  0.0736631628241122   T   T   T
  0.6680065440344420  0.6682119888880954  0.9952350785873808   T   T   T
  0.7746268787906929  0.8821602784927192  0.1525183792756202   T   T   T
  0.8906852563266390  0.7807315092141932  0.3053447957238499   T   T   T
  0.7757075988220856  0.8924364882200735  0.3846368209375964   T   T   T
  0.6575575832538475  0.6473432081616063  0.2351230399075336   T   T   T
  0.8897261803511584  0.7794816962994729  0.0751564315381251   T   T   T
  0.3343250641492624  0.3393592155252001  0.3513341322040958   T   T   T
  0.0056099890227481  0.0069569223833083  0.3444097787299332   T   T   T
  0.2242922134176864  0.1135436293429542  0.1922278303673843   T   T   T
  0.1113972778760424  0.2219555421686145  0.0368905716342847   T   T   T
  0.3272516761948738 -0.0073976541339498  0.3418212440940144   T   T   T
  0.5539958798482548  0.1112164791143531  0.1892755509919374   T   T   T
  0.4431740210090356  0.2198226409385971  0.0336402938323496   T   T   T
  0.6661573152529024  0.0000824366160649  0.3422754438021086   T   T   T
  0.8889895235104360  0.1115596925093892  0.1901120177975280   T   T   T
  0.7777509041109785  0.2223755820062280  0.0354294911016965   T   T   T
  0.0072019721577848  0.3318587318613023  0.3441613977991387   T   T   T
  0.2237131688156279  0.4434209123778785  0.1908834525140043   T   T   T
  0.1106672152587148  0.5546823952876602  0.0358828153369128   T   T   T
  0.5526387368158557  0.4434347688485092  0.1808838900779410   T   T   T
  0.4433926235965260  0.5565808137352855  0.0334932351892459   T   T   T
  0.6782918817634855  0.3277782257220517  0.3450206552992900   T   T   T
  0.8886533321224201  0.4448336266015583  0.1897466713430057   T   T   T
  0.7801054296328302  0.5570395099781739  0.0340145848211560   T   T   T
  0.0019122856760478  0.6657256528486976  0.3423865568378088   T   T   T
  0.2219962583930802  0.7768345837711617  0.1881719168499111   T   T   T
  0.1106922962066395  0.8895655772804053  0.0367308135099497   T   T   T
  0.3332235223712414  0.6618771624896637  0.3416685150760647   T   T   T
  0.5546586014274237  0.7772038978643310  0.1892304111153692   T   T   T
  0.4451904710015751  0.8893420094505020  0.0348437684849011   T   T   T
  0.6699260995961865  0.6795181532257579  0.3460859678804465   T   T   T
  0.8882708850834993  0.7765212603063659  0.1913038553402154   T   T   T
  0.7780313530311711  0.8889894736689827  0.0357741763758538   T   T   T
  0.4458864984039085  0.2373167047048594  0.4412253114020265   T   T   T
 
  0.00000000E+00  0.00000000E+00  0.00000000E+00
  0.00000000E+00  0.00000000E+00  0.00000000E+00
  0.00000000E+00  0.00000000E+00  0.00000000E+00
  0.00000000E+00  0.00000000E+00  0.00000000E+00
  0.00000000E+00  0.00000000E+00  0.00000000E+00
  0.00000000E+00  0.00000000E+00  0.00000000E+00
  0.00000000E+00  0.00000000E+00  0.00000000E+00
  0.00000000E+00  0.00000000E+00  0.00000000E+00
  0.00000000E+00  0.00000000E+00  0.00000000E+00
  0.00000000E+00  0.00000000E+00  0.00000000E+00
  0.00000000E+00  0.00000000E+00  0.00000000E+00
  0.00000000E+00  0.00000000E+00  0.00000000E+00
  0.00000000E+00  0.00000000E+00  0.00000000E+00
  0.00000000E+00  0.00000000E+00  0.00000000E+00
  0.00000000E+00  0.00000000E+00  0.00000000E+00
  0.00000000E+00  0.00000000E+00  0.00000000E+00
  0.00000000E+00  0.00000000E+00  0.00000000E+00
  0.00000000E+00  0.00000000E+00  0.00000000E+00
  0.00000000E+00  0.00000000E+00  0.00000000E+00
  0.00000000E+00  0.00000000E+00  0.00000000E+00
  0.00000000E+00  0.00000000E+00  0.00000000E+00
  0.00000000E+00  0.00000000E+00  0.00000000E+00
  0.00000000E+00  0.00000000E+00  0.00000000E+00
  0.00000000E+00  0.00000000E+00  0.00000000E+00
  0.00000000E+00  0.00000000E+00  0.00000000E+00
  0.00000000E+00  0.00000000E+00  0.00000000E+00
  0.00000000E+00  0.00000000E+00  0.00000000E+00
  0.00000000E+00  0.00000000E+00  0.00000000E+00
  0.00000000E+00  0.00000000E+00  0.00000000E+00
  0.00000000E+00  0.00000000E+00  0.00000000E+00
  0.00000000E+00  0.00000000E+00  0.00000000E+00
  0.00000000E+00  0.00000000E+00  0.00000000E+00
  0.00000000E+00  0.00000000E+00  0.00000000E+00
  0.00000000E+00  0.00000000E+00  0.00000000E+00
  0.00000000E+00  0.00000000E+00  0.00000000E+00
  0.00000000E+00  0.00000000E+00  0.00000000E+00
  0.00000000E+00  0.00000000E+00  0.00000000E+00
  0.00000000E+00  0.00000000E+00  0.00000000E+00
  0.00000000E+00  0.00000000E+00  0.00000000E+00
  0.00000000E+00  0.00000000E+00  0.00000000E+00
  0.00000000E+00  0.00000000E+00  0.00000000E+00
  0.00000000E+00  0.00000000E+00  0.00000000E+00
  0.00000000E+00  0.00000000E+00  0.00000000E+00
  0.00000000E+00  0.00000000E+00  0.00000000E+00
  0.00000000E+00  0.00000000E+00  0.00000000E+00
  0.00000000E+00  0.00000000E+00  0.00000000E+00
  0.00000000E+00  0.00000000E+00  0.00000000E+00
  0.00000000E+00  0.00000000E+00  0.00000000E+00
  0.00000000E+00  0.00000000E+00  0.00000000E+00
  0.00000000E+00  0.00000000E+00  0.00000000E+00
  0.00000000E+00  0.00000000E+00  0.00000000E+00
  0.00000000E+00  0.00000000E+00  0.00000000E+00
  0.00000000E+00  0.00000000E+00  0.00000000E+00
  0.00000000E+00  0.00000000E+00  0.00000000E+00
  0.00000000E+00  0.00000000E+00  0.00000000E+00
  0.00000000E+00  0.00000000E+00  0.00000000E+00
  0.00000000E+00  0.00000000E+00  0.00000000E+00
  0.00000000E+00  0.00000000E+00  0.00000000E+00
  0.00000000E+00  0.00000000E+00  0.00000000E+00
  0.00000000E+00  0.00000000E+00  0.00000000E+00
  0.00000000E+00  0.00000000E+00  0.00000000E+00
  0.00000000E+00  0.00000000E+00  0.00000000E+00
  0.00000000E+00  0.00000000E+00  0.00000000E+00
  0.00000000E+00  0.00000000E+00  0.00000000E+00
  0.00000000E+00  0.00000000E+00  0.00000000E+00
  0.00000000E+00  0.00000000E+00  0.00000000E+00
  0.00000000E+00  0.00000000E+00  0.00000000E+00
  0.00000000E+00  0.00000000E+00  0.00000000E+00
  0.00000000E+00  0.00000000E+00  0.00000000E+00
  0.00000000E+00  0.00000000E+00  0.00000000E+00
  0.00000000E+00  0.00000000E+00  0.00000000E+00
  0.00000000E+00  0.00000000E+00  0.00000000E+00
  0.00000000E+00  0.00000000E+00  0.00000000E+00
  0.00000000E+00  0.00000000E+00  0.00000000E+00
  0.00000000E+00  0.00000000E+00  0.00000000E+00
  0.00000000E+00  0.00000000E+00  0.00000000E+00
  0.00000000E+00  0.00000000E+00  0.00000000E+00
  0.00000000E+00  0.00000000E+00  0.00000000E+00
  0.00000000E+00  0.00000000E+00  0.00000000E+00
  0.00000000E+00  0.00000000E+00  0.00000000E+00
  0.00000000E+00  0.00000000E+00  0.00000000E+00
