CeO2-you-111-you-Tc                     
   1.00000000000000     
     9.8083651651070269   -5.6628626365728527   -0.0000000005876470
     0.0318403375018915   11.3808723587683538   -0.0120479011159015
    -0.0132122329179355   -0.0228842549102817   20.5233113862758856
   O    Tc   Ce   H 
    53     1    26     2
Selective dynamics
Direct
  0.9991418735519796 -0.0008780823143141  0.9897201274790174   T   T   T
  0.1057534737188277  0.2195847411628051  0.1459552818899894   F   F   F
  0.2381114156078624  0.1316198935410316  0.3074201171906443   T   T   T
  0.1280123335515084  0.2308716166170278  0.3900966860733867   T   T   T
  0.0035115561601696  0.0018143488175881  0.2310139528336758   T   T   T
  0.2216685775858238  0.1100041551716799  0.0703430799179117   F   F   F
  0.3335351225413051  0.9985216106500499  0.9897183413524488   T   T   T
  0.4471642674437177  0.2195847411624783  0.1459552818899894   F   F   F
  0.5526066105480898  0.1217901561446369  0.3097835009256256   T   T   T
  0.4261701204970383  0.2273099588892366  0.4048277217962256   T   T   T
  0.3313593531594679 -0.0002159247231594  0.2303106282155958   T   T   T
  0.5579420179922607  0.1097834538744564  0.0720410172693278   F   F   F
  0.6662449635016046  0.9984289134819320  0.9889604789827874   T   T   T
  0.7795445001718804  0.2257550003438240  0.1526843199940018   F   F   F
  0.8959037838694546  0.1183540781114991  0.3077646961482627   T   T   T
  0.7812104142170995  0.2283514848823821  0.3887301195968498   T   T   T
  0.6665991002711626  0.0029932645609435  0.2337116494966995   T   T   T
  0.8851754358822035  0.1097834538746838  0.0720410172693207   F   F   F
  0.9992985214292062  0.3309864555447577  0.9895000515861712   T   T   T
  0.1096380653247948  0.5554256313238639  0.1474157617063838   F   F   F
  0.2478437851500611  0.4350066245068265  0.3111363467665442   T   T   T
  0.1014185037055031  0.5490006989982514  0.3886293486309163   T   T   T
  0.0100786197081326  0.3401453925436151  0.2331299114552889   T   T   T
  0.2219002744044758  0.4430482507079461  0.0713731982037444   F   F   F
  0.3324148927618653  0.3313816288874596  0.9892780568839245   T   T   T
  0.4473122327684038  0.5612924655368374  0.1463593343836536   F   F   F
  0.5183583911119537  0.4264506836644631  0.3160272394103398   T   T   T
  0.3328861785470495  0.3320896815266716  0.2144789074924956   T   T   T
  0.5544819763032294  0.4430482507076334  0.0713731982037444   F   F   F
  0.6656032209865121  0.3317510551892094  0.9892824069637177   T   T   T
  0.7791205659992357  0.5554256313237431  0.1474157617064193   F   F   F
  0.8887291640869193  0.4445458263152028  0.3056967622668733   T   T   T
  0.7821421282086287  0.5484189619251375  0.3901227643965592   T   T   T
  0.6643966987922775  0.3403630537757189  0.2327553793706306   T   T   T
  0.8872664340452019  0.4411988680905381  0.0714804035102929   F   F   F
  0.9987665616272872  0.6645385913310935  0.9900410689937972   T   T   T
  0.1105524836685561  0.8877719673366045  0.1467984381463125   F   F   F
  0.2205772544427405  0.7811516002241891  0.3067641291973941   T   T   T
  0.1163202694903826  0.8954854153604477  0.3890528891610235   T   T   T
 -0.0000879364556425  0.6674986897353800  0.2303451791819106   T   T   T
  0.2229747817566832  0.7777600769607531  0.0712303048063347   F   F   F
  0.3328869682045105  0.6652265918333722  0.9898283453062643   T   T   T
  0.4451201323208593  0.8896306305189725  0.1502669403966195   F   F   F
  0.5577222646655544  0.7800960065875658  0.3105775914533841   T   T   T
  0.4498637103477331  0.9059186015955313  0.3910843242703502   T   T   T
  0.3305621603027813  0.6641579762342975  0.2300214075742161   T   T   T
  0.5562839389919105  0.7792338779838559  0.0719441778796437   F   F   F
  0.6653390073096197  0.6650055067708740  0.9899032032767026   T   T   T
  0.7778434981983864  0.8896306305194770  0.1502669403966124   F   F   F
  0.8958777934399358  0.7824356946429563  0.3080245081454210   T   T   T
  0.7907171993295187  0.9081950670009324  0.3911912351032341   T   T   T
  0.6668407529038470  0.6625893912660608  0.2304660507263688   T   T   T
  0.8881182952040803  0.7777600769606536  0.0712303048063063   F   F   F
  0.3215950513144748  0.3293403306531262  0.3519514584723777   T   T   T
  0.0072093756626238  0.0075802744281120  0.3479964666103742   T   T   T
  0.2226935016748826  0.1120540033488808  0.1852518499700722   F   F   F
  0.1094141709048060  0.2208071318405729  0.0296780252904725   F   F   F
  0.3301064178126238 -0.0007232617560134  0.3466019394477843   T   T   T
  0.5550137708199614  0.1123009750081039  0.1909889979469881   F   F   F
  0.4447259609355996  0.2208071318405942  0.0296780252905151   F   F   F
  0.6694960414098081  0.0042353094843820  0.3502823887571500   T   T   T
  0.8906212041874539  0.1123009750071304  0.1909889979471302   F   F   F
  0.7770872714344392  0.2208405428688351  0.0310025675113508   F   F   F
  0.0048034619318924  0.3357106558617697  0.3483698525551492   T   T   T
  0.2256542590848554  0.4444437559351400  0.1867609336597127   F   F   F
  0.1102509449378388  0.5541737300202314  0.0311273460050359   F   F   F
  0.5521234968511308  0.4444437559357084  0.1867609336599116   F   F   F
  0.4445457318030321  0.5557594636058312  0.0298083933907520   F   F   F
  0.6704074864646059  0.3399961447713062  0.3469700828271137   T   T   T
  0.8896801005437567  0.4460262010871645  0.1907999907378510   F   F   F
  0.7772557850826374  0.5541737300204161  0.0311273460050288   F   F   F
  0.0004219354774080  0.6668752689088971  0.3475340569739250   T   T   T
  0.2223730515523172  0.7779039273018569  0.1890464419998636   F   F   F
  0.1103624608040121  0.8873919216077937  0.0303401290890264   F   F   F
  0.3310592856819691  0.6718097648687793  0.3490099502911980   T   T   T
  0.5557635368197253  0.7781930736396490  0.1920814569763252   F   F   F
  0.4452252427451029  0.8884228707273820  0.0314904340161206   F   F   F
  0.6753369654260363  0.6715745572188800  0.3484865427865543   T   T   T
  0.8888638757483989  0.7779039273015016  0.1890464419999347   F   F   F
  0.7765306279824600  0.8884228707274531  0.0314904340160638   F   F   F
  0.3882472577229010  0.4619223145160884  0.4077243571231933   T   T   T
  0.4199349826804414  0.2333154729496150  0.4518797957753180   T   T   T
 
  0.00000000E+00  0.00000000E+00  0.00000000E+00
  0.00000000E+00  0.00000000E+00  0.00000000E+00
  0.00000000E+00  0.00000000E+00  0.00000000E+00
  0.00000000E+00  0.00000000E+00  0.00000000E+00
  0.00000000E+00  0.00000000E+00  0.00000000E+00
  0.00000000E+00  0.00000000E+00  0.00000000E+00
  0.00000000E+00  0.00000000E+00  0.00000000E+00
  0.00000000E+00  0.00000000E+00  0.00000000E+00
  0.00000000E+00  0.00000000E+00  0.00000000E+00
  0.00000000E+00  0.00000000E+00  0.00000000E+00
  0.00000000E+00  0.00000000E+00  0.00000000E+00
  0.00000000E+00  0.00000000E+00  0.00000000E+00
  0.00000000E+00  0.00000000E+00  0.00000000E+00
  0.00000000E+00  0.00000000E+00  0.00000000E+00
  0.00000000E+00  0.00000000E+00  0.00000000E+00
  0.00000000E+00  0.00000000E+00  0.00000000E+00
  0.00000000E+00  0.00000000E+00  0.00000000E+00
  0.00000000E+00  0.00000000E+00  0.00000000E+00
  0.00000000E+00  0.00000000E+00  0.00000000E+00
  0.00000000E+00  0.00000000E+00  0.00000000E+00
  0.00000000E+00  0.00000000E+00  0.00000000E+00
  0.00000000E+00  0.00000000E+00  0.00000000E+00
  0.00000000E+00  0.00000000E+00  0.00000000E+00
  0.00000000E+00  0.00000000E+00  0.00000000E+00
  0.00000000E+00  0.00000000E+00  0.00000000E+00
  0.00000000E+00  0.00000000E+00  0.00000000E+00
  0.00000000E+00  0.00000000E+00  0.00000000E+00
  0.00000000E+00  0.00000000E+00  0.00000000E+00
  0.00000000E+00  0.00000000E+00  0.00000000E+00
  0.00000000E+00  0.00000000E+00  0.00000000E+00
  0.00000000E+00  0.00000000E+00  0.00000000E+00
  0.00000000E+00  0.00000000E+00  0.00000000E+00
  0.00000000E+00  0.00000000E+00  0.00000000E+00
  0.00000000E+00  0.00000000E+00  0.00000000E+00
  0.00000000E+00  0.00000000E+00  0.00000000E+00
  0.00000000E+00  0.00000000E+00  0.00000000E+00
  0.00000000E+00  0.00000000E+00  0.00000000E+00
  0.00000000E+00  0.00000000E+00  0.00000000E+00
  0.00000000E+00  0.00000000E+00  0.00000000E+00
  0.00000000E+00  0.00000000E+00  0.00000000E+00
  0.00000000E+00  0.00000000E+00  0.00000000E+00
  0.00000000E+00  0.00000000E+00  0.00000000E+00
  0.00000000E+00  0.00000000E+00  0.00000000E+00
  0.00000000E+00  0.00000000E+00  0.00000000E+00
  0.00000000E+00  0.00000000E+00  0.00000000E+00
  0.00000000E+00  0.00000000E+00  0.00000000E+00
  0.00000000E+00  0.00000000E+00  0.00000000E+00
  0.00000000E+00  0.00000000E+00  0.00000000E+00
  0.00000000E+00  0.00000000E+00  0.00000000E+00
  0.00000000E+00  0.00000000E+00  0.00000000E+00
  0.00000000E+00  0.00000000E+00  0.00000000E+00
  0.00000000E+00  0.00000000E+00  0.00000000E+00
  0.00000000E+00  0.00000000E+00  0.00000000E+00
  0.00000000E+00  0.00000000E+00  0.00000000E+00
  0.00000000E+00  0.00000000E+00  0.00000000E+00
  0.00000000E+00  0.00000000E+00  0.00000000E+00
  0.00000000E+00  0.00000000E+00  0.00000000E+00
  0.00000000E+00  0.00000000E+00  0.00000000E+00
  0.00000000E+00  0.00000000E+00  0.00000000E+00
  0.00000000E+00  0.00000000E+00  0.00000000E+00
  0.00000000E+00  0.00000000E+00  0.00000000E+00
  0.00000000E+00  0.00000000E+00  0.00000000E+00
  0.00000000E+00  0.00000000E+00  0.00000000E+00
  0.00000000E+00  0.00000000E+00  0.00000000E+00
  0.00000000E+00  0.00000000E+00  0.00000000E+00
  0.00000000E+00  0.00000000E+00  0.00000000E+00
  0.00000000E+00  0.00000000E+00  0.00000000E+00
  0.00000000E+00  0.00000000E+00  0.00000000E+00
  0.00000000E+00  0.00000000E+00  0.00000000E+00
  0.00000000E+00  0.00000000E+00  0.00000000E+00
  0.00000000E+00  0.00000000E+00  0.00000000E+00
  0.00000000E+00  0.00000000E+00  0.00000000E+00
  0.00000000E+00  0.00000000E+00  0.00000000E+00
  0.00000000E+00  0.00000000E+00  0.00000000E+00
  0.00000000E+00  0.00000000E+00  0.00000000E+00
  0.00000000E+00  0.00000000E+00  0.00000000E+00
  0.00000000E+00  0.00000000E+00  0.00000000E+00
  0.00000000E+00  0.00000000E+00  0.00000000E+00
  0.00000000E+00  0.00000000E+00  0.00000000E+00
  0.00000000E+00  0.00000000E+00  0.00000000E+00
  0.00000000E+00  0.00000000E+00  0.00000000E+00
  0.00000000E+00  0.00000000E+00  0.00000000E+00
