CeO2-you-111-you-Ti                     
   1.00000000000000     
     9.8409571659083532   -5.6876494504878057    0.0227002394230686
     0.0000000004810956   11.3752969000920654   -0.0000000026411335
     0.0498716554239602   -0.0000000050673935   21.0351206131162982
   O    Ti   Ce   H 
    53     1    26     1
Selective dynamics
Direct
  0.0006349682547636  0.0023468314597150  0.9952985045913890   T   T   T
  0.1153268339043880  0.2251401014769741  0.1493208831585889   T   T   T
  0.2398339148643104  0.1310118018033505  0.3072812002492348   T   T   T
  0.1252510953408489  0.2342215037131932  0.3786827715459247   T   T   T
  0.0067051399396285  0.0047374944738559  0.2304321327650644   T   T   T
  0.2229989700620023  0.1120931004573032  0.0737886077973611   T   T   T
  0.3350915882264690  0.0021124421670619  0.9944263346002411   T   T   T
  0.4434553784947345  0.2226431576914298  0.1471498385501286   T   T   T
  0.5503330403105966  0.1079550594003501  0.3041417423995834   T   T   T
  0.4528841859812650  0.1868642593004031  0.4118202130763240   T   T   T
  0.3299659990606036  0.0010833233350883  0.2288326914017171   T   T   T
  0.5565750620443496  0.1128777771679951  0.0744795895336181   T   T   T
  0.6697226143981378  0.0022125331901424  0.9955606373846045   T   T   T
  0.7748399131442698  0.2254544714471934  0.1523744745099911   T   T   T
  0.8916149983022105  0.1127818732248502  0.3036307518094135   T   T   T
  0.7824510376488913  0.2168441180866739  0.3870490705662746   T   T   T
  0.6674812742652819  0.0012694666815378  0.2300500598485417   T   T   T
  0.8884600035140428  0.1119915100068397  0.0772380556417192   T   T   T
  0.0006219582090328  0.3331170952583058  0.9953820664499324   T   T   T
  0.1090401871475778  0.5569144678567595  0.1487768296705114   T   T   T
  0.2221775934438684  0.4402473153846315  0.3023580455498942   T   T   T
  0.0961603981581878  0.5476080839956508  0.3862796408210816   T   T   T
  0.0013597920284984  0.3344662490635716  0.2277382183417594   T   T   T
  0.2224990967905682  0.4470374676747111  0.0735807041603224   T   T   T
  0.3330695204233960  0.3350583614652927  0.9943888836412534   T   T   T
  0.4441593817643344  0.5571460749784625  0.1470572964394479   T   T   T
  0.4550450926609594  0.4405776634931861  0.3590234740198937   T   T   T
  0.3390531071539320  0.3394547048180487  0.2318173777378487   T   T   T
  0.5565140935107276  0.4462449024980731  0.0717902317858297   T   T   T
  0.6681707913379313  0.3342459068423879  0.9940184863046017   T   T   T
  0.7791279423889419  0.5574974242789662  0.1467154172022365   T   T   T
  0.8897134341697290  0.4421231286430815  0.3020637829477203   T   T   T
  0.7877382645516797  0.5602881098481812  0.3861195780399101   T   T   T
  0.6553315679798412  0.3437669314606774  0.2333523585980335   T   T   T
  0.8889400857481564  0.4449953262852118  0.0736636025753791   T   T   T
  0.0018168088000974  0.6691732119587604  0.9946171075702945   T   T   T
  0.1102514435384029  0.8901434555205789  0.1494926165713929   T   T   T
  0.2189598684778081  0.7792327170366322  0.3037164533218533   T   T   T
  0.1126631037187841  0.8945710961503606  0.3839064243361398   T   T   T
  0.9978203155809856  0.6669096770735061  0.2287685836054249   T   T   T
  0.2238838036324097  0.7801892188338717  0.0744523897790700   T   T   T
  0.3355950844648276  0.6694203641875449  0.9945719741416058   T   T   T
  0.4462335678313523  0.8918950692960329  0.1510048537481458   T   T   T
  0.5553205779819761  0.7779831082798788  0.3065296869190209   T   T   T
  0.4465014164081882  0.8965566963524559  0.3873031068634438   T   T   T
  0.3314821284696695  0.6665354351462108  0.2273201459971664   T   T   T
  0.5567701302938317  0.7803488956492840  0.0753473870856323   T   T   T
  0.6689820664124917  0.6706004353737097  0.9947207308157721   T   T   T
  0.7772511608059226  0.8864183390346618  0.1531720109058437   T   T   T
  0.8934036870918790  0.7844037960392568  0.3037037788809142   T   T   T
  0.7878510285274065  0.9030222202930737  0.3876776867397561   T   T   T
  0.6596952194912933  0.6504260725708612  0.2324639863329360   T   T   T
  0.8900087885865640  0.7801750797375201  0.0747106026075612   T   T   T
  0.2910778192765042  0.3227572922795527  0.3250520412281892   T   T   T
  0.0034944694287314  0.0039331903951792  0.3447270535932384   T   T   T
  0.2237562609980232  0.1122376919192969  0.1890935633757998   T   T   T
  0.1119036630142130  0.2236223005579762  0.0348423512948206   T   T   T
  0.3326014549929560  0.9963769751577320  0.3464040238490222   T   T   T
  0.5542804403073368  0.1132355940886678  0.1921764816616454   T   T   T
  0.4450367536217892  0.2222912195399548  0.0327250351532090   T   T   T
  0.6662614327429661 -0.0002361030370019  0.3457230214905568   T   T   T
  0.8895946380938632  0.1126880309278995  0.1908943837978042   T   T   T
  0.7783173385089622  0.2236954411857450  0.0357201274289695   T   T   T
 -0.0035089816999645  0.3341625520907793  0.3441945696489265   T   T   T
  0.2215615097158869  0.4475409458587031  0.1872412219170132   T   T   T
  0.1114342432754157  0.5570905934232163  0.0347056119807590   T   T   T
  0.5555881081306681  0.4459317503125030  0.1819653948126554   T   T   T
  0.4453290436696651  0.5592351332383573  0.0330737731575539   T   T   T
  0.6675901019306227  0.3295305673589422  0.3538319599323277   T   T   T
  0.8860605802820389  0.4452848596454296  0.1910078598607230   T   T   T
  0.7805777535961768  0.5581951771062580  0.0332959233539476   T   T   T
 -0.0038783521076528  0.6640992787857415  0.3444834298420943   T   T   T
  0.2218385406408265  0.7792609645973212  0.1889438781218289   T   T   T
  0.1120632377864704  0.8911870354974398  0.0350119111763700   T   T   T
  0.3260227948700514  0.6704235194857660  0.3449569486401403   T   T   T
  0.5548929410966230  0.7775542958504585  0.1928049142089567   T   T   T
  0.4470251051626239  0.8915538418367447  0.0359668025848324   T   T   T
  0.6753498014737805  0.6739171616625459  0.3491114722245044   T   T   T
  0.8885566939014944  0.7776210652919725  0.1909370292823884   T   T   T
  0.7787078769381729  0.8905275976452525  0.0362331756403515   T   T   T
  0.4126682050136873  0.2354230998342132  0.4320469608041558   T   T   T
 
  0.00000000E+00  0.00000000E+00  0.00000000E+00
  0.00000000E+00  0.00000000E+00  0.00000000E+00
  0.00000000E+00  0.00000000E+00  0.00000000E+00
  0.00000000E+00  0.00000000E+00  0.00000000E+00
  0.00000000E+00  0.00000000E+00  0.00000000E+00
  0.00000000E+00  0.00000000E+00  0.00000000E+00
  0.00000000E+00  0.00000000E+00  0.00000000E+00
  0.00000000E+00  0.00000000E+00  0.00000000E+00
  0.00000000E+00  0.00000000E+00  0.00000000E+00
  0.00000000E+00  0.00000000E+00  0.00000000E+00
  0.00000000E+00  0.00000000E+00  0.00000000E+00
  0.00000000E+00  0.00000000E+00  0.00000000E+00
  0.00000000E+00  0.00000000E+00  0.00000000E+00
  0.00000000E+00  0.00000000E+00  0.00000000E+00
  0.00000000E+00  0.00000000E+00  0.00000000E+00
  0.00000000E+00  0.00000000E+00  0.00000000E+00
  0.00000000E+00  0.00000000E+00  0.00000000E+00
  0.00000000E+00  0.00000000E+00  0.00000000E+00
  0.00000000E+00  0.00000000E+00  0.00000000E+00
  0.00000000E+00  0.00000000E+00  0.00000000E+00
  0.00000000E+00  0.00000000E+00  0.00000000E+00
  0.00000000E+00  0.00000000E+00  0.00000000E+00
  0.00000000E+00  0.00000000E+00  0.00000000E+00
  0.00000000E+00  0.00000000E+00  0.00000000E+00
  0.00000000E+00  0.00000000E+00  0.00000000E+00
  0.00000000E+00  0.00000000E+00  0.00000000E+00
  0.00000000E+00  0.00000000E+00  0.00000000E+00
  0.00000000E+00  0.00000000E+00  0.00000000E+00
  0.00000000E+00  0.00000000E+00  0.00000000E+00
  0.00000000E+00  0.00000000E+00  0.00000000E+00
  0.00000000E+00  0.00000000E+00  0.00000000E+00
  0.00000000E+00  0.00000000E+00  0.00000000E+00
  0.00000000E+00  0.00000000E+00  0.00000000E+00
  0.00000000E+00  0.00000000E+00  0.00000000E+00
  0.00000000E+00  0.00000000E+00  0.00000000E+00
  0.00000000E+00  0.00000000E+00  0.00000000E+00
  0.00000000E+00  0.00000000E+00  0.00000000E+00
  0.00000000E+00  0.00000000E+00  0.00000000E+00
  0.00000000E+00  0.00000000E+00  0.00000000E+00
  0.00000000E+00  0.00000000E+00  0.00000000E+00
  0.00000000E+00  0.00000000E+00  0.00000000E+00
  0.00000000E+00  0.00000000E+00  0.00000000E+00
  0.00000000E+00  0.00000000E+00  0.00000000E+00
  0.00000000E+00  0.00000000E+00  0.00000000E+00
  0.00000000E+00  0.00000000E+00  0.00000000E+00
  0.00000000E+00  0.00000000E+00  0.00000000E+00
  0.00000000E+00  0.00000000E+00  0.00000000E+00
  0.00000000E+00  0.00000000E+00  0.00000000E+00
  0.00000000E+00  0.00000000E+00  0.00000000E+00
  0.00000000E+00  0.00000000E+00  0.00000000E+00
  0.00000000E+00  0.00000000E+00  0.00000000E+00
  0.00000000E+00  0.00000000E+00  0.00000000E+00
  0.00000000E+00  0.00000000E+00  0.00000000E+00
  0.00000000E+00  0.00000000E+00  0.00000000E+00
  0.00000000E+00  0.00000000E+00  0.00000000E+00
  0.00000000E+00  0.00000000E+00  0.00000000E+00
  0.00000000E+00  0.00000000E+00  0.00000000E+00
  0.00000000E+00  0.00000000E+00  0.00000000E+00
  0.00000000E+00  0.00000000E+00  0.00000000E+00
  0.00000000E+00  0.00000000E+00  0.00000000E+00
  0.00000000E+00  0.00000000E+00  0.00000000E+00
  0.00000000E+00  0.00000000E+00  0.00000000E+00
  0.00000000E+00  0.00000000E+00  0.00000000E+00
  0.00000000E+00  0.00000000E+00  0.00000000E+00
  0.00000000E+00  0.00000000E+00  0.00000000E+00
  0.00000000E+00  0.00000000E+00  0.00000000E+00
  0.00000000E+00  0.00000000E+00  0.00000000E+00
  0.00000000E+00  0.00000000E+00  0.00000000E+00
  0.00000000E+00  0.00000000E+00  0.00000000E+00
  0.00000000E+00  0.00000000E+00  0.00000000E+00
  0.00000000E+00  0.00000000E+00  0.00000000E+00
  0.00000000E+00  0.00000000E+00  0.00000000E+00
  0.00000000E+00  0.00000000E+00  0.00000000E+00
  0.00000000E+00  0.00000000E+00  0.00000000E+00
  0.00000000E+00  0.00000000E+00  0.00000000E+00
  0.00000000E+00  0.00000000E+00  0.00000000E+00
  0.00000000E+00  0.00000000E+00  0.00000000E+00
  0.00000000E+00  0.00000000E+00  0.00000000E+00
  0.00000000E+00  0.00000000E+00  0.00000000E+00
  0.00000000E+00  0.00000000E+00  0.00000000E+00
  0.00000000E+00  0.00000000E+00  0.00000000E+00
