CeO2-you-111-you-Ir                     
   1.00000000000000     
     9.8507512437236411   -5.6719206299868103   -0.0021654055961505
    -0.0000000004961807   11.3438392628842966    0.0000000003772081
    -0.0035056149597278    0.0000000005414563   21.0795775007116006
   O    Ir   Ce   H 
    53     1    26     2
Selective dynamics
Direct
  0.9992742079838504  0.0007783752683449  0.9957720871457278   T   T   T
  0.1204427401711072  0.2268878700864576  0.1520267612920989   F   F   F
  0.2226545377260255  0.1314161173801237  0.3080292491340019   T   T   T
  0.1073233586128554  0.2155376107931469  0.3860517516061089   T   T   T
  0.0004747749538615  0.0003904016407883  0.2287259766249896   T   T   T
  0.2210277241992458  0.1098369008468012  0.0743938070317043   F   F   F
  0.3336138474435225  0.9995928161448534  0.9954947530126381   T   T   T
  0.4425818603421021  0.2207588273908314  0.1477135610899012   F   F   F
  0.5567305336271996  0.1074210627131666  0.3063405535104680   T   T   T
  0.4300383286742834  0.2531731501349739  0.3878018173917864   T   T   T
  0.3293157615812754  0.0007675214659304  0.2301652077407925   T   T   T
  0.5548499079185660  0.1100899504894670  0.0756724428632651   F   F   F
  0.6691103641149603  0.0011810986324868  0.9966377769876179   T   T   T
  0.7729579358855574  0.2229969106459393  0.1517333253930033   F   F   F
  0.8886619186237907  0.1107780224996731  0.3035942312092667   T   T   T
  0.7842747560088956  0.2171037303030476  0.3892122360598678   T   T   T
  0.6673688433958336 -0.0000160798382348  0.2292061997194923   T   T   T
  0.8903252004191344  0.1118291002093201  0.0783770293961439   F   F   F
  0.9987311628131820  0.3306391189670696  0.9958006711297726   T   T   T
  0.1112549446168885  0.5555599922398855  0.1503975135843163   F   F   F
  0.2153802278421495  0.4259963314763028  0.3061245670255160   T   T   T
  0.1173411720699511  0.5530695778508380  0.3845128685542238   T   T   T
 -0.0001234296195049  0.3327556147288067  0.2285000671742216   T   T   T
  0.2210277241992031  0.4445238233507283  0.0743938070315195   F   F   F
  0.3320154861803323  0.3326879169482181  0.9951956278407458   T   T   T
  0.4425818603410079  0.5551570329516053  0.1477135610911020   F   F   F
  0.4435316067000686  0.5133498969564690  0.3585057474592374   T   T   T
  0.3526860751209461  0.3438771045746050  0.2326561757733837   T   T   T
  0.5561274628051223  0.4447297314030365  0.0722670735770095   F   F   F
  0.6679281774089028  0.3322937348267556  0.9954563146938166   T   T   T
  0.7800467495448800  0.5566903747742487  0.1471781189344767   F   F   F
  0.8953564451749626  0.4425263035681203  0.3040960176839582   T   T   T
  0.7880961046423810  0.5583583026693137  0.3854584554164888   T   T   T
  0.6604415051674173  0.3429068974332096  0.2342408810237948   T   T   T
  0.8902937496996088  0.4443573287704439  0.0750113825024314   F   F   F
  0.0001305810355374  0.6667989495872632  0.9951203958461114   T   T   T
  0.1112549446161069  0.8890289523741188  0.1503975135843518   F   F   F
  0.2206167828286039  0.7702796729132562  0.3037481965989204   T   T   T
  0.1001340097447993  0.8818206747993841  0.3856981331854413   T   T   T
  0.9983965475334904  0.6647523483374201  0.2292027850935685   T   T   T
  0.2222691746723697  0.7778015873361994  0.0755933440646217   F   F   F
  0.3335969406522299  0.6679360286179714  0.9953284497542187   T   T   T
  0.4438891856679135  0.8886115928337333  0.1523461887348745   F   F   F
  0.5533461252909270  0.7790760940095462  0.3041537427066507   T   T   T
  0.4438788938305237  0.8726014602793035  0.3879587247728640   T   T   T
  0.3305126219704667  0.6606740141727019  0.2309504903949021   T   T   T
  0.5548499079187437  0.7780929574309496  0.0756724428634143   F   F   F
  0.6680056570846600  0.6691500122047328  0.9954809165887434   T   T   T
  0.7729579358843566  0.8832940252381363  0.1517333253918807   F   F   F
  0.8942041179183353  0.7814949164699352  0.3023609427163507   T   T   T
  0.7840242379451137  0.8998117501774155  0.3875452982454558   T   T   T
  0.6611523487162777  0.6518912364193552  0.2323373105442643   T   T   T
  0.8902937496995236  0.7792694209288840  0.0750113825026304   F   F   F
  0.3015538595218598  0.3255771639024965  0.3469922631166092   T   T   T
 -0.0008897492778634 -0.0023374029432589  0.3439720498873432   T   T   T
  0.2224622100729903  0.1110038506204418  0.1895318306231673   F   F   F
  0.1111854445264626  0.2222592222636735  0.0354719285667855   F   F   F
  0.3284585931696047 -0.0072403955415050  0.3465261246557675   T   T   T
  0.5550959479168327  0.1123925971098600  0.1922629170250758   F   F   F
  0.4437897324946505  0.2202239309758909  0.0342371694442747   F   F   F
  0.6650614580920517  0.9970409944566051  0.3455629739493760   T   T   T
  0.8883268369558195  0.1108299184794248  0.1909950289347648   F   F   F
  0.7775991110860687  0.2221473439963333  0.0366846613596792   F   F   F
 -0.0029345113280865  0.3294700281739297  0.3449079157891126   T   T   T
  0.2224622100728482  0.4447913594502637  0.1895318306234373   F   F   F
  0.1107028738121940  0.5550723075699082  0.0358398401598450   F   F   F
  0.5584555095733350  0.4458937547869226  0.1823999036587480   F   F   F
  0.4437897324948707  0.5568998015180284  0.0342371694442392   F   F   F
  0.6783893173029458  0.3314685344584687  0.3497050471535075   T   T   T
  0.8877588633557068  0.4440264136461636  0.1913374652183180   F   F   F
  0.7799417646937385  0.5566378823468199  0.0340547880957018   F   F   F
  0.0005575139490374  0.6656816882314280  0.3450408270548481   T   T   T
  0.2211248793410547  0.7772294396719914  0.1899088711698553   F   F   F
  0.1107028738124427  0.8889645662425281  0.0358398401600368   F   F   F
  0.3323955829084780  0.6642468350988753  0.3424868498994809   T   T   T
  0.5550959479198525  0.7760363508044179  0.1922629170255306   F   F   F
  0.4448999731260628  0.8891169865632946  0.0368835565064458   F   F   F
  0.6772318184110362  0.6758814234108338  0.3492442346478473   T   T   T
  0.8877588633587834  0.7770654497173908  0.1913374652195330   F   F   F
  0.7775991110866585  0.8887847670895894  0.0366846613594731   F   F   F
  0.2959882251888349  0.3524758348773658  0.4187886698672139   T   T   T
  0.4267619481822880  0.2699685684703089  0.4328861339276051   T   T   T
 
  0.00000000E+00  0.00000000E+00  0.00000000E+00
  0.00000000E+00  0.00000000E+00  0.00000000E+00
  0.00000000E+00  0.00000000E+00  0.00000000E+00
  0.00000000E+00  0.00000000E+00  0.00000000E+00
  0.00000000E+00  0.00000000E+00  0.00000000E+00
  0.00000000E+00  0.00000000E+00  0.00000000E+00
  0.00000000E+00  0.00000000E+00  0.00000000E+00
  0.00000000E+00  0.00000000E+00  0.00000000E+00
  0.00000000E+00  0.00000000E+00  0.00000000E+00
  0.00000000E+00  0.00000000E+00  0.00000000E+00
  0.00000000E+00  0.00000000E+00  0.00000000E+00
  0.00000000E+00  0.00000000E+00  0.00000000E+00
  0.00000000E+00  0.00000000E+00  0.00000000E+00
  0.00000000E+00  0.00000000E+00  0.00000000E+00
  0.00000000E+00  0.00000000E+00  0.00000000E+00
  0.00000000E+00  0.00000000E+00  0.00000000E+00
  0.00000000E+00  0.00000000E+00  0.00000000E+00
  0.00000000E+00  0.00000000E+00  0.00000000E+00
  0.00000000E+00  0.00000000E+00  0.00000000E+00
  0.00000000E+00  0.00000000E+00  0.00000000E+00
  0.00000000E+00  0.00000000E+00  0.00000000E+00
  0.00000000E+00  0.00000000E+00  0.00000000E+00
  0.00000000E+00  0.00000000E+00  0.00000000E+00
  0.00000000E+00  0.00000000E+00  0.00000000E+00
  0.00000000E+00  0.00000000E+00  0.00000000E+00
  0.00000000E+00  0.00000000E+00  0.00000000E+00
  0.00000000E+00  0.00000000E+00  0.00000000E+00
  0.00000000E+00  0.00000000E+00  0.00000000E+00
  0.00000000E+00  0.00000000E+00  0.00000000E+00
  0.00000000E+00  0.00000000E+00  0.00000000E+00
  0.00000000E+00  0.00000000E+00  0.00000000E+00
  0.00000000E+00  0.00000000E+00  0.00000000E+00
  0.00000000E+00  0.00000000E+00  0.00000000E+00
  0.00000000E+00  0.00000000E+00  0.00000000E+00
  0.00000000E+00  0.00000000E+00  0.00000000E+00
  0.00000000E+00  0.00000000E+00  0.00000000E+00
  0.00000000E+00  0.00000000E+00  0.00000000E+00
  0.00000000E+00  0.00000000E+00  0.00000000E+00
  0.00000000E+00  0.00000000E+00  0.00000000E+00
  0.00000000E+00  0.00000000E+00  0.00000000E+00
  0.00000000E+00  0.00000000E+00  0.00000000E+00
  0.00000000E+00  0.00000000E+00  0.00000000E+00
  0.00000000E+00  0.00000000E+00  0.00000000E+00
  0.00000000E+00  0.00000000E+00  0.00000000E+00
  0.00000000E+00  0.00000000E+00  0.00000000E+00
  0.00000000E+00  0.00000000E+00  0.00000000E+00
  0.00000000E+00  0.00000000E+00  0.00000000E+00
  0.00000000E+00  0.00000000E+00  0.00000000E+00
  0.00000000E+00  0.00000000E+00  0.00000000E+00
  0.00000000E+00  0.00000000E+00  0.00000000E+00
  0.00000000E+00  0.00000000E+00  0.00000000E+00
  0.00000000E+00  0.00000000E+00  0.00000000E+00
  0.00000000E+00  0.00000000E+00  0.00000000E+00
  0.00000000E+00  0.00000000E+00  0.00000000E+00
  0.00000000E+00  0.00000000E+00  0.00000000E+00
  0.00000000E+00  0.00000000E+00  0.00000000E+00
  0.00000000E+00  0.00000000E+00  0.00000000E+00
  0.00000000E+00  0.00000000E+00  0.00000000E+00
  0.00000000E+00  0.00000000E+00  0.00000000E+00
  0.00000000E+00  0.00000000E+00  0.00000000E+00
  0.00000000E+00  0.00000000E+00  0.00000000E+00
  0.00000000E+00  0.00000000E+00  0.00000000E+00
  0.00000000E+00  0.00000000E+00  0.00000000E+00
  0.00000000E+00  0.00000000E+00  0.00000000E+00
  0.00000000E+00  0.00000000E+00  0.00000000E+00
  0.00000000E+00  0.00000000E+00  0.00000000E+00
  0.00000000E+00  0.00000000E+00  0.00000000E+00
  0.00000000E+00  0.00000000E+00  0.00000000E+00
  0.00000000E+00  0.00000000E+00  0.00000000E+00
  0.00000000E+00  0.00000000E+00  0.00000000E+00
  0.00000000E+00  0.00000000E+00  0.00000000E+00
  0.00000000E+00  0.00000000E+00  0.00000000E+00
  0.00000000E+00  0.00000000E+00  0.00000000E+00
  0.00000000E+00  0.00000000E+00  0.00000000E+00
  0.00000000E+00  0.00000000E+00  0.00000000E+00
  0.00000000E+00  0.00000000E+00  0.00000000E+00
  0.00000000E+00  0.00000000E+00  0.00000000E+00
  0.00000000E+00  0.00000000E+00  0.00000000E+00
  0.00000000E+00  0.00000000E+00  0.00000000E+00
  0.00000000E+00  0.00000000E+00  0.00000000E+00
  0.00000000E+00  0.00000000E+00  0.00000000E+00
  0.00000000E+00  0.00000000E+00  0.00000000E+00
