CeO2-you-111-you-Ru                     
   1.00000000000000     
     9.8809530401205770   -5.6653203400641132    0.0037551451733296
    -0.0000000039326309   11.3306386793893044   -0.0000000003420548
     0.0087823004912364   -0.0000000007446759   21.0180464334301043
   O    Ru   Ce   H 
    53     1    26     1
Selective dynamics
Direct
  0.0009081647987841  0.0011353319208875  0.9950699812657499   T   T   T
  0.1131795483556621  0.2226522723564067  0.1488779180312950   T   T   T
  0.2294597396926753  0.1347087535021356  0.3068030726729884   T   T   T
  0.0817622217930575  0.2059161965237183  0.3928803221502351   T   T   T
  0.0046892635813437  0.0030628277734066  0.2289698969279046   T   T   T
  0.2239376656564793  0.1118269293081239  0.0739628694099536   T   T   T
  0.3345351097969701  0.0002312065231703  0.9943773231426498   T   T   T
  0.4466725863335924  0.2183354586388893  0.1463132156748866   T   T   T
  0.5458421802155258  0.1058684215934775  0.3070116053696570   T   T   T
  0.4344112669435627  0.2468183826904561  0.3905276060474936   T   T   T
  0.3283692285046598  0.0001255487409267  0.2305443518038923   T   T   T
  0.5571652932959793  0.1092950395866751  0.0740272156461802   T   T   T
  0.6697405738315918  0.0010769640813652  0.9944891088385548   T   T   T
  0.7740413517470044  0.2233962704063310  0.1521576486096722   T   T   T
  0.8862787418965407  0.1094461921632844  0.3017166574819208   T   T   T
  0.7792915307504430  0.2139421499640674  0.3871301136330731   T   T   T
  0.6635518180366198  0.9988415749941943  0.2303707996748201   T   T   T
  0.8880966479918114  0.1105937108978559  0.0764678688515917   T   T   T
  0.0012851530150257  0.3322035845677971  0.9949879490574245   T   T   T
  0.1107869303875134  0.5554563914839304  0.1490522884258199   T   T   T
  0.2206415667687048  0.4235825049922082  0.3033820289562573   T   T   T
  0.1204640398740177  0.5554565010049444  0.3832388298402936   T   T   T
  0.0022942616554805  0.3331424350240055  0.2278263785490673   T   T   T
  0.2237181052468642  0.4452524418303823  0.0733798809578483   T   T   T
  0.3334141726618959  0.3330277020170616  0.9935509765988566   T   T   T
  0.4476733467391314  0.5608363615893484  0.1457489523175458   T   T   T
  0.4368360873076345  0.5110190452884571  0.3732371313167794   T   T   T
  0.3497035677832135  0.3414352603110453  0.2241255667135566   T   T   T
  0.5566003130842915  0.4441079728647809  0.0711319836523076   T   T   T
  0.6691829241792272  0.3326812516270876  0.9940988022506368   T   T   T
  0.7810541679571039  0.5573422018472044  0.1466800724804199   T   T   T
  0.8971178011416097  0.4438724222204645  0.3041970533150040   T   T   T
  0.7926272983829705  0.5613983383175573  0.3862671441493575   T   T   T
  0.6602312257772068  0.3417082409537886  0.2336343127275354   T   T   T
  0.8901633140274613  0.4436504436202574  0.0741472922445956   T   T   T
  0.0010414262383868  0.6675781974388079  0.9947234787590924   T   T   T
  0.1112630707449205  0.8881400396610031  0.1493056819985293   T   T   T
  0.2226240642627504  0.7746033186178858  0.3024499500971306   T   T   T
  0.1204949822620790  0.8934923130740648  0.3832947843384139   T   T   T
  0.9992070319256700  0.6656008015607134  0.2292755463656088   T   T   T
  0.2237481880655945  0.7776450238084291  0.0739946393201207   T   T   T
  0.3348788713085084  0.6673940802860254  0.9939065760976534   T   T   T
  0.4432078193931073  0.8875165023780719  0.1516863394233776   T   T   T
  0.5489852341585886  0.7756011833324298  0.3063597725998704   T   T   T
  0.4347243302689716  0.8816830278006341  0.3850969212913999   T   T   T
  0.3297712062968731  0.6591766623125325  0.2302407377772620   T   T   T
  0.5574305710946358  0.7810113453241209  0.0740269556340593   T   T   T
  0.6695990885982219  0.6692990088501907  0.9946402956638573   T   T   T
  0.7747184781878639  0.8840012461585273  0.1530530569411851   T   T   T
  0.8981735997672521  0.7850853235086545  0.3045695790031136   T   T   T
  0.7804924551239405  0.9004003452377811  0.3873625120697027   T   T   T
  0.6608141070344806  0.6505903703519869  0.2339442283068367   T   T   T
  0.8904760282990014  0.7803435734440851  0.0748413321674615   T   T   T
  0.3230841358949987  0.3332259973639045  0.3405602965842230   T   T   T
  0.0027250125463613  0.0073187250142313  0.3457724187476033   T   T   T
  0.2246960232273744  0.1149381623811859  0.1896304329553901   T   T   T
  0.1122279438740099  0.2223416402233777  0.0342718113562887   T   T   T
  0.3279493153789085 -0.0071334389897628  0.3422935545823262   T   T   T
  0.5543302887544600  0.1115215017879719  0.1914691985062375   T   T   T
  0.4449292899640424  0.2202064697868194  0.0325691932917157   T   T   T
  0.6640969320333822  0.9979045811929865  0.3455052945283381   T   T   T
  0.8888521744338871  0.1110352295276096  0.1904018201435476   T   T   T
  0.7781885054750698  0.2219603647691187  0.0351949333716816   T   T   T
  0.0006555897948982  0.3263984407430601  0.3458837674542748   T   T   T
  0.2237509541857757  0.4419405096383155  0.1882559500410333   T   T   T
  0.1114735232532851  0.5549265117102887  0.0348277989156332   T   T   T
  0.5570652939486308  0.4449268545601924  0.1809621035672228   T   T   T
  0.4451751063544683  0.5575879864802530  0.0324828822026426   T   T   T
  0.6779901955197996  0.3334109627775644  0.3498241344347931   T   T   T
  0.8889958088885616  0.4439179794216263  0.1909021254167028   T   T   T
  0.7813078420230400  0.5572790889299400  0.0334761854127779   T   T   T
  0.0010867885475690  0.6654959050830090  0.3437525526902634   T   T   T
  0.2208064359246235  0.7761383425319357  0.1881632374957239   T   T   T
  0.1115625477924758  0.8897798089623277  0.0353846547702254   T   T   T
  0.3296051578014031  0.6597117072386954  0.3419952975870115   T   T   T
  0.5547958349372002  0.7752517959738127  0.1916931854186859   T   T   T
  0.4464959096186061  0.8895411275903707  0.0349698711855125   T   T   T
  0.6775339228539020  0.6768018796598881  0.3507499614587196   T   T   T
  0.8894707711230941  0.7778335897760921  0.1915561370428848   T   T   T
  0.7784646655753085  0.8894114675461225  0.0354852565917971   T   T   T
  0.4163482680323822  0.2552941139474366  0.4351433376063937   T   T   T
 
  0.00000000E+00  0.00000000E+00  0.00000000E+00
  0.00000000E+00  0.00000000E+00  0.00000000E+00
  0.00000000E+00  0.00000000E+00  0.00000000E+00
  0.00000000E+00  0.00000000E+00  0.00000000E+00
  0.00000000E+00  0.00000000E+00  0.00000000E+00
  0.00000000E+00  0.00000000E+00  0.00000000E+00
  0.00000000E+00  0.00000000E+00  0.00000000E+00
  0.00000000E+00  0.00000000E+00  0.00000000E+00
  0.00000000E+00  0.00000000E+00  0.00000000E+00
  0.00000000E+00  0.00000000E+00  0.00000000E+00
  0.00000000E+00  0.00000000E+00  0.00000000E+00
  0.00000000E+00  0.00000000E+00  0.00000000E+00
  0.00000000E+00  0.00000000E+00  0.00000000E+00
  0.00000000E+00  0.00000000E+00  0.00000000E+00
  0.00000000E+00  0.00000000E+00  0.00000000E+00
  0.00000000E+00  0.00000000E+00  0.00000000E+00
  0.00000000E+00  0.00000000E+00  0.00000000E+00
  0.00000000E+00  0.00000000E+00  0.00000000E+00
  0.00000000E+00  0.00000000E+00  0.00000000E+00
  0.00000000E+00  0.00000000E+00  0.00000000E+00
  0.00000000E+00  0.00000000E+00  0.00000000E+00
  0.00000000E+00  0.00000000E+00  0.00000000E+00
  0.00000000E+00  0.00000000E+00  0.00000000E+00
  0.00000000E+00  0.00000000E+00  0.00000000E+00
  0.00000000E+00  0.00000000E+00  0.00000000E+00
  0.00000000E+00  0.00000000E+00  0.00000000E+00
  0.00000000E+00  0.00000000E+00  0.00000000E+00
  0.00000000E+00  0.00000000E+00  0.00000000E+00
  0.00000000E+00  0.00000000E+00  0.00000000E+00
  0.00000000E+00  0.00000000E+00  0.00000000E+00
  0.00000000E+00  0.00000000E+00  0.00000000E+00
  0.00000000E+00  0.00000000E+00  0.00000000E+00
  0.00000000E+00  0.00000000E+00  0.00000000E+00
  0.00000000E+00  0.00000000E+00  0.00000000E+00
  0.00000000E+00  0.00000000E+00  0.00000000E+00
  0.00000000E+00  0.00000000E+00  0.00000000E+00
  0.00000000E+00  0.00000000E+00  0.00000000E+00
  0.00000000E+00  0.00000000E+00  0.00000000E+00
  0.00000000E+00  0.00000000E+00  0.00000000E+00
  0.00000000E+00  0.00000000E+00  0.00000000E+00
  0.00000000E+00  0.00000000E+00  0.00000000E+00
  0.00000000E+00  0.00000000E+00  0.00000000E+00
  0.00000000E+00  0.00000000E+00  0.00000000E+00
  0.00000000E+00  0.00000000E+00  0.00000000E+00
  0.00000000E+00  0.00000000E+00  0.00000000E+00
  0.00000000E+00  0.00000000E+00  0.00000000E+00
  0.00000000E+00  0.00000000E+00  0.00000000E+00
  0.00000000E+00  0.00000000E+00  0.00000000E+00
  0.00000000E+00  0.00000000E+00  0.00000000E+00
  0.00000000E+00  0.00000000E+00  0.00000000E+00
  0.00000000E+00  0.00000000E+00  0.00000000E+00
  0.00000000E+00  0.00000000E+00  0.00000000E+00
  0.00000000E+00  0.00000000E+00  0.00000000E+00
  0.00000000E+00  0.00000000E+00  0.00000000E+00
  0.00000000E+00  0.00000000E+00  0.00000000E+00
  0.00000000E+00  0.00000000E+00  0.00000000E+00
  0.00000000E+00  0.00000000E+00  0.00000000E+00
  0.00000000E+00  0.00000000E+00  0.00000000E+00
  0.00000000E+00  0.00000000E+00  0.00000000E+00
  0.00000000E+00  0.00000000E+00  0.00000000E+00
  0.00000000E+00  0.00000000E+00  0.00000000E+00
  0.00000000E+00  0.00000000E+00  0.00000000E+00
  0.00000000E+00  0.00000000E+00  0.00000000E+00
  0.00000000E+00  0.00000000E+00  0.00000000E+00
  0.00000000E+00  0.00000000E+00  0.00000000E+00
  0.00000000E+00  0.00000000E+00  0.00000000E+00
  0.00000000E+00  0.00000000E+00  0.00000000E+00
  0.00000000E+00  0.00000000E+00  0.00000000E+00
  0.00000000E+00  0.00000000E+00  0.00000000E+00
  0.00000000E+00  0.00000000E+00  0.00000000E+00
  0.00000000E+00  0.00000000E+00  0.00000000E+00
  0.00000000E+00  0.00000000E+00  0.00000000E+00
  0.00000000E+00  0.00000000E+00  0.00000000E+00
  0.00000000E+00  0.00000000E+00  0.00000000E+00
  0.00000000E+00  0.00000000E+00  0.00000000E+00
  0.00000000E+00  0.00000000E+00  0.00000000E+00
  0.00000000E+00  0.00000000E+00  0.00000000E+00
  0.00000000E+00  0.00000000E+00  0.00000000E+00
  0.00000000E+00  0.00000000E+00  0.00000000E+00
  0.00000000E+00  0.00000000E+00  0.00000000E+00
  0.00000000E+00  0.00000000E+00  0.00000000E+00
