CeO2-you-111-you-Ru                     
   1.00000000000000     
     9.8077497205313904   -5.6625073079619348    0.0000000009139535
     0.0432451271018966   11.3999153754152047    0.0171910279970044
     0.0183156279305837    0.0317235927439419   21.1593050469403288
   O    Ru   Ce   H 
    53     1    26     1
Selective dynamics
Direct
 -0.0002597389145600  0.0004342104098506  0.9955219220215810   T   T   T
  0.1083251193140005  0.2207858231499640  0.1469087768819621   T   T   T
  0.2449569552106546  0.1283181807302667  0.3068324878409416   T   T   T
  0.1232200748796157  0.2276578860105613  0.3771745373495879   T   T   T
  0.0070263031039638  0.0023181033266584  0.2298936635606650   T   T   T
  0.2223953087175745  0.1102571276748991  0.0736545185952572   T   T   T
  0.3340627906853674  0.0003381911666042  0.9951954925274874   T   T   T
  0.4458958272752323  0.2221434050199330  0.1467579146743498   T   T   T
  0.5594976849822837  0.1178170120202749  0.3043804789641796   T   T   T
  0.4878370423034911  0.2032847576704814  0.4162129475069553   T   T   T
  0.3318100986618790  0.0000682164741687  0.2254785107674552   T   T   T
  0.5573465383388047  0.1114627290157421  0.0748543162871074   T   T   T
  0.6669380126165079  0.0001420775389456  0.9951840784552154   T   T   T
  0.7781425304024802  0.2253286792276645  0.1527475173464002   T   T   T
  0.8922795902615465  0.1134611334591375  0.3029076359256678   T   T   T
  0.7862895459440010  0.2270610566289961  0.3831115829464429   T   T   T
  0.6668572103884352  0.0000695764704643  0.2295239652881937   T   T   T
  0.8850163060326540  0.1093392081601711  0.0756718831076571   T   T   T
 -0.0008642998353216  0.3318393633851802  0.9953898430521079   T   T   T
  0.1077332190814655  0.5553745178689532  0.1471516092528237   T   T   T
  0.2497093771544204  0.4526303689354091  0.3105667739369068   T   T   T
  0.0953098637198378  0.5465497390894910  0.3831825942622023   T   T   T
  0.0101921636227991  0.3386935174714485  0.2299742133282217   T   T   T
  0.2218830260434459  0.4452754712714183  0.0735841587520944   T   T   T
  0.3319790959051508  0.3327998492204988  0.9952088052868424   T   T   T
  0.4447507654779350  0.5587531532137315  0.1465747059061500   T   T   T
  0.4948049875875522  0.4167932408854941  0.3284273536129503   T   T   T
  0.3300548248417642  0.3324519395496464  0.2220455331224112   T   T   T
  0.5550931629142617  0.4442937204438424  0.0731279824005945   T   T   T
  0.6655507448864948  0.3323547261702432  0.9944332123911606   T   T   T
  0.7779902329913918  0.5552893716733525  0.1465550776643117   T   T   T
  0.8868021893686585  0.4404800652772978  0.3000532837180316   T   T   T
  0.7780562556314102  0.5439688056960493  0.3813211824668916   T   T   T
  0.6587562363589093  0.3422398328850255  0.2318077535849312   T   T   T
  0.8871250247954936  0.4427833044015499  0.0733054977102085   T   T   T
 -0.0000138123598335  0.6671963143954022  0.9947897484271025   T   T   T
  0.1081303206278385  0.8876988526791076  0.1473435027465313   T   T   T
  0.2174206847530439  0.7796654920606944  0.3038579849780924   T   T   T
  0.0952583074803217  0.8838799783558446  0.3855312820200557   T   T   T
  0.9979103265436411  0.6651953341839724  0.2275245543812759   T   T   T
  0.2230240800237684  0.7783121783370388  0.0742035403689709   T   T   T
  0.3340566947634681  0.6672369720524494  0.9949383363976190   T   T   T
  0.4466340830848363  0.8904039493951539  0.1499904268629904   T   T   T
  0.5558022515290846  0.7757897919624664  0.3037288508144917   T   T   T
  0.4636710682596604  0.8949602272853490  0.3894901826332475   T   T   T
  0.3286960296711349  0.6647096782204448  0.2261233879462187   T   T   T
  0.5569437395167899  0.7792030541957994  0.0745907873667768   T   T   T
  0.6660581075231712  0.6669981712994487  0.9945545330467765   T   T   T
  0.7784831561469056  0.8881464240069655  0.1521767065701028   T   T   T
  0.8889202983693283  0.7773733764918174  0.3010013557519566   T   T   T
  0.7869514500557799  0.8977648489416152  0.3845395653374282   T   T   T
  0.6608184023878942  0.6530179392185804  0.2288971792190850   T   T   T
  0.8869513824885857  0.7772544320103123  0.0735566336144358   T   T   T
  0.2923992324961451  0.3119559843026077  0.3264394414566493   T   T   T
 -0.0017556480558886 -0.0047427842128279  0.3429468648859098   T   T   T
  0.2231972486663238  0.1096517087812933  0.1861342097167082   T   T   T
  0.1098310478647373  0.2216329340604243  0.0346103464213390   T   T   T
  0.3363623503295067  0.9989415479404095  0.3540978688823447   T   T   T
  0.5538666465642912  0.1113894540181049  0.1914543341936872   T   T   T
  0.4446481671318911  0.2214534500184297  0.0335725764613587   T   T   T
  0.6683348560801641 -0.0008043726600771  0.3445900583474457   T   T   T
  0.8900220572041458  0.1116236507948994  0.1903870021550216   T   T   T
  0.7770525740204342  0.2218709259109369  0.0355330018796155   T   T   T
 -0.0007453232282380  0.3356662708865949  0.3421846146970887   T   T   T
  0.2228548716872908  0.4469962284584941  0.1850556403870845   T   T   T
  0.1105550410723411  0.5561079208955068  0.0344709965105783   T   T   T
  0.5524721627912329  0.4433677802765849  0.1838322080815727   T   T   T
  0.4447113385199005  0.5573830963044241  0.0333746788738237   T   T   T
  0.6689561735831068  0.3306442005960396  0.3458081930850136   T   T   T
  0.8874823954045375  0.4453257946470631  0.1888169019287535   T   T   T
  0.7778221738066435  0.5558428006941242  0.0336818719814396   T   T   T
  0.9973060758201642  0.6644161572393770  0.3420501715281306   T   T   T
  0.2223307141036584  0.7796227400801757  0.1888030674489135   T   T   T
  0.1108643969012887  0.8888450313374849  0.0344413790713272   T   T   T
  0.3295375966787263  0.6779100711406529  0.3436538356394199   T   T   T
  0.5545279345303246  0.7773132249566143  0.1913146451390439   T   T   T
  0.4458902017140728  0.8900599922946215  0.0359677778176445   T   T   T
  0.6716538115254765  0.6670087355376898  0.3428130723231250   T   T   T
  0.8875855845253211  0.7758914038619341  0.1884436814831699   T   T   T
  0.7770215092711196  0.8892813778452247  0.0355994427755526   T   T   T
  0.4590881673762439  0.2481432973073079  0.4464487478492714   T   T   T
 
  0.00000000E+00  0.00000000E+00  0.00000000E+00
  0.00000000E+00  0.00000000E+00  0.00000000E+00
  0.00000000E+00  0.00000000E+00  0.00000000E+00
  0.00000000E+00  0.00000000E+00  0.00000000E+00
  0.00000000E+00  0.00000000E+00  0.00000000E+00
  0.00000000E+00  0.00000000E+00  0.00000000E+00
  0.00000000E+00  0.00000000E+00  0.00000000E+00
  0.00000000E+00  0.00000000E+00  0.00000000E+00
  0.00000000E+00  0.00000000E+00  0.00000000E+00
  0.00000000E+00  0.00000000E+00  0.00000000E+00
  0.00000000E+00  0.00000000E+00  0.00000000E+00
  0.00000000E+00  0.00000000E+00  0.00000000E+00
  0.00000000E+00  0.00000000E+00  0.00000000E+00
  0.00000000E+00  0.00000000E+00  0.00000000E+00
  0.00000000E+00  0.00000000E+00  0.00000000E+00
  0.00000000E+00  0.00000000E+00  0.00000000E+00
  0.00000000E+00  0.00000000E+00  0.00000000E+00
  0.00000000E+00  0.00000000E+00  0.00000000E+00
  0.00000000E+00  0.00000000E+00  0.00000000E+00
  0.00000000E+00  0.00000000E+00  0.00000000E+00
  0.00000000E+00  0.00000000E+00  0.00000000E+00
  0.00000000E+00  0.00000000E+00  0.00000000E+00
  0.00000000E+00  0.00000000E+00  0.00000000E+00
  0.00000000E+00  0.00000000E+00  0.00000000E+00
  0.00000000E+00  0.00000000E+00  0.00000000E+00
  0.00000000E+00  0.00000000E+00  0.00000000E+00
  0.00000000E+00  0.00000000E+00  0.00000000E+00
  0.00000000E+00  0.00000000E+00  0.00000000E+00
  0.00000000E+00  0.00000000E+00  0.00000000E+00
  0.00000000E+00  0.00000000E+00  0.00000000E+00
  0.00000000E+00  0.00000000E+00  0.00000000E+00
  0.00000000E+00  0.00000000E+00  0.00000000E+00
  0.00000000E+00  0.00000000E+00  0.00000000E+00
  0.00000000E+00  0.00000000E+00  0.00000000E+00
  0.00000000E+00  0.00000000E+00  0.00000000E+00
  0.00000000E+00  0.00000000E+00  0.00000000E+00
  0.00000000E+00  0.00000000E+00  0.00000000E+00
  0.00000000E+00  0.00000000E+00  0.00000000E+00
  0.00000000E+00  0.00000000E+00  0.00000000E+00
  0.00000000E+00  0.00000000E+00  0.00000000E+00
  0.00000000E+00  0.00000000E+00  0.00000000E+00
  0.00000000E+00  0.00000000E+00  0.00000000E+00
  0.00000000E+00  0.00000000E+00  0.00000000E+00
  0.00000000E+00  0.00000000E+00  0.00000000E+00
  0.00000000E+00  0.00000000E+00  0.00000000E+00
  0.00000000E+00  0.00000000E+00  0.00000000E+00
  0.00000000E+00  0.00000000E+00  0.00000000E+00
  0.00000000E+00  0.00000000E+00  0.00000000E+00
  0.00000000E+00  0.00000000E+00  0.00000000E+00
  0.00000000E+00  0.00000000E+00  0.00000000E+00
  0.00000000E+00  0.00000000E+00  0.00000000E+00
  0.00000000E+00  0.00000000E+00  0.00000000E+00
  0.00000000E+00  0.00000000E+00  0.00000000E+00
  0.00000000E+00  0.00000000E+00  0.00000000E+00
  0.00000000E+00  0.00000000E+00  0.00000000E+00
  0.00000000E+00  0.00000000E+00  0.00000000E+00
  0.00000000E+00  0.00000000E+00  0.00000000E+00
  0.00000000E+00  0.00000000E+00  0.00000000E+00
  0.00000000E+00  0.00000000E+00  0.00000000E+00
  0.00000000E+00  0.00000000E+00  0.00000000E+00
  0.00000000E+00  0.00000000E+00  0.00000000E+00
  0.00000000E+00  0.00000000E+00  0.00000000E+00
  0.00000000E+00  0.00000000E+00  0.00000000E+00
  0.00000000E+00  0.00000000E+00  0.00000000E+00
  0.00000000E+00  0.00000000E+00  0.00000000E+00
  0.00000000E+00  0.00000000E+00  0.00000000E+00
  0.00000000E+00  0.00000000E+00  0.00000000E+00
  0.00000000E+00  0.00000000E+00  0.00000000E+00
  0.00000000E+00  0.00000000E+00  0.00000000E+00
  0.00000000E+00  0.00000000E+00  0.00000000E+00
  0.00000000E+00  0.00000000E+00  0.00000000E+00
  0.00000000E+00  0.00000000E+00  0.00000000E+00
  0.00000000E+00  0.00000000E+00  0.00000000E+00
  0.00000000E+00  0.00000000E+00  0.00000000E+00
  0.00000000E+00  0.00000000E+00  0.00000000E+00
  0.00000000E+00  0.00000000E+00  0.00000000E+00
  0.00000000E+00  0.00000000E+00  0.00000000E+00
  0.00000000E+00  0.00000000E+00  0.00000000E+00
  0.00000000E+00  0.00000000E+00  0.00000000E+00
  0.00000000E+00  0.00000000E+00  0.00000000E+00
  0.00000000E+00  0.00000000E+00  0.00000000E+00
