CeO2-you-111-you-Ce                     
   1.00000000000000     
     9.8446160961585392   -5.6837921239532694    0.0000000000000000
    -0.0000000001922008   11.3675822471202714    0.0000000000000000
     0.0000000000000000    0.0000000000000000   21.3038601004774790
   O    Ce   Ce   H 
    54     1    26     2
Selective dynamics
Direct
  0.0000177893790821  0.0000054350557946  0.9976815801467371   T   T   T
  0.1111111652554584  0.2222220826277379  0.1501494177078015   F   F   F
  0.2236056089686824  0.1130120886545828  0.3036678896521590   T   T   T
  0.1109434072739348  0.2220238297410812  0.3810453127518814   T   T   T
  0.0001396976337201  0.0001004421402417  0.2291256521482405   T   T   T
  0.2221880310104538  0.1110430620209115  0.0763119210027980   F   F   F
  0.3332117540981336  0.0000169649156932  0.9976675089128001   T   T   T
  0.4444439173722685  0.2222220826277379  0.1501494177078015   F   F   F
  0.5559637953464056  0.1110401815165317  0.3026415090917810   T   T   T
  0.4454840324524936  0.2217770524075154  0.3811771573157887   T   T   T
  0.3330341900468608  0.0001668104811594  0.2290907315691430   T   T   T
  0.5555162333003594  0.1111507666996232  0.0763095763333865   F   F   F
  0.6669804142275843  0.0000247063187086  0.9978071927219273   T   T   T
  0.7777741031144600  0.2222142062289265  0.1501592476898423   F   F   F
  0.8887840183915405  0.1107629465269596  0.3030302904930139   T   T   T
  0.7777237161915661  0.2222854503919010  0.3815726455347059   T   T   T
  0.6668326887306535  0.0001837190097374  0.2289971149038996   T   T   T
  0.8889685333992716  0.1111507666996303  0.0763095763333865   F   F   F
 -0.0002466395697371  0.3329032784421556  0.9976930068244123   T   T   T
  0.1111227128855816  0.5555442871144294  0.1501555836410802   F   F   F
  0.2227737124780329  0.4432042705058039  0.3034831046231702   T   T   T
  0.1113712678932431  0.5556222527341277  0.3815985129991156   T   T   T
  0.0001299042209890  0.3331138117422023  0.2292262926186126   T   T   T
  0.2221880310104396  0.4444779689895384  0.0763119210027980   F   F   F
  0.3330962721345940  0.3331117842601176  0.9977822124893720   T   T   T
  0.4444439173722614  0.5555558347445313  0.1501494177078015   F   F   F
  0.5529240090038041  0.4438713851413606  0.3035523508471085   T   T   T
  0.4436033755035786  0.5558138088206025  0.3813460685424833   T   T   T
  0.3329892345035968  0.3330342270777662  0.2288953552468638   T   T   T
  0.5556239379791137  0.4444779689895455  0.0763119210027980   F   F   F
  0.6665875119351909  0.3335278907927375  0.9975433143813108   T   T   T
  0.7777545742288368  0.5555442871144223  0.1501555836410802   F   F   F
  0.8888993413125098  0.4444484860378441  0.3029169246157086   T   T   T
  0.7769897264691006  0.5551611661537443  0.3813315749518501   T   T   T
  0.6663983245314941  0.3343801638520377  0.2292260748115135   T   T   T
  0.8888438432228654  0.4443536864457371  0.0763062132218195   F   F   F
 -0.0000004309343296  0.6669904528358750  0.9978416396463226   T   T   T
  0.1111227128855816  0.8889124257711529  0.1501555836410802   F   F   F
  0.2219082137714480  0.7775967146546204  0.3028486046118968   T   T   T
  0.1111900346429150  0.8890655659446246  0.3813959997862877   T   T   T
 -0.0001557384768065  0.6666543488357848  0.2289439039332094   T   T   T
  0.2223123135542906  0.7778231567771314  0.0763062132218195   F   F   F
  0.3330792858081156  0.6667681991795776  0.9976578483735655   T   T   T
  0.4444517937710728  0.8888928968855367  0.1501592476898423   F   F   F
  0.5558463299070819  0.7779099499123059  0.3028944159737439   T   T   T
  0.4442111552016445  0.8888187471410829  0.3814690337494218   T   T   T
  0.3331833108411211  0.6663606599527303  0.2293492582655564   T   T   T
  0.5555162333003736  0.7776984666007536  0.0763095763333865   F   F   F
  0.6667730240692112  0.6670330371947181  0.9976611563404987   T   T   T
  0.7777741031144600  0.8888928968855367  0.1501592476898423   F   F   F
  0.8889510692862164  0.7778798295665861  0.3030051082991604   T   T   T
  0.7780868428826540  0.8890130789708961  0.3816172664523818   T   T   T
  0.6668644762236179  0.6663227621868923  0.2292451847032090   T   T   T
  0.8888438432228440  0.7778231567771243  0.0763062132218195   F   F   F
  0.3330254899146021  0.3334670041081457  0.3428495109941207   T   T   T
  0.0002814495417806  0.0000806802661716  0.3422617836298696   T   T   T
  0.2223370400937270  0.1113410801874295  0.1896887479266880   F   F   F
  0.1111042861730667  0.2222186430865349  0.0371192550133301   F   F   F
  0.3336242356008648  0.0001280329610528  0.3420384693383300   T   T   T
  0.5555485966658011  0.1111184033341956  0.1895963452040164   F   F   F
  0.4444473569134644  0.2222186430865349  0.0371192550133301   F   F   F
  0.6668429475731898  0.0000564295150502  0.3422856880172102   T   T   T
  0.8889038066683952  0.1111184033341956  0.1895963452040164   F   F   F
  0.7777899362442540  0.2222458724885144  0.0371184524554309   F   F   F
 -0.0000038591335281  0.3331305392194280  0.3422566852484314   T   T   T
  0.2223370400937767  0.4443289599062936  0.1896887479266880   F   F   F
  0.1111280727691479  0.5555389272308560  0.0371338505831815   F   F   F
  0.5553259198125033  0.4443289599062723  0.1896887479266880   F   F   F
  0.4444473569134644  0.5555627138269301  0.0371192550133301   F   F   F
  0.6663700129601345  0.3333571496885663  0.3420186300610771   T   T   T
  0.8889042904636923  0.4444745809273769  0.1895913490184640   F   F   F
  0.7777438544617041  0.5555389272308560  0.0371338505831815   F   F   F
  0.0000079496179952  0.6667598257044411  0.3420993319443672   T   T   T
  0.2221914190726153  0.7777627095363044  0.1895913490184640   F   F   F
  0.1111280727691479  0.8889231455382927  0.0371338505831815   F   F   F
  0.3332554424091932  0.6663940055335881  0.3423101991760460   T   T   T
  0.5555485966658082  0.7777631933316087  0.1895963452040164   F   F   F
  0.4444201275114779  0.8888770637557428  0.0371184524554309   F   F   F
  0.6662451250919180  0.6664984385837763  0.3422548266101108   T   T   T
  0.8889042904636923  0.7777627095363115  0.1895913490184640   F   F   F
  0.7777899362442611  0.8888770637557428  0.0371184524554309   F   F   F
  0.3374055308373661  0.3289297487939522  0.4894649407523496   T   T   T
  0.3738627034176257  0.2932229759945401  0.4774576927802674   T   T   T
 
  0.00000000E+00  0.00000000E+00  0.00000000E+00
  0.00000000E+00  0.00000000E+00  0.00000000E+00
  0.00000000E+00  0.00000000E+00  0.00000000E+00
  0.00000000E+00  0.00000000E+00  0.00000000E+00
  0.00000000E+00  0.00000000E+00  0.00000000E+00
  0.00000000E+00  0.00000000E+00  0.00000000E+00
  0.00000000E+00  0.00000000E+00  0.00000000E+00
  0.00000000E+00  0.00000000E+00  0.00000000E+00
  0.00000000E+00  0.00000000E+00  0.00000000E+00
  0.00000000E+00  0.00000000E+00  0.00000000E+00
  0.00000000E+00  0.00000000E+00  0.00000000E+00
  0.00000000E+00  0.00000000E+00  0.00000000E+00
  0.00000000E+00  0.00000000E+00  0.00000000E+00
  0.00000000E+00  0.00000000E+00  0.00000000E+00
  0.00000000E+00  0.00000000E+00  0.00000000E+00
  0.00000000E+00  0.00000000E+00  0.00000000E+00
  0.00000000E+00  0.00000000E+00  0.00000000E+00
  0.00000000E+00  0.00000000E+00  0.00000000E+00
  0.00000000E+00  0.00000000E+00  0.00000000E+00
  0.00000000E+00  0.00000000E+00  0.00000000E+00
  0.00000000E+00  0.00000000E+00  0.00000000E+00
  0.00000000E+00  0.00000000E+00  0.00000000E+00
  0.00000000E+00  0.00000000E+00  0.00000000E+00
  0.00000000E+00  0.00000000E+00  0.00000000E+00
  0.00000000E+00  0.00000000E+00  0.00000000E+00
  0.00000000E+00  0.00000000E+00  0.00000000E+00
  0.00000000E+00  0.00000000E+00  0.00000000E+00
  0.00000000E+00  0.00000000E+00  0.00000000E+00
  0.00000000E+00  0.00000000E+00  0.00000000E+00
  0.00000000E+00  0.00000000E+00  0.00000000E+00
  0.00000000E+00  0.00000000E+00  0.00000000E+00
  0.00000000E+00  0.00000000E+00  0.00000000E+00
  0.00000000E+00  0.00000000E+00  0.00000000E+00
  0.00000000E+00  0.00000000E+00  0.00000000E+00
  0.00000000E+00  0.00000000E+00  0.00000000E+00
  0.00000000E+00  0.00000000E+00  0.00000000E+00
  0.00000000E+00  0.00000000E+00  0.00000000E+00
  0.00000000E+00  0.00000000E+00  0.00000000E+00
  0.00000000E+00  0.00000000E+00  0.00000000E+00
  0.00000000E+00  0.00000000E+00  0.00000000E+00
  0.00000000E+00  0.00000000E+00  0.00000000E+00
  0.00000000E+00  0.00000000E+00  0.00000000E+00
  0.00000000E+00  0.00000000E+00  0.00000000E+00
  0.00000000E+00  0.00000000E+00  0.00000000E+00
  0.00000000E+00  0.00000000E+00  0.00000000E+00
  0.00000000E+00  0.00000000E+00  0.00000000E+00
  0.00000000E+00  0.00000000E+00  0.00000000E+00
  0.00000000E+00  0.00000000E+00  0.00000000E+00
  0.00000000E+00  0.00000000E+00  0.00000000E+00
  0.00000000E+00  0.00000000E+00  0.00000000E+00
  0.00000000E+00  0.00000000E+00  0.00000000E+00
  0.00000000E+00  0.00000000E+00  0.00000000E+00
  0.00000000E+00  0.00000000E+00  0.00000000E+00
  0.00000000E+00  0.00000000E+00  0.00000000E+00
  0.00000000E+00  0.00000000E+00  0.00000000E+00
  0.00000000E+00  0.00000000E+00  0.00000000E+00
  0.00000000E+00  0.00000000E+00  0.00000000E+00
  0.00000000E+00  0.00000000E+00  0.00000000E+00
  0.00000000E+00  0.00000000E+00  0.00000000E+00
  0.00000000E+00  0.00000000E+00  0.00000000E+00
  0.00000000E+00  0.00000000E+00  0.00000000E+00
  0.00000000E+00  0.00000000E+00  0.00000000E+00
  0.00000000E+00  0.00000000E+00  0.00000000E+00
  0.00000000E+00  0.00000000E+00  0.00000000E+00
  0.00000000E+00  0.00000000E+00  0.00000000E+00
  0.00000000E+00  0.00000000E+00  0.00000000E+00
  0.00000000E+00  0.00000000E+00  0.00000000E+00
  0.00000000E+00  0.00000000E+00  0.00000000E+00
  0.00000000E+00  0.00000000E+00  0.00000000E+00
  0.00000000E+00  0.00000000E+00  0.00000000E+00
  0.00000000E+00  0.00000000E+00  0.00000000E+00
  0.00000000E+00  0.00000000E+00  0.00000000E+00
  0.00000000E+00  0.00000000E+00  0.00000000E+00
  0.00000000E+00  0.00000000E+00  0.00000000E+00
  0.00000000E+00  0.00000000E+00  0.00000000E+00
  0.00000000E+00  0.00000000E+00  0.00000000E+00
  0.00000000E+00  0.00000000E+00  0.00000000E+00
  0.00000000E+00  0.00000000E+00  0.00000000E+00
  0.00000000E+00  0.00000000E+00  0.00000000E+00
  0.00000000E+00  0.00000000E+00  0.00000000E+00
  0.00000000E+00  0.00000000E+00  0.00000000E+00
  0.00000000E+00  0.00000000E+00  0.00000000E+00
  0.00000000E+00  0.00000000E+00  0.00000000E+00
