CeO2-you-111-you-Tc                     
   1.00000000000000     
     9.8083651651070269   -5.6628626365728527   -0.0000000005876470
     0.0318403375018915   11.3808723587683538   -0.0120479011159015
    -0.0132122329179355   -0.0228842549102817   20.5233113862758856
   O    Tc   Ce   H 
    53     1    26     2
Selective dynamics
Direct
  0.9992064734783709  0.9992664069659108  0.9896853398003513   T   T   T
  0.1057534737188277  0.2195847411628051  0.1459552818899894   F   F   F
  0.2434063600273229  0.1385626788182441  0.3129146009735284   T   T   T
  0.1105644826548453  0.2193189428912711  0.3859132219804799   T   T   T
  0.0089745787951368  0.0047869006075545  0.2312623122660943   T   T   T
  0.2216685775858238  0.1100041551716799  0.0703430799179117   F   F   F
  0.3334452251482729  0.9985481733849857  0.9897115372809492   T   T   T
  0.4471642674437177  0.2195847411624783  0.1459552818899894   F   F   F
  0.5497384761199282  0.1082012904906202  0.3080239939447338   T   T   T
  0.4373356442427747  0.2026092928000971  0.4098183526111394   T   T   T
  0.3279921597810330  0.0007977429066609  0.2306844786971460   T   T   T
  0.5579420179922607  0.1097834538744564  0.0720410172693278   F   F   F
  0.6662207575033778  0.9984008205784035  0.9889532658128866   T   T   T
  0.7795445001718804  0.2257550003438240  0.1526843199940018   F   F   F
  0.8891966913607995  0.1122444168296105  0.3050556942161014   T   T   T
  0.7847470732573391  0.2194327471126783  0.3914483796786931   T   T   T
  0.6659686816807153  0.0004174734115226  0.2312026289062326   T   T   T
  0.8851754358822035  0.1097834538746838  0.0720410172693207   F   F   F
  0.9994099837703733  0.3310532959567364  0.9894742300226129   T   T   T
  0.1096380653247948  0.5554256313238639  0.1474157617063838   F   F   F
  0.2528226009567633  0.4377485516515630  0.3189937278993683   T   T   T
  0.1013828623028745  0.5466247023496051  0.3900122588605480   T   T   T
  0.0145823525132427  0.3404763316081335  0.2334799891688553   T   T   T
  0.2219002744044758  0.4430482507079461  0.0713731982037444   F   F   F
  0.3323638670837543  0.3314824513821203  0.9895877669003765   T   T   T
  0.4473122327684038  0.5612924655368374  0.1463593343836536   F   F   F
  0.5003689738354451  0.4367547161454319  0.3311886115580215   T   T   T
  0.3326777067478705  0.3316506445770371  0.2211363339800102   T   T   T
  0.5544819763032294  0.4430482507076334  0.0713731982037444   F   F   F
  0.6655534207744158  0.3317258054295004  0.9892917524999970   T   T   T
  0.7791205659992357  0.5554256313237431  0.1474157617064193   F   F   F
  0.8920827722673038  0.4439792452935137  0.3049692882156437   T   T   T
  0.7938600920866982  0.5646619681276122  0.3921076002448394   T   T   T
  0.6581174208633056  0.3412882839744912  0.2337563524009353   T   T   T
  0.8872664340452019  0.4411988680905381  0.0714804035102929   F   F   F
  0.9987928825815852  0.6644995118451612  0.9900622713907867   T   T   T
  0.1105524836685561  0.8877719673366045  0.1467984381463125   F   F   F
  0.2216091317290730  0.7786047645681122  0.3064952670586530   T   T   T
  0.1170699827834086  0.8953165950036943  0.3879588749025422   T   T   T
  0.0001494105132524  0.6675892363935800  0.2292312727264664   T   T   T
  0.2229747817566832  0.7777600769607531  0.0712303048063347   F   F   F
  0.3328371382169193  0.6650834663952687  0.9899376207274647   T   T   T
  0.4451201323208593  0.8896306305189725  0.1502669403966195   F   F   F
  0.5576935119329922  0.7804703241013342  0.3105843100054038   T   T   T
  0.4470324094196345  0.8987924745003505  0.3943823484624031   T   T   T
  0.3294742103629427  0.6605251397694597  0.2302647865328048   T   T   T
  0.5562839389919105  0.7792338779838559  0.0719441778796437   F   F   F
  0.6651382745690220  0.6648999825592677  0.9898928678230570   T   T   T
  0.7778434981983864  0.8896306305194770  0.1502669403966124   F   F   F
  0.8958463558230637  0.7843761172371966  0.3055532439738818   T   T   T
  0.7910441932748561  0.9059005787725827  0.3928002138360412   T   T   T
  0.6645001072516494  0.6590098559273516  0.2311619907433249   T   T   T
  0.8881182952040803  0.7777600769606536  0.0712303048063063   F   F   F
  0.3126757801599258  0.3181578432319393  0.3450775172495639   T   T   T
  0.0020708957302970  0.0037197400231528  0.3487244038728622   T   T   T
  0.2226935016748826  0.1120540033488808  0.1852518499700722   F   F   F
  0.1094141709048060  0.2208071318405729  0.0296780252904725   F   F   F
  0.3337340052145189 -0.0057890929864118  0.3493700523056585   T   T   T
  0.5550137708199614  0.1123009750081039  0.1909889979469881   F   F   F
  0.4447259609355996  0.2208071318405942  0.0296780252905151   F   F   F
  0.6684477578448680  0.0027224994597953  0.3497315487265164   T   T   T
  0.8906212041874539  0.1123009750071304  0.1909889979471302   F   F   F
  0.7770872714344392  0.2208405428688351  0.0310025675113508   F   F   F
 -0.0013594354187187  0.3322298383657707  0.3494842190145734   T   T   T
  0.2256542590848554  0.4444437559351400  0.1867609336597127   F   F   F
  0.1102509449378388  0.5541737300202314  0.0311273460050359   F   F   F
  0.5521234968511308  0.4444437559357084  0.1867609336599116   F   F   F
  0.4445457318030321  0.5557594636058312  0.0298083933907520   F   F   F
  0.6686630166281062  0.3359856003449264  0.3542270882124385   T   T   T
  0.8896801005437567  0.4460262010871645  0.1907999907378510   F   F   F
  0.7772557850826374  0.5541737300204161  0.0311273460050288   F   F   F
 -0.0007988277200265  0.6642781381238495  0.3479741364468996   T   T   T
  0.2223730515523172  0.7779039273018569  0.1890464419998636   F   F   F
  0.1103624608040121  0.8873919216077937  0.0303401290890264   F   F   F
  0.3305647307445062  0.6736602750891757  0.3498378630136583   T   T   T
  0.5557635368197253  0.7781930736396490  0.1920814569763252   F   F   F
  0.4452252427451029  0.8884228707273820  0.0314904340161206   F   F   F
  0.6821365638151060  0.6780964579451624  0.3503527211616407   T   T   T
  0.8888638757483989  0.7779039273015016  0.1890464419999347   F   F   F
  0.7765306279824600  0.8884228707274531  0.0314904340160638   F   F   F
  0.3348295829457502  0.3601738317671442  0.4226750119577743   T   T   T
  0.4110318144606661  0.2132983612953460  0.4535325434932232   T   T   T
 
  0.00000000E+00  0.00000000E+00  0.00000000E+00
  0.00000000E+00  0.00000000E+00  0.00000000E+00
  0.00000000E+00  0.00000000E+00  0.00000000E+00
  0.00000000E+00  0.00000000E+00  0.00000000E+00
  0.00000000E+00  0.00000000E+00  0.00000000E+00
  0.00000000E+00  0.00000000E+00  0.00000000E+00
  0.00000000E+00  0.00000000E+00  0.00000000E+00
  0.00000000E+00  0.00000000E+00  0.00000000E+00
  0.00000000E+00  0.00000000E+00  0.00000000E+00
  0.00000000E+00  0.00000000E+00  0.00000000E+00
  0.00000000E+00  0.00000000E+00  0.00000000E+00
  0.00000000E+00  0.00000000E+00  0.00000000E+00
  0.00000000E+00  0.00000000E+00  0.00000000E+00
  0.00000000E+00  0.00000000E+00  0.00000000E+00
  0.00000000E+00  0.00000000E+00  0.00000000E+00
  0.00000000E+00  0.00000000E+00  0.00000000E+00
  0.00000000E+00  0.00000000E+00  0.00000000E+00
  0.00000000E+00  0.00000000E+00  0.00000000E+00
  0.00000000E+00  0.00000000E+00  0.00000000E+00
  0.00000000E+00  0.00000000E+00  0.00000000E+00
  0.00000000E+00  0.00000000E+00  0.00000000E+00
  0.00000000E+00  0.00000000E+00  0.00000000E+00
  0.00000000E+00  0.00000000E+00  0.00000000E+00
  0.00000000E+00  0.00000000E+00  0.00000000E+00
  0.00000000E+00  0.00000000E+00  0.00000000E+00
  0.00000000E+00  0.00000000E+00  0.00000000E+00
  0.00000000E+00  0.00000000E+00  0.00000000E+00
  0.00000000E+00  0.00000000E+00  0.00000000E+00
  0.00000000E+00  0.00000000E+00  0.00000000E+00
  0.00000000E+00  0.00000000E+00  0.00000000E+00
  0.00000000E+00  0.00000000E+00  0.00000000E+00
  0.00000000E+00  0.00000000E+00  0.00000000E+00
  0.00000000E+00  0.00000000E+00  0.00000000E+00
  0.00000000E+00  0.00000000E+00  0.00000000E+00
  0.00000000E+00  0.00000000E+00  0.00000000E+00
  0.00000000E+00  0.00000000E+00  0.00000000E+00
  0.00000000E+00  0.00000000E+00  0.00000000E+00
  0.00000000E+00  0.00000000E+00  0.00000000E+00
  0.00000000E+00  0.00000000E+00  0.00000000E+00
  0.00000000E+00  0.00000000E+00  0.00000000E+00
  0.00000000E+00  0.00000000E+00  0.00000000E+00
  0.00000000E+00  0.00000000E+00  0.00000000E+00
  0.00000000E+00  0.00000000E+00  0.00000000E+00
  0.00000000E+00  0.00000000E+00  0.00000000E+00
  0.00000000E+00  0.00000000E+00  0.00000000E+00
  0.00000000E+00  0.00000000E+00  0.00000000E+00
  0.00000000E+00  0.00000000E+00  0.00000000E+00
  0.00000000E+00  0.00000000E+00  0.00000000E+00
  0.00000000E+00  0.00000000E+00  0.00000000E+00
  0.00000000E+00  0.00000000E+00  0.00000000E+00
  0.00000000E+00  0.00000000E+00  0.00000000E+00
  0.00000000E+00  0.00000000E+00  0.00000000E+00
  0.00000000E+00  0.00000000E+00  0.00000000E+00
  0.00000000E+00  0.00000000E+00  0.00000000E+00
  0.00000000E+00  0.00000000E+00  0.00000000E+00
  0.00000000E+00  0.00000000E+00  0.00000000E+00
  0.00000000E+00  0.00000000E+00  0.00000000E+00
  0.00000000E+00  0.00000000E+00  0.00000000E+00
  0.00000000E+00  0.00000000E+00  0.00000000E+00
  0.00000000E+00  0.00000000E+00  0.00000000E+00
  0.00000000E+00  0.00000000E+00  0.00000000E+00
  0.00000000E+00  0.00000000E+00  0.00000000E+00
  0.00000000E+00  0.00000000E+00  0.00000000E+00
  0.00000000E+00  0.00000000E+00  0.00000000E+00
  0.00000000E+00  0.00000000E+00  0.00000000E+00
  0.00000000E+00  0.00000000E+00  0.00000000E+00
  0.00000000E+00  0.00000000E+00  0.00000000E+00
  0.00000000E+00  0.00000000E+00  0.00000000E+00
  0.00000000E+00  0.00000000E+00  0.00000000E+00
  0.00000000E+00  0.00000000E+00  0.00000000E+00
  0.00000000E+00  0.00000000E+00  0.00000000E+00
  0.00000000E+00  0.00000000E+00  0.00000000E+00
  0.00000000E+00  0.00000000E+00  0.00000000E+00
  0.00000000E+00  0.00000000E+00  0.00000000E+00
  0.00000000E+00  0.00000000E+00  0.00000000E+00
  0.00000000E+00  0.00000000E+00  0.00000000E+00
  0.00000000E+00  0.00000000E+00  0.00000000E+00
  0.00000000E+00  0.00000000E+00  0.00000000E+00
  0.00000000E+00  0.00000000E+00  0.00000000E+00
  0.00000000E+00  0.00000000E+00  0.00000000E+00
  0.00000000E+00  0.00000000E+00  0.00000000E+00
  0.00000000E+00  0.00000000E+00  0.00000000E+00
