CeO2-you-111-you-Ce                     
   1.00000000000000     
     9.8761064212428185   -5.7019730689266668    0.0000000004117460
     0.0177447740355906   11.4346789792161196    0.0078872358064599
     0.0083789126814258    0.0145127000284807   21.2012601894147039
   O    Ce   Ce   H 
    53     1    26     1
Selective dynamics
Direct
  0.9996996976454667  0.0006223018058524  0.9969513455885833   T   T   T
  0.1102728373148875  0.2215314022277070  0.1483451053553236   T   T   T
  0.2230445549544479  0.1123264634401250  0.3029486904577599   T   T   T
  0.1131049250108274  0.2202665040679501  0.3819910249068275   T   T   T
  0.0008514004921216  0.0002854533873401  0.2279628992294882   T   T   T
  0.2222927303928766  0.1102932293572683  0.0746053077138341   T   T   T
  0.3342708114796035  0.0004320586446725  0.9965155873750231   T   T   T
  0.4451408199553222  0.2228716080698410  0.1492394404561973   T   T   T
  0.5604479777552497  0.1223433368211070  0.3034657012499372   T   T   T
  0.4466631549440783  0.2257905539829312  0.4017090451433077   T   T   T
  0.3326830910876062 -0.0006545385472910  0.2261982076881396   T   T   T
  0.5567157098898345  0.1119498632399787  0.0757503276483484   T   T   T
  0.6669654280232656  0.9998106843076490  0.9971845364425452   T   T   T
  0.7782046245226618  0.2240216294644166  0.1515112917460021   T   T   T
  0.8911386461828701  0.1144479589345637  0.3025932006394328   T   T   T
  0.7824095310992079  0.2279375869446980  0.3825721523578266   T   T   T
  0.6654294153099337  0.9991390390600505  0.2298664502263425   T   T   T
  0.8875909609483601  0.1112869735541989  0.0760717328013168   T   T   T
 -0.0000286182826594  0.3324802769208589  0.9965333462053009   T   T   T
  0.1111208132824199  0.5554348367575340  0.1478061393457481   T   T   T
  0.2361753384865802  0.4458086608995420  0.3090694403769793   T   T   T
  0.0966441141026227  0.5463052781850579  0.3838026221787061   T   T   T
  0.0075312548413805  0.3371733262023727  0.2293205573786640   T   T   T
  0.2225683539565163  0.4447886058649416  0.0751338505425142   T   T   T
  0.3324621158384308  0.3326739042249077  0.9967416839768165   T   T   T
  0.4439884855853457  0.5550195028189874  0.1498129398001590   T   T   T
  0.5354149107360707  0.4357838990280589  0.3121309985295820   T   T   T
  0.3286781896801951  0.3288046082074457  0.2268820132562477   T   T   T
  0.5547624051648467  0.4444007507928855  0.0751711196265754   T   T   T
  0.6664592447077751  0.3334784876774195  0.9967201561319342   T   T   T
  0.7777392851045886  0.5548418903977879  0.1473813642769483   T   T   T
  0.8897984467462926  0.4426854296271975  0.2997005941299574   T   T   T
  0.7834494224719654  0.5461682982413825  0.3823431582804784   T   T   T
  0.6662078640501208  0.3407744093565990  0.2292345164342684   T   T   T
  0.8892679825991794  0.4437343324757791  0.0742732587958064   T   T   T
  0.0000767883303547  0.6667890618318417  0.9961458916825460   T   T   T
  0.1098855257754952  0.8884543418309896  0.1475599597471874   T   T   T
  0.2160929490952193  0.7756194472316877  0.3022369597736896   T   T   T
  0.0956306522443868  0.8806637866351164  0.3847733231439487   T   T   T
  0.9990217706960555  0.6660631131359956  0.2260756871127156   T   T   T
  0.2228647047775501  0.7782001197721118  0.0745698701647412   T   T   T
  0.3337806777857528  0.6664441646731505  0.9967195579423388   T   T   T
  0.4464153815767116  0.8900948719346460  0.1498597195847517   T   T   T
  0.5549023483322068  0.7732513957784147  0.3046634750264282   T   T   T
  0.4614410866925439  0.8987065510002734  0.3867029516724727   T   T   T
  0.3308490710214522  0.6659187933125299  0.2263165372319915   T   T   T
  0.5553612041838334  0.7770110307620336  0.0758119667741076   T   T   T
  0.6660202418160811  0.6665117102188368  0.9964743030457793   T   T   T
  0.7773975774588014  0.8893999503326503  0.1504564948108505   T   T   T
  0.8921355024093863  0.7785235074430348  0.3003872248601422   T   T   T
  0.7865164665588399  0.9007181214687278  0.3842895878350310   T   T   T
  0.6665643688699553  0.6615409081041552  0.2265069397134653   T   T   T
  0.8882607775432760  0.7779667113372076  0.0742354387299824   T   T   T
  0.3161002157352434  0.3152984094007026  0.3357850264483735   T   T   T
  0.9969423756486770  0.9961507078409716  0.3431621449986293   T   T   T
  0.2208686952091653  0.1080275472474645  0.1868715792256786   T   T   T
  0.1105789882610571  0.2220539738634894  0.0359229755473529   T   T   T
  0.3312251158396848  0.9937633960689590  0.3464334581756066   T   T   T
  0.5547939084892201  0.1116624526198945  0.1905531387857820   T   T   T
  0.4448642759469453  0.2223238936335467  0.0359300883064709   T   T   T
  0.6670865696958453  0.0002977692376129  0.3435210319759650   T   T   T
  0.8896461198397458  0.1115895548117380  0.1900483035948665   T   T   T
  0.7778964382080626  0.2222514151952712  0.0367838686855372   T   T   T
  0.0001211838113616  0.3347130697473040  0.3427018363968708   T   T   T
  0.2226329447801197  0.4454063227655932  0.1877562527815181   T   T   T
  0.1115488131733996  0.5557025467047352  0.0352257532445442   T   T   T
  0.5544033122818023  0.4443209323253631  0.1881267542163483   T   T   T
  0.4445578081325494  0.5559266097364374  0.0358202107241415   T   T   T
  0.6759616082023804  0.3371756792206442  0.3414454924462729   T   T   T
  0.8901636104633638  0.4462044977075991  0.1878410910068285   T   T   T
  0.7774399402445791  0.5555808425512957  0.0353530862404220   T   T   T
 -0.0011768157871022  0.6647965079952670  0.3423705815495169   T   T   T
  0.2223571734404273  0.7784913534244166  0.1878998370058008   T   T   T
  0.1112942924759774  0.8888590658384686  0.0348619292482084   T   T   T
  0.3281092115868989  0.6764871813050716  0.3419221786509203   T   T   T
  0.5549690715857296  0.7771640704527230  0.1910068222686246   T   T   T
  0.4454306462280082  0.8893762793806307  0.0368981484667802   T   T   T
  0.6805608340648754  0.6736619069987383  0.3407766950540025   T   T   T
  0.8886663533227948  0.7770391599955326  0.1874350203051010   T   T   T
  0.7770870259723247  0.8890251318704361  0.0367971914773809   T   T   T
  0.4456412618986538  0.2201775288148783  0.4475108080274521   T   T   T
 
  0.00000000E+00  0.00000000E+00  0.00000000E+00
  0.00000000E+00  0.00000000E+00  0.00000000E+00
  0.00000000E+00  0.00000000E+00  0.00000000E+00
  0.00000000E+00  0.00000000E+00  0.00000000E+00
  0.00000000E+00  0.00000000E+00  0.00000000E+00
  0.00000000E+00  0.00000000E+00  0.00000000E+00
  0.00000000E+00  0.00000000E+00  0.00000000E+00
  0.00000000E+00  0.00000000E+00  0.00000000E+00
  0.00000000E+00  0.00000000E+00  0.00000000E+00
  0.00000000E+00  0.00000000E+00  0.00000000E+00
  0.00000000E+00  0.00000000E+00  0.00000000E+00
  0.00000000E+00  0.00000000E+00  0.00000000E+00
  0.00000000E+00  0.00000000E+00  0.00000000E+00
  0.00000000E+00  0.00000000E+00  0.00000000E+00
  0.00000000E+00  0.00000000E+00  0.00000000E+00
  0.00000000E+00  0.00000000E+00  0.00000000E+00
  0.00000000E+00  0.00000000E+00  0.00000000E+00
  0.00000000E+00  0.00000000E+00  0.00000000E+00
  0.00000000E+00  0.00000000E+00  0.00000000E+00
  0.00000000E+00  0.00000000E+00  0.00000000E+00
  0.00000000E+00  0.00000000E+00  0.00000000E+00
  0.00000000E+00  0.00000000E+00  0.00000000E+00
  0.00000000E+00  0.00000000E+00  0.00000000E+00
  0.00000000E+00  0.00000000E+00  0.00000000E+00
  0.00000000E+00  0.00000000E+00  0.00000000E+00
  0.00000000E+00  0.00000000E+00  0.00000000E+00
  0.00000000E+00  0.00000000E+00  0.00000000E+00
  0.00000000E+00  0.00000000E+00  0.00000000E+00
  0.00000000E+00  0.00000000E+00  0.00000000E+00
  0.00000000E+00  0.00000000E+00  0.00000000E+00
  0.00000000E+00  0.00000000E+00  0.00000000E+00
  0.00000000E+00  0.00000000E+00  0.00000000E+00
  0.00000000E+00  0.00000000E+00  0.00000000E+00
  0.00000000E+00  0.00000000E+00  0.00000000E+00
  0.00000000E+00  0.00000000E+00  0.00000000E+00
  0.00000000E+00  0.00000000E+00  0.00000000E+00
  0.00000000E+00  0.00000000E+00  0.00000000E+00
  0.00000000E+00  0.00000000E+00  0.00000000E+00
  0.00000000E+00  0.00000000E+00  0.00000000E+00
  0.00000000E+00  0.00000000E+00  0.00000000E+00
  0.00000000E+00  0.00000000E+00  0.00000000E+00
  0.00000000E+00  0.00000000E+00  0.00000000E+00
  0.00000000E+00  0.00000000E+00  0.00000000E+00
  0.00000000E+00  0.00000000E+00  0.00000000E+00
  0.00000000E+00  0.00000000E+00  0.00000000E+00
  0.00000000E+00  0.00000000E+00  0.00000000E+00
  0.00000000E+00  0.00000000E+00  0.00000000E+00
  0.00000000E+00  0.00000000E+00  0.00000000E+00
  0.00000000E+00  0.00000000E+00  0.00000000E+00
  0.00000000E+00  0.00000000E+00  0.00000000E+00
  0.00000000E+00  0.00000000E+00  0.00000000E+00
  0.00000000E+00  0.00000000E+00  0.00000000E+00
  0.00000000E+00  0.00000000E+00  0.00000000E+00
  0.00000000E+00  0.00000000E+00  0.00000000E+00
  0.00000000E+00  0.00000000E+00  0.00000000E+00
  0.00000000E+00  0.00000000E+00  0.00000000E+00
  0.00000000E+00  0.00000000E+00  0.00000000E+00
  0.00000000E+00  0.00000000E+00  0.00000000E+00
  0.00000000E+00  0.00000000E+00  0.00000000E+00
  0.00000000E+00  0.00000000E+00  0.00000000E+00
  0.00000000E+00  0.00000000E+00  0.00000000E+00
  0.00000000E+00  0.00000000E+00  0.00000000E+00
  0.00000000E+00  0.00000000E+00  0.00000000E+00
  0.00000000E+00  0.00000000E+00  0.00000000E+00
  0.00000000E+00  0.00000000E+00  0.00000000E+00
  0.00000000E+00  0.00000000E+00  0.00000000E+00
  0.00000000E+00  0.00000000E+00  0.00000000E+00
  0.00000000E+00  0.00000000E+00  0.00000000E+00
  0.00000000E+00  0.00000000E+00  0.00000000E+00
  0.00000000E+00  0.00000000E+00  0.00000000E+00
  0.00000000E+00  0.00000000E+00  0.00000000E+00
  0.00000000E+00  0.00000000E+00  0.00000000E+00
  0.00000000E+00  0.00000000E+00  0.00000000E+00
  0.00000000E+00  0.00000000E+00  0.00000000E+00
  0.00000000E+00  0.00000000E+00  0.00000000E+00
  0.00000000E+00  0.00000000E+00  0.00000000E+00
  0.00000000E+00  0.00000000E+00  0.00000000E+00
  0.00000000E+00  0.00000000E+00  0.00000000E+00
  0.00000000E+00  0.00000000E+00  0.00000000E+00
  0.00000000E+00  0.00000000E+00  0.00000000E+00
  0.00000000E+00  0.00000000E+00  0.00000000E+00
