CeO2-you-111-you-Bi                     
   1.00000000000000     
     9.8619520769738411   -5.7000233644303515    0.0006575135463113
    -0.0000000019519446   11.4000447192889247   -0.0000000000660575
     0.0010528916055289   -0.0000000000784896   21.2581136600902454
   O    Bi   Ce   H 
    53     1    26     1
Selective dynamics
Direct
  0.9992141011433309  0.0013174466860490  0.9968761852024087   T   T   T
  0.1179561122470288  0.2261768504538340  0.1510561009807455   T   T   T
  0.2194558731393479  0.1122418629382435  0.3031892742004199   T   T   T
  0.1049832842555579  0.2211590021686176  0.3866498258200891   T   T   T
  0.0004079180210865  0.0008230391116858  0.2270736109116579   T   T   T
  0.2212986339223726  0.1098887492066286  0.0748296207619469   T   T   T
  0.3330844131309136  0.9997072057708261  0.9958470665194239   T   T   T
  0.4432627531011619  0.2207248722109420  0.1465529302299407   T   T   T
  0.5579627346655551  0.1080578122459625  0.3027211720293062   T   T   T
  0.4519364731796287  0.2166928938029116  0.4035791885036573   T   T   T
  0.3320958483261336 -0.0006195184812375  0.2269668778532298   T   T   T
  0.5550129509052055  0.1101106968888134  0.0751513975279904   T   T   T
  0.6690712759778482  0.0015458893326697  0.9971032629779527   T   T   T
  0.7753068985484156  0.2258999985762523  0.1514623525524731   T   T   T
  0.8906092191762587  0.1114389528156007  0.3024606555406226   T   T   T
  0.7856874229458343  0.2188087205392702  0.3855660004431760   T   T   T
  0.6690888425162801  0.0015375634877573  0.2266697353387047   T   T   T
  0.8890356058704417  0.1104877892385827  0.0782377177838740   T   T   T
  0.9986396129049975  0.3310630669590096  0.9973358211546103   T   T   T
  0.1106887851892807  0.5554187243143035  0.1501648587069105   T   T   T
  0.2196131910475629  0.4415745836265901  0.3026407333458487   T   T   T
  0.1110746133030065  0.5551803334059220  0.3831538683154681   T   T   T
  0.0005579381498202  0.3330704791549374  0.2274719015643780   T   T   T
  0.2214484463038611  0.4450758418409234  0.0746354965892846   T   T   T
  0.3306297728608486  0.3321921188209428  0.9957866870054257   T   T   T
  0.4442185992253119  0.5565128015795189  0.1458410733546306   T   T   T
  0.4587122126532564  0.5668010875263683  0.3780510925663574   T   T   T
  0.3505888806239971  0.3426903868400015  0.2320951307252291   T   T   T
  0.5554779607481448  0.4439859141949003  0.0711537761832859   T   T   T
  0.6680784173066858  0.3319421544287088  0.9958873198219158   T   T   T
  0.7790986337797787  0.5570877343411269  0.1459915452830036   T   T   T
  0.8955090959298270  0.4463135948760028  0.3024403389606218   T   T   T
  0.7688150304935518  0.5616434768675290  0.3764706955450963   T   T   T
  0.6578626402827934  0.3427929421541060  0.2319128637747237   T   T   T
  0.8896777864264251  0.4450490473539741  0.0749906297898599   T   T   T
  0.0003725617548950  0.6668540763763695  0.9958465604316213   T   T   T
  0.1097517206044958  0.8880519595447341  0.1497934960082352   T   T   T
  0.2186481543600611  0.7693105349560200  0.3018721911077597   T   T   T
  0.0944810653957237  0.8773790078493116  0.3831999370375357   T   T   T
  0.9970758661250564  0.6666883830589855  0.2282030821500980   T   T   T
  0.2224865871335440  0.7779587689577813  0.0754696465964629   T   T   T
  0.3327010898050402  0.6670550578866816  0.9960242592827188   T   T   T
  0.4451438961158606  0.8880775566974423  0.1503692983320067   T   T   T
  0.5621637875357545  0.7846980460883630  0.2997806270596808   T   T   T
  0.4504135969270251  0.8776519542210161  0.3839842684615329   T   T   T
  0.3349911082597366  0.6647696563684634  0.2284288564832123   T   T   T
  0.5556418126354516  0.7786965724608848  0.0744335875444947   T   T   T
  0.6669942924989303  0.6685976726733013  0.9955924633034540   T   T   T
  0.7744540769434648  0.8814187121508612  0.1514248041093177   T   T   T
  0.8885416158019812  0.7839625048644153  0.3001181113899582   T   T   T
  0.7804192663088748  0.8928997662825450  0.3843911087252966   T   T   T
  0.6550668070430749  0.6440355315614861  0.2340865982761274   T   T   T
  0.8895211121887281  0.7788227921658312  0.0740080212417714   T   T   T
  0.3114083600323795  0.3270401324269829  0.3443926607538480   T   T   T
  0.0004624549314640 -0.0002048286875879  0.3419314843269716   T   T   T
  0.2237951381109493  0.1111527163566686  0.1904075844017403   T   T   T
  0.1112683643050161  0.2221078042896643  0.0365708306012171   T   T   T
  0.3295120776388801 -0.0087982834408565  0.3458919592669108   T   T   T
  0.5544149287988696  0.1115769219070664  0.1912002974047761   T   T   T
  0.4431308991066662  0.2195559732084183  0.0341106805497885   T   T   T
  0.6673611216936927  0.0010125840752725  0.3420558702976967   T   T   T
  0.8896856137258125  0.1118208878730742  0.1900043634820842   T   T   T
  0.7775478155078241  0.2222429374086275  0.0369964275933725   T   T   T
 -0.0002277295549108  0.3347351359276622  0.3435224847897385   T   T   T
  0.2237225559198628  0.4453128520459149  0.1889655334515184   T   T   T
  0.1106862937944118  0.5552522856242810  0.0364479840264325   T   T   T
  0.5553284638041570  0.4436177080803120  0.1798944368126275   T   T   T
  0.4433001857898849  0.5568076661805105  0.0334715523182467   T   T   T
  0.6752341453985791  0.3283331493279222  0.3480033608852060   T   T   T
  0.8878026059525425  0.4450375806493567  0.1899739364947249   T   T   T
  0.7799111193362408  0.5566523705764267  0.0335702401855729   T   T   T
 -0.0013319617598265  0.6665668268673967  0.3414035441535269   T   T   T
  0.2224095446323432  0.7778992194026284  0.1893237792511165   T   T   T
  0.1109932958503715  0.8894519281924073  0.0364212713626040   T   T   T
  0.3363627042392793  0.6673855238427557  0.3425392249750938   T   T   T
  0.5549819310114054  0.7765307968392492  0.1891893444289470   T   T   T
  0.4450934127960046  0.8895716548728836  0.0367259681517837   T   T   T
  0.6735994052572726  0.6826427644496251  0.3449967275385773   T   T   T
  0.8883362065111362  0.7766348460271510  0.1890928299682417   T   T   T
  0.7778594633056780  0.8891038833499678  0.0361664915425480   T   T   T
  0.4433631881247732  0.2312102928834626  0.4480194055796393   T   T   T
 
  0.00000000E+00  0.00000000E+00  0.00000000E+00
  0.00000000E+00  0.00000000E+00  0.00000000E+00
  0.00000000E+00  0.00000000E+00  0.00000000E+00
  0.00000000E+00  0.00000000E+00  0.00000000E+00
  0.00000000E+00  0.00000000E+00  0.00000000E+00
  0.00000000E+00  0.00000000E+00  0.00000000E+00
  0.00000000E+00  0.00000000E+00  0.00000000E+00
  0.00000000E+00  0.00000000E+00  0.00000000E+00
  0.00000000E+00  0.00000000E+00  0.00000000E+00
  0.00000000E+00  0.00000000E+00  0.00000000E+00
  0.00000000E+00  0.00000000E+00  0.00000000E+00
  0.00000000E+00  0.00000000E+00  0.00000000E+00
  0.00000000E+00  0.00000000E+00  0.00000000E+00
  0.00000000E+00  0.00000000E+00  0.00000000E+00
  0.00000000E+00  0.00000000E+00  0.00000000E+00
  0.00000000E+00  0.00000000E+00  0.00000000E+00
  0.00000000E+00  0.00000000E+00  0.00000000E+00
  0.00000000E+00  0.00000000E+00  0.00000000E+00
  0.00000000E+00  0.00000000E+00  0.00000000E+00
  0.00000000E+00  0.00000000E+00  0.00000000E+00
  0.00000000E+00  0.00000000E+00  0.00000000E+00
  0.00000000E+00  0.00000000E+00  0.00000000E+00
  0.00000000E+00  0.00000000E+00  0.00000000E+00
  0.00000000E+00  0.00000000E+00  0.00000000E+00
  0.00000000E+00  0.00000000E+00  0.00000000E+00
  0.00000000E+00  0.00000000E+00  0.00000000E+00
  0.00000000E+00  0.00000000E+00  0.00000000E+00
  0.00000000E+00  0.00000000E+00  0.00000000E+00
  0.00000000E+00  0.00000000E+00  0.00000000E+00
  0.00000000E+00  0.00000000E+00  0.00000000E+00
  0.00000000E+00  0.00000000E+00  0.00000000E+00
  0.00000000E+00  0.00000000E+00  0.00000000E+00
  0.00000000E+00  0.00000000E+00  0.00000000E+00
  0.00000000E+00  0.00000000E+00  0.00000000E+00
  0.00000000E+00  0.00000000E+00  0.00000000E+00
  0.00000000E+00  0.00000000E+00  0.00000000E+00
  0.00000000E+00  0.00000000E+00  0.00000000E+00
  0.00000000E+00  0.00000000E+00  0.00000000E+00
  0.00000000E+00  0.00000000E+00  0.00000000E+00
  0.00000000E+00  0.00000000E+00  0.00000000E+00
  0.00000000E+00  0.00000000E+00  0.00000000E+00
  0.00000000E+00  0.00000000E+00  0.00000000E+00
  0.00000000E+00  0.00000000E+00  0.00000000E+00
  0.00000000E+00  0.00000000E+00  0.00000000E+00
  0.00000000E+00  0.00000000E+00  0.00000000E+00
  0.00000000E+00  0.00000000E+00  0.00000000E+00
  0.00000000E+00  0.00000000E+00  0.00000000E+00
  0.00000000E+00  0.00000000E+00  0.00000000E+00
  0.00000000E+00  0.00000000E+00  0.00000000E+00
  0.00000000E+00  0.00000000E+00  0.00000000E+00
  0.00000000E+00  0.00000000E+00  0.00000000E+00
  0.00000000E+00  0.00000000E+00  0.00000000E+00
  0.00000000E+00  0.00000000E+00  0.00000000E+00
  0.00000000E+00  0.00000000E+00  0.00000000E+00
  0.00000000E+00  0.00000000E+00  0.00000000E+00
  0.00000000E+00  0.00000000E+00  0.00000000E+00
  0.00000000E+00  0.00000000E+00  0.00000000E+00
  0.00000000E+00  0.00000000E+00  0.00000000E+00
  0.00000000E+00  0.00000000E+00  0.00000000E+00
  0.00000000E+00  0.00000000E+00  0.00000000E+00
  0.00000000E+00  0.00000000E+00  0.00000000E+00
  0.00000000E+00  0.00000000E+00  0.00000000E+00
  0.00000000E+00  0.00000000E+00  0.00000000E+00
  0.00000000E+00  0.00000000E+00  0.00000000E+00
  0.00000000E+00  0.00000000E+00  0.00000000E+00
  0.00000000E+00  0.00000000E+00  0.00000000E+00
  0.00000000E+00  0.00000000E+00  0.00000000E+00
  0.00000000E+00  0.00000000E+00  0.00000000E+00
  0.00000000E+00  0.00000000E+00  0.00000000E+00
  0.00000000E+00  0.00000000E+00  0.00000000E+00
  0.00000000E+00  0.00000000E+00  0.00000000E+00
  0.00000000E+00  0.00000000E+00  0.00000000E+00
  0.00000000E+00  0.00000000E+00  0.00000000E+00
  0.00000000E+00  0.00000000E+00  0.00000000E+00
  0.00000000E+00  0.00000000E+00  0.00000000E+00
  0.00000000E+00  0.00000000E+00  0.00000000E+00
  0.00000000E+00  0.00000000E+00  0.00000000E+00
  0.00000000E+00  0.00000000E+00  0.00000000E+00
  0.00000000E+00  0.00000000E+00  0.00000000E+00
  0.00000000E+00  0.00000000E+00  0.00000000E+00
  0.00000000E+00  0.00000000E+00  0.00000000E+00
