CeO2-you-111-you-Mn                     
   1.00000000000000     
     9.7786396418024477   -5.6457006019096942    0.0000000000000000
     0.0000000078559077   11.2913992303794508    0.0000000000000000
     0.0000000000000000    0.0000000000000000   21.3088512900609395
   O    Mn   Ce   H 
    54     1    26     1
Selective dynamics
Direct
  0.0000575029532118  0.0000297195699606  0.9962107787228655   T   T   T
  0.1025412521452154  0.2179371260722860  0.1484594760146649   F   F   F
  0.2538428658900223  0.1452218742919607  0.3107500320964076   T   T   T
  0.1351586025077038  0.2414015290347291  0.3781948681422241   T   T   T
  0.0092016664715371  0.0032272893518919  0.2327191857150409   T   T   T
  0.2225800468293997  0.1118270936585830  0.0756440106967702   F   F   F
  0.3331698869150267  0.0001022575197275  0.9961535631888552   T   T   T
  0.4487288739270738  0.2179371260720018  0.1484594760146649   F   F   F
  0.5532821017034357  0.1130613205235887  0.3045279825555888   T   T   T
  0.4725837076725732  0.1946674058239959  0.4093996726116411   T   T   T
  0.3294805620200339  0.0001483527092286  0.2307366070133854   T   T   T
  0.5573027742056311  0.1093642257941525  0.0757242133568283   F   F   F
  0.6668077511594157 -0.0000022228459356  0.9948753784575877   T   T   T
  0.7774329536398099  0.2215319072797328  0.1518497110351973   F   F   F
  0.8934793544720108  0.1108697063977798  0.3054140785036878   T   T   T
  0.7807126447989156  0.2226904486880520  0.3816747714337251   T   T   T
  0.6665390713891312 -0.0003177637775767  0.2324597907833126   T   T   T
  0.8853954515885931  0.1093642257942165  0.0757242133568283   F   F   F
  0.0001318544317154  0.3332124937660763  0.9960936462743306   T   T   T
  0.1104169475985159  0.5562500524026959  0.1499568650691430   F   F   F
  0.2209887995608290  0.4454834834611008  0.2975952903058691   T   T   T
  0.1103005094207660  0.5555492216650931  0.3830657081374191   T   T   T
 -0.0027657490921976  0.3313515789800215  0.2292680290960633   T   T   T
  0.2225800468298900  0.4440859531708128  0.0756440106967702   F   F   F
  0.3332690593559186  0.3331658282348858  0.9960558209980742   T   T   T
  0.4487288739277133  0.5641257478557193  0.1484594760146649   F   F   F
  0.5213011700112140  0.4130938198018302  0.3103738466793334   T   T   T
  0.4247793025628013  0.5315688658430471  0.3781475653288195   T   T   T
  0.3330087638849327  0.3338599872455873  0.2180699910652813   T   T   T
  0.5548399063407103  0.4440859531705996  0.0756440106967702   F   F   F
  0.6665884842688873  0.3339037722696468  0.9964108703090736   T   T   T
  0.7791661048037994  0.5562500524023193  0.1499568650691430   F   F   F
  0.8902208863630029  0.4472670004853019  0.3039325220112604   T   T   T
  0.7705677502712592  0.5519436808888873  0.3817139986660824   T   T   T
  0.6667396442995295  0.3370475795976164  0.2308065571098020   T   T   T
  0.8884202382451605  0.4435064764904055  0.0763574643366169   F   F   F
  0.0000699123879155  0.6668720202155941  0.9965896570239817   T   T   T
  0.1104169475976846  0.8875008951949894  0.1499568650691430   F   F   F
  0.2198501660266816  0.7769301578247405  0.3040724855947655   T   T   T
  0.1149960850791927  0.8961442429143719  0.3820763612060381   T   T   T
 -0.0008590431504965  0.6680790900576303  0.2300026928789330   T   T   T
  0.2231595235098638  0.7782467617548363  0.0763574643366169   F   F   F
  0.3335773405838906  0.6663163851759223  0.9964078340586084   T   T   T
  0.4451340927206218  0.8892340463601869  0.1518497110351973   F   F   F
  0.5551709192361166  0.7727327285600791  0.3052931651943074   T   T   T
  0.4441787429463264  0.8860770858299736  0.3818237245970323   T   T   T
  0.3346581787946464  0.6688887046736806  0.2291411336984235   T   T   T
  0.5573027742057874  0.7812715484116310  0.0757242133568283   F   F   F
  0.6668701795277778  0.6668058517435944  0.9961375833145449   T   T   T
  0.7774329536395612  0.8892340463600803  0.1518497110351973   F   F   F
  0.8887181240069721  0.7790806307790905  0.3049731448073998   T   T   T
  0.7772354734016439  0.8880292064640045  0.3836074901916731   T   T   T
  0.6639649694084666  0.6577740143057415  0.2327003378121456   T   T   T
  0.8884202382449757  0.7782467617547510  0.0763574643366169   F   F   F
  0.3260786236501422  0.3408865698801999  0.3384150999262435   T   T   T
  0.0094935981049153  0.0092569363280676  0.3436716161792244   T   T   T
  0.2235136474370876  0.1136942948751383  0.1884511219563976   F   F   F
  0.1103382106708111  0.2218356053356842  0.0357981433394841   F   F   F
  0.3344423737703275 -0.0009969444104365  0.3437733405328091   T   T   T
  0.5555698937088422  0.1110971062933004  0.1906743355990983   F   F   F
  0.4448303946648764  0.2218356053359329  0.0357981433394841   F   F   F
  0.6682835806210502 -0.0019204713602664  0.3452467593870637   T   T   T
  0.8888612125837980  0.1110971062926396  0.1906743355990983   F   F   F
  0.7774230707712917  0.2215121415425116  0.0360413227684475   F   F   F
  0.0062197619895787  0.3364844985265402  0.3417963172352377   T   T   T
  0.2235136474349204  0.4431523525619454  0.1884511219563976   F   F   F
  0.1109893553573684  0.5556776446417686  0.0366548294362090   F   F   F
  0.5529727051279991  0.4431523525629117  0.1884511219563976   F   F   F
  0.4448303946643151  0.5563287893283828  0.0357981433394841   F   F   F
  0.6678718266832742  0.3323399077115907  0.3436281401077007   T   T   T
  0.8888264666492844  0.4443189332982271  0.1904392463559148   F   F   F
  0.7780212892846663  0.5556776446420315  0.0366548294362090   F   F   F
 -0.0010563488560186  0.6679395989014554  0.3422688849488675   T   T   T
  0.2223470667006424  0.7778405333507123  0.1904392463559148   F   F   F
  0.1109893553579653  0.8886457107162045  0.0366548294362090   F   F   F
  0.3299471095303000  0.6603317079111997  0.3418091046228223   T   T   T
  0.5555698937073643  0.7778057874140529  0.1906743355990983   F   F   F
  0.4451538584572390  0.8892439292287051  0.0360413227684475   F   F   F
  0.6575569165566322  0.6576219562998032  0.3436445280435116   T   T   T
  0.8888264666500731  0.7778405333510534  0.1904392463559148   F   F   F
  0.7774230707714622  0.8892439292287833  0.0360413227684475   F   F   F
  0.4418611552765976  0.2257321197653805  0.4451552133821491   T   T   T
 
  0.00000000E+00  0.00000000E+00  0.00000000E+00
  0.00000000E+00  0.00000000E+00  0.00000000E+00
  0.00000000E+00  0.00000000E+00  0.00000000E+00
  0.00000000E+00  0.00000000E+00  0.00000000E+00
  0.00000000E+00  0.00000000E+00  0.00000000E+00
  0.00000000E+00  0.00000000E+00  0.00000000E+00
  0.00000000E+00  0.00000000E+00  0.00000000E+00
  0.00000000E+00  0.00000000E+00  0.00000000E+00
  0.00000000E+00  0.00000000E+00  0.00000000E+00
  0.00000000E+00  0.00000000E+00  0.00000000E+00
  0.00000000E+00  0.00000000E+00  0.00000000E+00
  0.00000000E+00  0.00000000E+00  0.00000000E+00
  0.00000000E+00  0.00000000E+00  0.00000000E+00
  0.00000000E+00  0.00000000E+00  0.00000000E+00
  0.00000000E+00  0.00000000E+00  0.00000000E+00
  0.00000000E+00  0.00000000E+00  0.00000000E+00
  0.00000000E+00  0.00000000E+00  0.00000000E+00
  0.00000000E+00  0.00000000E+00  0.00000000E+00
  0.00000000E+00  0.00000000E+00  0.00000000E+00
  0.00000000E+00  0.00000000E+00  0.00000000E+00
  0.00000000E+00  0.00000000E+00  0.00000000E+00
  0.00000000E+00  0.00000000E+00  0.00000000E+00
  0.00000000E+00  0.00000000E+00  0.00000000E+00
  0.00000000E+00  0.00000000E+00  0.00000000E+00
  0.00000000E+00  0.00000000E+00  0.00000000E+00
  0.00000000E+00  0.00000000E+00  0.00000000E+00
  0.00000000E+00  0.00000000E+00  0.00000000E+00
  0.00000000E+00  0.00000000E+00  0.00000000E+00
  0.00000000E+00  0.00000000E+00  0.00000000E+00
  0.00000000E+00  0.00000000E+00  0.00000000E+00
  0.00000000E+00  0.00000000E+00  0.00000000E+00
  0.00000000E+00  0.00000000E+00  0.00000000E+00
  0.00000000E+00  0.00000000E+00  0.00000000E+00
  0.00000000E+00  0.00000000E+00  0.00000000E+00
  0.00000000E+00  0.00000000E+00  0.00000000E+00
  0.00000000E+00  0.00000000E+00  0.00000000E+00
  0.00000000E+00  0.00000000E+00  0.00000000E+00
  0.00000000E+00  0.00000000E+00  0.00000000E+00
  0.00000000E+00  0.00000000E+00  0.00000000E+00
  0.00000000E+00  0.00000000E+00  0.00000000E+00
  0.00000000E+00  0.00000000E+00  0.00000000E+00
  0.00000000E+00  0.00000000E+00  0.00000000E+00
  0.00000000E+00  0.00000000E+00  0.00000000E+00
  0.00000000E+00  0.00000000E+00  0.00000000E+00
  0.00000000E+00  0.00000000E+00  0.00000000E+00
  0.00000000E+00  0.00000000E+00  0.00000000E+00
  0.00000000E+00  0.00000000E+00  0.00000000E+00
  0.00000000E+00  0.00000000E+00  0.00000000E+00
  0.00000000E+00  0.00000000E+00  0.00000000E+00
  0.00000000E+00  0.00000000E+00  0.00000000E+00
  0.00000000E+00  0.00000000E+00  0.00000000E+00
  0.00000000E+00  0.00000000E+00  0.00000000E+00
  0.00000000E+00  0.00000000E+00  0.00000000E+00
  0.00000000E+00  0.00000000E+00  0.00000000E+00
  0.00000000E+00  0.00000000E+00  0.00000000E+00
  0.00000000E+00  0.00000000E+00  0.00000000E+00
  0.00000000E+00  0.00000000E+00  0.00000000E+00
  0.00000000E+00  0.00000000E+00  0.00000000E+00
  0.00000000E+00  0.00000000E+00  0.00000000E+00
  0.00000000E+00  0.00000000E+00  0.00000000E+00
  0.00000000E+00  0.00000000E+00  0.00000000E+00
  0.00000000E+00  0.00000000E+00  0.00000000E+00
  0.00000000E+00  0.00000000E+00  0.00000000E+00
  0.00000000E+00  0.00000000E+00  0.00000000E+00
  0.00000000E+00  0.00000000E+00  0.00000000E+00
  0.00000000E+00  0.00000000E+00  0.00000000E+00
  0.00000000E+00  0.00000000E+00  0.00000000E+00
  0.00000000E+00  0.00000000E+00  0.00000000E+00
  0.00000000E+00  0.00000000E+00  0.00000000E+00
  0.00000000E+00  0.00000000E+00  0.00000000E+00
  0.00000000E+00  0.00000000E+00  0.00000000E+00
  0.00000000E+00  0.00000000E+00  0.00000000E+00
  0.00000000E+00  0.00000000E+00  0.00000000E+00
  0.00000000E+00  0.00000000E+00  0.00000000E+00
  0.00000000E+00  0.00000000E+00  0.00000000E+00
  0.00000000E+00  0.00000000E+00  0.00000000E+00
  0.00000000E+00  0.00000000E+00  0.00000000E+00
  0.00000000E+00  0.00000000E+00  0.00000000E+00
  0.00000000E+00  0.00000000E+00  0.00000000E+00
  0.00000000E+00  0.00000000E+00  0.00000000E+00
  0.00000000E+00  0.00000000E+00  0.00000000E+00
  0.00000000E+00  0.00000000E+00  0.00000000E+00
