CeO2-you-111-you-Cr                     
   1.00000000000000     
     9.8497013525862673   -5.6665275056005013   -0.0225323764278075
     0.0174942224103153   11.3633538969158003    0.0225323726626242
    -0.0245842150542845    0.0425811074232776   20.8516120844109558
   O    Cr   Ce H
    53     1    26 1
Selective dynamics
Direct
 -0.0005673038100109 -0.0002301108913359  0.9943395153346574   T   T   T
  0.1142116231013686  0.2227863754688501  0.1492685227785364   T   T   T
  0.2145986830238190  0.0931101797646835  0.2993745522921052   T   T   T
  0.1655349543008643  0.2608437228050502  0.3638160478763061   T   T   T
 -0.0033409089870797 -0.0018217596976321  0.2285168718678817   T   T   T
  0.2222920376308082  0.1102148741772574  0.0734234298029772   T   T   T
  0.3349937899487341  0.0006044288643642  0.9945759039316738   T   T   T
  0.4402661099570617  0.2263998900419721  0.1520583493880366   T   T   T
  0.5520441198466326  0.1146228801545164  0.3059539834110442   T   T   T
  0.4242372863294631  0.2424287136775308  0.3748177117194464   T   T   T
  0.3370304161051293 -0.0017167803179854  0.2274886993969272   T   T   T
  0.5550023746684872  0.1116646253312983  0.0772064190134527   T   T   T
  0.6658636420559217  0.0008033579476047  0.9959006547211319   T   T   T
  0.7844241640188501  0.2237647871471975  0.1513558533930688   T   T   T
  0.8885142307569196  0.1060928179077820  0.3078296450627870   T   T   T
  0.7653644721363750  0.2168888623448472  0.3885284731499461   T   T   T
  0.6661332617139253  0.0005337382867243  0.2315333190177133   T   T   T
  0.8908430458064461  0.1113470220854943  0.0748737400842438   T   T   T
 -0.0014472535494231  0.3327860458876046  0.9939952756942622   T   T   T
  0.1114921163895493  0.5551748836086543  0.1475754649608849   T   T   T
  0.1064037678457297  0.5602632321792905  0.3868272013659218   T   T   T
  0.0166137201313877  0.3428035637626669  0.2347890698721261   T   T   T
  0.2225617563668323  0.4441042436368571  0.0726056503944620   T   T   T
  0.3335909331379581  0.3330750668588898  0.9937638878512195   T   T   T
  0.4438796245411818  0.5524553769021010  0.1492685227782945   T   T   T
  0.5735568202186642  0.4520673169672405  0.2993745522938255   T   T   T
  0.4058222771819283  0.5011320456931804  0.3638160478746636   T   T   T
  0.3262198594846981  0.3404461405015706  0.2449449592486942   T   T   T
  0.5564521258204574  0.4443739623664102  0.0734234298031393   T   T   T
  0.6660625711340831  0.3316722100495155  0.9945759039313021   T   T   T
  0.7776111449093996  0.5547773172494667  0.1499839496125553   T   T   T
  0.8822572420783745  0.4456951874410972  0.3050350723860293   T   T   T
  0.7765305212385473  0.5582817876770834  0.3877374763573885   T   T   T
  0.6683837803096989  0.3296355838907287  0.2274886993968757   T   T   T
  0.8886268047035831  0.4444878454891308  0.0740886490567258   T   T   T
 -0.0005827936173396  0.6672497936161127  0.9940704565596264   T   T   T
  0.1118896827478069  0.8890558550866591  0.1499839496125280   T   T   T
  0.2209708125571290  0.7844097579142965  0.3050350723863163   T   T   T
  0.1083852123263539  0.8901364787623239  0.3877374763578488   T   T   T
  0.0008557392859200  0.6658112607102807  0.2293656443525200   T   T   T
  0.2221781545101484  0.7780401952961327  0.0740886490566902   T   T   T
  0.3338799541145496  0.6681142535530575  0.9939952756943985   T   T   T
  0.4429012128541219  0.8822428359786897  0.1513558533932031   T   T   T
  0.5605741820983288  0.7781527692415798  0.3078296450623815   T   T   T
  0.4497771376609590  0.9013025278624046  0.3885284731507081   T   T   T
  0.3238624362443087  0.6500532798851760  0.2347890698726911   T   T   T
  0.5553199779173090  0.7758239541955891  0.0748737400846851   T   T   T
  0.6668971108907875  0.6672343038095371  0.9943395153346116   T   T   T
  0.7760273166242232  0.8906396833754366  0.1502923473376573   T   T   T
  0.8889253137755320  0.7777416862234048  0.3041178643148392   T   T   T
  0.7804726735455197  0.8861943264508199  0.3869666065583087   T   T   T
  0.6684887596977426  0.6700079089879231  0.2285168718672214   T   T   T
  0.8887787165570670  0.7778882834416044  0.0745187613586547   T   T   T
  0.3393885440186265  0.3272774560092931  0.3367885453636474   T   T   T
  0.0021182276344352 -0.0025473690319600  0.3428080897431843   T   T   T
  0.2214539484243213  0.1088325076777143  0.1908520034597814   T   T   T
  0.1104288037812947  0.2208329239814519  0.0333009851052134   T   T   T
  0.3302349508548975  0.0009936627587450  0.3438398509286782   T   T   T
  0.5561078632489133  0.1105591367561069  0.1909112740232320   T   T   T
  0.4441766893934249  0.2224893106063041  0.0348029418577036   T   T   T
  0.6664334772903128  0.0002335227148343  0.3476268861046372   T   T   T
  0.8904492360848563  0.1121149072791265  0.1923166216741586   T   T   T
  0.7784592193152989  0.2227083145541542  0.0355285833435166   T   T   T
 -0.0071910713801612  0.3314809799297752  0.3524034488134931   T   T   T
  0.2227877799167876  0.4438782200754320  0.1845943984800053   T   T   T
  0.1103238593918351  0.5563431406064537  0.0331816526641369   T   T   T
  0.5578344923159755  0.4452120515710320  0.1908520034599256   T   T   T
  0.4458330760186492  0.5562381962180726  0.0333009851052537   T   T   T
  0.6656733372384847  0.3364310491366732  0.3438398509294168   T   T   T
  0.8914138463403189  0.4449332995473315  0.1913743294898187   T   T   T
  0.7772251187740096  0.5549043469585276  0.0343664788724126   T   T   T
  0.0001372409625348  0.6665297590496002  0.3467649071486270   T   T   T
  0.2217327004581367  0.7752531536756880  0.1913743294899827   T   T   T
  0.1117626530433850  0.8894418812273477  0.0343664788724779   T   T   T
  0.3351850200661783  0.6738580713743635  0.3524034488125461   T   T   T
  0.5545520927112942  0.7762177639143072  0.1923166216740844   T   T   T
  0.4439576854449720  0.8882077806850854  0.0355285833437218   T   T   T
  0.6692143690221820  0.6645487723616227  0.3428080897442005   T   T   T
  0.8892482431325410  0.7774187568723925  0.1885045028717890   T   T   T
  0.7771711861596617  0.8894958138397914  0.0356073311492689   T   T   T
0.446598 0.216020 0.433410 T T T 
 
  0.00000000E+00  0.00000000E+00  0.00000000E+00
  0.00000000E+00  0.00000000E+00  0.00000000E+00
  0.00000000E+00  0.00000000E+00  0.00000000E+00
  0.00000000E+00  0.00000000E+00  0.00000000E+00
  0.00000000E+00  0.00000000E+00  0.00000000E+00
  0.00000000E+00  0.00000000E+00  0.00000000E+00
  0.00000000E+00  0.00000000E+00  0.00000000E+00
  0.00000000E+00  0.00000000E+00  0.00000000E+00
  0.00000000E+00  0.00000000E+00  0.00000000E+00
  0.00000000E+00  0.00000000E+00  0.00000000E+00
  0.00000000E+00  0.00000000E+00  0.00000000E+00
  0.00000000E+00  0.00000000E+00  0.00000000E+00
  0.00000000E+00  0.00000000E+00  0.00000000E+00
  0.00000000E+00  0.00000000E+00  0.00000000E+00
  0.00000000E+00  0.00000000E+00  0.00000000E+00
  0.00000000E+00  0.00000000E+00  0.00000000E+00
  0.00000000E+00  0.00000000E+00  0.00000000E+00
  0.00000000E+00  0.00000000E+00  0.00000000E+00
  0.00000000E+00  0.00000000E+00  0.00000000E+00
  0.00000000E+00  0.00000000E+00  0.00000000E+00
  0.00000000E+00  0.00000000E+00  0.00000000E+00
  0.00000000E+00  0.00000000E+00  0.00000000E+00
  0.00000000E+00  0.00000000E+00  0.00000000E+00
  0.00000000E+00  0.00000000E+00  0.00000000E+00
  0.00000000E+00  0.00000000E+00  0.00000000E+00
  0.00000000E+00  0.00000000E+00  0.00000000E+00
  0.00000000E+00  0.00000000E+00  0.00000000E+00
  0.00000000E+00  0.00000000E+00  0.00000000E+00
  0.00000000E+00  0.00000000E+00  0.00000000E+00
  0.00000000E+00  0.00000000E+00  0.00000000E+00
  0.00000000E+00  0.00000000E+00  0.00000000E+00
  0.00000000E+00  0.00000000E+00  0.00000000E+00
  0.00000000E+00  0.00000000E+00  0.00000000E+00
  0.00000000E+00  0.00000000E+00  0.00000000E+00
  0.00000000E+00  0.00000000E+00  0.00000000E+00
  0.00000000E+00  0.00000000E+00  0.00000000E+00
  0.00000000E+00  0.00000000E+00  0.00000000E+00
  0.00000000E+00  0.00000000E+00  0.00000000E+00
  0.00000000E+00  0.00000000E+00  0.00000000E+00
  0.00000000E+00  0.00000000E+00  0.00000000E+00
  0.00000000E+00  0.00000000E+00  0.00000000E+00
  0.00000000E+00  0.00000000E+00  0.00000000E+00
  0.00000000E+00  0.00000000E+00  0.00000000E+00
  0.00000000E+00  0.00000000E+00  0.00000000E+00
  0.00000000E+00  0.00000000E+00  0.00000000E+00
  0.00000000E+00  0.00000000E+00  0.00000000E+00
  0.00000000E+00  0.00000000E+00  0.00000000E+00
  0.00000000E+00  0.00000000E+00  0.00000000E+00
  0.00000000E+00  0.00000000E+00  0.00000000E+00
  0.00000000E+00  0.00000000E+00  0.00000000E+00
  0.00000000E+00  0.00000000E+00  0.00000000E+00
  0.00000000E+00  0.00000000E+00  0.00000000E+00
  0.00000000E+00  0.00000000E+00  0.00000000E+00
  0.00000000E+00  0.00000000E+00  0.00000000E+00
  0.00000000E+00  0.00000000E+00  0.00000000E+00
  0.00000000E+00  0.00000000E+00  0.00000000E+00
  0.00000000E+00  0.00000000E+00  0.00000000E+00
  0.00000000E+00  0.00000000E+00  0.00000000E+00
  0.00000000E+00  0.00000000E+00  0.00000000E+00
  0.00000000E+00  0.00000000E+00  0.00000000E+00
  0.00000000E+00  0.00000000E+00  0.00000000E+00
  0.00000000E+00  0.00000000E+00  0.00000000E+00
  0.00000000E+00  0.00000000E+00  0.00000000E+00
  0.00000000E+00  0.00000000E+00  0.00000000E+00
  0.00000000E+00  0.00000000E+00  0.00000000E+00
  0.00000000E+00  0.00000000E+00  0.00000000E+00
  0.00000000E+00  0.00000000E+00  0.00000000E+00
  0.00000000E+00  0.00000000E+00  0.00000000E+00
  0.00000000E+00  0.00000000E+00  0.00000000E+00
  0.00000000E+00  0.00000000E+00  0.00000000E+00
  0.00000000E+00  0.00000000E+00  0.00000000E+00
  0.00000000E+00  0.00000000E+00  0.00000000E+00
  0.00000000E+00  0.00000000E+00  0.00000000E+00
  0.00000000E+00  0.00000000E+00  0.00000000E+00
  0.00000000E+00  0.00000000E+00  0.00000000E+00
  0.00000000E+00  0.00000000E+00  0.00000000E+00
  0.00000000E+00  0.00000000E+00  0.00000000E+00
  0.00000000E+00  0.00000000E+00  0.00000000E+00
  0.00000000E+00  0.00000000E+00  0.00000000E+00
  0.00000000E+00  0.00000000E+00  0.00000000E+00
