CeO2-you-111-you-Ga                     
   1.00000000000000     
     9.8404143404094793   -5.6680973264900851   -0.0137251564131785
     0.0114912138269834   11.3560960228709593    0.0137251541360635
    -0.0151826219876250    0.0262970713922859   20.9533232829903291
   O    Ga   Ce   H 
    53     1    26     1
Selective dynamics
Direct
  0.9999953332402428  0.9992673458408762  0.9944157509560448   T   T   T
  0.1142025516027516  0.2209567394341816  0.1483413630243339   T   T   T
  0.2241915033835209  0.0975597693333099  0.3007596831379010   T   T   T
  0.1474502058721681  0.2452212264213627  0.3687220711897736   T   T   T
  0.0001306869104965 -0.0000590306642751  0.2296467751040418   T   T   T
  0.2234300704868337  0.1099123410179852  0.0737598362206856   T   T   T
  0.3350958691812500 -0.0000086099428582  0.9947566379932997   T   T   T
  0.4407557347612849  0.2259836176446112  0.1526810412376248   T   T   T
  0.5491581818930923  0.1171146461307905  0.3066857141622087   T   T   T
  0.4237342663693741  0.2425621982333681  0.3887214560723501   T   T   T
  0.3369088718662439  0.9959430530434492  0.2266409400396542   T   T   T
  0.5555715331436836  0.1115439406528496  0.0771389061920495   T   T   T
  0.6663144149163447  0.0001827632170178  0.9956102551020767   T   T   T
  0.7853187580369114  0.2235405948815417  0.1508673136089098   T   T   T
  0.8862036754890977  0.1045235003936082  0.3062355646698998   T   T   T
  0.7667025712386690  0.2175981509292811  0.3880329073968287   T   T   T
  0.6653491262513779  0.0021458211349989  0.2308481543142297   T   T   T
  0.8903745281314187  0.1099753781475139  0.0748859606879127   T   T   T
  0.9985600896732038  0.3317322500839621  0.9939849379207008   T   T   T
  0.1121929249115367  0.5551799763325879  0.1463694359793332   T   T   T
  0.1071291471053220  0.5603571016780809  0.3866527357281752   T   T   T
  0.0177343655540086  0.3415711331916046  0.2335709177909537   T   T   T
  0.2227621200085767  0.4431556539279392  0.0718073341822222   T   T   T
  0.3341453090367270  0.3319199393049407  0.9935536829056848   T   T   T
  0.4458338605622242  0.5523513675089602  0.1481740907273922   T   T   T
  0.5685596140190760  0.4422210264114055  0.3009027613789875   T   T   T
  0.4218267859332559  0.5189712731206240  0.3694159479126472   T   T   T
  0.3244162566287500  0.3427237201912134  0.2435307129027155   T   T   T
  0.5567458207747605  0.4432423728585175  0.0735142435817722   T   T   T
  0.6664944257058494  0.3309725862618296  0.9944499117067573   T   T   T
  0.7778885168196112  0.5547741471122810  0.1500704715684970   T   T   T
  0.8860812900165067  0.4468456797291035  0.3035032441278916   T   T   T
  0.7775297719531211  0.5566174040964185  0.3864845110852504   T   T   T
  0.6706035916459741  0.3295689458208864  0.2270646831604684   T   T   T
  0.8887025301213641  0.4439281925775344  0.0738718445561669   T   T   T
  0.9997552102182129  0.6665244220281022  0.9940587140172527   T   T   T
  0.1119643436720842  0.8888396401639076  0.1498971764471195   T   T   T
  0.2204567180606699  0.7813014548350692  0.3035007681489698   T   T   T
  0.1105626425487295  0.8897494344617297  0.3867902704552451   T   T   T
  0.0014979258709624  0.6659017171052882  0.2284463145703499   T   T   T
  0.2225432197374077  0.7775345472956335  0.0736735302921530   T   T   T
  0.3340618539594051  0.6671825144483937  0.9935368155274457   T   T   T
  0.4438758441184891  0.8816781952155024  0.1504285278591096   T   T   T
  0.5625561182940736  0.7808318308285104  0.3056310095202823   T   T   T
  0.4495364326059200  0.8992165930157809  0.3877972123106657   T   T   T
  0.3252494540069656  0.6488480693750015  0.2335094087134147   T   T   T
  0.5558158829681067  0.7755718669545622  0.0743909091352575   T   T   T
  0.6674551835648815  0.6665401889976235  0.9939970170004704   T   T   T
  0.7765820086850266  0.8895436650377853  0.1511526367886941   T   T   T
  0.8894081683977684  0.7777217368639675  0.3040321392892931   T   T   T
  0.7796889224823876  0.8868420683414634  0.3865352224080802   T   T   T
  0.6668843340162759  0.6662601885475710  0.2295315790241719   T   T   T
  0.8887874773906663  0.7774499760289143  0.0748157040861405   T   T   T
  0.3334153569918270  0.3335151658410577  0.3385662013064886   T   T   T
  0.0051409249132477  0.0014784340205171  0.3430504526631873   T   T   T
  0.2224818627386950  0.1093218623020338  0.1916059434243942   T   T   T
  0.1108312175624999  0.2196183893677935  0.0333317172902153   T   T   T
  0.3280139165780641 -0.0072449547229311  0.3422366060104114   T   T   T
  0.5564075037193886  0.1104243454285583  0.1903330143505932   T   T   T
  0.4446380888711189  0.2219326624910607  0.0347590717999394   T   T   T
  0.6674424616796250 -0.0008217910419818  0.3465910339105302   T   T   T
  0.8911597340287342  0.1121368267577868  0.1920222582684831   T   T   T
  0.7787575165754015  0.2219141023564417  0.0353447702965679   T   T   T
  0.9947217861394160  0.3299380066352377  0.3523694802079089   T   T   T
  0.2235877349652424  0.4430163247205982  0.1832234843557115   T   T   T
  0.1106615902457312  0.5555405630629066  0.0325162052546349   T   T   T
  0.5572819093535162  0.4441047780942000  0.1916381557449781   T   T   T
  0.4465088219903121  0.5553697374877845  0.0330588318498238   T   T   T
  0.6738747542106548  0.3386883571749935  0.3421641180485104   T   T   T
  0.8926271653592416  0.4448142440415068  0.1900676987405643   T   T   T
  0.7774477899556367  0.5543480839220295  0.0346748177001832   T   T   T
  0.0007193871950278  0.6662697127543328  0.3456080091626926   T   T   T
  0.2221654603987281  0.7742749371420462  0.1899143618562985   T   T   T
  0.1119870607594471  0.8889432952553714  0.0348297517635306   T   T   T
  0.3368889581140016  0.6717138308918155  0.3521156381366310   T   T   T
  0.5546912499479206  0.7754307416502230  0.1918855437865193   T   T   T
  0.4445392115052559  0.8876467234511636  0.0351759553483855   T   T   T
  0.6652383975498661  0.6616673083332336  0.3430361926968219   T   T   T
  0.8896609562034912  0.7769748950979211  0.1893370626297328   T   T   T
  0.7775227008245926  0.8886359265191947  0.0356820322239763   T   T   T
  0.4111864377806263  0.2542891653627902  0.4337988372527996   T   T   T
 
  0.00000000E+00  0.00000000E+00  0.00000000E+00
  0.00000000E+00  0.00000000E+00  0.00000000E+00
  0.00000000E+00  0.00000000E+00  0.00000000E+00
  0.00000000E+00  0.00000000E+00  0.00000000E+00
  0.00000000E+00  0.00000000E+00  0.00000000E+00
  0.00000000E+00  0.00000000E+00  0.00000000E+00
  0.00000000E+00  0.00000000E+00  0.00000000E+00
  0.00000000E+00  0.00000000E+00  0.00000000E+00
  0.00000000E+00  0.00000000E+00  0.00000000E+00
  0.00000000E+00  0.00000000E+00  0.00000000E+00
  0.00000000E+00  0.00000000E+00  0.00000000E+00
  0.00000000E+00  0.00000000E+00  0.00000000E+00
  0.00000000E+00  0.00000000E+00  0.00000000E+00
  0.00000000E+00  0.00000000E+00  0.00000000E+00
  0.00000000E+00  0.00000000E+00  0.00000000E+00
  0.00000000E+00  0.00000000E+00  0.00000000E+00
  0.00000000E+00  0.00000000E+00  0.00000000E+00
  0.00000000E+00  0.00000000E+00  0.00000000E+00
  0.00000000E+00  0.00000000E+00  0.00000000E+00
  0.00000000E+00  0.00000000E+00  0.00000000E+00
  0.00000000E+00  0.00000000E+00  0.00000000E+00
  0.00000000E+00  0.00000000E+00  0.00000000E+00
  0.00000000E+00  0.00000000E+00  0.00000000E+00
  0.00000000E+00  0.00000000E+00  0.00000000E+00
  0.00000000E+00  0.00000000E+00  0.00000000E+00
  0.00000000E+00  0.00000000E+00  0.00000000E+00
  0.00000000E+00  0.00000000E+00  0.00000000E+00
  0.00000000E+00  0.00000000E+00  0.00000000E+00
  0.00000000E+00  0.00000000E+00  0.00000000E+00
  0.00000000E+00  0.00000000E+00  0.00000000E+00
  0.00000000E+00  0.00000000E+00  0.00000000E+00
  0.00000000E+00  0.00000000E+00  0.00000000E+00
  0.00000000E+00  0.00000000E+00  0.00000000E+00
  0.00000000E+00  0.00000000E+00  0.00000000E+00
  0.00000000E+00  0.00000000E+00  0.00000000E+00
  0.00000000E+00  0.00000000E+00  0.00000000E+00
  0.00000000E+00  0.00000000E+00  0.00000000E+00
  0.00000000E+00  0.00000000E+00  0.00000000E+00
  0.00000000E+00  0.00000000E+00  0.00000000E+00
  0.00000000E+00  0.00000000E+00  0.00000000E+00
  0.00000000E+00  0.00000000E+00  0.00000000E+00
  0.00000000E+00  0.00000000E+00  0.00000000E+00
  0.00000000E+00  0.00000000E+00  0.00000000E+00
  0.00000000E+00  0.00000000E+00  0.00000000E+00
  0.00000000E+00  0.00000000E+00  0.00000000E+00
  0.00000000E+00  0.00000000E+00  0.00000000E+00
  0.00000000E+00  0.00000000E+00  0.00000000E+00
  0.00000000E+00  0.00000000E+00  0.00000000E+00
  0.00000000E+00  0.00000000E+00  0.00000000E+00
  0.00000000E+00  0.00000000E+00  0.00000000E+00
  0.00000000E+00  0.00000000E+00  0.00000000E+00
  0.00000000E+00  0.00000000E+00  0.00000000E+00
  0.00000000E+00  0.00000000E+00  0.00000000E+00
  0.00000000E+00  0.00000000E+00  0.00000000E+00
  0.00000000E+00  0.00000000E+00  0.00000000E+00
  0.00000000E+00  0.00000000E+00  0.00000000E+00
  0.00000000E+00  0.00000000E+00  0.00000000E+00
  0.00000000E+00  0.00000000E+00  0.00000000E+00
  0.00000000E+00  0.00000000E+00  0.00000000E+00
  0.00000000E+00  0.00000000E+00  0.00000000E+00
  0.00000000E+00  0.00000000E+00  0.00000000E+00
  0.00000000E+00  0.00000000E+00  0.00000000E+00
  0.00000000E+00  0.00000000E+00  0.00000000E+00
  0.00000000E+00  0.00000000E+00  0.00000000E+00
  0.00000000E+00  0.00000000E+00  0.00000000E+00
  0.00000000E+00  0.00000000E+00  0.00000000E+00
  0.00000000E+00  0.00000000E+00  0.00000000E+00
  0.00000000E+00  0.00000000E+00  0.00000000E+00
  0.00000000E+00  0.00000000E+00  0.00000000E+00
  0.00000000E+00  0.00000000E+00  0.00000000E+00
  0.00000000E+00  0.00000000E+00  0.00000000E+00
  0.00000000E+00  0.00000000E+00  0.00000000E+00
  0.00000000E+00  0.00000000E+00  0.00000000E+00
  0.00000000E+00  0.00000000E+00  0.00000000E+00
  0.00000000E+00  0.00000000E+00  0.00000000E+00
  0.00000000E+00  0.00000000E+00  0.00000000E+00
  0.00000000E+00  0.00000000E+00  0.00000000E+00
  0.00000000E+00  0.00000000E+00  0.00000000E+00
  0.00000000E+00  0.00000000E+00  0.00000000E+00
  0.00000000E+00  0.00000000E+00  0.00000000E+00
  0.00000000E+00  0.00000000E+00  0.00000000E+00
