CeO2-you-111-you-Mg                     
   1.00000000000000     
     9.8358177635432629   -5.6787124044700201    0.0000000000000000
     0.0000000008849982   11.3574228118073837   -0.0000000000000000
     0.0000000000000000   -0.0000000000000000   21.1691607423094652
   O    Mg   Ce
    54     1    26
Selective dynamics
Direct
 -0.0000042668362187 -0.0001103812278769  0.9967684298760114   T   T   T
  0.1092563863398699  0.2212946931699359  0.1500786001894829   T   T   T
  0.2245940509816046  0.1158551019627152  0.3035416718290204   T   T   T
  0.1175246517259359  0.2254288258623934  0.3792725694948877   T   T   T
  0.0007748498666088  0.0001912563985885  0.2300580633431359   T   T   T
  0.2225767377893800  0.1118204755787361  0.0759678048587576   T   T   T
  0.3332268856083485 -0.0001103812278586  0.9967684298760114   T   T   T
  0.4453713068300621  0.2212946931699352  0.1500786001894829   T   T   T
  0.5551566090381658  0.1115103909614157  0.3038951887206944   T   T   T
  0.4412371741364536  0.2254288258618819  0.3792725694948877   T   T   T
  0.3327494065320155  0.0001912563984962  0.2300580633431359   T   T   T
  0.5559124466803131  0.1107545533196609  0.0758835345982245   T   T   T
  0.6666669999999968  0.0000000000000000  0.9961289473452857   T   T   T
  0.7778197394014651  0.2223054788029546  0.1506540021491089   T   T   T
  0.8896877819233806  0.1115103909615455  0.3038951887206944   T   T   T
  0.7777492813677997  0.2221645627355781  0.3824738348508725   T   T   T
  0.6666669999999968  0.0000000000000000  0.2298725120515005   T   T   T
  0.8881761066393580  0.1107545533196702  0.0758835345982245   T   T   T
 -0.0000042668362108  0.3334391143917025  0.9967684298760114   T   T   T
  0.1111795954639271  0.5554874045363016  0.1503546728311058   T   T   T
  0.2245940509827109  0.4420719490188856  0.3035416718290204   T   T   T
  0.1117319241991850  0.5549350758010638  0.3818021985280676   T   T   T
  0.0007748498666821  0.3339165934678155  0.2300580633431359   T   T   T
  0.2225767377894267  0.4440892622106402  0.0759678048587576   T   T   T
  0.3333330000000032  0.3333330000000032  0.9962899502742283   T   T   T
  0.4453713068300634  0.5574106136601361  0.1500786001894829   T   T   T
  0.5508118980356916  0.4420719490183946  0.3035416718290204   T   T   T
  0.4412371741376061  0.5491423482757319  0.3792725694948877   T   T   T
  0.3333330000000032  0.3333330000000032  0.2275824063649136   T   T   T
  0.5548465244212005  0.4440892622106193  0.0759678048587576   T   T   T
  0.6667773812279036  0.3334391143917174  0.9967684298760114   T   T   T
  0.7776408090723015  0.5554874045362324  0.1503546728311058   T   T   T
  0.8892092805459286  0.4450845610918557  0.3036397824753634   T   T   T
  0.7765361516017998  0.5549350758009886  0.3818021985280676   T   T   T
  0.6664757436010946  0.3339165934676908  0.2300580633431359   T   T   T
  0.8887718315600224  0.4442096631200658  0.0761284622614010   T   T   T
  0.0000000000000000  0.6666669999999968  0.9971528691886544   T   T   T
  0.1111795954637714  0.8890261909274703  0.1503546728311058   T   T   T
  0.2215814389081416  0.7774577194540682  0.3036397824753634   T   T   T
  0.1117319241990153  0.8901308483979522  0.3818021985280676   T   T   T
  0.0000000000000000  0.6666669999999968  0.2294108144217987   T   T   T
  0.2224563368800036  0.7778951684399744  0.0761284622614010   T   T   T
  0.3332268856083153  0.6666712668361597  0.9967684298760114   T   T   T
  0.4443605211971031  0.8888472605985317  0.1506540021491089   T   T   T
  0.5551566090384583  0.7769792180770387  0.3038951887206944   T   T   T
  0.4445014372643311  0.8889177186321970  0.3824738348508725   T   T   T
  0.3327494065322968  0.6658921501337206  0.2300580633431359   T   T   T
  0.5559124466803338  0.7784908933606689  0.0758835345982245   T   T   T
  0.6667773812278623  0.6666712668361560  0.9967684298760114   T   T   T
  0.7778197394014246  0.8888472605985138  0.1506540021491089   T   T   T
  0.8892092805459298  0.7774577194540692  0.3036397824753634   T   T   T
  0.7777492813678623  0.8889177186322249  0.3824738348508725   T   T   T
  0.6664757436013024  0.6658921501336881  0.2300580633431359   T   T   T
  0.8887718315599741  0.7778951684399528  0.0761284622614010   T   T   T
  0.3333330000000032  0.3333330000000032  0.3360130308228485   T   T   T
  0.0024337449584501  0.0018470463140552  0.3427084220177108   T   T   T
  0.2232261172604957  0.1131192345208063  0.1903928281285235   T   T   T
  0.1111539880461841  0.2222434940230517  0.0363416582375102   T   T   T
  0.3327463013556357  0.0018470463139394  0.3427084220177108   T   T   T
  0.5555261142342005  0.1111408857658751  0.1899669577579606   T   T   T
  0.4444225059768637  0.2222434940230145  0.0363416582375102   T   T   T
  0.6666669999999968  0.0000000000000000  0.3434652617773556   T   T   T
  0.8889487715316531  0.1111408857658530  0.1899669577579606   T   T   T
  0.7777398091911827  0.2221456183823718  0.0362555597443465   T   T   T
  0.0024337449585118  0.3339196986441371  0.3427084220177108   T   T   T
  0.2232261172609057  0.4434398827396855  0.1903928281285235   T   T   T
  0.1111612428669671  0.5555057571332644  0.0367084360401826   T   T   T
  0.5535477654786055  0.4434398827395035  0.1903928281285235   T   T   T
  0.4444225059769475  0.5555130119539409  0.0363416582375102   T   T   T
  0.6648199536855915  0.3339196986439939  0.3427084220177108   T   T   T
  0.8889873993950143  0.4446407987899774  0.1899062218410531   T   T   T
  0.7776775142662236  0.5555057571331944  0.0367084360401826   T   T   T
  0.0000000000000000  0.6666669999999968  0.3424687627226837   T   T   T
  0.2220252012098571  0.7776796006049825  0.1899062218410531   T   T   T
  0.1111612428668094  0.8889894857335457  0.0367084360401826   T   T   T
  0.3327463013559583  0.6642332550419511  0.3427084220177108   T   T   T
  0.5555261142341508  0.7777182284682720  0.1899669577579606   T   T   T
  0.4445203816176282  0.8889271908088141  0.0362555597443465   T   T   T
  0.6648199536858527  0.6642332550419239  0.3427084220177108   T   T   T
  0.8889873993951284  0.7776796006050331  0.1899062218410531   T   T   T
  0.7777398091911821  0.8889271908088140  0.0362555597443465   T   T   T
 
  0.00000000E+00  0.00000000E+00  0.00000000E+00
  0.00000000E+00  0.00000000E+00  0.00000000E+00
  0.00000000E+00  0.00000000E+00  0.00000000E+00
  0.00000000E+00  0.00000000E+00  0.00000000E+00
  0.00000000E+00  0.00000000E+00  0.00000000E+00
  0.00000000E+00  0.00000000E+00  0.00000000E+00
  0.00000000E+00  0.00000000E+00  0.00000000E+00
  0.00000000E+00  0.00000000E+00  0.00000000E+00
  0.00000000E+00  0.00000000E+00  0.00000000E+00
  0.00000000E+00  0.00000000E+00  0.00000000E+00
  0.00000000E+00  0.00000000E+00  0.00000000E+00
  0.00000000E+00  0.00000000E+00  0.00000000E+00
  0.00000000E+00  0.00000000E+00  0.00000000E+00
  0.00000000E+00  0.00000000E+00  0.00000000E+00
  0.00000000E+00  0.00000000E+00  0.00000000E+00
  0.00000000E+00  0.00000000E+00  0.00000000E+00
  0.00000000E+00  0.00000000E+00  0.00000000E+00
  0.00000000E+00  0.00000000E+00  0.00000000E+00
  0.00000000E+00  0.00000000E+00  0.00000000E+00
  0.00000000E+00  0.00000000E+00  0.00000000E+00
  0.00000000E+00  0.00000000E+00  0.00000000E+00
  0.00000000E+00  0.00000000E+00  0.00000000E+00
  0.00000000E+00  0.00000000E+00  0.00000000E+00
  0.00000000E+00  0.00000000E+00  0.00000000E+00
  0.00000000E+00  0.00000000E+00  0.00000000E+00
  0.00000000E+00  0.00000000E+00  0.00000000E+00
  0.00000000E+00  0.00000000E+00  0.00000000E+00
  0.00000000E+00  0.00000000E+00  0.00000000E+00
  0.00000000E+00  0.00000000E+00  0.00000000E+00
  0.00000000E+00  0.00000000E+00  0.00000000E+00
  0.00000000E+00  0.00000000E+00  0.00000000E+00
  0.00000000E+00  0.00000000E+00  0.00000000E+00
  0.00000000E+00  0.00000000E+00  0.00000000E+00
  0.00000000E+00  0.00000000E+00  0.00000000E+00
  0.00000000E+00  0.00000000E+00  0.00000000E+00
  0.00000000E+00  0.00000000E+00  0.00000000E+00
  0.00000000E+00  0.00000000E+00  0.00000000E+00
  0.00000000E+00  0.00000000E+00  0.00000000E+00
  0.00000000E+00  0.00000000E+00  0.00000000E+00
  0.00000000E+00  0.00000000E+00  0.00000000E+00
  0.00000000E+00  0.00000000E+00  0.00000000E+00
  0.00000000E+00  0.00000000E+00  0.00000000E+00
  0.00000000E+00  0.00000000E+00  0.00000000E+00
  0.00000000E+00  0.00000000E+00  0.00000000E+00
  0.00000000E+00  0.00000000E+00  0.00000000E+00
  0.00000000E+00  0.00000000E+00  0.00000000E+00
  0.00000000E+00  0.00000000E+00  0.00000000E+00
  0.00000000E+00  0.00000000E+00  0.00000000E+00
  0.00000000E+00  0.00000000E+00  0.00000000E+00
  0.00000000E+00  0.00000000E+00  0.00000000E+00
  0.00000000E+00  0.00000000E+00  0.00000000E+00
  0.00000000E+00  0.00000000E+00  0.00000000E+00
  0.00000000E+00  0.00000000E+00  0.00000000E+00
  0.00000000E+00  0.00000000E+00  0.00000000E+00
  0.00000000E+00  0.00000000E+00  0.00000000E+00
  0.00000000E+00  0.00000000E+00  0.00000000E+00
  0.00000000E+00  0.00000000E+00  0.00000000E+00
  0.00000000E+00  0.00000000E+00  0.00000000E+00
  0.00000000E+00  0.00000000E+00  0.00000000E+00
  0.00000000E+00  0.00000000E+00  0.00000000E+00
  0.00000000E+00  0.00000000E+00  0.00000000E+00
  0.00000000E+00  0.00000000E+00  0.00000000E+00
  0.00000000E+00  0.00000000E+00  0.00000000E+00
  0.00000000E+00  0.00000000E+00  0.00000000E+00
  0.00000000E+00  0.00000000E+00  0.00000000E+00
  0.00000000E+00  0.00000000E+00  0.00000000E+00
  0.00000000E+00  0.00000000E+00  0.00000000E+00
  0.00000000E+00  0.00000000E+00  0.00000000E+00
  0.00000000E+00  0.00000000E+00  0.00000000E+00
  0.00000000E+00  0.00000000E+00  0.00000000E+00
  0.00000000E+00  0.00000000E+00  0.00000000E+00
  0.00000000E+00  0.00000000E+00  0.00000000E+00
  0.00000000E+00  0.00000000E+00  0.00000000E+00
  0.00000000E+00  0.00000000E+00  0.00000000E+00
  0.00000000E+00  0.00000000E+00  0.00000000E+00
  0.00000000E+00  0.00000000E+00  0.00000000E+00
  0.00000000E+00  0.00000000E+00  0.00000000E+00
  0.00000000E+00  0.00000000E+00  0.00000000E+00
  0.00000000E+00  0.00000000E+00  0.00000000E+00
  0.00000000E+00  0.00000000E+00  0.00000000E+00
  0.00000000E+00  0.00000000E+00  0.00000000E+00
