CeO2-you-111-you-Cu                     
   1.00000000000000     
     9.8108627899905230   -5.6643046444277854   -0.0000000000000000
     0.0000000039995412   11.3286073021883791    0.0000000000000000
     0.0000000000000000    0.0000000000000000   21.0126525601159173
   O    Cu   Ce H
    54     1    26 1
Selective dynamics
Direct
  0.0005302056098493  0.0002825396746550  0.9942940463517004   T   T   T
  0.1035494214299048  0.2184412107151237  0.1482211619014378   F   F   F
  0.2294221346413690  0.1255112692800849  0.3054928618399873   T   T   T
  0.1276310762532261  0.2304820381252607  0.3852678638195649   T   T   T
  0.0022870625503939  0.0002760745416794  0.2308371699193058   T   T   T
  0.2226198247854437  0.1119066495708629  0.0745919301453866   F   F   F
  0.3330853340649283  0.0002825396746004  0.9942940463517004   T   T   T
  0.4482247892852149  0.2184412107152744  0.1482211619014378   F   F   F
  0.5532977960266742  0.1133692039730803  0.3063645479865377   T   T   T
  0.4361839618720308  0.2304820381240590  0.3852678638195649   T   T   T
  0.3313220119912033  0.0002760745413419  0.2308371699193058   T   T   T
  0.5572687951132671  0.1093982048881762  0.0738350263045858   F   F   F
  0.6666669999999968 -0.0000000000000000  0.9926575274299480   T   T   T
  0.7775222107550975  0.2217104215105624  0.1508847940574662   F   F   F
  0.8934054079464839  0.1133692039731571  0.3063645479865377   T   T   T
  0.7777500101868577  0.2221660203735176  0.3843133868259195   T   T   T
  0.6666669999999968 -0.0000000000000000  0.2322796907389923   T   T   T
  0.8854634097744669  0.1093982048877337  0.0738350263045858   F   F   F
  0.0005302056101184  0.3335806659350746  0.9942940463517004   T   T   T
  0.1105699605757802  0.5560970394251101  0.1493096951443725   F   F   F
  0.2294221346473394  0.4372438653612802  0.3054928618399873   T   T   T
  0.1127785961943973  0.5538884038051897  0.3831253846131193   T   T   T
  0.0022870625502014  0.3353439880079572  0.2308371699193058   T   T   T
  0.2226198247854919  0.4440461752145771  0.0745919301453866   F   F   F
  0.3333330000000032  0.3333330000000032  0.9944417181066603   T   T   T
  0.4482247892848755  0.5631175785696089  0.1482211619014378   F   F   F
  0.5411557307112989  0.4372438653586302  0.3054928618399873   T   T   T
  0.4361839618747386  0.5390359237506874  0.3852678638195649   T   T   T
  0.3333330000000032  0.3333330000000032  0.2160288661701975   T   T   T
  0.5547603504290715  0.4440461752145556  0.0745919301453866   F   F   F
  0.6663844603248303  0.3335806659349005  0.9942940463517004   T   T   T
  0.7788600788490539  0.5560970394248377  0.1493096951443725   F   F   F
  0.8891492707108543  0.4449645414219071  0.3050729088054031   T   T   T
  0.7744428076109169  0.5538884038053180  0.3831253846131193   T   T   T
  0.6663909254578353  0.3353439880077054  0.2308371699193058   T   T   T
  0.8881822742211691  0.4430305484424508  0.0745023517206448   F   F   F
 -0.0000000000000000  0.6666669999999968  0.9948254248712841   T   T   T
  0.1105699605751661  0.8878069211500568  0.1493096951443725   F   F   F
  0.2217014585787400  0.7775177292891425  0.3050729088054031   T   T   T
  0.1127785961946858  0.8922241923894965  0.3831253846131193   T   T   T
 -0.0000000000000000  0.6666669999999968  0.2300754590827735   T   T   T
  0.2236354515579174  0.7784847257788277  0.0745023517206448   F   F   F
  0.3330853340653205  0.6661367943904447  0.9942940463517004   T   T   T
  0.4449555784906123  0.8891447892448993  0.1508847940574662   F   F   F
  0.5532977960268468  0.7732615920537625  0.3063645479865377   T   T   T
  0.4444999796258193  0.8889169898131390  0.3843133868259195   T   T   T
  0.3313220119917710  0.6643799374506149  0.2308371699193058   T   T   T
  0.5572687951122708  0.7812035902240902  0.0738350263045858   F   F   F
  0.6663844603249535  0.6661367943903252  0.9942940463517004   T   T   T
  0.7775222107542831  0.8891447892445383  0.1508847940574662   F   F   F
  0.8891492707104051  0.7775177292889432  0.3050729088054031   T   T   T
  0.7777500101873165  0.8889169898133429  0.3843133868259195   T   T   T
  0.6663909254585952  0.6643799374507010  0.2308371699193058   T   T   T
  0.8881822742209133  0.7784847257787143  0.0745023517206448   F   F   F
  0.3333330000000032  0.3333330000000032  0.3520242215130676   T   T   T
  0.0043907367900087  0.0032487842527521  0.3440961819491946   T   T   T
  0.2236215375476501  0.1139100750946825  0.1889490719444123   F   F   F
  0.1104403683104905  0.2218866841552569  0.0341568110548586   F   F   F
  0.3321910474628679  0.0032487842525563  0.3440961819491946   T   T   T
  0.5555767785781396  0.1110902214221228  0.1901938686487232   F   F   F
  0.4447793158447627  0.2218866841552659  0.0341568110548586   F   F   F
  0.6666669999999968  0.0000000000000000  0.3460377851716169   T   T   T
  0.8888474428439038  0.1110902214220433  0.1901938686487232   F   F   F
  0.7773876666919798  0.2214413333841210  0.0339086670351173   F   F   F
  0.0043907367902818  0.3344749525368185  0.3440961819491946   T   T   T
  0.2236215375490345  0.4430444624529636  0.1889490719444123   F   F   F
  0.1111689230420458  0.5554980769583046  0.0348767600728717   F   F   F
  0.5527569249033228  0.4430444624523494  0.1889490719444123   F   F   F
  0.4447793158447424  0.5562266316894834  0.0341568110548586   F   F   F
  0.6634182157464095  0.3344749525365017  0.3440961819491946   T   T   T
  0.8888595523135705  0.4443851046270622  0.1897489048728070   F   F   F
  0.7776621539161486  0.5554980769581982  0.0348767600728717   F   F   F
 -0.0000000000000000  0.6666669999999968  0.3432029272147183   T   T   T
  0.2222808953726828  0.7778074476864263  0.1897489048728070   F   F   F
  0.1111689230418057  0.8890048460835015  0.0348767600728717   F   F   F
  0.3321910474635820  0.6622762632107462  0.3440961819491946   T   T   T
  0.5555767785779607  0.7778195571558342  0.1901938686487232   F   F   F
  0.4452246666163813  0.8892793333080170  0.0339086670351173   F   F   F
  0.6634182157468502  0.6622762632106254  0.3440961819491946   T   T   T
  0.8888595523137461  0.7778074476865043  0.1897489048728070   F   F   F
  0.7773876666916316  0.8892793333078622  0.0339086670351173   F   F   F
0.446598 0.216020 0.433410 T T T 
 
  0.00000000E+00  0.00000000E+00  0.00000000E+00
  0.00000000E+00  0.00000000E+00  0.00000000E+00
  0.00000000E+00  0.00000000E+00  0.00000000E+00
  0.00000000E+00  0.00000000E+00  0.00000000E+00
  0.00000000E+00  0.00000000E+00  0.00000000E+00
  0.00000000E+00  0.00000000E+00  0.00000000E+00
  0.00000000E+00  0.00000000E+00  0.00000000E+00
  0.00000000E+00  0.00000000E+00  0.00000000E+00
  0.00000000E+00  0.00000000E+00  0.00000000E+00
  0.00000000E+00  0.00000000E+00  0.00000000E+00
  0.00000000E+00  0.00000000E+00  0.00000000E+00
  0.00000000E+00  0.00000000E+00  0.00000000E+00
  0.00000000E+00  0.00000000E+00  0.00000000E+00
  0.00000000E+00  0.00000000E+00  0.00000000E+00
  0.00000000E+00  0.00000000E+00  0.00000000E+00
  0.00000000E+00  0.00000000E+00  0.00000000E+00
  0.00000000E+00  0.00000000E+00  0.00000000E+00
  0.00000000E+00  0.00000000E+00  0.00000000E+00
  0.00000000E+00  0.00000000E+00  0.00000000E+00
  0.00000000E+00  0.00000000E+00  0.00000000E+00
  0.00000000E+00  0.00000000E+00  0.00000000E+00
  0.00000000E+00  0.00000000E+00  0.00000000E+00
  0.00000000E+00  0.00000000E+00  0.00000000E+00
  0.00000000E+00  0.00000000E+00  0.00000000E+00
  0.00000000E+00  0.00000000E+00  0.00000000E+00
  0.00000000E+00  0.00000000E+00  0.00000000E+00
  0.00000000E+00  0.00000000E+00  0.00000000E+00
  0.00000000E+00  0.00000000E+00  0.00000000E+00
  0.00000000E+00  0.00000000E+00  0.00000000E+00
  0.00000000E+00  0.00000000E+00  0.00000000E+00
  0.00000000E+00  0.00000000E+00  0.00000000E+00
  0.00000000E+00  0.00000000E+00  0.00000000E+00
  0.00000000E+00  0.00000000E+00  0.00000000E+00
  0.00000000E+00  0.00000000E+00  0.00000000E+00
  0.00000000E+00  0.00000000E+00  0.00000000E+00
  0.00000000E+00  0.00000000E+00  0.00000000E+00
  0.00000000E+00  0.00000000E+00  0.00000000E+00
  0.00000000E+00  0.00000000E+00  0.00000000E+00
  0.00000000E+00  0.00000000E+00  0.00000000E+00
  0.00000000E+00  0.00000000E+00  0.00000000E+00
  0.00000000E+00  0.00000000E+00  0.00000000E+00
  0.00000000E+00  0.00000000E+00  0.00000000E+00
  0.00000000E+00  0.00000000E+00  0.00000000E+00
  0.00000000E+00  0.00000000E+00  0.00000000E+00
  0.00000000E+00  0.00000000E+00  0.00000000E+00
  0.00000000E+00  0.00000000E+00  0.00000000E+00
  0.00000000E+00  0.00000000E+00  0.00000000E+00
  0.00000000E+00  0.00000000E+00  0.00000000E+00
  0.00000000E+00  0.00000000E+00  0.00000000E+00
  0.00000000E+00  0.00000000E+00  0.00000000E+00
  0.00000000E+00  0.00000000E+00  0.00000000E+00
  0.00000000E+00  0.00000000E+00  0.00000000E+00
  0.00000000E+00  0.00000000E+00  0.00000000E+00
  0.00000000E+00  0.00000000E+00  0.00000000E+00
  0.00000000E+00  0.00000000E+00  0.00000000E+00
  0.00000000E+00  0.00000000E+00  0.00000000E+00
  0.00000000E+00  0.00000000E+00  0.00000000E+00
  0.00000000E+00  0.00000000E+00  0.00000000E+00
  0.00000000E+00  0.00000000E+00  0.00000000E+00
  0.00000000E+00  0.00000000E+00  0.00000000E+00
  0.00000000E+00  0.00000000E+00  0.00000000E+00
  0.00000000E+00  0.00000000E+00  0.00000000E+00
  0.00000000E+00  0.00000000E+00  0.00000000E+00
  0.00000000E+00  0.00000000E+00  0.00000000E+00
  0.00000000E+00  0.00000000E+00  0.00000000E+00
  0.00000000E+00  0.00000000E+00  0.00000000E+00
  0.00000000E+00  0.00000000E+00  0.00000000E+00
  0.00000000E+00  0.00000000E+00  0.00000000E+00
  0.00000000E+00  0.00000000E+00  0.00000000E+00
  0.00000000E+00  0.00000000E+00  0.00000000E+00
  0.00000000E+00  0.00000000E+00  0.00000000E+00
  0.00000000E+00  0.00000000E+00  0.00000000E+00
  0.00000000E+00  0.00000000E+00  0.00000000E+00
  0.00000000E+00  0.00000000E+00  0.00000000E+00
  0.00000000E+00  0.00000000E+00  0.00000000E+00
  0.00000000E+00  0.00000000E+00  0.00000000E+00
  0.00000000E+00  0.00000000E+00  0.00000000E+00
  0.00000000E+00  0.00000000E+00  0.00000000E+00
  0.00000000E+00  0.00000000E+00  0.00000000E+00
  0.00000000E+00  0.00000000E+00  0.00000000E+00
  0.00000000E+00  0.00000000E+00  0.00000000E+00
