CeO2-you-111-you-Tl                     
   1.00000000000000     
     9.8514611536192671   -5.6877441196628178    0.0000000000000000
    -0.0000000008085783   11.3754862360808389    0.0000000000000000
     0.0000000000000000    0.0000000000000000   20.3524612342697608
   O    Tl   Ce   H 
    54     1    26     1
Selective dynamics
Direct
 -0.0000618403826295  0.9997116309281660  0.9893123821240325   T   T   T
  0.1089948751401266  0.2211639375708288  0.1480264863907053   F   F   F
  0.2305486750234612  0.1137697508751651  0.3095932724878246   T   T   T
  0.1060017993159749  0.2191260905162410  0.3922617801146473   T   T   T
  0.0015777876875775  0.0004269902998931  0.2321342397545379   T   T   T
  0.2225274119293630  0.1117218238586801  0.0707739045806477   F   F   F
  0.3327609343859143  0.9997286529456947  0.9885921745944539   T   T   T
  0.4455020624306911  0.2211639375715038  0.1480264863907053   F   F   F
  0.5513228288571862  0.1149303229051194  0.3099318367013426   T   T   T
  0.4485331250905030  0.2180201845174582  0.4089582268748516   T   T   T
  0.3328835079677612  0.9979744087104971  0.2307061119292997   T   T   T
  0.5557208397851312  0.1109461602153203  0.0705937361001219   F   F   F
  0.6670044515582753 -0.0000925868365090  0.9882361057528919   T   T   T
  0.7776034389483399  0.2218728778967076  0.1481816647370806   F   F   F
  0.8884430708967908  0.1105574149846524  0.3091198027621833   T   T   T
  0.7776448259795966  0.2233189944163916  0.3898560264487270   T   T   T
  0.6658244861339166  0.0011055488755723  0.2322506636620801   T   T   T
  0.8885593204300477  0.1109461602151782  0.0705937361001219   F   F   F
  0.9999692361230040  0.3332055080138808  0.9885668301664502   T   T   T
  0.1113846891757362  0.5552823108237206  0.1483849053759414   F   F   F
  0.2186869104664989  0.4482833138277155  0.3063015276705093   T   T   T
  0.1107283336666535  0.5562637939810542  0.3909102402284379   T   T   T
  0.9978383897926626  0.3313196674157628  0.2307370327017992   T   T   T
  0.2225274119294482  0.4441385880706790  0.0707739045806477   F   F   F
  0.3329869150618606  0.3328571678116459  0.9883379602545838   T   T   T
  0.4455020624291706  0.5576721248576817  0.1480264863907053   F   F   F
  0.5527156251226788  0.4357505761260836  0.3097311715201768   T   T   T
  0.4479047700778356  0.5615629837669794  0.3924493252320397   T   T   T
  0.3327291140221209  0.3335224901226201  0.2258658721448104   T   T   T
  0.5549451761412030  0.4441385880706363  0.0707739045806477   F   F   F
  0.6668778014108151  0.3336852403098189  0.9887162559966042   T   T   T
  0.7772306216481510  0.5552823108238840  0.1483849053759414   F   F   F
  0.8908788374764606  0.4460909645345303  0.3077406869064632   T   T   T
  0.7782152288886730  0.5541669726015429  0.3901774563289021   T   T   T
  0.6685223639577621  0.3338430566280191  0.2307401511028450   T   T   T
  0.8886223569349525  0.4439107138700180  0.0711792145400878   F   F   F
 -0.0000971581620598  0.6670135835363250  0.9891532938732723   T   T   T
  0.1113846891761199  0.8894363783524000  0.1483849053759414   F   F   F
  0.2211454057432485  0.7759927824533757  0.3078047956787545   T   T   T
  0.1118570897169385  0.8883098916330731  0.3900873541641371   T   T   T
 -0.0005235247579969  0.6676398801113825  0.2307038766334608   T   T   T
  0.2227552861303366  0.7780446430650443  0.0711792145400878   F   F   F
  0.3328793661373750  0.6665376673740031  0.9887315021140780   T   T   T
  0.4447931221033414  0.8890635610516568  0.1481816647370806   F   F   F
  0.5563808210820933  0.7783676183021020  0.3087632036572909   T   T   T
  0.4435978471467421  0.8893349888438034  0.3898415740014735   T   T   T
  0.3352224790762484  0.6686620535117660  0.2307327216448243   T   T   T
  0.5557208397848257  0.7781076795695014  0.0705937361001219   F   F   F
  0.6671928193035485  0.6669132692820748  0.9885811841300646   T   T   T
  0.7776034389483115  0.8890635610516355  0.1481816647370806   F   F   F
  0.8886589161173720  0.7776730898670624  0.3090934002183711   T   T   T
  0.7778051805421036  0.8894746264581913  0.3908567272206689   T   T   T
  0.6662914732124815  0.6652207156481842  0.2321247955396010   T   T   T
  0.8886223569347109  0.7780446430649306  0.0711792145400878   F   F   F
  0.3301985067082476  0.3365954179826838  0.3522534465973767   T   T   T
  0.0006771102370092  0.0009076637912131  0.3494650515835807   T   T   T
  0.2230641197282139  0.1127952394561405  0.1896520896357430   F   F   F
  0.1110526804881431  0.2221928402442828  0.0297121815612371   F   F   F
  0.3292986140178660  0.9933457240872223  0.3476655571851817   T   T   T
  0.5556884304200409  0.1109785695800838  0.1896638024363426   F   F   F
  0.4444731597561429  0.2221928402444746  0.0297121815612371   F   F   F
  0.6668170297055828  0.0000941418358920  0.3496511108180652   T   T   T
  0.8886241391600080  0.1109785695800483  0.1896638024363426   F   F   F
  0.7776407622058912  0.2219475244118243  0.0297428392423811   F   F   F
  0.0020654358196449  0.3341286729613677  0.3489385932679173   T   T   T
  0.2230641197288605  0.4436018802720696  0.1896520896357430   F   F   F
  0.1111701246070425  0.5554968753926985  0.0301654942649350   F   F   F
  0.5538717605429255  0.4436018802717854  0.1896520896357430   F   F   F
  0.4444731597557166  0.5556143195112426  0.0297121815612371   F   F   F
  0.6733552254489873  0.3373489682485852  0.3478137664767516   T   T   T
  0.8889033370172044  0.4444726740344578  0.1893672360483976   F   F   F
  0.7776597507857375  0.5554968753927767  0.0301654942649350   F   F   F
  0.0002063319309110  0.6665112941932967  0.3491139191521622   T   T   T
  0.2221933259656979  0.7777636629827924  0.1893672360483976   F   F   F
  0.1111701246072272  0.8890072492145293  0.0301654942649350   F   F   F
  0.3328328586741519  0.6649094366578548  0.3489610978754561   T   T   T
  0.5556884304199556  0.7780428608398751  0.1896638024363426   F   F   F
  0.4447184755882958  0.8890262377941056  0.0297428392423811   F   F   F
  0.6657244885724994  0.6661336549030196  0.3495554259003544   T   T   T
  0.8889033370170978  0.7777636629827427  0.1893672360483976   F   F   F
  0.7776407622058059  0.8890262377940701  0.0297428392423811   F   F   F
  0.4427033734898688  0.2224425716304636  0.4565195317437400   T   T   T
 
  0.00000000E+00  0.00000000E+00  0.00000000E+00
  0.00000000E+00  0.00000000E+00  0.00000000E+00
  0.00000000E+00  0.00000000E+00  0.00000000E+00
  0.00000000E+00  0.00000000E+00  0.00000000E+00
  0.00000000E+00  0.00000000E+00  0.00000000E+00
  0.00000000E+00  0.00000000E+00  0.00000000E+00
  0.00000000E+00  0.00000000E+00  0.00000000E+00
  0.00000000E+00  0.00000000E+00  0.00000000E+00
  0.00000000E+00  0.00000000E+00  0.00000000E+00
  0.00000000E+00  0.00000000E+00  0.00000000E+00
  0.00000000E+00  0.00000000E+00  0.00000000E+00
  0.00000000E+00  0.00000000E+00  0.00000000E+00
  0.00000000E+00  0.00000000E+00  0.00000000E+00
  0.00000000E+00  0.00000000E+00  0.00000000E+00
  0.00000000E+00  0.00000000E+00  0.00000000E+00
  0.00000000E+00  0.00000000E+00  0.00000000E+00
  0.00000000E+00  0.00000000E+00  0.00000000E+00
  0.00000000E+00  0.00000000E+00  0.00000000E+00
  0.00000000E+00  0.00000000E+00  0.00000000E+00
  0.00000000E+00  0.00000000E+00  0.00000000E+00
  0.00000000E+00  0.00000000E+00  0.00000000E+00
  0.00000000E+00  0.00000000E+00  0.00000000E+00
  0.00000000E+00  0.00000000E+00  0.00000000E+00
  0.00000000E+00  0.00000000E+00  0.00000000E+00
  0.00000000E+00  0.00000000E+00  0.00000000E+00
  0.00000000E+00  0.00000000E+00  0.00000000E+00
  0.00000000E+00  0.00000000E+00  0.00000000E+00
  0.00000000E+00  0.00000000E+00  0.00000000E+00
  0.00000000E+00  0.00000000E+00  0.00000000E+00
  0.00000000E+00  0.00000000E+00  0.00000000E+00
  0.00000000E+00  0.00000000E+00  0.00000000E+00
  0.00000000E+00  0.00000000E+00  0.00000000E+00
  0.00000000E+00  0.00000000E+00  0.00000000E+00
  0.00000000E+00  0.00000000E+00  0.00000000E+00
  0.00000000E+00  0.00000000E+00  0.00000000E+00
  0.00000000E+00  0.00000000E+00  0.00000000E+00
  0.00000000E+00  0.00000000E+00  0.00000000E+00
  0.00000000E+00  0.00000000E+00  0.00000000E+00
  0.00000000E+00  0.00000000E+00  0.00000000E+00
  0.00000000E+00  0.00000000E+00  0.00000000E+00
  0.00000000E+00  0.00000000E+00  0.00000000E+00
  0.00000000E+00  0.00000000E+00  0.00000000E+00
  0.00000000E+00  0.00000000E+00  0.00000000E+00
  0.00000000E+00  0.00000000E+00  0.00000000E+00
  0.00000000E+00  0.00000000E+00  0.00000000E+00
  0.00000000E+00  0.00000000E+00  0.00000000E+00
  0.00000000E+00  0.00000000E+00  0.00000000E+00
  0.00000000E+00  0.00000000E+00  0.00000000E+00
  0.00000000E+00  0.00000000E+00  0.00000000E+00
  0.00000000E+00  0.00000000E+00  0.00000000E+00
  0.00000000E+00  0.00000000E+00  0.00000000E+00
  0.00000000E+00  0.00000000E+00  0.00000000E+00
  0.00000000E+00  0.00000000E+00  0.00000000E+00
  0.00000000E+00  0.00000000E+00  0.00000000E+00
  0.00000000E+00  0.00000000E+00  0.00000000E+00
  0.00000000E+00  0.00000000E+00  0.00000000E+00
  0.00000000E+00  0.00000000E+00  0.00000000E+00
  0.00000000E+00  0.00000000E+00  0.00000000E+00
  0.00000000E+00  0.00000000E+00  0.00000000E+00
  0.00000000E+00  0.00000000E+00  0.00000000E+00
  0.00000000E+00  0.00000000E+00  0.00000000E+00
  0.00000000E+00  0.00000000E+00  0.00000000E+00
  0.00000000E+00  0.00000000E+00  0.00000000E+00
  0.00000000E+00  0.00000000E+00  0.00000000E+00
  0.00000000E+00  0.00000000E+00  0.00000000E+00
  0.00000000E+00  0.00000000E+00  0.00000000E+00
  0.00000000E+00  0.00000000E+00  0.00000000E+00
  0.00000000E+00  0.00000000E+00  0.00000000E+00
  0.00000000E+00  0.00000000E+00  0.00000000E+00
  0.00000000E+00  0.00000000E+00  0.00000000E+00
  0.00000000E+00  0.00000000E+00  0.00000000E+00
  0.00000000E+00  0.00000000E+00  0.00000000E+00
  0.00000000E+00  0.00000000E+00  0.00000000E+00
  0.00000000E+00  0.00000000E+00  0.00000000E+00
  0.00000000E+00  0.00000000E+00  0.00000000E+00
  0.00000000E+00  0.00000000E+00  0.00000000E+00
  0.00000000E+00  0.00000000E+00  0.00000000E+00
  0.00000000E+00  0.00000000E+00  0.00000000E+00
  0.00000000E+00  0.00000000E+00  0.00000000E+00
  0.00000000E+00  0.00000000E+00  0.00000000E+00
  0.00000000E+00  0.00000000E+00  0.00000000E+00
  0.00000000E+00  0.00000000E+00  0.00000000E+00
