CeO2-you-111-you-Al                     
   1.00000000000000     
     9.8279901216816139   -5.6596280025646610   -0.0175119529249023
     0.0126137557850403   11.3411016774983704    0.0175119500386693
    -0.0194607513401035    0.0337070084344490   20.9489423278169404
   O    Al   Ce H
    53     1    26 1
Selective dynamics
Direct
 -0.0006514159162264 -0.0004143563738192  0.9947263842631844   T   T   T
  0.1141687088745563  0.2231801967111643  0.1494546804396105   T   T   T
  0.2045927454065420  0.0786184849290225  0.2976060330799853   T   T   T
  0.1532791056731831  0.2551103275211563  0.3614795951408056   T   T   T
 -0.0070739354088931 -0.0020852102774605  0.2279798220840319   T   T   T
  0.2213739671499596  0.1103038018613543  0.0741883012534993   T   T   T
  0.3351111942817926  0.0010831570062231  0.9955400391842524   T   T   T
  0.4403246986517023  0.2263413013477037  0.1520574942362843   T   T   T
  0.5535755892686367  0.1130914107270572  0.3083796222925360   T   T   T
  0.4238102257798078  0.2428557742146379  0.3672439265622751   T   T   T
  0.3396301370922458 -0.0009622994255533  0.2283282689012842   T   T   T
  0.5552797594247816  0.1113872405744955  0.0777206768639415   T   T   T
  0.6658276480347017  0.0008393519683044  0.9959851313577586   T   T   T
  0.7850943170689699  0.2248177110552940  0.1513863687281416   T   T   T
  0.8858631557366162  0.1073208304776143  0.3069036605169645   T   T   T
  0.7731849906987900  0.2192231061542840  0.3887241027515616   T   T   T
  0.6657505423012723  0.0009164576954278  0.2308697724851968   T   T   T
  0.8907929113430599  0.1120524216761356  0.0747129662186070   T   T   T
 -0.0014456756011396  0.3336318325190653  0.9944197066925877   T   T   T
  0.1115259008548565  0.5551410991428555  0.1487758048052482   T   T   T
  0.1152214445541249  0.5514455554518507  0.3814820870793302   T   T   T
  0.0169935206717221  0.3422642689725338  0.2357930127952843   T   T   T
  0.2223086615876179  0.4443573384142493  0.0733563641507613   T   T   T
  0.3334491075470198  0.3332168924526782  0.9943806143117447   T   T   T
  0.4434858032951604  0.5524982911279540  0.1494546804396026   T   T   T
  0.5880485150638818  0.4620732545843864  0.2976060330854853   T   T   T
  0.4115556724867783  0.5133878943404661  0.3614795951413406   T   T   T
  0.3276979716084486  0.3389680283787355  0.2456646211945625   T   T   T
  0.5563631981394158  0.4452920328497330  0.0741883012537077   T   T   T
  0.6655838429920908  0.3315548057173145  0.9955400391837469   T   T   T
  0.7772244693998186  0.5541383318336254  0.1510493743812898   T   T   T
  0.8839162423417577  0.4450239147817491  0.3055670304594323   T   T   T
  0.7797327809346917  0.5592529327031687  0.3883178506768621   T   T   T
  0.6676292994150523  0.3270358628988150  0.2283282689011026   T   T   T
  0.8888405494019799  0.4451549932599174  0.0748871535080515   T   T   T
 -0.0008834860389418  0.6675504860395660  0.9947639580683862   T   T   T
  0.1125286681659015  0.8894425305977742  0.1510493743814571   T   T   T
  0.2216420852137510  0.7827507576499165  0.3055670304597696   T   T   T
  0.1074140672976213  0.8869342190625924  0.3883178506770183   T   T   T
  0.0006698867398495  0.6659971132559285  0.2299823071723278   T   T   T
  0.2215110067394924  0.7778264505979108  0.0748871535079581   T   T   T
  0.3330341674825755  0.6681126756028438  0.9944197066931444   T   T   T
  0.4418482889421159  0.8815726829285625  0.1513863687275220   T   T   T
  0.5593461695299674  0.7808038442648381  0.3069036605167572   T   T   T
  0.4474428938449258  0.8934820092905014  0.3887241027519072   T   T   T
  0.3244017310334025  0.6496734793348486  0.2357930127961640   T   T   T
  0.5546145783240863  0.7758740886557178  0.0747129662190609   T   T   T
  0.6670813563744006  0.6673184159164228  0.9947263842633537   T   T   T
  0.7755501073961844  0.8911168926068020  0.1490805554151605   T   T   T
  0.8890835750056877  0.7775834249927225  0.3041489525120858   T   T   T
  0.7794596154133350  0.8872073845845984  0.3865959566472451   T   T   T
  0.6687522102820328  0.6737409354152560  0.2279798220841185   T   T   T
  0.8887955617946612  0.7778714382051598  0.0753947533377980   T   T   T
  0.3340973743402249  0.3325686256955290  0.3370562964494754   T   T   T
  0.0024263269722578 -0.0003487056495692  0.3429840605459645   T   T   T
  0.2215708224352335  0.1096188629872406  0.1915752341502583   T   T   T
  0.1104709293969937  0.2211774864932440  0.0337591115246471   T   T   T
  0.3305498006056781  0.0035002683805198  0.3444007297460552   T   T   T
  0.5562277157259242  0.1104392842742365  0.1911798675519021   T   T   T
  0.4440944861129577  0.2225715138869987  0.0358433622166770   T   T   T
  0.6663009845945426  0.0003660154068901  0.3479554375592633   T   T   T
  0.8895002930373732  0.1116487994374817  0.1915179708521479   T   T   T
  0.7783103671388167  0.2229287330413409  0.0358467630073634   T   T   T
 -0.0063778829725243  0.3283558611144571  0.3495971568747049   T   T   T
  0.2238389559221385  0.4428270440719161  0.1852483845305511   T   T   T
  0.1101434255978822  0.5565235744017888  0.0340947134530026   T   T   T
  0.5570481370064726  0.4450951775603543  0.1915752341505441   T   T   T
  0.4454885135091674  0.5561960706038905  0.0337591115247328   T   T   T
  0.6631667316213364  0.3361161993915452  0.3444007297461107   T   T   T
  0.8910018153023102  0.4449917043743215  0.1917812913156404   T   T   T
  0.7771894641773102  0.5552434193661283  0.0352388121109762   T   T   T
 -0.0005351171904011  0.6672021171981614  0.3456566272522876   T   T   T
  0.2216742956295057  0.7756651847061852  0.1917812913155555   T   T   T
  0.1114235806347062  0.8894775358232383  0.0352388121109606   T   T   T
  0.3383101388819666  0.6730448829790031  0.3495971568726845   T   T   T
  0.5550182005575602  0.7771667069625019  0.1915179708520556   T   T   T
  0.4437372669577349  0.8883566328615375  0.0358467630073921   T   T   T
  0.6670157056408311  0.6642406730227272  0.3429840605467250   T   T   T
  0.8885848416529308  0.7780821583490456  0.1890255309831707   T   T   T
  0.7771426930152429  0.8895243069851867  0.0354502190979671   T   T   T
0.446598 0.216020 0.433410 T T T 
 
  0.00000000E+00  0.00000000E+00  0.00000000E+00
  0.00000000E+00  0.00000000E+00  0.00000000E+00
  0.00000000E+00  0.00000000E+00  0.00000000E+00
  0.00000000E+00  0.00000000E+00  0.00000000E+00
  0.00000000E+00  0.00000000E+00  0.00000000E+00
  0.00000000E+00  0.00000000E+00  0.00000000E+00
  0.00000000E+00  0.00000000E+00  0.00000000E+00
  0.00000000E+00  0.00000000E+00  0.00000000E+00
  0.00000000E+00  0.00000000E+00  0.00000000E+00
  0.00000000E+00  0.00000000E+00  0.00000000E+00
  0.00000000E+00  0.00000000E+00  0.00000000E+00
  0.00000000E+00  0.00000000E+00  0.00000000E+00
  0.00000000E+00  0.00000000E+00  0.00000000E+00
  0.00000000E+00  0.00000000E+00  0.00000000E+00
  0.00000000E+00  0.00000000E+00  0.00000000E+00
  0.00000000E+00  0.00000000E+00  0.00000000E+00
  0.00000000E+00  0.00000000E+00  0.00000000E+00
  0.00000000E+00  0.00000000E+00  0.00000000E+00
  0.00000000E+00  0.00000000E+00  0.00000000E+00
  0.00000000E+00  0.00000000E+00  0.00000000E+00
  0.00000000E+00  0.00000000E+00  0.00000000E+00
  0.00000000E+00  0.00000000E+00  0.00000000E+00
  0.00000000E+00  0.00000000E+00  0.00000000E+00
  0.00000000E+00  0.00000000E+00  0.00000000E+00
  0.00000000E+00  0.00000000E+00  0.00000000E+00
  0.00000000E+00  0.00000000E+00  0.00000000E+00
  0.00000000E+00  0.00000000E+00  0.00000000E+00
  0.00000000E+00  0.00000000E+00  0.00000000E+00
  0.00000000E+00  0.00000000E+00  0.00000000E+00
  0.00000000E+00  0.00000000E+00  0.00000000E+00
  0.00000000E+00  0.00000000E+00  0.00000000E+00
  0.00000000E+00  0.00000000E+00  0.00000000E+00
  0.00000000E+00  0.00000000E+00  0.00000000E+00
  0.00000000E+00  0.00000000E+00  0.00000000E+00
  0.00000000E+00  0.00000000E+00  0.00000000E+00
  0.00000000E+00  0.00000000E+00  0.00000000E+00
  0.00000000E+00  0.00000000E+00  0.00000000E+00
  0.00000000E+00  0.00000000E+00  0.00000000E+00
  0.00000000E+00  0.00000000E+00  0.00000000E+00
  0.00000000E+00  0.00000000E+00  0.00000000E+00
  0.00000000E+00  0.00000000E+00  0.00000000E+00
  0.00000000E+00  0.00000000E+00  0.00000000E+00
  0.00000000E+00  0.00000000E+00  0.00000000E+00
  0.00000000E+00  0.00000000E+00  0.00000000E+00
  0.00000000E+00  0.00000000E+00  0.00000000E+00
  0.00000000E+00  0.00000000E+00  0.00000000E+00
  0.00000000E+00  0.00000000E+00  0.00000000E+00
  0.00000000E+00  0.00000000E+00  0.00000000E+00
  0.00000000E+00  0.00000000E+00  0.00000000E+00
  0.00000000E+00  0.00000000E+00  0.00000000E+00
  0.00000000E+00  0.00000000E+00  0.00000000E+00
  0.00000000E+00  0.00000000E+00  0.00000000E+00
  0.00000000E+00  0.00000000E+00  0.00000000E+00
  0.00000000E+00  0.00000000E+00  0.00000000E+00
  0.00000000E+00  0.00000000E+00  0.00000000E+00
  0.00000000E+00  0.00000000E+00  0.00000000E+00
  0.00000000E+00  0.00000000E+00  0.00000000E+00
  0.00000000E+00  0.00000000E+00  0.00000000E+00
  0.00000000E+00  0.00000000E+00  0.00000000E+00
  0.00000000E+00  0.00000000E+00  0.00000000E+00
  0.00000000E+00  0.00000000E+00  0.00000000E+00
  0.00000000E+00  0.00000000E+00  0.00000000E+00
  0.00000000E+00  0.00000000E+00  0.00000000E+00
  0.00000000E+00  0.00000000E+00  0.00000000E+00
  0.00000000E+00  0.00000000E+00  0.00000000E+00
  0.00000000E+00  0.00000000E+00  0.00000000E+00
  0.00000000E+00  0.00000000E+00  0.00000000E+00
  0.00000000E+00  0.00000000E+00  0.00000000E+00
  0.00000000E+00  0.00000000E+00  0.00000000E+00
  0.00000000E+00  0.00000000E+00  0.00000000E+00
  0.00000000E+00  0.00000000E+00  0.00000000E+00
  0.00000000E+00  0.00000000E+00  0.00000000E+00
  0.00000000E+00  0.00000000E+00  0.00000000E+00
  0.00000000E+00  0.00000000E+00  0.00000000E+00
  0.00000000E+00  0.00000000E+00  0.00000000E+00
  0.00000000E+00  0.00000000E+00  0.00000000E+00
  0.00000000E+00  0.00000000E+00  0.00000000E+00
  0.00000000E+00  0.00000000E+00  0.00000000E+00
  0.00000000E+00  0.00000000E+00  0.00000000E+00
  0.00000000E+00  0.00000000E+00  0.00000000E+00
