CeO2-you-111-you-W                      
   1.00000000000000     
     9.8569955155784985   -5.6909393813943518    0.0000000005368914
     0.0313157546001655   11.4361172343986421    0.0099395578231943
     0.0107297235775559    0.0185844232291978   20.7922285279205781
   O    W    Ce   H 
    53     1    26     2
Selective dynamics
Direct
  0.9985662048869957  0.9996757268652774  0.9945503078250287   T   T   T
  0.1121281387365869  0.2234822412348194  0.1475986100164519   F   F   F
  0.2552256004271943  0.1434196003286790  0.3121350613791971   T   T   T
  0.1456002861868916  0.2464396078204709  0.3810972752411155   T   T   T
  0.0082789791230114  0.0025629245130702  0.2290920857739947   T   T   T
  0.2212833258664944  0.1092336517329713  0.0714028005088636   F   F   F
  0.3348840548724811  0.9995480097526884  0.9940351576113393   T   T   T
  0.4446871024983423  0.2234822412341586  0.1475986100165798   F   F   F
  0.5621231990692318  0.1182445637398164  0.3059454577389861   T   T   T
  0.4789974402385798  0.2104793759868970  0.4144801827449190   T   T   T
  0.3294478017104523  0.0005255157810037  0.2277799284242575   T   T   T
  0.5577253802773754  0.1120202596622590  0.0751985553427374   F   F   F
  0.6671623177968379  0.9997274787100731  0.9948620225983847   T   T   T
  0.7803067472036602  0.2272794944069858  0.1534381775216005   F   F   F
  0.8934081369963280  0.1184672655590874  0.3059918620626287   T   T   T
  0.7862096649414309  0.2284976856310303  0.3877217115255297   T   T   T
  0.6681053847699225  0.0000599109798547  0.2302594163324159   T   T   T
  0.8876288793850691  0.1120202596625504  0.0751985553427446   F   F   F
  0.9995675642849911  0.3320609424303946  0.9938850246836108   T   T   T
  0.1093512726861618  0.5534713693048658  0.1478852986231942   F   F   F
  0.2516110608444820  0.4463652123341512  0.3062751141404761   T   T   T
  0.0997635450136686  0.5422429734395970  0.3851853290934346   T   T   T
  0.0117610041313088  0.3393132576403572  0.2320123081871185   T   T   T
  0.2224502361738914  0.4447421485542904  0.0734712491917691   F   F   F
  0.3330543952471223  0.3326012565017314  0.9938415636527524   T   T   T
  0.4430419976837072  0.5527519953689861  0.1495884157463720   F   F   F
  0.5051310750698211  0.4167902074146192  0.3183906943048006   T   T   T
  0.3260932058505902  0.3274897021810104  0.2290792395612160   T   T   T
  0.5556259123801652  0.4447421485542407  0.0734712491917691   F   F   F
  0.6659134664629291  0.3324964099269824  0.9936396300992287   T   T   T
  0.7774530966181743  0.5534713693045745  0.1478852986232440   F   F   F
  0.8882301188837637  0.4403747684210061  0.3024532095507126   T   T   T
  0.7775956334833345  0.5422285131978671  0.3849101088308303   T   T   T
  0.6612684697316897  0.3411451593546062  0.2322431562552670   T   T   T
  0.8884382132239068  0.4435424264476850  0.0727657542859106   F   F   F
  0.0002204800105200  0.6673746944504926  0.9932889563824455   T   T   T
  0.1095654020210475  0.8857978040405783  0.1463624515960973   F   F   F
  0.2196719783285748  0.7753675486509760  0.3041941169269362   T   T   T
  0.1031385438240693  0.8712735162016352  0.3900081952502054   T   T   T
  0.9991886116892883  0.6668134288390029  0.2278904923518794   T   T   T
  0.2231648267012574  0.7766736354915196  0.0732031928110430   F   F   F
  0.3339580895780899  0.6664221517589328  0.9936290833271678   T   T   T
  0.4468935911188723  0.8902787712500313  0.1502646252603910   F   F   F
  0.5553897499440655  0.7738686248285239  0.3050017966858518   T   T   T
  0.4608492184364941  0.8930519796585475  0.3916778939025273   T   T   T
  0.3304107614713347  0.6639152585135873  0.2273296562723263   T   T   T
  0.5549052764848525  0.7764765529697826  0.0745228340908710   F   F   F
  0.6655308734555655  0.6666794292684617  0.9936427608979732   T   T   T
  0.7767181801314038  0.8902787712502089  0.1502646252603483   F   F   F
  0.8886595439446409  0.7753320318603079  0.3035411855908035   T   T   T
  0.7747734707984978  0.8940568987869340  0.3902675548376445   T   T   T
  0.6640449006210994  0.6575568096562363  0.2290864604875880   T   T   T
  0.8868418087902867  0.7766736354914556  0.0732031928110501   F   F   F
  0.3079059261893687  0.3236897365647824  0.3295203138052661   T   T   T
  0.0005352478125218  0.9957283914924244  0.3507213755931230   T   T   T
  0.2187794433532559  0.1042258867103385  0.1835090731490254   F   F   F
  0.1099824703960763  0.2223163165107493  0.0331681069520897   F   F   F
  0.3368385823729605  0.9954001931365110  0.3546627467028904   T   T   T
  0.5543787010245396  0.1120407056035475  0.1916989117725834   F   F   F
  0.4456668461143778  0.2223163165109625  0.0331681069520968   F   F   F
  0.6690317697776156 -0.0022441182937463  0.3475595594878573   T   T   T
  0.8909960045780778  0.1120407056028938  0.1916989117727894   F   F   F
  0.7777608755556855  0.2221877511113206  0.0350803161016060   F   F   F
  0.9962043384872550  0.3344944686937089  0.3457001210210578   T   T   T
  0.2246033996368482  0.4456501143752902  0.1883952479112878   F   F   F
  0.1116239993562829  0.5554134677103306  0.0335312236157606   F   F   F
  0.5543807147410789  0.4456501143764271  0.1883952479108828   F   F   F
  0.4445718263624769  0.5558116527245431  0.0331500090777510   F   F   F
  0.6719187952857349  0.3313514689674830  0.3477918490718486   T   T   T
  0.8902127287600763  0.4470914575203864  0.1892264318742107   F   F   F
  0.7771224683543281  0.5554134677105651  0.0335312236157463   F   F   F
  0.0002473542688889  0.6660309921681067  0.3450010513994194   T   T   T
  0.2226897397644478  0.7774220584579794  0.1891012048068816   F   F   F
  0.1101492594727134  0.8869655189455088  0.0322609789593713   F   F   F
  0.3321202733040902  0.6774303943553475  0.3467790537150833   T   T   T
  0.5559082880829038  0.7784825761648335  0.1914507358170709   F   F   F
  0.4454103918752708  0.8891128529489691  0.0349925114626544   F   F   F
  0.6759845581109409  0.6708143964920048  0.3468048721801859   T   T   T
  0.8880653186936698  0.7774220584579794  0.1891012048069882   F   F   F
  0.7770354610738366  0.8891128529490544  0.0349925114626757   F   F   F
  0.3720182761158244  0.4074609448915109  0.4033315066298734   T   T   T
  0.4541459569730591  0.2553020058288097  0.4469533049442361   T   T   T
 
  0.00000000E+00  0.00000000E+00  0.00000000E+00
  0.00000000E+00  0.00000000E+00  0.00000000E+00
  0.00000000E+00  0.00000000E+00  0.00000000E+00
  0.00000000E+00  0.00000000E+00  0.00000000E+00
  0.00000000E+00  0.00000000E+00  0.00000000E+00
  0.00000000E+00  0.00000000E+00  0.00000000E+00
  0.00000000E+00  0.00000000E+00  0.00000000E+00
  0.00000000E+00  0.00000000E+00  0.00000000E+00
  0.00000000E+00  0.00000000E+00  0.00000000E+00
  0.00000000E+00  0.00000000E+00  0.00000000E+00
  0.00000000E+00  0.00000000E+00  0.00000000E+00
  0.00000000E+00  0.00000000E+00  0.00000000E+00
  0.00000000E+00  0.00000000E+00  0.00000000E+00
  0.00000000E+00  0.00000000E+00  0.00000000E+00
  0.00000000E+00  0.00000000E+00  0.00000000E+00
  0.00000000E+00  0.00000000E+00  0.00000000E+00
  0.00000000E+00  0.00000000E+00  0.00000000E+00
  0.00000000E+00  0.00000000E+00  0.00000000E+00
  0.00000000E+00  0.00000000E+00  0.00000000E+00
  0.00000000E+00  0.00000000E+00  0.00000000E+00
  0.00000000E+00  0.00000000E+00  0.00000000E+00
  0.00000000E+00  0.00000000E+00  0.00000000E+00
  0.00000000E+00  0.00000000E+00  0.00000000E+00
  0.00000000E+00  0.00000000E+00  0.00000000E+00
  0.00000000E+00  0.00000000E+00  0.00000000E+00
  0.00000000E+00  0.00000000E+00  0.00000000E+00
  0.00000000E+00  0.00000000E+00  0.00000000E+00
  0.00000000E+00  0.00000000E+00  0.00000000E+00
  0.00000000E+00  0.00000000E+00  0.00000000E+00
  0.00000000E+00  0.00000000E+00  0.00000000E+00
  0.00000000E+00  0.00000000E+00  0.00000000E+00
  0.00000000E+00  0.00000000E+00  0.00000000E+00
  0.00000000E+00  0.00000000E+00  0.00000000E+00
  0.00000000E+00  0.00000000E+00  0.00000000E+00
  0.00000000E+00  0.00000000E+00  0.00000000E+00
  0.00000000E+00  0.00000000E+00  0.00000000E+00
  0.00000000E+00  0.00000000E+00  0.00000000E+00
  0.00000000E+00  0.00000000E+00  0.00000000E+00
  0.00000000E+00  0.00000000E+00  0.00000000E+00
  0.00000000E+00  0.00000000E+00  0.00000000E+00
  0.00000000E+00  0.00000000E+00  0.00000000E+00
  0.00000000E+00  0.00000000E+00  0.00000000E+00
  0.00000000E+00  0.00000000E+00  0.00000000E+00
  0.00000000E+00  0.00000000E+00  0.00000000E+00
  0.00000000E+00  0.00000000E+00  0.00000000E+00
  0.00000000E+00  0.00000000E+00  0.00000000E+00
  0.00000000E+00  0.00000000E+00  0.00000000E+00
  0.00000000E+00  0.00000000E+00  0.00000000E+00
  0.00000000E+00  0.00000000E+00  0.00000000E+00
  0.00000000E+00  0.00000000E+00  0.00000000E+00
  0.00000000E+00  0.00000000E+00  0.00000000E+00
  0.00000000E+00  0.00000000E+00  0.00000000E+00
  0.00000000E+00  0.00000000E+00  0.00000000E+00
  0.00000000E+00  0.00000000E+00  0.00000000E+00
  0.00000000E+00  0.00000000E+00  0.00000000E+00
  0.00000000E+00  0.00000000E+00  0.00000000E+00
  0.00000000E+00  0.00000000E+00  0.00000000E+00
  0.00000000E+00  0.00000000E+00  0.00000000E+00
  0.00000000E+00  0.00000000E+00  0.00000000E+00
  0.00000000E+00  0.00000000E+00  0.00000000E+00
  0.00000000E+00  0.00000000E+00  0.00000000E+00
  0.00000000E+00  0.00000000E+00  0.00000000E+00
  0.00000000E+00  0.00000000E+00  0.00000000E+00
  0.00000000E+00  0.00000000E+00  0.00000000E+00
  0.00000000E+00  0.00000000E+00  0.00000000E+00
  0.00000000E+00  0.00000000E+00  0.00000000E+00
  0.00000000E+00  0.00000000E+00  0.00000000E+00
  0.00000000E+00  0.00000000E+00  0.00000000E+00
  0.00000000E+00  0.00000000E+00  0.00000000E+00
  0.00000000E+00  0.00000000E+00  0.00000000E+00
  0.00000000E+00  0.00000000E+00  0.00000000E+00
  0.00000000E+00  0.00000000E+00  0.00000000E+00
  0.00000000E+00  0.00000000E+00  0.00000000E+00
  0.00000000E+00  0.00000000E+00  0.00000000E+00
  0.00000000E+00  0.00000000E+00  0.00000000E+00
  0.00000000E+00  0.00000000E+00  0.00000000E+00
  0.00000000E+00  0.00000000E+00  0.00000000E+00
  0.00000000E+00  0.00000000E+00  0.00000000E+00
  0.00000000E+00  0.00000000E+00  0.00000000E+00
  0.00000000E+00  0.00000000E+00  0.00000000E+00
  0.00000000E+00  0.00000000E+00  0.00000000E+00
  0.00000000E+00  0.00000000E+00  0.00000000E+00
