CeO2-you-111-you-Ta                     
   1.00000000000000     
     9.8727758314913174   -5.6959732151649556   -0.0066076055921407
     0.0035307291058525   11.3980598272766294    0.0066076044474917
    -0.0078322703142456    0.0135658892434231   20.7349809472845834
   O    Ta   Ce
    53     1    26
Selective dynamics
Direct
 -0.0007053517344630 -0.0004080561731583  0.9938507856981940   T   T   T
  0.1094097027429469  0.2139628769118851  0.1475196181288536   T   T   T
  0.2265120561094261  0.1082015013095740  0.3036611643650469   T   T   T
  0.1615606605182373  0.2603586632218229  0.3700626105777665   T   T   T
  0.0010404308237114 -0.0010333786573398  0.2305651733433960   T   T   T
  0.2237005641926308  0.1092486628587494  0.0727326336971286   T   T   T
  0.3346647172944878  0.0004722587747303  0.9923415320764102   T   T   T
  0.4408243544672028  0.2258416455377140  0.1515939826736892   T   T   T
  0.5514430147909576  0.1152239852130142  0.3064702607631610   T   T   T
  0.4298315005131457  0.2368344995107897  0.3842295165156470   T   T   T
  0.3348773789883463 -0.0007008025848707  0.2279442778418689   T   T   T
  0.5548799334161243  0.1117870665839960  0.0752614085251740   T   T   T
  0.6663413735149182  0.0003256264843744  0.9936523745404929   T   T   T
  0.7811374652315638  0.2221792723965023  0.1505418977488643   T   T   T
  0.8886789434171914  0.1031616483041038  0.3096276293159624   T   T   T
  0.7651652692361257  0.2167803274152412  0.3887732352575242   T   T   T
  0.6657308417624834  0.0009361582371644  0.2322532879561069   T   T   T
  0.8877580846144836  0.1102574979860642  0.0741067090931450   T   T   T
 -0.0020344461768378  0.3314767002633842  0.9929392930510758   T   T   T
  0.1071390607181331  0.5595279392842216  0.1461399316763332   T   T   T
  0.1057758330865908  0.5608911669130691  0.3868076868994701   T   T   T
  0.0038039656157310  0.3356744347372481  0.2351762939733711   T   T   T
  0.2224423745625321  0.4442236254366927  0.0695172361543169   T   T   T
  0.3345014119325941  0.3321645880660813  0.9928982834616338   T   T   T
  0.4527031230851431  0.5572572972558484  0.1475196181289238   T   T   T
  0.5584654987157579  0.4401539438778805  0.3036611643684660   T   T   T
  0.4063073367951041  0.5051063394401361  0.3700626105804003   T   T   T
  0.3286595939760497  0.3380064060315332  0.2440335723457720   T   T   T
  0.5574183371404663  0.4429654358058365  0.0727326336971775   T   T   T
  0.6661947412251571  0.3320012827051071  0.9923415320763417   T   T   T
  0.7781444682348759  0.5553200480062992  0.1493355751608030   T   T   T
  0.8808202862927235  0.4468500394288416  0.3060297868968415   T   T   T
  0.7742909080268462  0.5582017801145832  0.3876834027745851   T   T   T
  0.6673678025852348  0.3317886210108337  0.2279442778417274   T   T   T
  0.8869400215050363  0.4429894637824860  0.0726368545358828   T   T   T
 -0.0002884123993872  0.6669554123995964  0.9931093285198080   T   T   T
  0.1113469519936156  0.8885225317667846  0.1493355751607507   T   T   T
  0.2198159605752709  0.7858467137134459  0.3060297868968992   T   T   T
  0.1084652198876245  0.8923760919787572  0.3876834027743015   T   T   T
  0.0000433093318633  0.6666236906696112  0.2299119487079387   T   T   T
  0.2236765362173941  0.7797269784953537  0.0726368545359781   T   T   T
  0.3351892997366859  0.6687014461771505  0.9929392930512494   T   T   T
  0.4444867276026691  0.8855295347684676  0.1505418977487365   T   T   T
  0.5635053516860485  0.7779880565807433  0.3096276293150402   T   T   T
  0.4498856725847171  0.9015017307655540  0.3887732352576422   T   T   T
  0.3309915652641154  0.6628630343749734  0.2351762939741648   T   T   T
  0.5564095020142801  0.7789089153856874  0.0741067090932306   T   T   T
  0.6670750561730863  0.6673723517346211  0.9938507856981442   T   T   T
  0.7771948905050853  0.8894721094953909  0.1515963146232704   T   T   T
  0.8886575108888689  0.7780094891131583  0.3050286526690091   T   T   T
  0.7816318755584424  0.8850351244387000  0.3885845463256179   T   T   T
  0.6677003786579945  0.6656265691742511  0.2305651733435649   T   T   T
  0.8887698505653656  0.7778971494350020  0.0739619488803731   T   T   T
  0.3434286227669732  0.3232373772081502  0.3387147384284432   T   T   T
  0.0010300910639307 -0.0033539882393032  0.3442430378218769   T   T   T
  0.2207513106130070  0.1080881759090750  0.1890294780624485   T   T   T
  0.1103953745184078  0.2204482963274774  0.0327346110795535   T   T   T
  0.3313878722852771 -0.0006053873076636  0.3447297297024945   T   T   T
  0.5557747652765417  0.1108922347220535  0.1897875143158300   T   T   T
  0.4446355700020292  0.2220304299983541  0.0326485426141821   T   T   T
  0.6671823322551599 -0.0005153322542501  0.3474764543904349   T   T   T
  0.8906822049400609  0.1125422158834591  0.1916467799112032   T   T   T
  0.7781735018303293  0.2220225725411567  0.0334952417626695   T   T   T
 -0.0098045331801754  0.3317904993482561  0.3520996685561379   T   T   T
  0.2216302288682380  0.4450357711356127  0.1838462347120332   T   T   T
  0.1106988590236105  0.5559681409768624  0.0323190065732883   T   T   T
  0.5585788240827009  0.4459146893896835  0.1890294780617723   T   T   T
  0.4462177036729075  0.5562716254815574  0.0327346110796532   T   T   T
  0.6672723872939091  0.3352781277130812  0.3447297297014844   T   T   T
  0.8907080171909713  0.4441904460367820  0.1902338149802989   T   T   T
  0.7777287048579050  0.5545044787290827  0.0330581408800570   T   T   T
 -0.0000972374834237  0.6667642374791978  0.3463149330163306   T   T   T
  0.2224755539657827  0.7759589828083669  0.1902338149806197   T   T   T
  0.1121625212710583  0.8889382951414813  0.0330581408802152   T   T   T
  0.3348755006570068  0.6764715332027175  0.3520996685551872   T   T   T
  0.5541247841159742  0.7759847950615142  0.1916467799112561   T   T   T
  0.4446434274593739  0.8884934981695323  0.0334952417626968   T   T   T
  0.6700209882281011  0.6656369089407375  0.3442430378213702   T   T   T
  0.8894328768925894  0.7772341231060614  0.1885106431348566   T   T   T
  0.7773192434673510  0.8893477565332794  0.0346576989864440   T   T   T
 
  0.00000000E+00  0.00000000E+00  0.00000000E+00
  0.00000000E+00  0.00000000E+00  0.00000000E+00
  0.00000000E+00  0.00000000E+00  0.00000000E+00
  0.00000000E+00  0.00000000E+00  0.00000000E+00
  0.00000000E+00  0.00000000E+00  0.00000000E+00
  0.00000000E+00  0.00000000E+00  0.00000000E+00
  0.00000000E+00  0.00000000E+00  0.00000000E+00
  0.00000000E+00  0.00000000E+00  0.00000000E+00
  0.00000000E+00  0.00000000E+00  0.00000000E+00
  0.00000000E+00  0.00000000E+00  0.00000000E+00
  0.00000000E+00  0.00000000E+00  0.00000000E+00
  0.00000000E+00  0.00000000E+00  0.00000000E+00
  0.00000000E+00  0.00000000E+00  0.00000000E+00
  0.00000000E+00  0.00000000E+00  0.00000000E+00
  0.00000000E+00  0.00000000E+00  0.00000000E+00
  0.00000000E+00  0.00000000E+00  0.00000000E+00
  0.00000000E+00  0.00000000E+00  0.00000000E+00
  0.00000000E+00  0.00000000E+00  0.00000000E+00
  0.00000000E+00  0.00000000E+00  0.00000000E+00
  0.00000000E+00  0.00000000E+00  0.00000000E+00
  0.00000000E+00  0.00000000E+00  0.00000000E+00
  0.00000000E+00  0.00000000E+00  0.00000000E+00
  0.00000000E+00  0.00000000E+00  0.00000000E+00
  0.00000000E+00  0.00000000E+00  0.00000000E+00
  0.00000000E+00  0.00000000E+00  0.00000000E+00
  0.00000000E+00  0.00000000E+00  0.00000000E+00
  0.00000000E+00  0.00000000E+00  0.00000000E+00
  0.00000000E+00  0.00000000E+00  0.00000000E+00
  0.00000000E+00  0.00000000E+00  0.00000000E+00
  0.00000000E+00  0.00000000E+00  0.00000000E+00
  0.00000000E+00  0.00000000E+00  0.00000000E+00
  0.00000000E+00  0.00000000E+00  0.00000000E+00
  0.00000000E+00  0.00000000E+00  0.00000000E+00
  0.00000000E+00  0.00000000E+00  0.00000000E+00
  0.00000000E+00  0.00000000E+00  0.00000000E+00
  0.00000000E+00  0.00000000E+00  0.00000000E+00
  0.00000000E+00  0.00000000E+00  0.00000000E+00
  0.00000000E+00  0.00000000E+00  0.00000000E+00
  0.00000000E+00  0.00000000E+00  0.00000000E+00
  0.00000000E+00  0.00000000E+00  0.00000000E+00
  0.00000000E+00  0.00000000E+00  0.00000000E+00
  0.00000000E+00  0.00000000E+00  0.00000000E+00
  0.00000000E+00  0.00000000E+00  0.00000000E+00
  0.00000000E+00  0.00000000E+00  0.00000000E+00
  0.00000000E+00  0.00000000E+00  0.00000000E+00
  0.00000000E+00  0.00000000E+00  0.00000000E+00
  0.00000000E+00  0.00000000E+00  0.00000000E+00
  0.00000000E+00  0.00000000E+00  0.00000000E+00
  0.00000000E+00  0.00000000E+00  0.00000000E+00
  0.00000000E+00  0.00000000E+00  0.00000000E+00
  0.00000000E+00  0.00000000E+00  0.00000000E+00
  0.00000000E+00  0.00000000E+00  0.00000000E+00
  0.00000000E+00  0.00000000E+00  0.00000000E+00
  0.00000000E+00  0.00000000E+00  0.00000000E+00
  0.00000000E+00  0.00000000E+00  0.00000000E+00
  0.00000000E+00  0.00000000E+00  0.00000000E+00
  0.00000000E+00  0.00000000E+00  0.00000000E+00
  0.00000000E+00  0.00000000E+00  0.00000000E+00
  0.00000000E+00  0.00000000E+00  0.00000000E+00
  0.00000000E+00  0.00000000E+00  0.00000000E+00
  0.00000000E+00  0.00000000E+00  0.00000000E+00
  0.00000000E+00  0.00000000E+00  0.00000000E+00
  0.00000000E+00  0.00000000E+00  0.00000000E+00
  0.00000000E+00  0.00000000E+00  0.00000000E+00
  0.00000000E+00  0.00000000E+00  0.00000000E+00
  0.00000000E+00  0.00000000E+00  0.00000000E+00
  0.00000000E+00  0.00000000E+00  0.00000000E+00
  0.00000000E+00  0.00000000E+00  0.00000000E+00
  0.00000000E+00  0.00000000E+00  0.00000000E+00
  0.00000000E+00  0.00000000E+00  0.00000000E+00
  0.00000000E+00  0.00000000E+00  0.00000000E+00
  0.00000000E+00  0.00000000E+00  0.00000000E+00
  0.00000000E+00  0.00000000E+00  0.00000000E+00
  0.00000000E+00  0.00000000E+00  0.00000000E+00
  0.00000000E+00  0.00000000E+00  0.00000000E+00
  0.00000000E+00  0.00000000E+00  0.00000000E+00
  0.00000000E+00  0.00000000E+00  0.00000000E+00
  0.00000000E+00  0.00000000E+00  0.00000000E+00
  0.00000000E+00  0.00000000E+00  0.00000000E+00
  0.00000000E+00  0.00000000E+00  0.00000000E+00
