CeO2-you-111-you-Cu                     
   1.00000000000000     
     9.8108627899905230   -5.6643046444277854    0.0000000000000000
     0.0000000039995412   11.3286073021883791    0.0000000000000000
     0.0000000000000000    0.0000000000000000   21.0126525601159173
   O    Cu   Ce   H 
    54     1    26     2
Selective dynamics
Direct
  0.0018350319007241  0.0012796590638452  0.9927654682271224   T   T   T
  0.1140115853064176  0.2230806079645458  0.1490242348004235   T   T   T
  0.2194728816890746  0.1004534305111662  0.3070947249763522   T   T   T
  0.0696827271538951  0.1993180525415894  0.4060804237039140   T   T   T
  0.0004754353980427 -0.0002275270895916  0.2286374142168055   T   T   T
  0.2242404162444527  0.1120699230859151  0.0736549477378774   T   T   T
  0.3346812716638399  0.0011013983577348  0.9928275248680525   T   T   T
  0.4458406977424768  0.2228278448958792  0.1492976947069377   T   T   T
  0.5556209376480774  0.1147804702871382  0.3045732999628418   T   T   T
  0.4716920891909930  0.1955783171354056  0.4079881529498725   T   T   T
  0.3363048974816076 -0.0006196325600808  0.2289903533233628   T   T   T
  0.5566375619320111  0.1118225825434044  0.0735230885755549   T   T   T
  0.6680375317729677  0.0011635824004554  0.9929380804803936   T   T   T
  0.7797320234823081  0.2228520739229218  0.1480254461210694   T   T   T
  0.8971377457810275  0.1146533906777167  0.3048496287140979   T   T   T
  0.7815878539806379  0.2246041099291477  0.3830073869216202   T   T   T
  0.6706005533634853  0.0032157707138060  0.2297092637970941   T   T   T
  0.8907496936294296  0.1113584336273525  0.0734437564832896   T   T   T
  0.0010990045942675  0.3339574362016737  0.9930649798287404   T   T   T
  0.1132541884780383  0.5569784620389521  0.1476796928639230   T   T   T
  0.2198254233284274  0.4376203611700926  0.3058526037409553   T   T   T
  0.1130106066089109  0.5554528126168901  0.3850743489707824   T   T   T
  0.0015108858126666  0.3352692488193649  0.2283619770481327   T   T   T
  0.2236720201683659  0.4450983357247587  0.0730099984543165   T   T   T
  0.3344579178634077  0.3339299550487841  0.9929257402811272   T   T   T
  0.4466883906937576  0.5573474782547273  0.1480964230944515   T   T   T
  0.5556543285263263  0.4381554693907730  0.3068420490188448   T   T   T
  0.4496121243332836  0.5623780039604127  0.3816551586502543   T   T   T
  0.3371231092359248  0.3367064949046074  0.2287539648607157   T   T   T
  0.5569289763501211  0.4447466310252519  0.0731699322817479   T   T   T
  0.6680849715944991  0.3339250495846702  0.9929563796118613   T   T   T
  0.7797780761793024  0.5571169503230806  0.1474574789776649   T   T   T
  0.8916949382247187  0.4462352755997769  0.3042816672497126   T   T   T
  0.7803033254166241  0.5556179799847313  0.3852123447361091   T   T   T
  0.6704176540301211  0.3354059937569961  0.2284300662817741   T   T   T
  0.8903228359180823  0.4454370556608090  0.0730011145069916   T   T   T
  0.0015595117730272  0.6675919498674957  0.9928305089078314   T   T   T
  0.1137932185652869  0.8905237471789821  0.1490202688177563   T   T   T
  0.2224512364479245  0.7768694584374174  0.3041557034763279   T   T   T
  0.1115850178235010  0.8842538548391534  0.3874488612289680   T   T   T
  0.0020248139896895  0.6672429720207479  0.2282641997658305   T   T   T
  0.2241303811067565  0.7790231758904953  0.0730914727109944   T   T   T
  0.3345666445001579  0.6674576841317688  0.9926718155283604   T   T   T
  0.4472551185417522  0.8889639060452885  0.1486961587826281   T   T   T
  0.5602721218991460  0.7815941893507338  0.3031961868256151   T   T   T
  0.4464315412135738  0.8875085929533778  0.3832883159239522   T   T   T
  0.3340300048329737  0.6655615166809749  0.2295086146504187   T   T   T
  0.5574609678298633  0.7786714016299217  0.0725706932327506   T   T   T
  0.6680457906223866  0.6670208647893116  0.9927770848978210   T   T   T
  0.7785207326040180  0.8886112218642344  0.1486641444836944   T   T   T
  0.8922216222255740  0.7774644943742972  0.3042373729055436   T   T   T
  0.7802610744804526  0.8893934252540152  0.3834837064957230   T   T   T
  0.6682694446099878  0.6648421940641037  0.2297710090305556   T   T   T
  0.8911538780366643  0.7795834648662243  0.0728136597037735   T   T   T
  0.3795942258350831  0.4217270428716320  0.3145292586559366   T   T   T
  0.0041034323568790 -0.0028646912090037  0.3441849980911741   T   T   T
  0.2248356754139884  0.1122157047488748  0.1924211568539254   T   T   T
  0.1130729048288233  0.2225723435499306  0.0335056287643004   T   T   T
  0.3309267908840369 -0.0033722038366178  0.3443271880807190   T   T   T
  0.5577730821991956  0.1123807451399665  0.1889886947303411   T   T   T
  0.4453304943391631  0.2225383721528251  0.0335431582417156   T   T   T
  0.6699153557766679  0.0017636622264737  0.3437450510107231   T   T   T
  0.8916630075781165  0.1125189094953567  0.1888539868789588   T   T   T
  0.7792342500340098  0.2230163911719135  0.0331763527794838   T   T   T
  0.0019628119360685  0.3356969850641781  0.3443248882414273   T   T   T
  0.2231364284617349  0.4448881432164477  0.1877957353833094   T   T   T
  0.1125591260286343  0.5565086994303973  0.0326084711773270   T   T   T
  0.5584292296610753  0.4448075461008734  0.1878965819190016   T   T   T
  0.4459894027469125  0.5563896858354813  0.0330122871106569   T   T   T
  0.6717066149056272  0.3356670121582747  0.3445113124182715   T   T   T
  0.8910529409795465  0.4456808150927754  0.1879409894112828   T   T   T
  0.7794528814310009  0.5564426531805203  0.0325823849032594   T   T   T
  0.0017741906318915  0.6659565446825711  0.3448152249795662   T   T   T
  0.2240471395975505  0.7784146796112665  0.1882717346710054   T   T   T
  0.1133873903740494  0.8908533939645825  0.0335277873100396   T   T   T
  0.3356179965570636  0.6683712378988355  0.3439939446237385   T   T   T
  0.5576617922953400  0.7782162453407171  0.1889393893089679   T   T   T
  0.4461354174537730  0.8897889308107518  0.0331842810116835   T   T   T
  0.6705774608526474  0.6686625088567583  0.3442591344857467   T   T   T
  0.8913343108498600  0.7784353997366991  0.1882680604545292   T   T   T
  0.7794100830840037  0.8898182708455626  0.0330644724467942   T   T   T
  0.1515142560781199  0.2403682650654344  0.4322482362154037   T   T   T
  0.4419194730080979  0.2290201104833026  0.4435530214475060   T   T   T
 
  0.00000000E+00  0.00000000E+00  0.00000000E+00
  0.00000000E+00  0.00000000E+00  0.00000000E+00
  0.00000000E+00  0.00000000E+00  0.00000000E+00
  0.00000000E+00  0.00000000E+00  0.00000000E+00
  0.00000000E+00  0.00000000E+00  0.00000000E+00
  0.00000000E+00  0.00000000E+00  0.00000000E+00
  0.00000000E+00  0.00000000E+00  0.00000000E+00
  0.00000000E+00  0.00000000E+00  0.00000000E+00
  0.00000000E+00  0.00000000E+00  0.00000000E+00
  0.00000000E+00  0.00000000E+00  0.00000000E+00
  0.00000000E+00  0.00000000E+00  0.00000000E+00
  0.00000000E+00  0.00000000E+00  0.00000000E+00
  0.00000000E+00  0.00000000E+00  0.00000000E+00
  0.00000000E+00  0.00000000E+00  0.00000000E+00
  0.00000000E+00  0.00000000E+00  0.00000000E+00
  0.00000000E+00  0.00000000E+00  0.00000000E+00
  0.00000000E+00  0.00000000E+00  0.00000000E+00
  0.00000000E+00  0.00000000E+00  0.00000000E+00
  0.00000000E+00  0.00000000E+00  0.00000000E+00
  0.00000000E+00  0.00000000E+00  0.00000000E+00
  0.00000000E+00  0.00000000E+00  0.00000000E+00
  0.00000000E+00  0.00000000E+00  0.00000000E+00
  0.00000000E+00  0.00000000E+00  0.00000000E+00
  0.00000000E+00  0.00000000E+00  0.00000000E+00
  0.00000000E+00  0.00000000E+00  0.00000000E+00
  0.00000000E+00  0.00000000E+00  0.00000000E+00
  0.00000000E+00  0.00000000E+00  0.00000000E+00
  0.00000000E+00  0.00000000E+00  0.00000000E+00
  0.00000000E+00  0.00000000E+00  0.00000000E+00
  0.00000000E+00  0.00000000E+00  0.00000000E+00
  0.00000000E+00  0.00000000E+00  0.00000000E+00
  0.00000000E+00  0.00000000E+00  0.00000000E+00
  0.00000000E+00  0.00000000E+00  0.00000000E+00
  0.00000000E+00  0.00000000E+00  0.00000000E+00
  0.00000000E+00  0.00000000E+00  0.00000000E+00
  0.00000000E+00  0.00000000E+00  0.00000000E+00
  0.00000000E+00  0.00000000E+00  0.00000000E+00
  0.00000000E+00  0.00000000E+00  0.00000000E+00
  0.00000000E+00  0.00000000E+00  0.00000000E+00
  0.00000000E+00  0.00000000E+00  0.00000000E+00
  0.00000000E+00  0.00000000E+00  0.00000000E+00
  0.00000000E+00  0.00000000E+00  0.00000000E+00
  0.00000000E+00  0.00000000E+00  0.00000000E+00
  0.00000000E+00  0.00000000E+00  0.00000000E+00
  0.00000000E+00  0.00000000E+00  0.00000000E+00
  0.00000000E+00  0.00000000E+00  0.00000000E+00
  0.00000000E+00  0.00000000E+00  0.00000000E+00
  0.00000000E+00  0.00000000E+00  0.00000000E+00
  0.00000000E+00  0.00000000E+00  0.00000000E+00
  0.00000000E+00  0.00000000E+00  0.00000000E+00
  0.00000000E+00  0.00000000E+00  0.00000000E+00
  0.00000000E+00  0.00000000E+00  0.00000000E+00
  0.00000000E+00  0.00000000E+00  0.00000000E+00
  0.00000000E+00  0.00000000E+00  0.00000000E+00
  0.00000000E+00  0.00000000E+00  0.00000000E+00
  0.00000000E+00  0.00000000E+00  0.00000000E+00
  0.00000000E+00  0.00000000E+00  0.00000000E+00
  0.00000000E+00  0.00000000E+00  0.00000000E+00
  0.00000000E+00  0.00000000E+00  0.00000000E+00
  0.00000000E+00  0.00000000E+00  0.00000000E+00
  0.00000000E+00  0.00000000E+00  0.00000000E+00
  0.00000000E+00  0.00000000E+00  0.00000000E+00
  0.00000000E+00  0.00000000E+00  0.00000000E+00
  0.00000000E+00  0.00000000E+00  0.00000000E+00
  0.00000000E+00  0.00000000E+00  0.00000000E+00
  0.00000000E+00  0.00000000E+00  0.00000000E+00
  0.00000000E+00  0.00000000E+00  0.00000000E+00
  0.00000000E+00  0.00000000E+00  0.00000000E+00
  0.00000000E+00  0.00000000E+00  0.00000000E+00
  0.00000000E+00  0.00000000E+00  0.00000000E+00
  0.00000000E+00  0.00000000E+00  0.00000000E+00
  0.00000000E+00  0.00000000E+00  0.00000000E+00
  0.00000000E+00  0.00000000E+00  0.00000000E+00
  0.00000000E+00  0.00000000E+00  0.00000000E+00
  0.00000000E+00  0.00000000E+00  0.00000000E+00
  0.00000000E+00  0.00000000E+00  0.00000000E+00
  0.00000000E+00  0.00000000E+00  0.00000000E+00
  0.00000000E+00  0.00000000E+00  0.00000000E+00
  0.00000000E+00  0.00000000E+00  0.00000000E+00
  0.00000000E+00  0.00000000E+00  0.00000000E+00
  0.00000000E+00  0.00000000E+00  0.00000000E+00
  0.00000000E+00  0.00000000E+00  0.00000000E+00
  0.00000000E+00  0.00000000E+00  0.00000000E+00
