CeO2-you-111-you-Ba                     
   1.00000000000000     
     9.8580380505832004   -5.7164353512502890    0.0038731031211886
    -0.0000000008366952   11.4328686889744446   -0.0000000003674136
     0.0067114859596922   -0.0000000004843765   20.2149819616160258
   O    Ba   Ce H
    53     1    26 2
Selective dynamics
Direct
 -0.0002302953413211  0.0010562969633460  0.9879812845430075   T   T   T
  0.1153520594351611  0.2243425297179757  0.1500758507503482   F   F   F
  0.2200153251981049  0.1056889394583602  0.3109728868242848   T   T   T
  0.0737484053313573  0.2035407026628962  0.4004805314762783   T   T   T
  0.0000184203337307  0.0000639799183670  0.2294478007430855   T   T   T
  0.2215826693600584  0.1109797266033708  0.0706470040531826   F   F   F
  0.3321571863263049 -0.0000307556186310  0.9871608768421239   T   T   T
  0.4460395454942269  0.2202903403950541  0.1443019438801293   F   F   F
  0.5604567965075467  0.1077559603707918  0.3043544454259098   T   T   T
  0.4670670303154759  0.2083273700533617  0.3954939634565733   T   T   T
  0.3347689872400867  0.0014813669418062  0.2303477846284731   T   T   T
  0.5560405652460210  0.1096992715914017  0.0685603910687490   F   F   F
  0.6693342298328515  0.0013336149172156  0.9871423905540289   T   T   T
  0.7751539225322034  0.2269833216908407  0.1491704140087095   F   F   F
  0.8874069427057900  0.1103699713530528  0.3046561519693199   T   T   T
  0.7792034515646047  0.2185633150605072  0.3921179166087695   T   T   T
  0.6674058970779343  0.0003694485386219  0.2265729769619279   T   T   T
  0.8883374357269667  0.1108352178633573  0.0718459700848363   F   F   F
 -0.0002302953402751  0.3320464076956154  0.9879812845426309   T   T   T
  0.1107307306581442  0.5561220856325619  0.1490095586041166   F   F   F
  0.2200153251982332  0.4476593857314680  0.3109728868274890   T   T   T
  0.1097924676768275  0.5605298078067630  0.3920946093805865   T   T   T
  0.0000184203353255  0.3332874404158155  0.2294478007429661   T   T   T
  0.2215826693599056  0.4439359427561191  0.0706470040530599   F   F   F
  0.3310905278476055  0.3322117639244609  0.9871542880568953   T   T   T
  0.4460395454923836  0.5590832051011526  0.1443019438794723   F   F   F
  0.4670670303132109  0.5920736602706511  0.3954939634570977   T   T   T
  0.3486497302866929  0.3409913651458275  0.2289931571525812   T   T   T
  0.5550095084179693  0.4441707542094629  0.0663067217761696   F   F   F
  0.6682502157354416  0.3329967052206091  0.9870621936535545   T   T   T
  0.7788893678420462  0.5561116839191278  0.1452724676405502   F   F   F
  0.8905854627900063  0.4428905943700351  0.3093791791176337   T   T   T
  0.7461244859038944  0.5397292429525408  0.3814711734292920   T   T   T
  0.6567152074787289  0.3427477295600249  0.2366392006058205   T   T   T
  0.8899676122183537  0.4443030448387571  0.0701712463555036   F   F   F
 -0.0004980684029090  0.6664179657982139  0.9881485808503734   T   T   T
  0.1107307306580203  0.8879426450236886  0.1490095586038004   F   F   F
  0.2200022627161160  0.7766681313572037  0.3063807419342247   T   T   T
  0.1097924676752284  0.8825966598680358  0.3920946093813306   T   T   T
 -0.0032461764180293  0.6650439117898380  0.2311627067342546   T   T   T
  0.2224079862141687  0.7778709931067382  0.0698249542760713   F   F   F
  0.3321571863268114  0.6655219419453191  0.9871608768417419   T   T   T
  0.4433761096821207  0.8883550548409657  0.1472524130884110   F   F   F
  0.5604567965051432  0.7860338361382130  0.3043544454248570   T   T   T
  0.4439765542766266  0.8886552771391589  0.3889467405509933   T   T   T
  0.3347689872406442  0.6666216202986646  0.2303477846285289   T   T   T
  0.5560405652453821  0.7796742936539247  0.0685603910685727   F   F   F
  0.6682502157353335  0.6685865105155615  0.9870621936533647   T   T   T
  0.7751539225306384  0.8815036008410493  0.1491704140091189   F   F   F
  0.8905854627893836  0.7810278684138175  0.3093791791171016   T   T   T
  0.7792034515650502  0.8939731365015929  0.3921179166074730   T   T   T
  0.6567152074787366  0.6473004779188648  0.2366392006052070   T   T   T
  0.8899676122177194  0.7789975673783811  0.0701712463557389   F   F   F
  0.3288612163319762  0.3310971081696515  0.3863391029260899   T   T   T
  0.0025263393299406  0.0031691396809939  0.3495104652469017   T   T   T
  0.2252937063721430  0.1148960317816056  0.1927744271118692   F   F   F
  0.1120399882084135  0.2226864941042845  0.0301736094974100   F   F   F
  0.3340797702498123 -0.0011781278177296  0.3488103254791117   T   T   T
  0.5549212507240850  0.1111224465010156  0.1881977226486814   F   F   F
  0.4431005586111628  0.2200903757999501  0.0269790206905867   F   F   F
  0.6677135100630754  0.0005232550304903  0.3473531077626619   T   T   T
  0.8895219550626863  0.1114274775334316  0.1890763030727046   F   F   F
  0.7783969733560254  0.2227826440979382  0.0286632457738685   F   F   F
  0.0025263393271815  0.3326901996586489  0.3495104652464042   T   T   T
  0.2252937063707998  0.4437306745902113  0.1927744271117322   F   F   F
  0.1109592039015086  0.5544193032666880  0.0302214360681736   F   F   F
  0.5533829445138946  0.4433574722520228  0.1805049830152972   F   F   F
  0.4431005586116049  0.5563441828099445  0.0269790206906723   F   F   F
  0.6718525092252617  0.3209245916674681  0.3523856901475922   T   T   T
  0.8886682148338266  0.4452086194213946  0.1899787367806194   F   F   F
  0.7802799242655791  0.5568069621330353  0.0272523596619314   F   F   F
  0.0019407793073058  0.6676373896570631  0.3487952706050412   T   T   T
  0.2219683786123386  0.7776511893073010  0.1884540967997757   F   F   F
  0.1109592039009022  0.8898739006359746  0.0302214360682998   F   F   F
  0.3340797702450941  0.6685918980630604  0.3488103254783848   T   T   T
  0.5549212507277300  0.7771318042202064  0.1881977226487334   F   F   F
  0.4451403892955250  0.8892371946469846  0.0284198098765834   F   F   F
  0.6718525092203084  0.6842609175481437  0.3523856901496294   T   T   T
  0.8886682148374191  0.7767925954199635  0.1899787367809112   F   F   F
  0.7783969733566142  0.8889473292583391  0.0286632457741222   F   F   F
0.3288612163319762 0.3310971081696515 0.486339 T T T
0.446598 0.216020 0.433410 T T T 
 
  0.00000000E+00  0.00000000E+00  0.00000000E+00
  0.00000000E+00  0.00000000E+00  0.00000000E+00
  0.00000000E+00  0.00000000E+00  0.00000000E+00
  0.00000000E+00  0.00000000E+00  0.00000000E+00
  0.00000000E+00  0.00000000E+00  0.00000000E+00
  0.00000000E+00  0.00000000E+00  0.00000000E+00
  0.00000000E+00  0.00000000E+00  0.00000000E+00
  0.00000000E+00  0.00000000E+00  0.00000000E+00
  0.00000000E+00  0.00000000E+00  0.00000000E+00
  0.00000000E+00  0.00000000E+00  0.00000000E+00
  0.00000000E+00  0.00000000E+00  0.00000000E+00
  0.00000000E+00  0.00000000E+00  0.00000000E+00
  0.00000000E+00  0.00000000E+00  0.00000000E+00
  0.00000000E+00  0.00000000E+00  0.00000000E+00
  0.00000000E+00  0.00000000E+00  0.00000000E+00
  0.00000000E+00  0.00000000E+00  0.00000000E+00
  0.00000000E+00  0.00000000E+00  0.00000000E+00
  0.00000000E+00  0.00000000E+00  0.00000000E+00
  0.00000000E+00  0.00000000E+00  0.00000000E+00
  0.00000000E+00  0.00000000E+00  0.00000000E+00
  0.00000000E+00  0.00000000E+00  0.00000000E+00
  0.00000000E+00  0.00000000E+00  0.00000000E+00
  0.00000000E+00  0.00000000E+00  0.00000000E+00
  0.00000000E+00  0.00000000E+00  0.00000000E+00
  0.00000000E+00  0.00000000E+00  0.00000000E+00
  0.00000000E+00  0.00000000E+00  0.00000000E+00
  0.00000000E+00  0.00000000E+00  0.00000000E+00
  0.00000000E+00  0.00000000E+00  0.00000000E+00
  0.00000000E+00  0.00000000E+00  0.00000000E+00
  0.00000000E+00  0.00000000E+00  0.00000000E+00
  0.00000000E+00  0.00000000E+00  0.00000000E+00
  0.00000000E+00  0.00000000E+00  0.00000000E+00
  0.00000000E+00  0.00000000E+00  0.00000000E+00
  0.00000000E+00  0.00000000E+00  0.00000000E+00
  0.00000000E+00  0.00000000E+00  0.00000000E+00
  0.00000000E+00  0.00000000E+00  0.00000000E+00
  0.00000000E+00  0.00000000E+00  0.00000000E+00
  0.00000000E+00  0.00000000E+00  0.00000000E+00
  0.00000000E+00  0.00000000E+00  0.00000000E+00
  0.00000000E+00  0.00000000E+00  0.00000000E+00
  0.00000000E+00  0.00000000E+00  0.00000000E+00
  0.00000000E+00  0.00000000E+00  0.00000000E+00
  0.00000000E+00  0.00000000E+00  0.00000000E+00
  0.00000000E+00  0.00000000E+00  0.00000000E+00
  0.00000000E+00  0.00000000E+00  0.00000000E+00
  0.00000000E+00  0.00000000E+00  0.00000000E+00
  0.00000000E+00  0.00000000E+00  0.00000000E+00
  0.00000000E+00  0.00000000E+00  0.00000000E+00
  0.00000000E+00  0.00000000E+00  0.00000000E+00
  0.00000000E+00  0.00000000E+00  0.00000000E+00
  0.00000000E+00  0.00000000E+00  0.00000000E+00
  0.00000000E+00  0.00000000E+00  0.00000000E+00
  0.00000000E+00  0.00000000E+00  0.00000000E+00
  0.00000000E+00  0.00000000E+00  0.00000000E+00
  0.00000000E+00  0.00000000E+00  0.00000000E+00
  0.00000000E+00  0.00000000E+00  0.00000000E+00
  0.00000000E+00  0.00000000E+00  0.00000000E+00
  0.00000000E+00  0.00000000E+00  0.00000000E+00
  0.00000000E+00  0.00000000E+00  0.00000000E+00
  0.00000000E+00  0.00000000E+00  0.00000000E+00
  0.00000000E+00  0.00000000E+00  0.00000000E+00
  0.00000000E+00  0.00000000E+00  0.00000000E+00
  0.00000000E+00  0.00000000E+00  0.00000000E+00
  0.00000000E+00  0.00000000E+00  0.00000000E+00
  0.00000000E+00  0.00000000E+00  0.00000000E+00
  0.00000000E+00  0.00000000E+00  0.00000000E+00
  0.00000000E+00  0.00000000E+00  0.00000000E+00
  0.00000000E+00  0.00000000E+00  0.00000000E+00
  0.00000000E+00  0.00000000E+00  0.00000000E+00
  0.00000000E+00  0.00000000E+00  0.00000000E+00
  0.00000000E+00  0.00000000E+00  0.00000000E+00
  0.00000000E+00  0.00000000E+00  0.00000000E+00
  0.00000000E+00  0.00000000E+00  0.00000000E+00
  0.00000000E+00  0.00000000E+00  0.00000000E+00
  0.00000000E+00  0.00000000E+00  0.00000000E+00
  0.00000000E+00  0.00000000E+00  0.00000000E+00
  0.00000000E+00  0.00000000E+00  0.00000000E+00
  0.00000000E+00  0.00000000E+00  0.00000000E+00
  0.00000000E+00  0.00000000E+00  0.00000000E+00
  0.00000000E+00  0.00000000E+00  0.00000000E+00
