CeO2-you-111-you-Pb                     
   1.00000000000000     
     9.8686371112980602   -5.6658519060246517   -0.0123293894006272
     0.0275471834155768   11.3794149360861727    0.0123293872987291
    -0.0139672057453901    0.0241919086775801   20.2833057498431160
   O    Pb   Ce   H 
    53     1    26     1
Selective dynamics
Direct
  0.0001207311890024  0.0001038560980087  0.9865034941540131   T   T   T
  0.1088050652413086  0.2197551988279539  0.1439935558169889   T   T   T
  0.2258021845616656  0.1073837506467906  0.3089706365345073   T   T   T
  0.0830200634372492  0.2090701074576621  0.3914624201470306   T   T   T
  0.0020569241273213  0.0025984190965400  0.2299081188372544   T   T   T
  0.2215765399400291  0.1101581607827440  0.0695336229678561   T   T   T
  0.3354160738902365  0.0010408785568461  0.9882243610004169   T   T   T
  0.4411478762475744  0.2239285124256962  0.1498335712842646   T   T   T
  0.5469429165542120  0.1082167900271685  0.3095194988063784   T   T   T
  0.4415765302283671  0.2073813079470122  0.4135940726475407   T   T   T
  0.3316724914253676  0.9966179207014958  0.2285970311477152   T   T   T
  0.5561110787177462  0.1108643995554894  0.0731982235648833   T   T   T
  0.6658547557471169  0.0018243109335424  0.9875617897615262   T   T   T
  0.7861269423355146  0.2276031563242390  0.1491830490573738   T   T   T
  0.8801198900008661  0.1058733042016733  0.3039879765140078   T   T   T
  0.7798612389085896  0.2129735763465798  0.3946718559244519   T   T   T
  0.6642919881851905  0.0026583690716395  0.2277276354600706   T   T   T
  0.8880643566805174  0.1101236823358585  0.0687078516684598   T   T   T
  0.9981428296832572  0.3330629843034236  0.9867103458624698   T   T   T
  0.1104538571853966  0.5556153927322129  0.1449010914668413   T   T   T
  0.1269895474934899  0.5408559483530675  0.3822320485943359   T   T   T
  0.0204224965703403  0.3411085750482903  0.2362169015504015   T   T   T
  0.2224872630449034  0.4441925374240259  0.0661425335076146   T   T   T
  0.3347046198458474  0.3322863513285069  0.9868346891713614   T   T   T
  0.4471522766986148  0.5585462503506341  0.1441643573170604   T   T   T
  0.5575915903587010  0.4497507230824668  0.3088627038961415   T   T   T
  0.4566763621132578  0.5857294877868130  0.3932927029071935   T   T   T
  0.3249642550169575  0.3405666561107668  0.2304909494310646   T   T   T
  0.5562900754785390  0.4441977111314442  0.0699868128433854   T   T   T
  0.6657462894291988  0.3316563984118266  0.9883654827245469   T   T   T
  0.7786952794507949  0.5565926062368416  0.1486221215160081   T   T   T
  0.8919306890009504  0.4450319252834097  0.3087111186949017   T   T   T
  0.7917425624438379  0.5733376286895308  0.3930077900729678   T   T   T
  0.6676752948661717  0.3331341348804426  0.2285245830924517   T   T   T
  0.8887707151874531  0.4454005333160985  0.0696228122224631   T   T   T
  0.9996062594567072  0.6667521321427172  0.9868387252777528   T   T   T
  0.1110470994720288  0.8880373820472542  0.1480758576537510   T   T   T
  0.2233066061945740  0.7778510402397499  0.3077810984459018   T   T   T
  0.1096700741226926  0.8837608904002470  0.3905347003573779   T   T   T
  0.0013224650249930  0.6658157553069676  0.2302613234501366   T   T   T
  0.2212664389017655  0.7780802204437999  0.0693826535360067   T   T   T
  0.3342785517270642  0.6687677704778852  0.9870419870365515   T   T   T
  0.4391256311868426  0.8804046148370150  0.1491306398046674   T   T   T
  0.5591831253731958  0.7871674652902846  0.3050507065429273   T   T   T
  0.4430266018177522  0.8900356758105492  0.3931911222642260   T   T   T
  0.3249616152849982  0.6456548278191375  0.2364823502027750   T   T   T
  0.5576228324441918  0.7797387520287061  0.0686613925684227   T   T   T
  0.6667138155297855  0.6663839164480876  0.9867245656211657   T   T   T
  0.7776077706019743  0.8902136123330778  0.1478656861367794   T   T   T
  0.8915724100410093  0.7799099466918175  0.3054276925256835   T   T   T
  0.7788933879961916  0.8902042543648684  0.3897321384370401   T   T   T
  0.6668245908314531  0.6685744188130625  0.2297818752019648   T   T   T
  0.8890543468990556  0.7788464704401619  0.0696336322802578   T   T   T
  0.3357399844340462  0.3333624923779088  0.3577324213981425   T   T   T
  0.9986737001720544 -0.0001670429180757  0.3483513359767940   T   T   T
  0.2222959610915234  0.1128572203897582  0.1905059074115038   T   T   T
  0.1102601595107267  0.2202804643724784  0.0265136353100908   T   T   T
  0.3272229636294293 -0.0072282106178861  0.3474329689413573   T   T   T
  0.5549419983839029  0.1122021045366861  0.1905630751436614   T   T   T
  0.4444299939609972  0.2226191566744356  0.0300735947750743   T   T   T
  0.6661225261308725  0.0013090248991201  0.3488043577685179   T   T   T
  0.8899207165538107  0.1118293728759953  0.1884673804800958   T   T   T
  0.7778784432994542  0.2229788402825033  0.0293127139998149   T   T   T
  0.9858784797200209  0.3205524251545013  0.3524846519767547   T   T   T
  0.2233426511262240  0.4433659075389330  0.1798781079218489   T   T   T
  0.1097141279781251  0.5566408703881620  0.0265044351126128   T   T   T
  0.5544126108970209  0.4451432967124905  0.1921777539557252   T   T   T
  0.4470070043545942  0.5566732110976895  0.0267725568622489   T   T   T
  0.6703149000836086  0.3386675325517025  0.3527783156646239   T   T   T
  0.8899541640143213  0.4449065641300964  0.1903557600095701   T   T   T
  0.7771355073334565  0.5550360086532143  0.0297702195318931   T   T   T
 -0.0009158518243422  0.6663589601122949  0.3480281710648612   T   T   T
  0.2208940492880994  0.7748238078125921  0.1889772401744887   T   T   T
  0.1115907558209641  0.8895310362299997  0.0292697885436186   T   T   T
  0.3450947355976182  0.6796045226296628  0.3530650410493499   T   T   T
  0.5554555224518257  0.7774310961923993  0.1888229644126030   T   T   T
  0.4442748672905966  0.8890988440509622  0.0292192066919086   T   T   T
  0.6687129121892201  0.6701174020169504  0.3490551762901456   T   T   T
  0.8893216167835544  0.7785034116359697  0.1882509821238292   T   T   T
  0.7774774154681504  0.8899162816207076  0.0284401515616258   T   T   T
  0.4331368100682684  0.2097207068565832  0.4612601283380215   T   T   T
 
  0.00000000E+00  0.00000000E+00  0.00000000E+00
  0.00000000E+00  0.00000000E+00  0.00000000E+00
  0.00000000E+00  0.00000000E+00  0.00000000E+00
  0.00000000E+00  0.00000000E+00  0.00000000E+00
  0.00000000E+00  0.00000000E+00  0.00000000E+00
  0.00000000E+00  0.00000000E+00  0.00000000E+00
  0.00000000E+00  0.00000000E+00  0.00000000E+00
  0.00000000E+00  0.00000000E+00  0.00000000E+00
  0.00000000E+00  0.00000000E+00  0.00000000E+00
  0.00000000E+00  0.00000000E+00  0.00000000E+00
  0.00000000E+00  0.00000000E+00  0.00000000E+00
  0.00000000E+00  0.00000000E+00  0.00000000E+00
  0.00000000E+00  0.00000000E+00  0.00000000E+00
  0.00000000E+00  0.00000000E+00  0.00000000E+00
  0.00000000E+00  0.00000000E+00  0.00000000E+00
  0.00000000E+00  0.00000000E+00  0.00000000E+00
  0.00000000E+00  0.00000000E+00  0.00000000E+00
  0.00000000E+00  0.00000000E+00  0.00000000E+00
  0.00000000E+00  0.00000000E+00  0.00000000E+00
  0.00000000E+00  0.00000000E+00  0.00000000E+00
  0.00000000E+00  0.00000000E+00  0.00000000E+00
  0.00000000E+00  0.00000000E+00  0.00000000E+00
  0.00000000E+00  0.00000000E+00  0.00000000E+00
  0.00000000E+00  0.00000000E+00  0.00000000E+00
  0.00000000E+00  0.00000000E+00  0.00000000E+00
  0.00000000E+00  0.00000000E+00  0.00000000E+00
  0.00000000E+00  0.00000000E+00  0.00000000E+00
  0.00000000E+00  0.00000000E+00  0.00000000E+00
  0.00000000E+00  0.00000000E+00  0.00000000E+00
  0.00000000E+00  0.00000000E+00  0.00000000E+00
  0.00000000E+00  0.00000000E+00  0.00000000E+00
  0.00000000E+00  0.00000000E+00  0.00000000E+00
  0.00000000E+00  0.00000000E+00  0.00000000E+00
  0.00000000E+00  0.00000000E+00  0.00000000E+00
  0.00000000E+00  0.00000000E+00  0.00000000E+00
  0.00000000E+00  0.00000000E+00  0.00000000E+00
  0.00000000E+00  0.00000000E+00  0.00000000E+00
  0.00000000E+00  0.00000000E+00  0.00000000E+00
  0.00000000E+00  0.00000000E+00  0.00000000E+00
  0.00000000E+00  0.00000000E+00  0.00000000E+00
  0.00000000E+00  0.00000000E+00  0.00000000E+00
  0.00000000E+00  0.00000000E+00  0.00000000E+00
  0.00000000E+00  0.00000000E+00  0.00000000E+00
  0.00000000E+00  0.00000000E+00  0.00000000E+00
  0.00000000E+00  0.00000000E+00  0.00000000E+00
  0.00000000E+00  0.00000000E+00  0.00000000E+00
  0.00000000E+00  0.00000000E+00  0.00000000E+00
  0.00000000E+00  0.00000000E+00  0.00000000E+00
  0.00000000E+00  0.00000000E+00  0.00000000E+00
  0.00000000E+00  0.00000000E+00  0.00000000E+00
  0.00000000E+00  0.00000000E+00  0.00000000E+00
  0.00000000E+00  0.00000000E+00  0.00000000E+00
  0.00000000E+00  0.00000000E+00  0.00000000E+00
  0.00000000E+00  0.00000000E+00  0.00000000E+00
  0.00000000E+00  0.00000000E+00  0.00000000E+00
  0.00000000E+00  0.00000000E+00  0.00000000E+00
  0.00000000E+00  0.00000000E+00  0.00000000E+00
  0.00000000E+00  0.00000000E+00  0.00000000E+00
  0.00000000E+00  0.00000000E+00  0.00000000E+00
  0.00000000E+00  0.00000000E+00  0.00000000E+00
  0.00000000E+00  0.00000000E+00  0.00000000E+00
  0.00000000E+00  0.00000000E+00  0.00000000E+00
  0.00000000E+00  0.00000000E+00  0.00000000E+00
  0.00000000E+00  0.00000000E+00  0.00000000E+00
  0.00000000E+00  0.00000000E+00  0.00000000E+00
  0.00000000E+00  0.00000000E+00  0.00000000E+00
  0.00000000E+00  0.00000000E+00  0.00000000E+00
  0.00000000E+00  0.00000000E+00  0.00000000E+00
  0.00000000E+00  0.00000000E+00  0.00000000E+00
  0.00000000E+00  0.00000000E+00  0.00000000E+00
  0.00000000E+00  0.00000000E+00  0.00000000E+00
  0.00000000E+00  0.00000000E+00  0.00000000E+00
  0.00000000E+00  0.00000000E+00  0.00000000E+00
  0.00000000E+00  0.00000000E+00  0.00000000E+00
  0.00000000E+00  0.00000000E+00  0.00000000E+00
  0.00000000E+00  0.00000000E+00  0.00000000E+00
  0.00000000E+00  0.00000000E+00  0.00000000E+00
  0.00000000E+00  0.00000000E+00  0.00000000E+00
  0.00000000E+00  0.00000000E+00  0.00000000E+00
  0.00000000E+00  0.00000000E+00  0.00000000E+00
  0.00000000E+00  0.00000000E+00  0.00000000E+00
