CeO2-you-111-you-Mg                     
   1.00000000000000     
     9.8358177635432629   -5.6787124044700201    0.0000000000000000
     0.0000000008849982   11.3574228118073837    0.0000000000000000
     0.0000000000000000    0.0000000000000000   21.1691607423094652
   O    Mg   Ce   H 
    54     1    26     1
Selective dynamics
Direct
 -0.0001560208845610 -0.0001657651212997  0.9964626237726596   T   T   T
  0.1092563863398723  0.2212946931699378  0.1500786001894809   F   F   F
  0.2372387731726345  0.1235576070805967  0.3081325071697975   T   T   T
  0.1017936486583688  0.2185386205776935  0.3819088272317709   T   T   T
  0.0036879486396201  0.0020267542235635  0.2306058246650305   T   T   T
  0.2225767377893817  0.1118204755787389  0.0759678048587560   F   F   F
  0.3330453372287634 -0.0000376280230714  0.9965877258411413   T   T   T
  0.4453713068300615  0.2212946931699378  0.1500786001894809   F   F   F
  0.5530868676007763  0.1147615841928447  0.3048491786508173   T   T   T
  0.4685235516677047  0.1986095525800034  0.4066055154488477   T   T   T
  0.3320131024833864 -0.0013907330328636  0.2295760035577933   T   T   T
  0.5559124466803098  0.1107545533196586  0.0758835345982263   F   F   F
  0.6668203014838772 -0.0000893840713312  0.9963466352361838   T   T   T
  0.7778197394014654  0.2223054788029515  0.1506540021491105   F   F   F
  0.8859988368398395  0.1090606321462987  0.3031009698475824   T   T   T
  0.7773086310239674  0.2224741879650747  0.3834048960566013   T   T   T
  0.6639795413212174 -0.0003353312434716  0.2299988783306927   T   T   T
  0.8881761066393565  0.1107545533196728  0.0758835345982263   F   F   F
 -0.0002306811514945  0.3332211493186567  0.9965851454084719   T   T   T
  0.1111795954639305  0.5554874045363007  0.1503546728311065   F   F   F
  0.2252147309655389  0.4436427487722782  0.3024307777589097   T   T   T
  0.1146352901806355  0.5561396780148221  0.3826775555906655   T   T   T
 -0.0002330600440059  0.3328002286443936  0.2292944324744212   T   T   T
  0.2225767377894243  0.4440892622106389  0.0759678048587560   F   F   F
  0.3333070736839700  0.3331812396405877  0.9963850056509735   T   T   T
  0.4453713068300615  0.5574106136601387  0.1500786001894809   F   F   F
  0.5330207449290769  0.4330537906549327  0.3146177872206439   T   T   T
  0.4512366300294510  0.5453373547157653  0.3800018866613009   T   T   T
  0.3335540328757922  0.3335569489502839  0.2253234101832939   T   T   T
  0.5548465244212011  0.4440892622106176  0.0759678048587560   F   F   F
  0.6667324312608934  0.3335213325120520  0.9966710109507414   T   T   T
  0.7776408090723024  0.5554874045362297  0.1503546728311065   F   F   F
  0.8903157918066833  0.4440208600429750  0.3041772749873082   T   T   T
  0.7799375937418804  0.5540867153826111  0.3827835374543822   T   T   T
  0.6643482070534305  0.3381084168261443  0.2325384661639107   T   T   T
  0.8887718315600210  0.4442096631200627  0.0761284622614014   F   F   F
 -0.0001303203427363  0.6668496267141830  0.9969086023028848   T   T   T
  0.1111795954637742  0.8890261909274670  0.1503546728311065   F   F   F
  0.2221821307051061  0.7748388098934541  0.3033846991549999   T   T   T
  0.1150268491609003  0.8895345667122790  0.3829849682923382   T   T   T
 -0.0004478445220222  0.6664523971670046  0.2295558756896376   T   T   T
  0.2224563368800005  0.7778951684399757  0.0761284622614014   F   F   F
  0.3332279299864477  0.6667232494027305  0.9968252383143709   T   T   T
  0.4443605211971047  0.8888472605985314  0.1506540021491105   F   F   F
  0.5570615151802344  0.7761687726192935  0.3041696557103310   T   T   T
  0.4435870295327979  0.8841365056165893  0.3814934891290329   T   T   T
  0.3352070530199979  0.6675370514790852  0.2294768103814544   T   T   T
  0.5559124466803311  0.7784908933606687  0.0758835345982263   F   F   F
  0.6669784032232871  0.6669118175670511  0.9966052066266876   T   T   T
  0.7778197394014228  0.8888472605985172  0.1506540021491105   F   F   F
  0.8921564403475869  0.7796219435701953  0.3044967750314287   T   T   T
  0.7776051785218686  0.8894496652656915  0.3839969934350200   T   T   T
  0.6666828525034664  0.6620652329150708  0.2314412242137928   T   T   T
  0.8887718315599713  0.7778951684399544  0.0761284622614014   F   F   F
  0.3156141753873513  0.3316938067136061  0.3258355659590318   T   T   T
  0.0067475256555363  0.0075821756118063  0.3442623473922529   T   T   T
  0.2232261172604950  0.1131192345208092  0.1903928281285232   F   F   F
  0.1111539880461834  0.2222434940230542  0.0363416582375109   F   F   F
  0.3309071938138755 -0.0033738985993153  0.3433127624692962   T   T   T
  0.5555261142341976  0.1111408857658773  0.1899669577579601   F   F   F
  0.4444225059768669  0.2222434940230116  0.0363416582375109   F   F   F
  0.6659759702368400 -0.0006675209798205  0.3441024250517933   T   T   T
  0.8889487715316520  0.1111408857658560  0.1899669577579601   F   F   F
  0.7777398091911820  0.2221456183823705  0.0362555597443475   F   F   F
  0.0034455369685373  0.3312410432318603  0.3436424394072453   T   T   T
  0.2232261172609071  0.4434398827396819  0.1903928281285232   F   F   F
  0.1111612428669702  0.5555057571332611  0.0367084360401861   F   F   F
  0.5535477654786050  0.4434398827395043  0.1903928281285232   F   F   F
  0.4444225059769451  0.5555130119539413  0.0363416582375109   F   F   F
  0.6716645821499448  0.3346550253884160  0.3459501702020388   T   T   T
  0.8889873993950133  0.4446407987899761  0.1899062218410563   F   F   F
  0.7776775142662231  0.5555057571331972  0.0367084360401861   F   F   F
  0.0026706253005567  0.6663440880313514  0.3431431104104196   T   T   T
  0.2220252012098598  0.7776796006049835  0.1899062218410563   F   F   F
  0.1111612428668067  0.8889894857335463  0.0367084360401861   F   F   F
  0.3324568600678776  0.6617133211946642  0.3412957757121753   T   T   T
  0.5555261142341479  0.7777182284682738  0.1899669577579601   F   F   F
  0.4445203816176289  0.8889271908088148  0.0362555597443475   F   F   F
  0.6728474733913904  0.6702494652767990  0.3438923031894613   T   T   T
  0.8889873993951269  0.7776796006050333  0.1899062218410563   F   F   F
  0.7777398091911820  0.8889271908088148  0.0362555597443475   F   F   F
  0.4374561981901602  0.2308004924104292  0.4418670704562750   T   T   T
 
  0.00000000E+00  0.00000000E+00  0.00000000E+00
  0.00000000E+00  0.00000000E+00  0.00000000E+00
  0.00000000E+00  0.00000000E+00  0.00000000E+00
  0.00000000E+00  0.00000000E+00  0.00000000E+00
  0.00000000E+00  0.00000000E+00  0.00000000E+00
  0.00000000E+00  0.00000000E+00  0.00000000E+00
  0.00000000E+00  0.00000000E+00  0.00000000E+00
  0.00000000E+00  0.00000000E+00  0.00000000E+00
  0.00000000E+00  0.00000000E+00  0.00000000E+00
  0.00000000E+00  0.00000000E+00  0.00000000E+00
  0.00000000E+00  0.00000000E+00  0.00000000E+00
  0.00000000E+00  0.00000000E+00  0.00000000E+00
  0.00000000E+00  0.00000000E+00  0.00000000E+00
  0.00000000E+00  0.00000000E+00  0.00000000E+00
  0.00000000E+00  0.00000000E+00  0.00000000E+00
  0.00000000E+00  0.00000000E+00  0.00000000E+00
  0.00000000E+00  0.00000000E+00  0.00000000E+00
  0.00000000E+00  0.00000000E+00  0.00000000E+00
  0.00000000E+00  0.00000000E+00  0.00000000E+00
  0.00000000E+00  0.00000000E+00  0.00000000E+00
  0.00000000E+00  0.00000000E+00  0.00000000E+00
  0.00000000E+00  0.00000000E+00  0.00000000E+00
  0.00000000E+00  0.00000000E+00  0.00000000E+00
  0.00000000E+00  0.00000000E+00  0.00000000E+00
  0.00000000E+00  0.00000000E+00  0.00000000E+00
  0.00000000E+00  0.00000000E+00  0.00000000E+00
  0.00000000E+00  0.00000000E+00  0.00000000E+00
  0.00000000E+00  0.00000000E+00  0.00000000E+00
  0.00000000E+00  0.00000000E+00  0.00000000E+00
  0.00000000E+00  0.00000000E+00  0.00000000E+00
  0.00000000E+00  0.00000000E+00  0.00000000E+00
  0.00000000E+00  0.00000000E+00  0.00000000E+00
  0.00000000E+00  0.00000000E+00  0.00000000E+00
  0.00000000E+00  0.00000000E+00  0.00000000E+00
  0.00000000E+00  0.00000000E+00  0.00000000E+00
  0.00000000E+00  0.00000000E+00  0.00000000E+00
  0.00000000E+00  0.00000000E+00  0.00000000E+00
  0.00000000E+00  0.00000000E+00  0.00000000E+00
  0.00000000E+00  0.00000000E+00  0.00000000E+00
  0.00000000E+00  0.00000000E+00  0.00000000E+00
  0.00000000E+00  0.00000000E+00  0.00000000E+00
  0.00000000E+00  0.00000000E+00  0.00000000E+00
  0.00000000E+00  0.00000000E+00  0.00000000E+00
  0.00000000E+00  0.00000000E+00  0.00000000E+00
  0.00000000E+00  0.00000000E+00  0.00000000E+00
  0.00000000E+00  0.00000000E+00  0.00000000E+00
  0.00000000E+00  0.00000000E+00  0.00000000E+00
  0.00000000E+00  0.00000000E+00  0.00000000E+00
  0.00000000E+00  0.00000000E+00  0.00000000E+00
  0.00000000E+00  0.00000000E+00  0.00000000E+00
  0.00000000E+00  0.00000000E+00  0.00000000E+00
  0.00000000E+00  0.00000000E+00  0.00000000E+00
  0.00000000E+00  0.00000000E+00  0.00000000E+00
  0.00000000E+00  0.00000000E+00  0.00000000E+00
  0.00000000E+00  0.00000000E+00  0.00000000E+00
  0.00000000E+00  0.00000000E+00  0.00000000E+00
  0.00000000E+00  0.00000000E+00  0.00000000E+00
  0.00000000E+00  0.00000000E+00  0.00000000E+00
  0.00000000E+00  0.00000000E+00  0.00000000E+00
  0.00000000E+00  0.00000000E+00  0.00000000E+00
  0.00000000E+00  0.00000000E+00  0.00000000E+00
  0.00000000E+00  0.00000000E+00  0.00000000E+00
  0.00000000E+00  0.00000000E+00  0.00000000E+00
  0.00000000E+00  0.00000000E+00  0.00000000E+00
  0.00000000E+00  0.00000000E+00  0.00000000E+00
  0.00000000E+00  0.00000000E+00  0.00000000E+00
  0.00000000E+00  0.00000000E+00  0.00000000E+00
  0.00000000E+00  0.00000000E+00  0.00000000E+00
  0.00000000E+00  0.00000000E+00  0.00000000E+00
  0.00000000E+00  0.00000000E+00  0.00000000E+00
  0.00000000E+00  0.00000000E+00  0.00000000E+00
  0.00000000E+00  0.00000000E+00  0.00000000E+00
  0.00000000E+00  0.00000000E+00  0.00000000E+00
  0.00000000E+00  0.00000000E+00  0.00000000E+00
  0.00000000E+00  0.00000000E+00  0.00000000E+00
  0.00000000E+00  0.00000000E+00  0.00000000E+00
  0.00000000E+00  0.00000000E+00  0.00000000E+00
  0.00000000E+00  0.00000000E+00  0.00000000E+00
  0.00000000E+00  0.00000000E+00  0.00000000E+00
  0.00000000E+00  0.00000000E+00  0.00000000E+00
  0.00000000E+00  0.00000000E+00  0.00000000E+00
  0.00000000E+00  0.00000000E+00  0.00000000E+00
