CeO2-you-111-you-V                      
   1.00000000000000     
     9.8880230534235931   -5.6843361569459532   -0.0309676926359445
     0.0212323223180101   11.4054457718473294    0.0309676874324266
    -0.0339082056281240    0.0587307318735342   20.9130856246907939
   O    V    Ce   H 
    53     1    26     1
Selective dynamics
Direct
  0.9994743934375948 -0.0006086828530341  0.9948811219524739   T   T   T
  0.1183376085907834  0.2236611841299063  0.1486719001351575   T   T   T
  0.2460424556835434  0.1200614678485261  0.3013224968500863   T   T   T
  0.1734971417998188  0.2653759435570456  0.3692071737456897   T   T   T
  0.0041531798923575  0.0002409819421679  0.2286917020606463   T   T   T
  0.2226458225181936  0.1087975138093876  0.0737450770840576   T   T   T
  0.3361513755782287  0.0017184245383201  0.9952785573332646   T   T   T
  0.4379653617096661  0.2285946243299489  0.1543233857493262   T   T   T
  0.5493306026713685  0.1173953986420840  0.3062583619828786   T   T   T
  0.4215101988465812  0.2463426899497375  0.3941398285281385   T   T   T
  0.3349162913022358  0.9948080973472394  0.2260388458443639   T   T   T
  0.5534758331567727  0.1119933527433790  0.0782612751410943   T   T   T
  0.6663099754028823  0.0011688490310264  0.9973534406622814   T   T   T
  0.7844794588332740  0.2222801623656533  0.1504523063428731   T   T   T
  0.8888082590698153  0.1111796368385451  0.3042569588920807   T   T   T
  0.7684762359026727  0.2187719173348306  0.3873909281481751   T   T   T
  0.6656403226590197  0.0014326422105398  0.2301219897486733   T   T   T
  0.8918129681816884  0.1102494709306807  0.0752404610515269   T   T   T
  0.9971504755771966  0.3311266702342546  0.9942529921434486   T   T   T
  0.1111708258149589  0.5562809601049993  0.1440605004706421   T   T   T
  0.1089896944237265  0.5577284678951567  0.3845151706353722   T   T   T
  0.0178435807148934  0.3438128746060468  0.2310587913637613   T   T   T
  0.2218378678276481  0.4440319749120419  0.0700568853862298   T   T   T
  0.3338073858321063  0.3316424653249941  0.9945396128249160   T   T   T
  0.4428726571037453  0.5485438917212996  0.1485389839124865   T   T   T
  0.5490444322137521  0.4219751646985513  0.3005688956768017   T   T   T
  0.4015021619581300  0.4919912967098156  0.3683358827276246   T   T   T
  0.3129375879770059  0.3536138351647168  0.2521394319600447   T   T   T
  0.5574245808852545  0.4439437347424031  0.0734984607448232   T   T   T
  0.6654342763262817  0.3307094412279417  0.9954100705724630   T   T   T
  0.7778872996346871  0.5546884099484874  0.1494733230575939   T   T   T
  0.8854654839449316  0.4428516883359996  0.3017021228500647   T   T   T
  0.7826388940694943  0.5453461399266177  0.3868697234171263   T   T   T
  0.6718612687580232  0.3308445377148035  0.2254697424267015   T   T   T
  0.8884763764497956  0.4442916335589434  0.0728567234112846   T   T   T
  0.9991136851818770  0.6672621808264191  0.9935034528238542   T   T   T
  0.1121736327275186  0.8882533830422394  0.1495186562929880   T   T   T
  0.2232355614558205  0.7808916430967983  0.3019667431811561   T   T   T
  0.1221936257958515  0.8848625255990485  0.3868162477678939   T   T   T
  0.0025290744679229  0.6638466109746437  0.2274714023014914   T   T   T
  0.2223590093623898  0.7780819349681880  0.0725146584168283   T   T   T
  0.3349429039948419  0.6686055025794327  0.9940896475177838   T   T   T
  0.4438554132779418  0.8819323499995219  0.1504984961060041   T   T   T
  0.5553222905200295  0.7782003172514961  0.3039412244606832   T   T   T
  0.4479211629292696  0.8978846772355578  0.3877229271366129   T   T   T
  0.3225021164692304  0.6480051607049192  0.2315369108483271   T   T   T
  0.5560316072364648  0.7747347473364038  0.0752097468849138   T   T   T
  0.6675460470876521  0.6675576636958199  0.9948040560984012   T   T   T
  0.7777507033418068  0.8888698904979653  0.1523837968294652   T   T   T
  0.8931260942639182  0.7741402508211189  0.3041180388969764   T   T   T
  0.7726651914399900  0.8936206265739957  0.3883443362688691   T   T   T
  0.6665265857267209  0.6627538818544250  0.2287374460552809   T   T   T
  0.8893691565973111  0.7778730862560170  0.0748501318939772   T   T   T
  0.3332981970042394  0.3311120947389370  0.3360421972839845   T   T   T
  0.0033954957592813  0.9968521243368449  0.3458162838314387   T   T   T
  0.2208151677280451  0.1056918526598123  0.1911271620683789   T   T   T
  0.1103552509213422  0.2193242530715376  0.0335166923273928   T   T   T
  0.3294614718656143  0.9931523140720400  0.3426279630909811   T   T   T
  0.5562239520537755  0.1101296385233042  0.1909535393043023   T   T   T
  0.4441469466364721  0.2222533852793167  0.0353603709782704   T   T   T
  0.6688851432332354 -0.0023089102842477  0.3462332017681472   T   T   T
  0.8920137928388132  0.1116653788130318  0.1926191844128591   T   T   T
  0.7782164933059643  0.2219288100076169  0.0359640108007940   T   T   T
  0.9895667045291411  0.3311058288878500  0.3493181139134315   T   T   T
  0.2203738804741538  0.4461814779977186  0.1802673853387937   T   T   T
  0.1099877067506904  0.5563618030181882  0.0308614085911011   T   T   T
  0.5610330706678450  0.4458883316672754  0.1910885289670138   T   T   T
  0.4468982422399965  0.5560585088444583  0.0334725637985972   T   T   T
  0.6734766452882069  0.3373618439506784  0.3423876628804322   T   T   T
  0.8919742086694444  0.4441436095608164  0.1885924783548059   T   T   T
  0.7772473602035492  0.5549866382419952  0.0345195038704396   T   T   T
  0.0021023762398284  0.6644495571171042  0.3449050694969648   T   T   T
  0.2222995693635741  0.7744887184860436  0.1887864543641372   T   T   T
  0.1117570183627235  0.8893679026858029  0.0345143372322465   T   T   T
  0.3355555287954639  0.6767873303381706  0.3494886640979518   T   T   T
  0.5548940903692686  0.7745359463587672  0.1926815927711427   T   T   T
  0.4445195333495557  0.8883004699381881  0.0359371856343634   T   T   T
  0.6699915163786839  0.6631459000420766  0.3455679623347085   T   T   T
  0.8902501614607501  0.7765248302672347  0.1903813358529918   T   T   T
  0.7778576785572973  0.8887765520390093  0.0371167220743795   T   T   T
  0.4092426003283152  0.2590465145033372  0.4391753799443631   T   T   T
 
  0.00000000E+00  0.00000000E+00  0.00000000E+00
  0.00000000E+00  0.00000000E+00  0.00000000E+00
  0.00000000E+00  0.00000000E+00  0.00000000E+00
  0.00000000E+00  0.00000000E+00  0.00000000E+00
  0.00000000E+00  0.00000000E+00  0.00000000E+00
  0.00000000E+00  0.00000000E+00  0.00000000E+00
  0.00000000E+00  0.00000000E+00  0.00000000E+00
  0.00000000E+00  0.00000000E+00  0.00000000E+00
  0.00000000E+00  0.00000000E+00  0.00000000E+00
  0.00000000E+00  0.00000000E+00  0.00000000E+00
  0.00000000E+00  0.00000000E+00  0.00000000E+00
  0.00000000E+00  0.00000000E+00  0.00000000E+00
  0.00000000E+00  0.00000000E+00  0.00000000E+00
  0.00000000E+00  0.00000000E+00  0.00000000E+00
  0.00000000E+00  0.00000000E+00  0.00000000E+00
  0.00000000E+00  0.00000000E+00  0.00000000E+00
  0.00000000E+00  0.00000000E+00  0.00000000E+00
  0.00000000E+00  0.00000000E+00  0.00000000E+00
  0.00000000E+00  0.00000000E+00  0.00000000E+00
  0.00000000E+00  0.00000000E+00  0.00000000E+00
  0.00000000E+00  0.00000000E+00  0.00000000E+00
  0.00000000E+00  0.00000000E+00  0.00000000E+00
  0.00000000E+00  0.00000000E+00  0.00000000E+00
  0.00000000E+00  0.00000000E+00  0.00000000E+00
  0.00000000E+00  0.00000000E+00  0.00000000E+00
  0.00000000E+00  0.00000000E+00  0.00000000E+00
  0.00000000E+00  0.00000000E+00  0.00000000E+00
  0.00000000E+00  0.00000000E+00  0.00000000E+00
  0.00000000E+00  0.00000000E+00  0.00000000E+00
  0.00000000E+00  0.00000000E+00  0.00000000E+00
  0.00000000E+00  0.00000000E+00  0.00000000E+00
  0.00000000E+00  0.00000000E+00  0.00000000E+00
  0.00000000E+00  0.00000000E+00  0.00000000E+00
  0.00000000E+00  0.00000000E+00  0.00000000E+00
  0.00000000E+00  0.00000000E+00  0.00000000E+00
  0.00000000E+00  0.00000000E+00  0.00000000E+00
  0.00000000E+00  0.00000000E+00  0.00000000E+00
  0.00000000E+00  0.00000000E+00  0.00000000E+00
  0.00000000E+00  0.00000000E+00  0.00000000E+00
  0.00000000E+00  0.00000000E+00  0.00000000E+00
  0.00000000E+00  0.00000000E+00  0.00000000E+00
  0.00000000E+00  0.00000000E+00  0.00000000E+00
  0.00000000E+00  0.00000000E+00  0.00000000E+00
  0.00000000E+00  0.00000000E+00  0.00000000E+00
  0.00000000E+00  0.00000000E+00  0.00000000E+00
  0.00000000E+00  0.00000000E+00  0.00000000E+00
  0.00000000E+00  0.00000000E+00  0.00000000E+00
  0.00000000E+00  0.00000000E+00  0.00000000E+00
  0.00000000E+00  0.00000000E+00  0.00000000E+00
  0.00000000E+00  0.00000000E+00  0.00000000E+00
  0.00000000E+00  0.00000000E+00  0.00000000E+00
  0.00000000E+00  0.00000000E+00  0.00000000E+00
  0.00000000E+00  0.00000000E+00  0.00000000E+00
  0.00000000E+00  0.00000000E+00  0.00000000E+00
  0.00000000E+00  0.00000000E+00  0.00000000E+00
  0.00000000E+00  0.00000000E+00  0.00000000E+00
  0.00000000E+00  0.00000000E+00  0.00000000E+00
  0.00000000E+00  0.00000000E+00  0.00000000E+00
  0.00000000E+00  0.00000000E+00  0.00000000E+00
  0.00000000E+00  0.00000000E+00  0.00000000E+00
  0.00000000E+00  0.00000000E+00  0.00000000E+00
  0.00000000E+00  0.00000000E+00  0.00000000E+00
  0.00000000E+00  0.00000000E+00  0.00000000E+00
  0.00000000E+00  0.00000000E+00  0.00000000E+00
  0.00000000E+00  0.00000000E+00  0.00000000E+00
  0.00000000E+00  0.00000000E+00  0.00000000E+00
  0.00000000E+00  0.00000000E+00  0.00000000E+00
  0.00000000E+00  0.00000000E+00  0.00000000E+00
  0.00000000E+00  0.00000000E+00  0.00000000E+00
  0.00000000E+00  0.00000000E+00  0.00000000E+00
  0.00000000E+00  0.00000000E+00  0.00000000E+00
  0.00000000E+00  0.00000000E+00  0.00000000E+00
  0.00000000E+00  0.00000000E+00  0.00000000E+00
  0.00000000E+00  0.00000000E+00  0.00000000E+00
  0.00000000E+00  0.00000000E+00  0.00000000E+00
  0.00000000E+00  0.00000000E+00  0.00000000E+00
  0.00000000E+00  0.00000000E+00  0.00000000E+00
  0.00000000E+00  0.00000000E+00  0.00000000E+00
  0.00000000E+00  0.00000000E+00  0.00000000E+00
  0.00000000E+00  0.00000000E+00  0.00000000E+00
  0.00000000E+00  0.00000000E+00  0.00000000E+00
