CeO2-you-111-you-Mo                     
   1.00000000000000     
     9.9067134145705875   -5.7231419913711017    0.0205265532099032
    -0.0000000067425906   11.4462819568701981   -0.0000000024472249
     0.0461583761300208   -0.0000000048352299   20.8353348744512310
   O    Mo   Ce H
    53     1    26 2
Selective dynamics
Direct
 -0.0005891912265562  0.0015799065837598  0.9957701436551982   T   T   T
  0.1235522762545197  0.2284426381292478  0.1533175064030557   F   F   F
  0.2241470617804103  0.1143515807193925  0.3014248904971006   T   T   T
  0.1673540688635552  0.2503435344435715  0.3860112691861963   T   T   T
 -0.0010064891896191 -0.0019104228413217  0.2254754469835823   T   T   T
  0.2215936916497460  0.1099856689324692  0.0735133799816733   F   F   F
  0.3345502583007570  0.0009756320100141  0.9944283411640729   T   T   T
  0.4408195588958613  0.2237846464281060  0.1487755475897303   F   F   F
  0.5446691447299445  0.1069762093397669  0.3060017276463866   T   T   T
  0.4334862335818542  0.2678331458882256  0.3713530104851223   T   T   T
  0.3304156893968705 -0.0024912831504693  0.2273716611835970   T   T   T
  0.5536000983984424  0.1115326410289681  0.0755012278240054   F   F   F
  0.6685975153664598  0.0009652576835329  0.9978093295712462   T   T   T
  0.7718318304078727  0.2224621634448663  0.1524431619280974   F   F   F
  0.8896532853343949  0.1114931426679490  0.3039114632302131   T   T   T
  0.7684845754794385  0.2072335111541921  0.3895742136580342   T   T   T
  0.6625890966335096 -0.0020389516836409  0.2307213855594535   T   T   T
  0.8915241177238324  0.1124285588620817  0.0785196308336451   F   F   F
 -0.0005891912269595  0.3311639021890257  0.9957701436551678   T   T   T
  0.1110790457558739  0.5556539436102124  0.1481335193695995   F   F   F
  0.2241470617529994  0.4431284810540989  0.3014248905000717   T   T   T
  0.1222549075901836  0.5703156220335772  0.3861348174420600   T   T   T
 -0.0010064891882135  0.3342369336505712  0.2254754469834323   T   T   T
  0.2215936916489596  0.4449410227169427  0.0735133799817528   F   F   F
  0.3320768026580830  0.3327049013287541  0.9950550469506533   T   T   T
  0.4408195588850515  0.5503689124657101  0.1487755475905219   F   F   F
  0.4334862335285403  0.4989870876588697  0.3713530104858198   T   T   T
  0.3595675931142905  0.3464502965675333  0.2469545448670378   T   T   T
  0.5563849738454142  0.4448584869230145  0.0710413150402476   F   F   F
  0.6685942835062705  0.3320666995888582  0.9948449121474762   T   T   T
  0.7782553113524102  0.5557946556740443  0.1460939385503275   F   F   F
  0.8933205617823293  0.4472970842448226  0.3038118383246104   T   T   T
  0.7863880117390789  0.5598610058684133  0.3872394993666554   T   T   T
  0.6584099497787824  0.3427344618654581  0.2330017614889810   T   T   T
  0.8892639977030776  0.4437753191439744  0.0741692532925097   F   F   F
 -0.0002210913335218  0.6665564543331619  0.9943782238913563   T   T   T
  0.1110790457559098  0.8887591021443697  0.1481335193696878   F   F   F
  0.2202545725520662  0.7767942862761095  0.2996256027796300   T   T   T
  0.1222549075906560  0.8852732855583763  0.3861348174409068   T   T   T
 -0.0024001386929065  0.6654669306521284  0.2269921136737970   T   T   T
  0.2218880204613465  0.7776110102305502  0.0723136478007349   F   F   F
  0.3345502583000251  0.6669086262909140  0.9944283411641948   T   T   T
  0.4449450260494253  0.8891395130254819  0.1495205754642681   F   F   F
  0.5446691447322971  0.7710259353875131  0.3060017276456877   T   T   T
  0.4326598524637083  0.8829969262303980  0.3835415571418111   T   T   T
  0.3304156893962399  0.6662409725473964  0.2273716611831443   T   T   T
  0.5536000983968060  0.7754004573689804  0.0755012278241249   F   F   F
  0.6685942835066626  0.6698605839179356  0.9948449121476074   T   T   T
  0.7718318304050626  0.8827026669597234  0.1524431619278910   F   F   F
  0.8933205617823812  0.7793564775398407  0.3038118383241573   T   T   T
  0.7684845754710184  0.8945840643161560  0.3895742136595711   T   T   T
  0.6584099497510043  0.6490084878920459  0.2330017614912524   T   T   T
  0.8892639977028487  0.7788216785582057  0.0741692532925532   F   F   F
  0.3232360437757705  0.3282845218747867  0.3389507170533782   T   T   T
  0.0005327852562650 -0.0016925248135611  0.3466599605056934   T   T   T
  0.2195427329783340  0.1067352795965789  0.1901609058016678   F   F   F
  0.1120610263742771  0.2226970131872414  0.0360309106514153   F   F   F
  0.3252196179978577 -0.0090180217885707  0.3405920833554016   T   T   T
  0.5534299749047068  0.1117860453084537  0.1918236092887775   F   F   F
  0.4436516135546398  0.2202833913087968  0.0332890865528388   F   F   F
  0.6645651172138936 -0.0010509413938136  0.3463773541904498   T   T   T
  0.8881298392593865  0.1107314196303466  0.1929723474731260   F   F   F
  0.7779290323291050  0.2224957100220889  0.0369954553552629   F   F   F
  0.0005327852560052  0.3355583100724124  0.3466599605054831   T   T   T
  0.2195427329879048  0.4461404533821496  0.1901609058006358   F   F   F
  0.1107108777759819  0.5540615610950708  0.0339583567999154   F   F   F
  0.5596075575743727  0.4464697787844235  0.1813861426059370   F   F   F
  0.4436516135561163  0.5567022222459730  0.0332890865526179   F   F   F
  0.6768211921501504  0.3324088927853782  0.3515175048593881   T   T   T
  0.8871382843750738  0.4444069985964718  0.1908543601378946   F   F   F
  0.7803862300795201  0.5568601150402900  0.0324569516332150   F   F   F
 -0.0017627729052947  0.6657856135504095  0.3448247968827761   T   T   T
  0.2196934037704512  0.7765137018861510  0.1860419885978723   F   F   F
  0.1107108777748321  0.8899833166809659  0.0339583568000065   F   F   F
  0.3252196179975000  0.6675716397825907  0.3405920833561296   T   T   T
  0.5534299749204034  0.7749769295994968  0.1918236092874479   F   F   F
  0.4456556212434806  0.8894948106213861  0.0356757859647445   F   F   F
  0.6768211921899713  0.6777452993924411  0.3515175048555715   T   T   T
  0.8871382843805781  0.7760642857903859  0.1908543601377266   F   F   F
  0.7779290323302200  0.8887663223077750  0.0369954553550259   F   F   F
0.3232360437757705 0.3282845218747867 0.4138951 T T T
0.446598 0.216020 0.433410 T T T 
 
  0.00000000E+00  0.00000000E+00  0.00000000E+00
  0.00000000E+00  0.00000000E+00  0.00000000E+00
  0.00000000E+00  0.00000000E+00  0.00000000E+00
  0.00000000E+00  0.00000000E+00  0.00000000E+00
  0.00000000E+00  0.00000000E+00  0.00000000E+00
  0.00000000E+00  0.00000000E+00  0.00000000E+00
  0.00000000E+00  0.00000000E+00  0.00000000E+00
  0.00000000E+00  0.00000000E+00  0.00000000E+00
  0.00000000E+00  0.00000000E+00  0.00000000E+00
  0.00000000E+00  0.00000000E+00  0.00000000E+00
  0.00000000E+00  0.00000000E+00  0.00000000E+00
  0.00000000E+00  0.00000000E+00  0.00000000E+00
  0.00000000E+00  0.00000000E+00  0.00000000E+00
  0.00000000E+00  0.00000000E+00  0.00000000E+00
  0.00000000E+00  0.00000000E+00  0.00000000E+00
  0.00000000E+00  0.00000000E+00  0.00000000E+00
  0.00000000E+00  0.00000000E+00  0.00000000E+00
  0.00000000E+00  0.00000000E+00  0.00000000E+00
  0.00000000E+00  0.00000000E+00  0.00000000E+00
  0.00000000E+00  0.00000000E+00  0.00000000E+00
  0.00000000E+00  0.00000000E+00  0.00000000E+00
  0.00000000E+00  0.00000000E+00  0.00000000E+00
  0.00000000E+00  0.00000000E+00  0.00000000E+00
  0.00000000E+00  0.00000000E+00  0.00000000E+00
  0.00000000E+00  0.00000000E+00  0.00000000E+00
  0.00000000E+00  0.00000000E+00  0.00000000E+00
  0.00000000E+00  0.00000000E+00  0.00000000E+00
  0.00000000E+00  0.00000000E+00  0.00000000E+00
  0.00000000E+00  0.00000000E+00  0.00000000E+00
  0.00000000E+00  0.00000000E+00  0.00000000E+00
  0.00000000E+00  0.00000000E+00  0.00000000E+00
  0.00000000E+00  0.00000000E+00  0.00000000E+00
  0.00000000E+00  0.00000000E+00  0.00000000E+00
  0.00000000E+00  0.00000000E+00  0.00000000E+00
  0.00000000E+00  0.00000000E+00  0.00000000E+00
  0.00000000E+00  0.00000000E+00  0.00000000E+00
  0.00000000E+00  0.00000000E+00  0.00000000E+00
  0.00000000E+00  0.00000000E+00  0.00000000E+00
  0.00000000E+00  0.00000000E+00  0.00000000E+00
  0.00000000E+00  0.00000000E+00  0.00000000E+00
  0.00000000E+00  0.00000000E+00  0.00000000E+00
  0.00000000E+00  0.00000000E+00  0.00000000E+00
  0.00000000E+00  0.00000000E+00  0.00000000E+00
  0.00000000E+00  0.00000000E+00  0.00000000E+00
  0.00000000E+00  0.00000000E+00  0.00000000E+00
  0.00000000E+00  0.00000000E+00  0.00000000E+00
  0.00000000E+00  0.00000000E+00  0.00000000E+00
  0.00000000E+00  0.00000000E+00  0.00000000E+00
  0.00000000E+00  0.00000000E+00  0.00000000E+00
  0.00000000E+00  0.00000000E+00  0.00000000E+00
  0.00000000E+00  0.00000000E+00  0.00000000E+00
  0.00000000E+00  0.00000000E+00  0.00000000E+00
  0.00000000E+00  0.00000000E+00  0.00000000E+00
  0.00000000E+00  0.00000000E+00  0.00000000E+00
  0.00000000E+00  0.00000000E+00  0.00000000E+00
  0.00000000E+00  0.00000000E+00  0.00000000E+00
  0.00000000E+00  0.00000000E+00  0.00000000E+00
  0.00000000E+00  0.00000000E+00  0.00000000E+00
  0.00000000E+00  0.00000000E+00  0.00000000E+00
  0.00000000E+00  0.00000000E+00  0.00000000E+00
  0.00000000E+00  0.00000000E+00  0.00000000E+00
  0.00000000E+00  0.00000000E+00  0.00000000E+00
  0.00000000E+00  0.00000000E+00  0.00000000E+00
  0.00000000E+00  0.00000000E+00  0.00000000E+00
  0.00000000E+00  0.00000000E+00  0.00000000E+00
  0.00000000E+00  0.00000000E+00  0.00000000E+00
  0.00000000E+00  0.00000000E+00  0.00000000E+00
  0.00000000E+00  0.00000000E+00  0.00000000E+00
  0.00000000E+00  0.00000000E+00  0.00000000E+00
  0.00000000E+00  0.00000000E+00  0.00000000E+00
  0.00000000E+00  0.00000000E+00  0.00000000E+00
  0.00000000E+00  0.00000000E+00  0.00000000E+00
  0.00000000E+00  0.00000000E+00  0.00000000E+00
  0.00000000E+00  0.00000000E+00  0.00000000E+00
  0.00000000E+00  0.00000000E+00  0.00000000E+00
  0.00000000E+00  0.00000000E+00  0.00000000E+00
  0.00000000E+00  0.00000000E+00  0.00000000E+00
  0.00000000E+00  0.00000000E+00  0.00000000E+00
  0.00000000E+00  0.00000000E+00  0.00000000E+00
  0.00000000E+00  0.00000000E+00  0.00000000E+00
