CeO2-you-111-you-Re                     
   1.00000000000000     
     9.9006876709193179   -5.7298225147641455   -0.0193017039738930
    -0.0118277039704104   11.4391568298638138    0.0193017007924678
    -0.0216393177585385    0.0374803961041634   21.0229901050066488
   O    Re   Ce H
    53     1    26 1
Selective dynamics
Direct
 -0.0008143584292973  0.0003594308217147  0.9959775507888429   T   T   T
  0.1160940976774150  0.2234550302548758  0.1486604560839326   T   T   T
  0.2353015656806521  0.1232546124572130  0.3005225680144873   T   T   T
  0.1659616293202684  0.2658948321488691  0.3661041701996261   T   T   T
  0.0036161030008776 -0.0007581500031964  0.2283374516853100   T   T   T
  0.2221814575495910  0.1096588854480702  0.0741272321853525   T   T   T
  0.3355274064558808  0.0014146907923638  0.9968537518992268   T   T   T
  0.4382165965737890  0.2284494034319832  0.1531191298384819   T   T   T
  0.5561462162940506  0.1105207836989617  0.3040606749855564   T   T   T
  0.4126498479494385  0.2540161520424003  0.3903475727295254   T   T   T
  0.3332709572145361 -0.0016730081939887  0.2257572672514817   T   T   T
  0.5539305575118538  0.1127364424867144  0.0795381600118840   T   T   T
  0.6654839833585853  0.0011830166416598  0.9994938418324362   T   T   T
  0.7841308279161803  0.2228889904525742  0.1524559399891514   T   T   T
  0.8934867463920216  0.1063731611157252  0.3048890233306979   T   T   T
  0.7734094099892405  0.2075653914870021  0.3889324196995747   T   T   T
  0.6682203123922970 -0.0015533123985580  0.2298298609936290   T   T   T
  0.8906599909527994  0.1106213750390614  0.0765870846182854   T   T   T
 -0.0028368237512565  0.3319028229693222  0.9964106663483339   T   T   T
  0.1099494266058905  0.5567175733966415  0.1462878719064140   T   T   T
  0.1058667382520556  0.5608002617510925  0.3859953814060731   T   T   T
  0.0159372790969788  0.3419135395760245  0.2320879062058692   T   T   T
  0.2214518692755345  0.4452141307254930  0.0720175499869807   T   T   T
  0.3333152023007692  0.3333507976961325  0.9960629618803382   T   T   T
  0.4432109697516916  0.5505729023243118  0.1486604560847049   T   T   T
  0.5434123875277486  0.4313644342957422  0.3005225680205596   T   T   T
  0.4007711678847627  0.5007053706930545  0.3661041702024133   T   T   T
  0.3166501450846860  0.3500158549149886  0.2462911944365626   T   T   T
  0.5570081145492701  0.4444845424479202  0.0741272321853087   T   T   T
  0.6652523092065942  0.3311385935426783  0.9968537518991227   T   T   T
  0.7774470325362558  0.5550062963938857  0.1488913233888238   T   T   T
  0.8877474037241436  0.4472376961163045  0.3029108059842200   T   T   T
  0.7796838124795962  0.5689898386364945  0.3829500143405472   T   T   T
  0.6683400081907522  0.3333950427860100  0.2257572672514468   T   T   T
  0.8873444734295838  0.4439550796375077  0.0746371081206058   T   T   T
 -0.0000184163054704  0.6666854163051752  0.9953870435344524   T   T   T
  0.1116607036054480  0.8892199674627290  0.1488913233887813   T   T   T
  0.2194283038615266  0.7789195962489179  0.3029108059826108   T   T   T
  0.0976771613839108  0.8869831875321107  0.3829500143385903   T   T   T
  0.0005561890765260  0.6661108109236242  0.2270512006425481   T   T   T
  0.2227109203616196  0.7793225265691250  0.0746371081207908   T   T   T
  0.3347631770327831  0.6695038237535736  0.9964106663486820   T   T   T
  0.4437770095454753  0.8825361720793204  0.1524559399885048   T   T   T
  0.5602938388937869  0.7731802536101248  0.3048890233281066   T   T   T
  0.4591006084912995  0.8932575899806356  0.3889324196995059   T   T   T
  0.3247524604338314  0.6507297209027803  0.2320879062092382   T   T   T
  0.5560456249625548  0.7760070090491724  0.0765870846184582   T   T   T
  0.6663075691781966  0.6674813584290313  0.9959775507889587   T   T   T
  0.7781470375341927  0.8885199624664996  0.1513276732332147   T   T   T
  0.8890080976840260  0.7776589023163114  0.2992222193417694   T   T   T
  0.7838563625321260  0.8828106374611518  0.3828697461078447   T   T   T
  0.6674251500021151  0.6630508969986001  0.2283374516844723   T   T   T
  0.8889280514955344  0.7777389485041376  0.0740963167703052   T   T   T
  0.3419207489643946  0.3247452511028394  0.3363052790261736   T   T   T
 -0.0006132916014033 -0.0068150906260348  0.3398992635471410   T   T   T
  0.2215053636569684  0.1078122349667385  0.1894973147271041   T   T   T
  0.1100339454620545  0.2204593887123564  0.0345558687918262   T   T   T
  0.3320695448914072 -0.0039341772310116  0.3454088566023957   T   T   T
  0.5563281753895661  0.1103388246160026  0.1930669419832249   T   T   T
  0.4443012277278459  0.2223647722737212  0.0364836195168961   T   T   T
  0.6679506026173033 -0.0012836026065370  0.3458516086048194   T   T   T
  0.8918179296823494  0.1120401318378820  0.1919623902398132   T   T   T
  0.7778372934154466  0.2224435509367549  0.0381797501090351   T   T   T
 -0.0090219427982187  0.3325000523785597  0.3502315724631432   T   T   T
  0.2195410611233946  0.4471249388736021  0.1815018007815111   T   T   T
  0.1097827002836344  0.5568842997152297  0.0335431936808430   T   T   T
  0.5588547650287695  0.4451606363396662  0.1894973147270530   T   T   T
  0.4462066112862768  0.5566330545375716  0.0345558687915187   T   T   T
  0.6706011772259041  0.3345964551001955  0.3454088566021393   T   T   T
  0.8900702747810016  0.4443504788049558  0.1908389149916897   T   T   T
  0.7769947088572559  0.5543689834299741  0.0351768455557524   T   T   T
  0.0006013398473907  0.6660656601695472  0.3431727549604100   T   T   T
  0.2223155212002861  0.7765967252303129  0.1908389149920389   T   T   T
  0.1122980165715857  0.8896722911446204  0.0351768455559593   T   T   T
  0.3341659476084902  0.6756889428000770  0.3502315724600875   T   T   T
  0.5546268681548262  0.7748490703185007  0.1919623902392997   T   T   T
  0.4442224490629354  0.8888297065857712  0.0381797501089200   T   T   T
  0.6734820906169182  0.6672802915971096  0.3398992635495096   T   T   T
  0.8901010015629932  0.7765659984372053  0.1870288157814676   T   T   T
  0.7773391556659017  0.8893278443343222  0.0372845516976973   T   T   T
0.446598 0.216020 0.433410 T T T 
 
  0.00000000E+00  0.00000000E+00  0.00000000E+00
  0.00000000E+00  0.00000000E+00  0.00000000E+00
  0.00000000E+00  0.00000000E+00  0.00000000E+00
  0.00000000E+00  0.00000000E+00  0.00000000E+00
  0.00000000E+00  0.00000000E+00  0.00000000E+00
  0.00000000E+00  0.00000000E+00  0.00000000E+00
  0.00000000E+00  0.00000000E+00  0.00000000E+00
  0.00000000E+00  0.00000000E+00  0.00000000E+00
  0.00000000E+00  0.00000000E+00  0.00000000E+00
  0.00000000E+00  0.00000000E+00  0.00000000E+00
  0.00000000E+00  0.00000000E+00  0.00000000E+00
  0.00000000E+00  0.00000000E+00  0.00000000E+00
  0.00000000E+00  0.00000000E+00  0.00000000E+00
  0.00000000E+00  0.00000000E+00  0.00000000E+00
  0.00000000E+00  0.00000000E+00  0.00000000E+00
  0.00000000E+00  0.00000000E+00  0.00000000E+00
  0.00000000E+00  0.00000000E+00  0.00000000E+00
  0.00000000E+00  0.00000000E+00  0.00000000E+00
  0.00000000E+00  0.00000000E+00  0.00000000E+00
  0.00000000E+00  0.00000000E+00  0.00000000E+00
  0.00000000E+00  0.00000000E+00  0.00000000E+00
  0.00000000E+00  0.00000000E+00  0.00000000E+00
  0.00000000E+00  0.00000000E+00  0.00000000E+00
  0.00000000E+00  0.00000000E+00  0.00000000E+00
  0.00000000E+00  0.00000000E+00  0.00000000E+00
  0.00000000E+00  0.00000000E+00  0.00000000E+00
  0.00000000E+00  0.00000000E+00  0.00000000E+00
  0.00000000E+00  0.00000000E+00  0.00000000E+00
  0.00000000E+00  0.00000000E+00  0.00000000E+00
  0.00000000E+00  0.00000000E+00  0.00000000E+00
  0.00000000E+00  0.00000000E+00  0.00000000E+00
  0.00000000E+00  0.00000000E+00  0.00000000E+00
  0.00000000E+00  0.00000000E+00  0.00000000E+00
  0.00000000E+00  0.00000000E+00  0.00000000E+00
  0.00000000E+00  0.00000000E+00  0.00000000E+00
  0.00000000E+00  0.00000000E+00  0.00000000E+00
  0.00000000E+00  0.00000000E+00  0.00000000E+00
  0.00000000E+00  0.00000000E+00  0.00000000E+00
  0.00000000E+00  0.00000000E+00  0.00000000E+00
  0.00000000E+00  0.00000000E+00  0.00000000E+00
  0.00000000E+00  0.00000000E+00  0.00000000E+00
  0.00000000E+00  0.00000000E+00  0.00000000E+00
  0.00000000E+00  0.00000000E+00  0.00000000E+00
  0.00000000E+00  0.00000000E+00  0.00000000E+00
  0.00000000E+00  0.00000000E+00  0.00000000E+00
  0.00000000E+00  0.00000000E+00  0.00000000E+00
  0.00000000E+00  0.00000000E+00  0.00000000E+00
  0.00000000E+00  0.00000000E+00  0.00000000E+00
  0.00000000E+00  0.00000000E+00  0.00000000E+00
  0.00000000E+00  0.00000000E+00  0.00000000E+00
  0.00000000E+00  0.00000000E+00  0.00000000E+00
  0.00000000E+00  0.00000000E+00  0.00000000E+00
  0.00000000E+00  0.00000000E+00  0.00000000E+00
  0.00000000E+00  0.00000000E+00  0.00000000E+00
  0.00000000E+00  0.00000000E+00  0.00000000E+00
  0.00000000E+00  0.00000000E+00  0.00000000E+00
  0.00000000E+00  0.00000000E+00  0.00000000E+00
  0.00000000E+00  0.00000000E+00  0.00000000E+00
  0.00000000E+00  0.00000000E+00  0.00000000E+00
  0.00000000E+00  0.00000000E+00  0.00000000E+00
  0.00000000E+00  0.00000000E+00  0.00000000E+00
  0.00000000E+00  0.00000000E+00  0.00000000E+00
  0.00000000E+00  0.00000000E+00  0.00000000E+00
  0.00000000E+00  0.00000000E+00  0.00000000E+00
  0.00000000E+00  0.00000000E+00  0.00000000E+00
  0.00000000E+00  0.00000000E+00  0.00000000E+00
  0.00000000E+00  0.00000000E+00  0.00000000E+00
  0.00000000E+00  0.00000000E+00  0.00000000E+00
  0.00000000E+00  0.00000000E+00  0.00000000E+00
  0.00000000E+00  0.00000000E+00  0.00000000E+00
  0.00000000E+00  0.00000000E+00  0.00000000E+00
  0.00000000E+00  0.00000000E+00  0.00000000E+00
  0.00000000E+00  0.00000000E+00  0.00000000E+00
  0.00000000E+00  0.00000000E+00  0.00000000E+00
  0.00000000E+00  0.00000000E+00  0.00000000E+00
  0.00000000E+00  0.00000000E+00  0.00000000E+00
  0.00000000E+00  0.00000000E+00  0.00000000E+00
  0.00000000E+00  0.00000000E+00  0.00000000E+00
  0.00000000E+00  0.00000000E+00  0.00000000E+00
  0.00000000E+00  0.00000000E+00  0.00000000E+00
