CeO2-you-111-you-Ta                     
   1.00000000000000     
     9.8662205681143238   -5.7033363587452612    0.0201248596265449
    -0.0000000022614761   11.4066707063026254   -0.0000000023869641
     0.0444283012517038   -0.0000000045765252   20.9288465998143813
   O    Ta   Ce   H 
    53     1    26     2
Selective dynamics
Direct
 -0.0002537425344091  0.0006077478895942  0.9945779147769569   T   T   T
  0.1195722157841033  0.2264526078931581  0.1518732189297154   F   F   F
  0.2231279367683228  0.1256167875323130  0.3072375707746402   T   T   T
  0.1300500288632601  0.2383462290134222  0.3852793882646859   T   T   T
  0.0005857081460221  0.0006673701078237  0.2290530337150717   T   T   T
  0.2196097231474923  0.1091775385838147  0.0735689260173658   F   F   F
  0.3344242611243502  0.0003246761423263  0.9948761765552964   T   T   T
  0.4378352996682722  0.2131758317583419  0.1479462028401386   F   F   F
  0.5533387301309894  0.1048639170569609  0.3090952649696193   T   T   T
  0.4293811095129066  0.2684452813802873  0.3841394803021019   T   T   T
  0.3288208245033590  0.9990829202387850  0.2300857333722879   T   T   T
  0.5558733775357680  0.1100558320978564  0.0749013405866918   F   F   F
  0.6691875124450787  0.0011332176254987  0.9952743912901548   T   T   T
  0.7746154362893307  0.2222509657070475  0.1510692502053672   F   F   F
  0.8933538831653394  0.1137035133231771  0.3055896193079078   T   T   T
  0.7848847207852646  0.2184618442826242  0.3891084154532323   T   T   T
  0.6682959397571034 -0.0000746302027140  0.2308755603293134   T   T   T
  0.8909126836428172  0.1121228418215878  0.0768981743127952   F   F   F
 -0.0002844317006704  0.3318645731273624  0.9944867564577364   T   T   T
  0.1110809972702569  0.5556587916950875  0.1497369398705786   F   F   F
  0.2142141808555975  0.4358053378955440  0.3038571963285583   T   T   T
  0.1125907865464834  0.5531893432792505  0.3864286117562164   T   T   T
 -0.0017783832504441  0.3318862026105105  0.2283378808628944   T   T   T
  0.2196097231471938  0.4437651845625865  0.0735689260174368   F   F   F
  0.3312246741975988  0.3323348884572638  0.9946742598744065   T   T   T
  0.4378352996730186  0.5579934679104568  0.1479462028398189   F   F   F
  0.4306027463235962  0.4991796557150317  0.3711874639814510   T   T   T
  0.3439055961737177  0.3426227443273145  0.2430219487615698   T   T   T
  0.5552667987777653  0.4442993993887896  0.0704987573632110   F   F   F
  0.6685314244484833  0.3318117716465042  0.9947608137573057   T   T   T
  0.7856608119402750  0.5594974059715838  0.1467351227056355   F   F   F
  0.8966639671378034  0.4459908220438987  0.3047648974756968   T   T   T
  0.7816365393331812  0.5570924775654558  0.3845124038220690   T   T   T
  0.6642419374966166  0.3353739931648846  0.2341373318967120   T   T   T
  0.8899266653268185  0.4431193275831973  0.0742981564280285   F   F   F
  0.0008602061428951  0.6672841337451696  0.9945790014064093   T   T   T
  0.1110809972711380  0.8887562055758949  0.1497369398705928   F   F   F
  0.2179460241923428  0.7726478341834236  0.3060274631951559   T   T   T
  0.0962778559436807  0.8852313194380591  0.3875811695983730   T   T   T
  0.9984793660475216  0.6666704581430744  0.2297464352415818   T   T   T
  0.2228536488028894  0.7780938244015374  0.0746975782798600   F   F   F
  0.3340883589279173  0.6674605220665303  0.9944604610414647   T   T   T
  0.4453350823903151  0.8893345411954812  0.1517012783760876   F   F   F
  0.5469703934132402  0.7765438476801415  0.3070875024673023   T   T   T
  0.4410455796281867  0.8738709259255317  0.3903375339856368   T   T   T
  0.3289000386044332  0.6633609246418872  0.2314773986767311   T   T   T
  0.5558733775363081  0.7791505454383554  0.0749013405867132   F   F   F
  0.6683254723217682  0.6694796059604509  0.9949242276349967   T   T   T
  0.7746154362902473  0.8856974705822935  0.1510692502052962   F   F   F
  0.8937856125317823  0.7834412817075730  0.3041101487817134   T   T   T
  0.7817939604430277  0.8996278812385510  0.3878059985774913   T   T   T
  0.6636442934501307  0.6621558122711692  0.2338450766770232   T   T   T
  0.8899266653277635  0.7801403377444416  0.0742981564280711   F   F   F
  0.2962605633714886  0.3256271706299396  0.3352188907025138   T   T   T
 -0.0025030435045816  0.9968280705755898  0.3445795969526341   T   T   T
  0.2207910529570114  0.1080212035955483  0.1889728906204127   F   F   F
  0.1118733982396165  0.2226031991202291  0.0341811058354793   F   F   F
  0.3262324491252985  0.9931526077056344  0.3480270513671663   T   T   T
  0.5551931158913135  0.1122320842645337  0.1917982499009767   F   F   F
  0.4441076437658893  0.2204668592048051  0.0340154899937772   F   F   F
  0.6630606126886560  0.9969118775976690  0.3463714937180710   T   T   T
  0.8883583548906344  0.1108456774451980  0.1900036960390636   F   F   F
  0.7781535209242350  0.2223738427582020  0.0352151218287275   F   F   F
 -0.0044970841572490  0.3334925069701097  0.3453616771589552   T   T   T
  0.2207910529622907  0.4461028493636263  0.1889728906199508   F   F   F
  0.1109292053268405  0.5548866654756068  0.0343753091413319   F   F   F
  0.5566500722356338  0.4449910361185729  0.1836923096722316   F   F   F
  0.4441076437641343  0.5569747845605875  0.0340154899939407   F   F   F
  0.6778180258914126  0.3303659392952680  0.3486649779819555   T   T   T
  0.8865835885693514  0.4439592947514441  0.1903496860203120   F   F   F
  0.7794002773947710  0.5563671386970555  0.0339353857144786   F   F   F
 -0.0037198154799333  0.6671352174317746  0.3453161882567651   T   T   T
  0.2208870800506020  0.7771105400246014  0.1884809747725740   F   F   F
  0.1109292053267623  0.8893765398509075  0.0343753091414385   F   F   F
  0.3279997246581643  0.6681623872330810  0.3444653065471066   T   T   T
  0.5551931158904537  0.7762940316259090  0.1917982499011117   F   F   F
  0.4463616822593792  0.8898478411298072  0.0357166191877596   F   F   F
  0.6715728829981005  0.6754750039717433  0.3500114423398817   T   T   T
  0.8865835885657987  0.7759572938165675  0.1903496860204967   F   F   F
  0.7781535209229133  0.8891126781652545  0.0352151218287702   F   F   F
  0.2866483143707302  0.3556791012761361  0.4984890472995385   T   T   T
  0.4567632184207454  0.3298025280780688  0.4207508989564687   T   T   T
 
  0.00000000E+00  0.00000000E+00  0.00000000E+00
  0.00000000E+00  0.00000000E+00  0.00000000E+00
  0.00000000E+00  0.00000000E+00  0.00000000E+00
  0.00000000E+00  0.00000000E+00  0.00000000E+00
  0.00000000E+00  0.00000000E+00  0.00000000E+00
  0.00000000E+00  0.00000000E+00  0.00000000E+00
  0.00000000E+00  0.00000000E+00  0.00000000E+00
  0.00000000E+00  0.00000000E+00  0.00000000E+00
  0.00000000E+00  0.00000000E+00  0.00000000E+00
  0.00000000E+00  0.00000000E+00  0.00000000E+00
  0.00000000E+00  0.00000000E+00  0.00000000E+00
  0.00000000E+00  0.00000000E+00  0.00000000E+00
  0.00000000E+00  0.00000000E+00  0.00000000E+00
  0.00000000E+00  0.00000000E+00  0.00000000E+00
  0.00000000E+00  0.00000000E+00  0.00000000E+00
  0.00000000E+00  0.00000000E+00  0.00000000E+00
  0.00000000E+00  0.00000000E+00  0.00000000E+00
  0.00000000E+00  0.00000000E+00  0.00000000E+00
  0.00000000E+00  0.00000000E+00  0.00000000E+00
  0.00000000E+00  0.00000000E+00  0.00000000E+00
  0.00000000E+00  0.00000000E+00  0.00000000E+00
  0.00000000E+00  0.00000000E+00  0.00000000E+00
  0.00000000E+00  0.00000000E+00  0.00000000E+00
  0.00000000E+00  0.00000000E+00  0.00000000E+00
  0.00000000E+00  0.00000000E+00  0.00000000E+00
  0.00000000E+00  0.00000000E+00  0.00000000E+00
  0.00000000E+00  0.00000000E+00  0.00000000E+00
  0.00000000E+00  0.00000000E+00  0.00000000E+00
  0.00000000E+00  0.00000000E+00  0.00000000E+00
  0.00000000E+00  0.00000000E+00  0.00000000E+00
  0.00000000E+00  0.00000000E+00  0.00000000E+00
  0.00000000E+00  0.00000000E+00  0.00000000E+00
  0.00000000E+00  0.00000000E+00  0.00000000E+00
  0.00000000E+00  0.00000000E+00  0.00000000E+00
  0.00000000E+00  0.00000000E+00  0.00000000E+00
  0.00000000E+00  0.00000000E+00  0.00000000E+00
  0.00000000E+00  0.00000000E+00  0.00000000E+00
  0.00000000E+00  0.00000000E+00  0.00000000E+00
  0.00000000E+00  0.00000000E+00  0.00000000E+00
  0.00000000E+00  0.00000000E+00  0.00000000E+00
  0.00000000E+00  0.00000000E+00  0.00000000E+00
  0.00000000E+00  0.00000000E+00  0.00000000E+00
  0.00000000E+00  0.00000000E+00  0.00000000E+00
  0.00000000E+00  0.00000000E+00  0.00000000E+00
  0.00000000E+00  0.00000000E+00  0.00000000E+00
  0.00000000E+00  0.00000000E+00  0.00000000E+00
  0.00000000E+00  0.00000000E+00  0.00000000E+00
  0.00000000E+00  0.00000000E+00  0.00000000E+00
  0.00000000E+00  0.00000000E+00  0.00000000E+00
  0.00000000E+00  0.00000000E+00  0.00000000E+00
  0.00000000E+00  0.00000000E+00  0.00000000E+00
  0.00000000E+00  0.00000000E+00  0.00000000E+00
  0.00000000E+00  0.00000000E+00  0.00000000E+00
  0.00000000E+00  0.00000000E+00  0.00000000E+00
  0.00000000E+00  0.00000000E+00  0.00000000E+00
  0.00000000E+00  0.00000000E+00  0.00000000E+00
  0.00000000E+00  0.00000000E+00  0.00000000E+00
  0.00000000E+00  0.00000000E+00  0.00000000E+00
  0.00000000E+00  0.00000000E+00  0.00000000E+00
  0.00000000E+00  0.00000000E+00  0.00000000E+00
  0.00000000E+00  0.00000000E+00  0.00000000E+00
  0.00000000E+00  0.00000000E+00  0.00000000E+00
  0.00000000E+00  0.00000000E+00  0.00000000E+00
  0.00000000E+00  0.00000000E+00  0.00000000E+00
  0.00000000E+00  0.00000000E+00  0.00000000E+00
  0.00000000E+00  0.00000000E+00  0.00000000E+00
  0.00000000E+00  0.00000000E+00  0.00000000E+00
  0.00000000E+00  0.00000000E+00  0.00000000E+00
  0.00000000E+00  0.00000000E+00  0.00000000E+00
  0.00000000E+00  0.00000000E+00  0.00000000E+00
  0.00000000E+00  0.00000000E+00  0.00000000E+00
  0.00000000E+00  0.00000000E+00  0.00000000E+00
  0.00000000E+00  0.00000000E+00  0.00000000E+00
  0.00000000E+00  0.00000000E+00  0.00000000E+00
  0.00000000E+00  0.00000000E+00  0.00000000E+00
  0.00000000E+00  0.00000000E+00  0.00000000E+00
  0.00000000E+00  0.00000000E+00  0.00000000E+00
  0.00000000E+00  0.00000000E+00  0.00000000E+00
  0.00000000E+00  0.00000000E+00  0.00000000E+00
  0.00000000E+00  0.00000000E+00  0.00000000E+00
  0.00000000E+00  0.00000000E+00  0.00000000E+00
  0.00000000E+00  0.00000000E+00  0.00000000E+00
