CeO2-you-111-you-Ge                     
   1.00000000000000     
     9.8233258828218819   -5.7075249809975750    0.0115347736723436
     0.0000000025714390   11.4150479576102359   -0.0000000013589545
     0.0244457074969504   -0.0000000024876137   21.1104524559867635
   O    Ge   Ce   H 
    53     1    26     1
Selective dynamics
Direct
  0.9999337085441745  0.0004781395995170  0.9953971479908061   T   T   T
  0.1115220567768324  0.2225074530848692  0.1492307894459687   T   T   T
  0.2286151078882124  0.1227547187345939  0.3057988034489171   T   T   T
  0.1085032550181277  0.2196818880519242  0.3862096933988086   T   T   T
  0.0029085025977766  0.0018394772814393  0.2285881220632440   T   T   T
  0.2216996085405068  0.1108432251246352  0.0744255531459648   T   T   T
  0.3332046044493663 -0.0001242475390298  0.9949795297751814   T   T   T
  0.4465969953471256  0.2186487958871669  0.1456197900127078   T   T   T
  0.5502960794506769  0.1068361135394286  0.3034706744048335   T   T   T
  0.4555188635663470  0.1848952080957617  0.4077775255961816   T   T   T
  0.3299284211091246 -0.0006060957930795  0.2287954707211136   T   T   T
  0.5563001884109821  0.1089915051197866  0.0740121366658471   T   T   T
  0.6686386604992881  0.0012558582478542  0.9947807477583357   T   T   T
  0.7765162259599436  0.2266887292898781  0.1512567739971550   T   T   T
  0.8914525745887292  0.1118807783390363  0.3025613919567127   T   T   T
  0.7853439757582762  0.2182821944416091  0.3847465084876332   T   T   T
  0.6686591812048495  0.0051466442044948  0.2277522505586825   T   T   T
  0.8863571224850879  0.1091513303115500  0.0764992186497622   T   T   T
  0.9990372565961921  0.3315326076819740  0.9958863842515004   T   T   T
  0.1098255558181424  0.5554608103609338  0.1499093737647150   T   T   T
  0.2269499510727862  0.4319228045699773  0.3055300982667161   T   T   T
  0.1125466390784627  0.5552468121730033  0.3819571525756201   T   T   T
  0.0022487338216030  0.3345724526666953  0.2288755575801963   T   T   T
  0.2221550095839137  0.4448971662452729  0.0744537102860826   T   T   T
  0.3311277299041339  0.3324024928857390  0.9947577375290760   T   T   T
  0.4478683029925973  0.5612021944335975  0.1455402817920457   T   T   T
  0.4681225384412491  0.5963642697179443  0.3879299500864301   T   T   T
  0.3441517402965993  0.3381879434444917  0.2217987051228845   T   T   T
  0.5552186477673385  0.4440446707697912  0.0710823879060030   T   T   T
  0.6671004700781479  0.3325697820801951  0.9945873524757126   T   T   T
  0.7798725989879185  0.5579259847123833  0.1465353052768587   T   T   T
  0.8941004636853065  0.4463549021345857  0.3036296381446465   T   T   T
  0.7696540676483242  0.5619220938676546  0.3789572407913097   T   T   T
  0.6574565913840724  0.3419870956234626  0.2328775084915203   T   T   T
  0.8889351324296237  0.4446765599372140  0.0742586370418999   T   T   T
  0.0005311231104282  0.6676359496190316  0.9952864778122503   T   T   T
  0.1097208689378030  0.8875250270659765  0.1493953744873329   T   T   T
  0.2211325836839801  0.7749270879603124  0.3025241840487615   T   T   T
  0.1120299724460520  0.8871985350285357  0.3815754020981239   T   T   T
  0.9975784313337994  0.6667307183761531  0.2291888191385252   T   T   T
  0.2229791157510499  0.7777909388864609  0.0748631783807770   T   T   T
  0.3326466172121793  0.6665760557592689  0.9947779259055679   T   T   T
  0.4443951848156640  0.8881429159534059  0.1508030127274126   T   T   T
  0.5627063836674052  0.7884266073676197  0.3000300049028410   T   T   T
  0.4432699937812120  0.8856774063564177  0.3820736900410296   T   T   T
  0.3321898511548928  0.6615415884240149  0.2297201216595182   T   T   T
  0.5565588018713755  0.7805478745462920  0.0736807864836340   T   T   T
  0.6673666526460201  0.6686958858723764  0.9945937049571599   T   T   T
  0.7752413771784162  0.8826457700760547  0.1524612107207290   T   T   T
  0.8916165836594283  0.7839942069025281  0.3031180071726434   T   T   T
  0.7825710771846026  0.8966604710858382  0.3846637871089630   T   T   T
  0.6552053189606148  0.6444801051511532  0.2360755545215576   T   T   T
  0.8890341845664870  0.7792947347589830  0.0742593634054620   T   T   T
  0.2888540563059740  0.3121058256717488  0.3466399098290847   T   T   T
  0.0033020541655506  0.0027654507037664  0.3421906953280218   T   T   T
  0.2248204343139465  0.1139782807530268  0.1893147094908226   T   T   T
  0.1110389068746781  0.2220847390859269  0.0352717844706067   T   T   T
  0.3300967746490314 -0.0084665565708498  0.3428120715817481   T   T   T
  0.5547475001630038  0.1124729932913459  0.1904447045597829   T   T   T
  0.4438525683413181  0.2200278856433476  0.0328834784597249   T   T   T
  0.6675439206155590  0.0031845533099044  0.3427665282416510   T   T   T
  0.8894982222197225  0.1122365317709446  0.1897378013946361   T   T   T
  0.7776378125128219  0.2222464682600938  0.0353379300510992   T   T   T
  0.0022677824458621  0.3348866721662113  0.3429744770963295   T   T   T
  0.2251713217389094  0.4432490848251587  0.1893860547883028   T   T   T
  0.1108401770780531  0.5551573815561079  0.0359633726796973   T   T   T
  0.5544474988788317  0.4434743869265265  0.1805561313456482   T   T   T
  0.4437487333722194  0.5570928429529900  0.0329098763199537   T   T   T
  0.6710799498490306  0.3287109845043729  0.3504144678495820   T   T   T
  0.8874086404178361  0.4448421029594964  0.1904640214242826   T   T   T
  0.7800978970962127  0.5571107752927092  0.0332717256334807   T   T   T
  0.9984846940234936  0.6654404953529393  0.3419716127538623   T   T   T
  0.2217532043608219  0.7767349414961474  0.1888975711577291   T   T   T
  0.1108691031434287  0.8893538410186714  0.0358638560786515   T   T   T
  0.3380738030336279  0.6655151504125379  0.3443510776144634   T   T   T
  0.5546838899415543  0.7769731355192215  0.1897582954556738   T   T   T
  0.4456158204167520  0.8895281397630006  0.0351491053973214   T   T   T
  0.6714399599385352  0.6835421601974114  0.3481435190016415   T   T   T
  0.8880326839766202  0.7768020878346360  0.1901761135042948   T   T   T
  0.7779175562017506  0.8892271344424685  0.0349774558879420   T   T   T
  0.4225763501816034  0.2123842723433358  0.4441458975707306   T   T   T
 
  0.00000000E+00  0.00000000E+00  0.00000000E+00
  0.00000000E+00  0.00000000E+00  0.00000000E+00
  0.00000000E+00  0.00000000E+00  0.00000000E+00
  0.00000000E+00  0.00000000E+00  0.00000000E+00
  0.00000000E+00  0.00000000E+00  0.00000000E+00
  0.00000000E+00  0.00000000E+00  0.00000000E+00
  0.00000000E+00  0.00000000E+00  0.00000000E+00
  0.00000000E+00  0.00000000E+00  0.00000000E+00
  0.00000000E+00  0.00000000E+00  0.00000000E+00
  0.00000000E+00  0.00000000E+00  0.00000000E+00
  0.00000000E+00  0.00000000E+00  0.00000000E+00
  0.00000000E+00  0.00000000E+00  0.00000000E+00
  0.00000000E+00  0.00000000E+00  0.00000000E+00
  0.00000000E+00  0.00000000E+00  0.00000000E+00
  0.00000000E+00  0.00000000E+00  0.00000000E+00
  0.00000000E+00  0.00000000E+00  0.00000000E+00
  0.00000000E+00  0.00000000E+00  0.00000000E+00
  0.00000000E+00  0.00000000E+00  0.00000000E+00
  0.00000000E+00  0.00000000E+00  0.00000000E+00
  0.00000000E+00  0.00000000E+00  0.00000000E+00
  0.00000000E+00  0.00000000E+00  0.00000000E+00
  0.00000000E+00  0.00000000E+00  0.00000000E+00
  0.00000000E+00  0.00000000E+00  0.00000000E+00
  0.00000000E+00  0.00000000E+00  0.00000000E+00
  0.00000000E+00  0.00000000E+00  0.00000000E+00
  0.00000000E+00  0.00000000E+00  0.00000000E+00
  0.00000000E+00  0.00000000E+00  0.00000000E+00
  0.00000000E+00  0.00000000E+00  0.00000000E+00
  0.00000000E+00  0.00000000E+00  0.00000000E+00
  0.00000000E+00  0.00000000E+00  0.00000000E+00
  0.00000000E+00  0.00000000E+00  0.00000000E+00
  0.00000000E+00  0.00000000E+00  0.00000000E+00
  0.00000000E+00  0.00000000E+00  0.00000000E+00
  0.00000000E+00  0.00000000E+00  0.00000000E+00
  0.00000000E+00  0.00000000E+00  0.00000000E+00
  0.00000000E+00  0.00000000E+00  0.00000000E+00
  0.00000000E+00  0.00000000E+00  0.00000000E+00
  0.00000000E+00  0.00000000E+00  0.00000000E+00
  0.00000000E+00  0.00000000E+00  0.00000000E+00
  0.00000000E+00  0.00000000E+00  0.00000000E+00
  0.00000000E+00  0.00000000E+00  0.00000000E+00
  0.00000000E+00  0.00000000E+00  0.00000000E+00
  0.00000000E+00  0.00000000E+00  0.00000000E+00
  0.00000000E+00  0.00000000E+00  0.00000000E+00
  0.00000000E+00  0.00000000E+00  0.00000000E+00
  0.00000000E+00  0.00000000E+00  0.00000000E+00
  0.00000000E+00  0.00000000E+00  0.00000000E+00
  0.00000000E+00  0.00000000E+00  0.00000000E+00
  0.00000000E+00  0.00000000E+00  0.00000000E+00
  0.00000000E+00  0.00000000E+00  0.00000000E+00
  0.00000000E+00  0.00000000E+00  0.00000000E+00
  0.00000000E+00  0.00000000E+00  0.00000000E+00
  0.00000000E+00  0.00000000E+00  0.00000000E+00
  0.00000000E+00  0.00000000E+00  0.00000000E+00
  0.00000000E+00  0.00000000E+00  0.00000000E+00
  0.00000000E+00  0.00000000E+00  0.00000000E+00
  0.00000000E+00  0.00000000E+00  0.00000000E+00
  0.00000000E+00  0.00000000E+00  0.00000000E+00
  0.00000000E+00  0.00000000E+00  0.00000000E+00
  0.00000000E+00  0.00000000E+00  0.00000000E+00
  0.00000000E+00  0.00000000E+00  0.00000000E+00
  0.00000000E+00  0.00000000E+00  0.00000000E+00
  0.00000000E+00  0.00000000E+00  0.00000000E+00
  0.00000000E+00  0.00000000E+00  0.00000000E+00
  0.00000000E+00  0.00000000E+00  0.00000000E+00
  0.00000000E+00  0.00000000E+00  0.00000000E+00
  0.00000000E+00  0.00000000E+00  0.00000000E+00
  0.00000000E+00  0.00000000E+00  0.00000000E+00
  0.00000000E+00  0.00000000E+00  0.00000000E+00
  0.00000000E+00  0.00000000E+00  0.00000000E+00
  0.00000000E+00  0.00000000E+00  0.00000000E+00
  0.00000000E+00  0.00000000E+00  0.00000000E+00
  0.00000000E+00  0.00000000E+00  0.00000000E+00
  0.00000000E+00  0.00000000E+00  0.00000000E+00
  0.00000000E+00  0.00000000E+00  0.00000000E+00
  0.00000000E+00  0.00000000E+00  0.00000000E+00
  0.00000000E+00  0.00000000E+00  0.00000000E+00
  0.00000000E+00  0.00000000E+00  0.00000000E+00
  0.00000000E+00  0.00000000E+00  0.00000000E+00
  0.00000000E+00  0.00000000E+00  0.00000000E+00
  0.00000000E+00  0.00000000E+00  0.00000000E+00
