CeO2-you-111-you-Pb                     
   1.00000000000000     
     9.9242270653546534   -5.7297555420333461   -0.0000000010483693
    -0.0432214523086127   11.3846473208958159   -0.0200885188359178
    -0.0214260846419974   -0.0371110609377293   21.1772514930615543
   O    Pb   Ce   H 
    53     1    26     1
Selective dynamics
Direct
  0.0000978538759319  0.0000823926841931  0.9959115448700416   T   T   T
  0.1091523949089393  0.2209870394517545  0.1496502260325751   T   T   T
  0.2222721489749877  0.1186358551389576  0.3051388216191438   T   T   T
  0.0829737873326478  0.2122247345611659  0.3870441577206667   T   T   T
  0.0007115235026799  0.0001624211934929  0.2285199973783025   T   T   T
  0.2233900132555252  0.1129431548127048  0.0749586021333467   T   T   T
  0.3334335527122231  0.0005927774473703  0.9959155029916319   T   T   T
  0.4461967839235914  0.2228977684766148  0.1499391255522907   T   T   T
  0.5605458851076217  0.1178819984700730  0.3033982883276155   T   T   T
  0.4712267598790956  0.2195746350239109  0.4055229838998876   T   T   T
  0.3321027299065009  0.0008014068064781  0.2269488767017801   T   T   T
  0.5558328474495050  0.1112961655009990  0.0751052806503346   T   T   T
  0.6665744864412234 -0.0000443506573994  0.9958930066637858   T   T   T
  0.7758265894954870  0.2177612707974756  0.1511657677928631   T   T   T
  0.8831242132048646  0.1086337467665781  0.3006726215939399   T   T   T
  0.7786929067195383  0.2212685827294971  0.3821283472236981   T   T   T
  0.6575665162125625  0.9876189550051911  0.2318070940248659   T   T   T
  0.8888813101624902  0.1109889227263673  0.0745855353291694   T   T   T
  0.0002854224973249  0.3330342571994712  0.9963095371751964   T   T   T
  0.1117624481140257  0.5554407200431466  0.1485318247572605   T   T   T
  0.2228986913230876  0.4527876481116569  0.3048287722976666   T   T   T
  0.1109795822357244  0.5612556383596845  0.3842475971760782   T   T   T
  0.0012699381711343  0.3338169019560772  0.2286743819702237   T   T   T
  0.2229441490353280  0.4441015498274929  0.0752707481972716   T   T   T
  0.3336649125199581  0.3336776810350284  0.9959254833794470   T   T   T
  0.4449817008647890  0.5566990308708811  0.1494287830587377   T   T   T
  0.5646067404733861  0.4498393692075195  0.3059629932896441   T   T   T
  0.3345603170581039  0.3370319114902270  0.2262672125116942   T   T   T
  0.5551809681975913  0.4448446774038224  0.0752008613378785   T   T   T
  0.6667643768217326  0.3331737797941667  0.9966596694397080   T   T   T
  0.7772937035841962  0.5545991820051166  0.1483935904506769   T   T   T
  0.8912288915650604  0.4461816173049449  0.3032027387908365   T   T   T
  0.7842879090600752  0.5591823175429870  0.3838041969460655   T   T   T
  0.6689200851539404  0.3355775505641833  0.2283633481241010   T   T   T
  0.8884477024856101  0.4422455894267114  0.0754077758423030   T   T   T
  0.9993522103887016  0.6651881223513353  0.9963465448054629   T   T   T
  0.1106667666458527  0.8902070452450848  0.1474082579160660   T   T   T
  0.2170168217335854  0.7760718574999318  0.3013472791838516   T   T   T
  0.0967792387708214  0.8833694484347157  0.3842698193684492   T   T   T
 -0.0003519839930868  0.6670693047201923  0.2263390593702699   T   T   T
  0.2219804587942539  0.7786220546283504  0.0740259658726712   T   T   T
  0.3330797015250915  0.6661393182377853  0.9965473161548648   T   T   T
  0.4444059606557451  0.8887327783286024  0.1481464510760510   T   T   T
  0.5413314050035236  0.7462617785480539  0.3118188625222320   T   T   T
  0.4488502292715102  0.8821724528238049  0.3817437493462411   T   T   T
  0.3332442916106936  0.6713428919928112  0.2274165998784855   T   T   T
  0.5558876669604045  0.7781213218175687  0.0748165385884915   T   T   T
  0.6662779196568910  0.6662313520269006  0.9959274970465349   T   T   T
  0.7776749510064181  0.8894809100521033  0.1483606684375202   T   T   T
  0.8907343669516089  0.7770316915907611  0.3000533301555676   T   T   T
  0.7780038278832578  0.8871484958380794  0.3796545273265906   T   T   T
  0.6701985508048243  0.6700297071771142  0.2271854469751582   T   T   T
  0.8886819666460782  0.7777902680744453  0.0736859704814758   T   T   T
  0.3200440785653841  0.3285465229673875  0.3493478454421024   T   T   T
  0.0000719189650482  0.0033860244552998  0.3426176727069480   T   T   T
  0.2237027427619357  0.1142826419043319  0.1901392122790004   T   T   T
  0.1113280001502867  0.2220871086670260  0.0359794451240389   T   T   T
  0.3311049488470533  0.0006935036235291  0.3459466325618480   T   T   T
  0.5536850795837223  0.1100003826853402  0.1902077742043466   T   T   T
  0.4444724622908444  0.2223608671130943  0.0362003079019703   T   T   T
  0.6644307868167555  0.9971731351358457  0.3428865324796700   T   T   T
  0.8884948163454898  0.1098517159409176  0.1892993322480271   T   T   T
  0.7772445873276547  0.2208400731510775  0.0362088905003101   T   T   T
  0.9981037321906623  0.3314844797863462  0.3430126459457620   T   T   T
  0.2224434305164052  0.4438749926355059  0.1895552974125668   T   T   T
  0.1108681136046507  0.5543755766136963  0.0355685274937608   T   T   T
  0.5546204994633642  0.4436518363964108  0.1901523386578127   T   T   T
  0.4442157276196483  0.5546921949991483  0.0354609449989150   T   T   T
  0.6760409475432642  0.3373021329947747  0.3413656742965507   T   T   T
  0.8898831570298095  0.4447891616655557  0.1883749108994183   T   T   T
  0.7769538533567867  0.5542423763824025  0.0355535394734993   T   T   T
  0.0014001736433345  0.6696026825422565  0.3435411723403182   T   T   T
  0.2210752800449000  0.7798871023234082  0.1866273680086240   T   T   T
  0.1113797883146318  0.8895668496293867  0.0346486871790499   T   T   T
  0.3207860570880901  0.6726675611852215  0.3379006612877405   T   T   T
  0.5536752549165472  0.7752423608220148  0.1875978034561087   T   T   T
  0.4444140683792970  0.8890845145390545  0.0354385283660739   T   T   T
  0.6843037981823623  0.6708112777866734  0.3369969870321587   T   T   T
  0.8910085969813393  0.7787384415770446  0.1860901811808240   T   T   T
  0.7774534840619775  0.8886249080569214  0.0350036140797078   T   T   T
  0.4664544228660999  0.2337958759541447  0.4504852926862571   T   T   T
 
  0.00000000E+00  0.00000000E+00  0.00000000E+00
  0.00000000E+00  0.00000000E+00  0.00000000E+00
  0.00000000E+00  0.00000000E+00  0.00000000E+00
  0.00000000E+00  0.00000000E+00  0.00000000E+00
  0.00000000E+00  0.00000000E+00  0.00000000E+00
  0.00000000E+00  0.00000000E+00  0.00000000E+00
  0.00000000E+00  0.00000000E+00  0.00000000E+00
  0.00000000E+00  0.00000000E+00  0.00000000E+00
  0.00000000E+00  0.00000000E+00  0.00000000E+00
  0.00000000E+00  0.00000000E+00  0.00000000E+00
  0.00000000E+00  0.00000000E+00  0.00000000E+00
  0.00000000E+00  0.00000000E+00  0.00000000E+00
  0.00000000E+00  0.00000000E+00  0.00000000E+00
  0.00000000E+00  0.00000000E+00  0.00000000E+00
  0.00000000E+00  0.00000000E+00  0.00000000E+00
  0.00000000E+00  0.00000000E+00  0.00000000E+00
  0.00000000E+00  0.00000000E+00  0.00000000E+00
  0.00000000E+00  0.00000000E+00  0.00000000E+00
  0.00000000E+00  0.00000000E+00  0.00000000E+00
  0.00000000E+00  0.00000000E+00  0.00000000E+00
  0.00000000E+00  0.00000000E+00  0.00000000E+00
  0.00000000E+00  0.00000000E+00  0.00000000E+00
  0.00000000E+00  0.00000000E+00  0.00000000E+00
  0.00000000E+00  0.00000000E+00  0.00000000E+00
  0.00000000E+00  0.00000000E+00  0.00000000E+00
  0.00000000E+00  0.00000000E+00  0.00000000E+00
  0.00000000E+00  0.00000000E+00  0.00000000E+00
  0.00000000E+00  0.00000000E+00  0.00000000E+00
  0.00000000E+00  0.00000000E+00  0.00000000E+00
  0.00000000E+00  0.00000000E+00  0.00000000E+00
  0.00000000E+00  0.00000000E+00  0.00000000E+00
  0.00000000E+00  0.00000000E+00  0.00000000E+00
  0.00000000E+00  0.00000000E+00  0.00000000E+00
  0.00000000E+00  0.00000000E+00  0.00000000E+00
  0.00000000E+00  0.00000000E+00  0.00000000E+00
  0.00000000E+00  0.00000000E+00  0.00000000E+00
  0.00000000E+00  0.00000000E+00  0.00000000E+00
  0.00000000E+00  0.00000000E+00  0.00000000E+00
  0.00000000E+00  0.00000000E+00  0.00000000E+00
  0.00000000E+00  0.00000000E+00  0.00000000E+00
  0.00000000E+00  0.00000000E+00  0.00000000E+00
  0.00000000E+00  0.00000000E+00  0.00000000E+00
  0.00000000E+00  0.00000000E+00  0.00000000E+00
  0.00000000E+00  0.00000000E+00  0.00000000E+00
  0.00000000E+00  0.00000000E+00  0.00000000E+00
  0.00000000E+00  0.00000000E+00  0.00000000E+00
  0.00000000E+00  0.00000000E+00  0.00000000E+00
  0.00000000E+00  0.00000000E+00  0.00000000E+00
  0.00000000E+00  0.00000000E+00  0.00000000E+00
  0.00000000E+00  0.00000000E+00  0.00000000E+00
  0.00000000E+00  0.00000000E+00  0.00000000E+00
  0.00000000E+00  0.00000000E+00  0.00000000E+00
  0.00000000E+00  0.00000000E+00  0.00000000E+00
  0.00000000E+00  0.00000000E+00  0.00000000E+00
  0.00000000E+00  0.00000000E+00  0.00000000E+00
  0.00000000E+00  0.00000000E+00  0.00000000E+00
  0.00000000E+00  0.00000000E+00  0.00000000E+00
  0.00000000E+00  0.00000000E+00  0.00000000E+00
  0.00000000E+00  0.00000000E+00  0.00000000E+00
  0.00000000E+00  0.00000000E+00  0.00000000E+00
  0.00000000E+00  0.00000000E+00  0.00000000E+00
  0.00000000E+00  0.00000000E+00  0.00000000E+00
  0.00000000E+00  0.00000000E+00  0.00000000E+00
  0.00000000E+00  0.00000000E+00  0.00000000E+00
  0.00000000E+00  0.00000000E+00  0.00000000E+00
  0.00000000E+00  0.00000000E+00  0.00000000E+00
  0.00000000E+00  0.00000000E+00  0.00000000E+00
  0.00000000E+00  0.00000000E+00  0.00000000E+00
  0.00000000E+00  0.00000000E+00  0.00000000E+00
  0.00000000E+00  0.00000000E+00  0.00000000E+00
  0.00000000E+00  0.00000000E+00  0.00000000E+00
  0.00000000E+00  0.00000000E+00  0.00000000E+00
  0.00000000E+00  0.00000000E+00  0.00000000E+00
  0.00000000E+00  0.00000000E+00  0.00000000E+00
  0.00000000E+00  0.00000000E+00  0.00000000E+00
  0.00000000E+00  0.00000000E+00  0.00000000E+00
  0.00000000E+00  0.00000000E+00  0.00000000E+00
  0.00000000E+00  0.00000000E+00  0.00000000E+00
  0.00000000E+00  0.00000000E+00  0.00000000E+00
  0.00000000E+00  0.00000000E+00  0.00000000E+00
  0.00000000E+00  0.00000000E+00  0.00000000E+00
