CeO2-you-111-you-Hf                     
   1.00000000000000     
     9.8275325578233925   -5.6739289345181376    0.0000000009305697
     0.0379791903897464   11.4136377551919406    0.0177497162897079
     0.0193671628769887    0.0335449044223166   20.6701582249474498
   O    Hf   Ce H
    53     1    26 2
Selective dynamics
Direct
 -0.0009492986696067 -0.0002097085337602  0.9923117719729964   T   T   T
  0.1111634977537052  0.2227062037143824  0.1478602308618695   F   F   F
  0.2201280854604177  0.1069231709246734  0.3001777022627461   T   T   T
  0.1274752380215918  0.2205256202518835  0.3816763583445105   T   T   T
 -0.0016713587418377 -0.0013128042532111  0.2283890812365383   T   T   T
  0.2216829450464020  0.1100328900930339  0.0711591743756427   F   F   F
  0.3340725901358153 -0.0002097085338626  0.9923117719729464   T   T   T
  0.4448757059605651  0.2227062037144351  0.1478602308619736   F   F   F
  0.5566182765298603  0.1159894203271465  0.3060971215732314   T   T   T
  0.4263833822315304  0.2205256202569811  0.3816763583449234   T   T   T
  0.3336915544888076 -0.0013128042530715  0.2283890812366391   T   T   T
  0.5571129673835350  0.1118036641702586  0.0733595382056658   F   F   F
  0.6664845567527908 -0.0003648864942828  0.9929692358426575   T   T   T
  0.7791858284771717  0.2250376569542468  0.1520597922051510   F   F   F
  0.8927051437967864  0.1159894203270478  0.3060971215732425   T   T   T
  0.7793498571214980  0.2253657142434305  0.3870578597430692   T   T   T
  0.6670826620127959  0.0008313240255895  0.2314262723360776   T   T   T
  0.8880246967867803  0.1118036641703404  0.0733595382056488   F   F   F
  0.0002933214584622  0.3333551540219279  0.9926394242269238   T   T   T
  0.1100564610898168  0.5539398975767763  0.1487765856881140   F   F   F
  0.2507952794818329  0.4445462136451884  0.3149352534908345   T   T   T
  0.0974343103927014  0.5455060751559154  0.3876380446335504   T   T   T
  0.0108190620612191  0.3387626564574269  0.2330687107673994   T   T   T
  0.2232182223993535  0.4451114249294374  0.0736165832340544   F   F   F
  0.3335075742992982  0.3336821485987516  0.9926683432019577   T   T   T
  0.4441196755654873  0.5549073511309448  0.1509508957757154   F   F   F
  0.5270849341668117  0.4445462136517893  0.3149352534914181   T   T   T
  0.3283384305173515  0.3233438610353268  0.2294384501521256   T   T   T
  0.5552272025300136  0.4451114249294351  0.0736165832340690   F   F   F
  0.6663958325634201  0.3333551540218837  0.9926394242269249   T   T   T
  0.7772164364872776  0.5539398975769000  0.1487765856881324   F   F   F
  0.8868807663536382  0.4404275327069865  0.3038043138565050   T   T   T
  0.7814047647630437  0.5455060751553369  0.3876380446333335   T   T   T
  0.6612775943960931  0.3387626564576417  0.2330687107673134   T   T   T
  0.8884099439184286  0.4434858878367647  0.0728580239481215   F   F   F
 -0.0001355850041816  0.6663958299917898  0.9923467250228188   T   T   T
  0.1102405492345790  0.8871480984687653  0.1469288435589641   F   F   F
  0.2182079026887399  0.7799027312044527  0.3055669670114418   T   T   T
  0.1119697698042509  0.8906065396085031  0.3882272626912770   T   T   T
 -0.0005537448710241  0.6655595102576568  0.2290862170472128   T   T   T
  0.2227764055904833  0.7772260236526349  0.0726567350650594   F   F   F
  0.3336883639383656  0.6665266511426969  0.9926218779935344   T   T   T
  0.4465416059095267  0.8902802620173724  0.1495931715375620   F   F   F
  0.5560973141893621  0.7788606283779770  0.3094762989356691   T   T   T
  0.4498015911761509  0.9045419410533547  0.3899732263811168   T   T   T
  0.3305564193922326  0.6657659370414134  0.2287932391184478   T   T   T
  0.5548831200795403  0.7764322401590371  0.0740297142439848   F   F   F
  0.6661712872041836  0.6665266511427042  0.9926218779935130   T   T   T
  0.7770716561078926  0.8902802620174960  0.1495931715375090   F   F   F
  0.8950278285166776  0.7799027312049185  0.3055669670113757   T   T   T
  0.7880733498779700  0.9045419410535408  0.3899732263811271   T   T   T
  0.6685425176494100  0.6657659370417691  0.2287932391184785   T   T   T
  0.8877826180621802  0.7772260236526971  0.0726567350650512   F   F   F
  0.3178984246142912  0.3024638492237102  0.3303321525610430   T   T   T
  0.0010115855997866  0.0001056255370173  0.3475326917210835   T   T   T
  0.2196456918777888  0.1059583837546889  0.1853273282315523   F   F   F
  0.1108685751636570  0.2229217623657063  0.0324508374494830   F   F   F
  0.3324270399387489  0.0001056255366912  0.3475326917209045   T   T   T
  0.5548830833461460  0.1116123915596221  0.1906182892374932   F   F   F
  0.4453861872021804  0.2229217623658705  0.0324508374494783   F   F   F
  0.6684111971417618  0.0034883942837108  0.3482219910878218   T   T   T
  0.8900633082138709  0.1116123915595227  0.1906182892375682   F   F   F
  0.7780771288467482  0.2228202576933209  0.0335101812725740   F   F   F
  0.0040843962463469  0.3335714657535642  0.3472536229739237   T   T   T
  0.2242742757316546  0.4455870596563790  0.1902570327638879   F   F   F
  0.1115357274844454  0.5555352460726208  0.0329999219351390   F   F   F
  0.5546467839244078  0.4455870596559108  0.1902570327638771   F   F   F
  0.4447712034399796  0.5562104068798566  0.0330441845450762   F   F   F
  0.6628210695063798  0.3335714657516081  0.3472536229739546   T   T   T
  0.8895382347787595  0.4457424695579452  0.1906509853942374   F   F   F
  0.7773325185881509  0.5555352460727032  0.0329999219351237   F   F   F
 -0.0020040764773288  0.6626588470460896  0.3465182268914617   T   T   T
  0.2222307397393536  0.7773085513404199  0.1888060101701499   F   F   F
  0.1107210603453702  0.8881091206907746  0.0312111769443591   F   F   F
  0.3283539977501308  0.6740001424351514  0.3465480266153405   T   T   T
  0.5561019566819517  0.7788699133642488  0.1922612973020091   F   F   F
  0.4453416011983865  0.8891138214948275  0.0334268210756184   F   F   F
  0.6789791446807566  0.6740001424306590  0.3465480266149403   T   T   T
  0.8884108116005858  0.7773085513401407  0.1888060101702029   F   F   F
  0.7771052202964939  0.8891138214947604  0.0334268210756353   F   F   F
0.3278984246142912 0.3124638492237102 0.40332 T T T
0.446598 0.216020 0.433410 T T T 
 
  0.00000000E+00  0.00000000E+00  0.00000000E+00
  0.00000000E+00  0.00000000E+00  0.00000000E+00
  0.00000000E+00  0.00000000E+00  0.00000000E+00
  0.00000000E+00  0.00000000E+00  0.00000000E+00
  0.00000000E+00  0.00000000E+00  0.00000000E+00
  0.00000000E+00  0.00000000E+00  0.00000000E+00
  0.00000000E+00  0.00000000E+00  0.00000000E+00
  0.00000000E+00  0.00000000E+00  0.00000000E+00
  0.00000000E+00  0.00000000E+00  0.00000000E+00
  0.00000000E+00  0.00000000E+00  0.00000000E+00
  0.00000000E+00  0.00000000E+00  0.00000000E+00
  0.00000000E+00  0.00000000E+00  0.00000000E+00
  0.00000000E+00  0.00000000E+00  0.00000000E+00
  0.00000000E+00  0.00000000E+00  0.00000000E+00
  0.00000000E+00  0.00000000E+00  0.00000000E+00
  0.00000000E+00  0.00000000E+00  0.00000000E+00
  0.00000000E+00  0.00000000E+00  0.00000000E+00
  0.00000000E+00  0.00000000E+00  0.00000000E+00
  0.00000000E+00  0.00000000E+00  0.00000000E+00
  0.00000000E+00  0.00000000E+00  0.00000000E+00
  0.00000000E+00  0.00000000E+00  0.00000000E+00
  0.00000000E+00  0.00000000E+00  0.00000000E+00
  0.00000000E+00  0.00000000E+00  0.00000000E+00
  0.00000000E+00  0.00000000E+00  0.00000000E+00
  0.00000000E+00  0.00000000E+00  0.00000000E+00
  0.00000000E+00  0.00000000E+00  0.00000000E+00
  0.00000000E+00  0.00000000E+00  0.00000000E+00
  0.00000000E+00  0.00000000E+00  0.00000000E+00
  0.00000000E+00  0.00000000E+00  0.00000000E+00
  0.00000000E+00  0.00000000E+00  0.00000000E+00
  0.00000000E+00  0.00000000E+00  0.00000000E+00
  0.00000000E+00  0.00000000E+00  0.00000000E+00
  0.00000000E+00  0.00000000E+00  0.00000000E+00
  0.00000000E+00  0.00000000E+00  0.00000000E+00
  0.00000000E+00  0.00000000E+00  0.00000000E+00
  0.00000000E+00  0.00000000E+00  0.00000000E+00
  0.00000000E+00  0.00000000E+00  0.00000000E+00
  0.00000000E+00  0.00000000E+00  0.00000000E+00
  0.00000000E+00  0.00000000E+00  0.00000000E+00
  0.00000000E+00  0.00000000E+00  0.00000000E+00
  0.00000000E+00  0.00000000E+00  0.00000000E+00
  0.00000000E+00  0.00000000E+00  0.00000000E+00
  0.00000000E+00  0.00000000E+00  0.00000000E+00
  0.00000000E+00  0.00000000E+00  0.00000000E+00
  0.00000000E+00  0.00000000E+00  0.00000000E+00
  0.00000000E+00  0.00000000E+00  0.00000000E+00
  0.00000000E+00  0.00000000E+00  0.00000000E+00
  0.00000000E+00  0.00000000E+00  0.00000000E+00
  0.00000000E+00  0.00000000E+00  0.00000000E+00
  0.00000000E+00  0.00000000E+00  0.00000000E+00
  0.00000000E+00  0.00000000E+00  0.00000000E+00
  0.00000000E+00  0.00000000E+00  0.00000000E+00
  0.00000000E+00  0.00000000E+00  0.00000000E+00
  0.00000000E+00  0.00000000E+00  0.00000000E+00
  0.00000000E+00  0.00000000E+00  0.00000000E+00
  0.00000000E+00  0.00000000E+00  0.00000000E+00
  0.00000000E+00  0.00000000E+00  0.00000000E+00
  0.00000000E+00  0.00000000E+00  0.00000000E+00
  0.00000000E+00  0.00000000E+00  0.00000000E+00
  0.00000000E+00  0.00000000E+00  0.00000000E+00
  0.00000000E+00  0.00000000E+00  0.00000000E+00
  0.00000000E+00  0.00000000E+00  0.00000000E+00
  0.00000000E+00  0.00000000E+00  0.00000000E+00
  0.00000000E+00  0.00000000E+00  0.00000000E+00
  0.00000000E+00  0.00000000E+00  0.00000000E+00
  0.00000000E+00  0.00000000E+00  0.00000000E+00
  0.00000000E+00  0.00000000E+00  0.00000000E+00
  0.00000000E+00  0.00000000E+00  0.00000000E+00
  0.00000000E+00  0.00000000E+00  0.00000000E+00
  0.00000000E+00  0.00000000E+00  0.00000000E+00
  0.00000000E+00  0.00000000E+00  0.00000000E+00
  0.00000000E+00  0.00000000E+00  0.00000000E+00
  0.00000000E+00  0.00000000E+00  0.00000000E+00
  0.00000000E+00  0.00000000E+00  0.00000000E+00
  0.00000000E+00  0.00000000E+00  0.00000000E+00
  0.00000000E+00  0.00000000E+00  0.00000000E+00
  0.00000000E+00  0.00000000E+00  0.00000000E+00
  0.00000000E+00  0.00000000E+00  0.00000000E+00
  0.00000000E+00  0.00000000E+00  0.00000000E+00
  0.00000000E+00  0.00000000E+00  0.00000000E+00
