CeO2-you-111-you-Au                     
   1.00000000000000     
     9.8498400572266558   -5.6868081800260395    0.0000000000179434
    -0.0061736265954958   11.3629213242959040    0.0008080137485827
     0.0002787556231856    0.0004828189380920   21.3303692612421791
   O    Au   Ce   H 
    53     1    26     2
Selective dynamics
Direct
  0.0000000000000000  0.0000000000000000  0.9984359999999981   F   F   F
  0.1111110000000011  0.2222220000000021  0.1502740000000031   F   F   F
  0.2205512914197698  0.0967639626966026  0.3022496602231838   T   T   T
  0.1019225664636708  0.2227893305684024  0.3873556672658182   T   T   T
 -0.0009652398157951  0.0010108059010202  0.2278249231049718   T   T   T
  0.2222220000000021  0.1111110000000011  0.0766830000000027   F   F   F
  0.3333330000000032  0.0000000000000000  0.9984359999999981   F   F   F
  0.4444439999999972  0.2222220000000021  0.1502740000000031   F   F   F
  0.5511637462036195  0.1063561315455451  0.3036703473726197   T   T   T
  0.4625901374988533  0.1753409518685145  0.4132887858502655   T   T   T
  0.3351776061228618  0.9972120339930548  0.2271252374341454   T   T   T
  0.5555560000000028  0.1111110000000011  0.0766830000000027   F   F   F
  0.6666669999999968  0.0000000000000000  0.9984359999999981   F   F   F
  0.7777779999999979  0.2222220000000021  0.1502740000000031   F   F   F
  0.8906159593573707  0.1118019673108561  0.3025400679567632   T   T   T
  0.7828322364103401  0.2165833622498463  0.3845385019124746   T   T   T
  0.6650093294554037  0.9964555149247492  0.2297141812668186   T   T   T
  0.8888889999999989  0.1111110000000011  0.0766830000000027   F   F   F
  0.0000000000000000  0.3333330000000032  0.9984359999999981   F   F   F
  0.1111110000000011  0.5555560000000028  0.1502740000000031   F   F   F
  0.2272749750506537  0.4509077312205080  0.3054986069678910   T   T   T
  0.1133611133652766  0.5597964340411835  0.3831357857859387   T   T   T
  0.0008054845339677  0.3342334298181064  0.2289546330430649   T   T   T
  0.2222220000000021  0.4444439999999972  0.0766830000000027   F   F   F
  0.3333330000000032  0.3333330000000032  0.9984359999999981   F   F   F
  0.4444439999999972  0.5555560000000028  0.1502740000000031   F   F   F
  0.4986137873951357  0.4862371839872596  0.3531255787297428   T   T   T
  0.3386453655585733  0.3360655680402428  0.2220222602678762   T   T   T
  0.5555560000000028  0.4444439999999972  0.0766830000000027   F   F   F
  0.6666669999999968  0.3333330000000032  0.9984359999999981   F   F   F
  0.7777779999999979  0.5555560000000028  0.1502740000000031   F   F   F
  0.8931501929876486  0.4450230581886194  0.3038073073443955   T   T   T
  0.7868424509967876  0.5684870104606463  0.3820123389238089   T   T   T
  0.6601980705024165  0.3404048644109262  0.2341953034857998   T   T   T
  0.8888889999999989  0.4444439999999972  0.0766830000000027   F   F   F
  0.0000000000000000  0.6666669999999968  0.9984359999999981   F   F   F
  0.1111110000000011  0.8888889999999989  0.1502740000000031   F   F   F
  0.2207140544006448  0.7756131177233219  0.3016188642787960   T   T   T
  0.1121586330255626  0.8858474296524079  0.3837469677031389   T   T   T
  0.9985554690404629  0.6659517026192180  0.2287245833305049   T   T   T
  0.2222220000000021  0.7777779999999979  0.0766830000000027   F   F   F
  0.3333330000000032  0.6666669999999968  0.9984359999999981   F   F   F
  0.4444439999999972  0.8888889999999989  0.1502740000000031   F   F   F
  0.5526222429045270  0.7711001283908469  0.3079950111928907   T   T   T
  0.4385872010409813  0.8798161938629000  0.3816188197449120   T   T   T
  0.3346989402343752  0.6689470071640220  0.2288840380755599   T   T   T
  0.5555560000000028  0.7777779999999979  0.0766830000000027   F   F   F
  0.6666669999999968  0.6666669999999968  0.9984359999999981   F   F   F
  0.7777779999999979  0.8888889999999989  0.1502740000000031   F   F   F
  0.8961889351488289  0.7851836196383960  0.3020640543950177   T   T   T
  0.7827373501433179  0.8945862776668030  0.3831532775852547   T   T   T
  0.6658283722356708  0.6596940941797050  0.2334184886751195   T   T   T
  0.8888889999999989  0.7777779999999979  0.0766830000000027   F   F   F
  0.3022798651040627  0.3554383648113813  0.3709294558238812   T   T   T
  0.0101410826273268  0.0065094707231801  0.3410721819841516   T   T   T
  0.2222220000000021  0.1111110000000011  0.1895730000000029   F   F   F
  0.1111110000000011  0.2222220000000021  0.0375840000000025   F   F   F
  0.3288019623198455 -0.0052956489056299  0.3417459628576512   T   T   T
  0.5555560000000028  0.1111110000000011  0.1895730000000029   F   F   F
  0.4444439999999972  0.2222220000000021  0.0375840000000025   F   F   F
  0.6671929743985753  0.0008647528294817  0.3429368470013782   T   T   T
  0.8888889999999989  0.1111110000000011  0.1895730000000029   F   F   F
  0.7777779999999979  0.2222220000000021  0.0375840000000025   F   F   F
 -0.0015406751805868  0.3342554871256863  0.3420540690643039   T   T   T
  0.2222220000000021  0.4444439999999972  0.1895730000000029   F   F   F
  0.1111110000000011  0.5555560000000028  0.0375840000000025   F   F   F
  0.5555560000000028  0.4444439999999972  0.1895730000000029   F   F   F
  0.4444439999999972  0.5555560000000028  0.0375840000000025   F   F   F
  0.6681465924273448  0.3300095398792356  0.3515764095302348   T   T   T
  0.8888889999999989  0.4444439999999972  0.1895730000000029   F   F   F
  0.7777779999999979  0.5555560000000028  0.0375840000000025   F   F   F
 -0.0000082572171982  0.6664426114366093  0.3427264375543145   T   T   T
  0.2222220000000021  0.7777779999999979  0.1895730000000029   F   F   F
  0.1111110000000011  0.8888889999999989  0.0375840000000025   F   F   F
  0.3266091190567937  0.6696838582410594  0.3392652675454384   T   T   T
  0.5555560000000028  0.7777779999999979  0.1895730000000029   F   F   F
  0.4444439999999972  0.8888889999999989  0.0375840000000025   F   F   F
  0.6837392391164018  0.6806815754819239  0.3440336415968189   T   T   T
  0.8888889999999989  0.7777779999999979  0.1895730000000029   F   F   F
  0.7777779999999979  0.8888889999999989  0.0375840000000025   F   F   F
  0.3506100894470127  0.2861086895926971  0.4186538686117244   T   T   T
  0.4461506654443819  0.1738150742824202  0.4580209366604573   T   T   T
 
  0.00000000E+00  0.00000000E+00  0.00000000E+00
  0.00000000E+00  0.00000000E+00  0.00000000E+00
  0.00000000E+00  0.00000000E+00  0.00000000E+00
  0.00000000E+00  0.00000000E+00  0.00000000E+00
  0.00000000E+00  0.00000000E+00  0.00000000E+00
  0.00000000E+00  0.00000000E+00  0.00000000E+00
  0.00000000E+00  0.00000000E+00  0.00000000E+00
  0.00000000E+00  0.00000000E+00  0.00000000E+00
  0.00000000E+00  0.00000000E+00  0.00000000E+00
  0.00000000E+00  0.00000000E+00  0.00000000E+00
  0.00000000E+00  0.00000000E+00  0.00000000E+00
  0.00000000E+00  0.00000000E+00  0.00000000E+00
  0.00000000E+00  0.00000000E+00  0.00000000E+00
  0.00000000E+00  0.00000000E+00  0.00000000E+00
  0.00000000E+00  0.00000000E+00  0.00000000E+00
  0.00000000E+00  0.00000000E+00  0.00000000E+00
  0.00000000E+00  0.00000000E+00  0.00000000E+00
  0.00000000E+00  0.00000000E+00  0.00000000E+00
  0.00000000E+00  0.00000000E+00  0.00000000E+00
  0.00000000E+00  0.00000000E+00  0.00000000E+00
  0.00000000E+00  0.00000000E+00  0.00000000E+00
  0.00000000E+00  0.00000000E+00  0.00000000E+00
  0.00000000E+00  0.00000000E+00  0.00000000E+00
  0.00000000E+00  0.00000000E+00  0.00000000E+00
  0.00000000E+00  0.00000000E+00  0.00000000E+00
  0.00000000E+00  0.00000000E+00  0.00000000E+00
  0.00000000E+00  0.00000000E+00  0.00000000E+00
  0.00000000E+00  0.00000000E+00  0.00000000E+00
  0.00000000E+00  0.00000000E+00  0.00000000E+00
  0.00000000E+00  0.00000000E+00  0.00000000E+00
  0.00000000E+00  0.00000000E+00  0.00000000E+00
  0.00000000E+00  0.00000000E+00  0.00000000E+00
  0.00000000E+00  0.00000000E+00  0.00000000E+00
  0.00000000E+00  0.00000000E+00  0.00000000E+00
  0.00000000E+00  0.00000000E+00  0.00000000E+00
  0.00000000E+00  0.00000000E+00  0.00000000E+00
  0.00000000E+00  0.00000000E+00  0.00000000E+00
  0.00000000E+00  0.00000000E+00  0.00000000E+00
  0.00000000E+00  0.00000000E+00  0.00000000E+00
  0.00000000E+00  0.00000000E+00  0.00000000E+00
  0.00000000E+00  0.00000000E+00  0.00000000E+00
  0.00000000E+00  0.00000000E+00  0.00000000E+00
  0.00000000E+00  0.00000000E+00  0.00000000E+00
  0.00000000E+00  0.00000000E+00  0.00000000E+00
  0.00000000E+00  0.00000000E+00  0.00000000E+00
  0.00000000E+00  0.00000000E+00  0.00000000E+00
  0.00000000E+00  0.00000000E+00  0.00000000E+00
  0.00000000E+00  0.00000000E+00  0.00000000E+00
  0.00000000E+00  0.00000000E+00  0.00000000E+00
  0.00000000E+00  0.00000000E+00  0.00000000E+00
  0.00000000E+00  0.00000000E+00  0.00000000E+00
  0.00000000E+00  0.00000000E+00  0.00000000E+00
  0.00000000E+00  0.00000000E+00  0.00000000E+00
  0.00000000E+00  0.00000000E+00  0.00000000E+00
  0.00000000E+00  0.00000000E+00  0.00000000E+00
  0.00000000E+00  0.00000000E+00  0.00000000E+00
  0.00000000E+00  0.00000000E+00  0.00000000E+00
  0.00000000E+00  0.00000000E+00  0.00000000E+00
  0.00000000E+00  0.00000000E+00  0.00000000E+00
  0.00000000E+00  0.00000000E+00  0.00000000E+00
  0.00000000E+00  0.00000000E+00  0.00000000E+00
  0.00000000E+00  0.00000000E+00  0.00000000E+00
  0.00000000E+00  0.00000000E+00  0.00000000E+00
  0.00000000E+00  0.00000000E+00  0.00000000E+00
  0.00000000E+00  0.00000000E+00  0.00000000E+00
  0.00000000E+00  0.00000000E+00  0.00000000E+00
  0.00000000E+00  0.00000000E+00  0.00000000E+00
  0.00000000E+00  0.00000000E+00  0.00000000E+00
  0.00000000E+00  0.00000000E+00  0.00000000E+00
  0.00000000E+00  0.00000000E+00  0.00000000E+00
  0.00000000E+00  0.00000000E+00  0.00000000E+00
  0.00000000E+00  0.00000000E+00  0.00000000E+00
  0.00000000E+00  0.00000000E+00  0.00000000E+00
  0.00000000E+00  0.00000000E+00  0.00000000E+00
  0.00000000E+00  0.00000000E+00  0.00000000E+00
  0.00000000E+00  0.00000000E+00  0.00000000E+00
  0.00000000E+00  0.00000000E+00  0.00000000E+00
  0.00000000E+00  0.00000000E+00  0.00000000E+00
  0.00000000E+00  0.00000000E+00  0.00000000E+00
  0.00000000E+00  0.00000000E+00  0.00000000E+00
  0.00000000E+00  0.00000000E+00  0.00000000E+00
  0.00000000E+00  0.00000000E+00  0.00000000E+00
