CeO2-you-111-you-Mn                     
   1.00000000000000     
     9.8938887960590822   -5.7122397346258298   -0.0000000012153931
    -0.0421129110995097   11.3515357618549722   -0.0232072284552211
    -0.0253516421245079   -0.0439103247587224   20.5703023012140704
   O    Mn   Ce   H 
    53     1    26     1
Selective dynamics
Direct
  0.0001108076090421  0.0001008584227963  0.9884214209299028   T   T   T
  0.1088282308306486  0.2206820847867158  0.1462986358890138   T   T   T
  0.2377267315102837  0.1298628261415308  0.3110240390444268   T   T   T
  0.0772873295986637  0.2053828246205429  0.3955983620471004   T   T   T
  0.0074576633135948  0.0041560513336041  0.2298649925928549   T   T   T
  0.2218361742097283  0.1108670936648343  0.0706768951664719   T   T   T
  0.3346966406451563  0.0006903160610846  0.9898996735965216   T   T   T
  0.4461708844023135  0.2208878094144034  0.1472861762009278   T   T   T
  0.5494518017440944  0.1074693921081275  0.3064725333761563   T   T   T
  0.4572904018960787  0.1925225089987581  0.4151350419876650   T   T   T
  0.3293035350249907  0.0000409807374384  0.2290297089787950   T   T   T
  0.5582927660269627  0.1111739330938718  0.0721005754481076   T   T   T
  0.6668264460947841  0.9994464594037871  0.9895465590182819   T   T   T
  0.7777988006534046  0.2208404964876003  0.1524599888991330   T   T   T
  0.8862505745464329  0.1085882731860969  0.3029407167991053   T   T   T
  0.7816125153633170  0.2122862424912698  0.3897566011469107   T   T   T
  0.6606735329153979  0.9915149650491054  0.2324762694657858   T   T   T
  0.8883387162369002  0.1107518669546430  0.0710390398643049   T   T   T
  0.0005033718073939  0.3334517948984616  0.9898617158345440   T   T   T
  0.1098526979517358  0.5554077656037084  0.1474890692539192   T   T   T
  0.2422633958297599  0.4478179503361657  0.3161214096701129   T   T   T
  0.1130068222794359  0.5603501258305252  0.3888173592646397   T   T   T
  0.0097471509529899  0.3376244031392479  0.2317373928583531   T   T   T
  0.2226936198793059  0.4449734672389670  0.0716677257405910   T   T   T
  0.3339979322444995  0.3336227458871677  0.9901870173604279   T   T   T
  0.4467874827725966  0.5588480115729813  0.1471968810349843   T   T   T
  0.5321537512662540  0.4511885838321083  0.3215984959620477   T   T   T
  0.3346623116601477  0.3358735671883760  0.2222018260570613   T   T   T
  0.5560127686632473  0.4442384765563898  0.0719078281992957   T   T   T
  0.6663279921916017  0.3323360488416527  0.9900408903230190   T   T   T
  0.7793808637244586  0.5561818398903580  0.1475318075684003   T   T   T
  0.8944585732461993  0.4467107066140414  0.3067770618990620   T   T   T
  0.7903087331498235  0.5730189625513710  0.3903576507366660   T   T   T
  0.6633643189125655  0.3391813846083760  0.2314547377523425   T   T   T
  0.8878356561433796  0.4417732595495268  0.0721541178844037   T   T   T
  0.9985598343414264  0.6648528275924270  0.9898217976539367   T   T   T
  0.1105094524720775  0.8887006173243318  0.1458162166901246   T   T   T
  0.2201147324152530  0.7786321470977281  0.3042195421249704   T   T   T
  0.1140332263955048  0.8921515751507052  0.3872315535046201   T   T   T
  0.0007156002204511  0.6689526128111085  0.2286876570995166   T   T   T
  0.2220709740145538  0.7778413264296077  0.0702152363730782   T   T   T
  0.3340797594095493  0.6663253907077161  0.9901590423967711   T   T   T
  0.4438964207962037  0.8883431633215135  0.1483593514568828   T   T   T
  0.5452039105168616  0.7584097532010349  0.3143202790687434   T   T   T
  0.4392642495739381  0.8851460014270141  0.3874059903007810   T   T   T
  0.3310674540014295  0.6662157558868456  0.2292986986924862   T   T   T
  0.5572581776426213  0.7793087486569497  0.0717775448099343   T   T   T
  0.6661106965642954  0.6655664121004493  0.9902321364280980   T   T   T
  0.7785695461448102  0.8893308225809241  0.1485721032521201   T   T   T
  0.8936485173412579  0.7823855150368775  0.3039308890427478   T   T   T
  0.7796235151872711  0.8897779634882755  0.3874399076327192   T   T   T
  0.6694520078921112  0.6667017327391042  0.2296347096411072   T   T   T
  0.8893811427162163  0.7788518697412873  0.0705783713290981   T   T   T
  0.3301945038541415  0.3337883164520088  0.3216278651317888   T   T   T
  0.0060289555778288  0.0096862158237708  0.3485605704356581   T   T   T
  0.2229823461125940  0.1117764806521064  0.1876289247633171   T   T   T
  0.1108752528295382  0.2215553430851768  0.0303203831145401   T   T   T
  0.3307268690363919 -0.0000797818800314  0.3473199459129097   T   T   T
  0.5545727208820392  0.1112336909503410  0.1915744783102731   T   T   T
  0.4451388575818350  0.2212884257346436  0.0309082881574076   T   T   T
  0.6659795177496775  0.9992311865885167  0.3487179673143982   T   T   T
  0.8902240380614653  0.1111342181888479  0.1900658353991964   T   T   T
  0.7775950896296261  0.2212561619727722  0.0317304399426447   T   T   T
  0.0004208741506097  0.3285169730977544  0.3501770473800334   T   T   T
  0.2223344845997941  0.4448223678665624  0.1873137789108725   T   T   T
  0.1100005294687301  0.5540480013943098  0.0307383638191664   T   T   T
  0.5568385475990760  0.4452174542395629  0.1874946635331377   T   T   T
  0.4448938963191875  0.5556321078636189  0.0303834520508925   T   T   T
  0.6682366108536673  0.3360034356072010  0.3532762779515060   T   T   T
  0.8889847319860361  0.4444940215565664  0.1919026558545555   T   T   T
  0.7780133444313762  0.5542745528140478  0.0310834076866477   T   T   T
  0.0008606835380840  0.6681892084104879  0.3470525686775517   T   T   T
  0.2211024277000031  0.7785362826431792  0.1866582124331934   T   T   T
  0.1107852302554364  0.8887191080640493  0.0294140970031778   T   T   T
  0.3222387139431776  0.6701472264309439  0.3435982457654033   T   T   T
  0.5550536438055000  0.7767335345317579  0.1892530519312782   T   T   T
  0.4455096959061797  0.8888479608212917  0.0309795214284715   T   T   T
  0.6838939933616471  0.6743964100617643  0.3440412422281682   T   T   T
  0.8914947616560787  0.7798022773844658  0.1875693816135355   T   T   T
  0.7777955105811376  0.8887995577458044  0.0304800265503894   T   T   T
  0.4225079555861167  0.2150549495089124  0.4533850613509360   T   T   T
 
  0.00000000E+00  0.00000000E+00  0.00000000E+00
  0.00000000E+00  0.00000000E+00  0.00000000E+00
  0.00000000E+00  0.00000000E+00  0.00000000E+00
  0.00000000E+00  0.00000000E+00  0.00000000E+00
  0.00000000E+00  0.00000000E+00  0.00000000E+00
  0.00000000E+00  0.00000000E+00  0.00000000E+00
  0.00000000E+00  0.00000000E+00  0.00000000E+00
  0.00000000E+00  0.00000000E+00  0.00000000E+00
  0.00000000E+00  0.00000000E+00  0.00000000E+00
  0.00000000E+00  0.00000000E+00  0.00000000E+00
  0.00000000E+00  0.00000000E+00  0.00000000E+00
  0.00000000E+00  0.00000000E+00  0.00000000E+00
  0.00000000E+00  0.00000000E+00  0.00000000E+00
  0.00000000E+00  0.00000000E+00  0.00000000E+00
  0.00000000E+00  0.00000000E+00  0.00000000E+00
  0.00000000E+00  0.00000000E+00  0.00000000E+00
  0.00000000E+00  0.00000000E+00  0.00000000E+00
  0.00000000E+00  0.00000000E+00  0.00000000E+00
  0.00000000E+00  0.00000000E+00  0.00000000E+00
  0.00000000E+00  0.00000000E+00  0.00000000E+00
  0.00000000E+00  0.00000000E+00  0.00000000E+00
  0.00000000E+00  0.00000000E+00  0.00000000E+00
  0.00000000E+00  0.00000000E+00  0.00000000E+00
  0.00000000E+00  0.00000000E+00  0.00000000E+00
  0.00000000E+00  0.00000000E+00  0.00000000E+00
  0.00000000E+00  0.00000000E+00  0.00000000E+00
  0.00000000E+00  0.00000000E+00  0.00000000E+00
  0.00000000E+00  0.00000000E+00  0.00000000E+00
  0.00000000E+00  0.00000000E+00  0.00000000E+00
  0.00000000E+00  0.00000000E+00  0.00000000E+00
  0.00000000E+00  0.00000000E+00  0.00000000E+00
  0.00000000E+00  0.00000000E+00  0.00000000E+00
  0.00000000E+00  0.00000000E+00  0.00000000E+00
  0.00000000E+00  0.00000000E+00  0.00000000E+00
  0.00000000E+00  0.00000000E+00  0.00000000E+00
  0.00000000E+00  0.00000000E+00  0.00000000E+00
  0.00000000E+00  0.00000000E+00  0.00000000E+00
  0.00000000E+00  0.00000000E+00  0.00000000E+00
  0.00000000E+00  0.00000000E+00  0.00000000E+00
  0.00000000E+00  0.00000000E+00  0.00000000E+00
  0.00000000E+00  0.00000000E+00  0.00000000E+00
  0.00000000E+00  0.00000000E+00  0.00000000E+00
  0.00000000E+00  0.00000000E+00  0.00000000E+00
  0.00000000E+00  0.00000000E+00  0.00000000E+00
  0.00000000E+00  0.00000000E+00  0.00000000E+00
  0.00000000E+00  0.00000000E+00  0.00000000E+00
  0.00000000E+00  0.00000000E+00  0.00000000E+00
  0.00000000E+00  0.00000000E+00  0.00000000E+00
  0.00000000E+00  0.00000000E+00  0.00000000E+00
  0.00000000E+00  0.00000000E+00  0.00000000E+00
  0.00000000E+00  0.00000000E+00  0.00000000E+00
  0.00000000E+00  0.00000000E+00  0.00000000E+00
  0.00000000E+00  0.00000000E+00  0.00000000E+00
  0.00000000E+00  0.00000000E+00  0.00000000E+00
  0.00000000E+00  0.00000000E+00  0.00000000E+00
  0.00000000E+00  0.00000000E+00  0.00000000E+00
  0.00000000E+00  0.00000000E+00  0.00000000E+00
  0.00000000E+00  0.00000000E+00  0.00000000E+00
  0.00000000E+00  0.00000000E+00  0.00000000E+00
  0.00000000E+00  0.00000000E+00  0.00000000E+00
  0.00000000E+00  0.00000000E+00  0.00000000E+00
  0.00000000E+00  0.00000000E+00  0.00000000E+00
  0.00000000E+00  0.00000000E+00  0.00000000E+00
  0.00000000E+00  0.00000000E+00  0.00000000E+00
  0.00000000E+00  0.00000000E+00  0.00000000E+00
  0.00000000E+00  0.00000000E+00  0.00000000E+00
  0.00000000E+00  0.00000000E+00  0.00000000E+00
  0.00000000E+00  0.00000000E+00  0.00000000E+00
  0.00000000E+00  0.00000000E+00  0.00000000E+00
  0.00000000E+00  0.00000000E+00  0.00000000E+00
  0.00000000E+00  0.00000000E+00  0.00000000E+00
  0.00000000E+00  0.00000000E+00  0.00000000E+00
  0.00000000E+00  0.00000000E+00  0.00000000E+00
  0.00000000E+00  0.00000000E+00  0.00000000E+00
  0.00000000E+00  0.00000000E+00  0.00000000E+00
  0.00000000E+00  0.00000000E+00  0.00000000E+00
  0.00000000E+00  0.00000000E+00  0.00000000E+00
  0.00000000E+00  0.00000000E+00  0.00000000E+00
  0.00000000E+00  0.00000000E+00  0.00000000E+00
  0.00000000E+00  0.00000000E+00  0.00000000E+00
  0.00000000E+00  0.00000000E+00  0.00000000E+00
