CeO2-you-111-you-Sr                     
   1.00000000000000     
     9.8679042174718337   -5.6788589604227582   -0.0034093366080849
     0.0159162990184791   11.3852837589658566    0.0034093360667917
    -0.0033471532490527    0.0057974393566222   21.1305259293557306
   O    Sr   Ce
    53     1    26
Selective dynamics
Direct
  0.0001184318781607 -0.0002707132118760  0.9958142979284007   T   T   T
  0.1082036790317236  0.2198918161302005  0.1466720495603621   T   T   T
  0.2179773898028264  0.1029061611238749  0.3040744032119960   T   T   T
  0.0911122940751980  0.2202704491771582  0.3802946140316771   T   T   T
 -0.0012554531347012  0.0013330290001256  0.2287478572536305   T   T   T
  0.2217961871769485  0.1102228737796828  0.0759728958149139   T   T   T
  0.3349981375145233  0.0012164153226932  0.9979849860350806   T   T   T
  0.4420278887593783  0.2246381112395015  0.1519259922737924   T   T   T
  0.5568914891602795  0.1097755108385853  0.3015436498805759   T   T   T
  0.4570012461987273  0.2096647538004834  0.3879680901815110   T   T   T
  0.3344058420037297  0.0003268298753503  0.2283733007548240   T   T   T
  0.5564016040570509  0.1102653959427645  0.0780847886127226   T   T   T
  0.6657355984803618  0.0009314015203400  0.9961936562889115   T   T   T
  0.7853394860562956  0.2273000142005548  0.1512944142386083   T   T   T
  0.8804745647142252  0.1075147867367343  0.3005541995089062   T   T   T
  0.7741832115302142  0.2192719999609635  0.3848329631352898   T   T   T
  0.6661556063077769  0.0005113936919687  0.2255250471480287   T   T   T
  0.8873366041092305  0.1096854783509041  0.0741575285595983   T   T   T
 -0.0015941345964108  0.3326561651559956  0.9961710305394901   T   T   T
  0.1108848420488838  0.5557821579481091  0.1475887483269650   T   T   T
  0.1233370233638309  0.5433299766362188  0.3730644823848419   T   T   T
  0.0193702290924953  0.3427075071100638  0.2348890164307784   T   T   T
  0.2226118920884399  0.4440541079126804  0.0720378732908209   T   T   T
  0.3345981716935961  0.3320678283063223  0.9960250596564492   T   T   T
  0.4467741838742628  0.5584633209698883  0.1466720495599898   T   T   T
  0.5637608388745855  0.4486886101946330  0.3040744032129397   T   T   T
  0.4463955508288216  0.5755547059290415  0.3802946140320951   T   T   T
  0.3254989167401952  0.3411670832648165  0.2298155352826357   T   T   T
  0.5564441262204578  0.4448698128230911  0.0759728958149328   T   T   T
  0.6654505846768821  0.3316678624850630  0.9979849860350736   T   T   T
  0.7784978087179880  0.5559615611638423  0.1515658563367672   T   T   T
  0.8844096344968428  0.4422665534487671  0.3040993768050379   T   T   T
  0.7834115289417137  0.5614243431286263  0.3835782123268083   T   T   T
  0.6663401701221922  0.3322601579957438  0.2283733007548983   T   T   T
  0.8890634244361170  0.4455457829010417  0.0754063783652403   T   T   T
 -0.0005737624472838  0.6672407624463946  0.9962631180070366   T   T   T
  0.1107054388345511  0.8881691912797096  0.1515658563367296   T   T   T
  0.2243994465476433  0.7822573654975087  0.3040993768047841   T   T   T
  0.1052426568707346  0.8832554710554875  0.3835782123268530   T   T   T
  0.0015124512268357  0.6651545487713314  0.2297305595287741   T   T   T
  0.2211202170985514  0.7776035755631786  0.0754063783651946   T   T   T
  0.3340098348443206  0.6682611345968277  0.9961710305393733   T   T   T
  0.4393659858001790  0.8813275139432291  0.1512944142388378   T   T   T
  0.5591522132671933  0.7861924352864256  0.3005541995084113   T   T   T
  0.4473940000376339  0.8924837884658171  0.3848329631345077   T   T   T
  0.3239584928903380  0.6472967709091614  0.2348890164305441   T   T   T
  0.5569815216497965  0.7793303958910471  0.0741575285594916   T   T   T
  0.6669377132120231  0.6665485681216523  0.9958142979283587   T   T   T
  0.7777604153558288  0.8889065846446439  0.1493731370463325   T   T   T
  0.8894602857217303  0.7772067142768596  0.3016403414103259   T   T   T
  0.7779950278396118  0.8886719721613540  0.3811125003417987   T   T   T
  0.6653339710004516  0.6679224531356500  0.2287478572536028   T   T   T
  0.8888592802641013  0.7778077197354843  0.0755378488867798   T   T   T
  0.3376355015212757  0.3290304984757364  0.3562280554948482   T   T   T
 -0.0006873432992654  0.0000740274486372  0.3420770708213208   T   T   T
  0.2223760753897233  0.1134697318539121  0.1924899059528109   T   T   T
  0.1103422815332344  0.2198271455694590  0.0340704459190764   T   T   T
  0.3340440057886951  0.0033454800325530  0.3438044818396933   T   T   T
  0.5553818421443266  0.1112851578588680  0.1900546038012086   T   T   T
  0.4441418070544638  0.2225241929453640  0.0378102487488273   T   T   T
  0.6662215874767845  0.0004454125241527  0.3419357167040216   T   T   T
  0.8894283190726410  0.1113126897309044  0.1888459882555133   T   T   T
  0.7779246966009848  0.2224841441113726  0.0362928247670775   T   T   T
 -0.0155432821607969  0.3225062131481279  0.3456555024426506   T   T   T
  0.2234876473701477  0.4431783526204801  0.1811551992702036   T   T   T
  0.1099610699031357  0.5567059300969014  0.0344138197584546   T   T   T
  0.5531972681456230  0.4442899246087250  0.1924899059527014   T   T   T
  0.4468388544294529  0.5563247184659126  0.0340704459191188   T   T   T
  0.6633215199797426  0.3326219942185896  0.3438044818392721   T   T   T
  0.8901218724484969  0.4451816154988572  0.1905922704298027   T   T   T
  0.7773061332653739  0.5550395176969898  0.0372322046020851   T   T   T
 -0.0009778644809202  0.6676448644896372  0.3422170753737002   T   T   T
  0.2214843845052445  0.7765451275600705  0.1905922704298818   T   T   T
  0.1116274823040976  0.8893608667355027  0.0372322046020747   T   T   T
  0.3441597868466857  0.6822102821556697  0.3456555024442047   T   T   T
  0.5553543102630589  0.7772386809258139  0.1888459882556545   T   T   T
  0.4441818558881295  0.8887423033993991  0.0362928247671331   T   T   T
  0.6665929725496184  0.6673543432941661  0.3420770708205242   T   T   T
  0.8886528567206896  0.7780141432815395  0.1890828284631377   T   T   T
  0.7774285693822707  0.8892384306169446  0.0355078721027844   T   T   T
 
  0.00000000E+00  0.00000000E+00  0.00000000E+00
  0.00000000E+00  0.00000000E+00  0.00000000E+00
  0.00000000E+00  0.00000000E+00  0.00000000E+00
  0.00000000E+00  0.00000000E+00  0.00000000E+00
  0.00000000E+00  0.00000000E+00  0.00000000E+00
  0.00000000E+00  0.00000000E+00  0.00000000E+00
  0.00000000E+00  0.00000000E+00  0.00000000E+00
  0.00000000E+00  0.00000000E+00  0.00000000E+00
  0.00000000E+00  0.00000000E+00  0.00000000E+00
  0.00000000E+00  0.00000000E+00  0.00000000E+00
  0.00000000E+00  0.00000000E+00  0.00000000E+00
  0.00000000E+00  0.00000000E+00  0.00000000E+00
  0.00000000E+00  0.00000000E+00  0.00000000E+00
  0.00000000E+00  0.00000000E+00  0.00000000E+00
  0.00000000E+00  0.00000000E+00  0.00000000E+00
  0.00000000E+00  0.00000000E+00  0.00000000E+00
  0.00000000E+00  0.00000000E+00  0.00000000E+00
  0.00000000E+00  0.00000000E+00  0.00000000E+00
  0.00000000E+00  0.00000000E+00  0.00000000E+00
  0.00000000E+00  0.00000000E+00  0.00000000E+00
  0.00000000E+00  0.00000000E+00  0.00000000E+00
  0.00000000E+00  0.00000000E+00  0.00000000E+00
  0.00000000E+00  0.00000000E+00  0.00000000E+00
  0.00000000E+00  0.00000000E+00  0.00000000E+00
  0.00000000E+00  0.00000000E+00  0.00000000E+00
  0.00000000E+00  0.00000000E+00  0.00000000E+00
  0.00000000E+00  0.00000000E+00  0.00000000E+00
  0.00000000E+00  0.00000000E+00  0.00000000E+00
  0.00000000E+00  0.00000000E+00  0.00000000E+00
  0.00000000E+00  0.00000000E+00  0.00000000E+00
  0.00000000E+00  0.00000000E+00  0.00000000E+00
  0.00000000E+00  0.00000000E+00  0.00000000E+00
  0.00000000E+00  0.00000000E+00  0.00000000E+00
  0.00000000E+00  0.00000000E+00  0.00000000E+00
  0.00000000E+00  0.00000000E+00  0.00000000E+00
  0.00000000E+00  0.00000000E+00  0.00000000E+00
  0.00000000E+00  0.00000000E+00  0.00000000E+00
  0.00000000E+00  0.00000000E+00  0.00000000E+00
  0.00000000E+00  0.00000000E+00  0.00000000E+00
  0.00000000E+00  0.00000000E+00  0.00000000E+00
  0.00000000E+00  0.00000000E+00  0.00000000E+00
  0.00000000E+00  0.00000000E+00  0.00000000E+00
  0.00000000E+00  0.00000000E+00  0.00000000E+00
  0.00000000E+00  0.00000000E+00  0.00000000E+00
  0.00000000E+00  0.00000000E+00  0.00000000E+00
  0.00000000E+00  0.00000000E+00  0.00000000E+00
  0.00000000E+00  0.00000000E+00  0.00000000E+00
  0.00000000E+00  0.00000000E+00  0.00000000E+00
  0.00000000E+00  0.00000000E+00  0.00000000E+00
  0.00000000E+00  0.00000000E+00  0.00000000E+00
  0.00000000E+00  0.00000000E+00  0.00000000E+00
  0.00000000E+00  0.00000000E+00  0.00000000E+00
  0.00000000E+00  0.00000000E+00  0.00000000E+00
  0.00000000E+00  0.00000000E+00  0.00000000E+00
  0.00000000E+00  0.00000000E+00  0.00000000E+00
  0.00000000E+00  0.00000000E+00  0.00000000E+00
  0.00000000E+00  0.00000000E+00  0.00000000E+00
  0.00000000E+00  0.00000000E+00  0.00000000E+00
  0.00000000E+00  0.00000000E+00  0.00000000E+00
  0.00000000E+00  0.00000000E+00  0.00000000E+00
  0.00000000E+00  0.00000000E+00  0.00000000E+00
  0.00000000E+00  0.00000000E+00  0.00000000E+00
  0.00000000E+00  0.00000000E+00  0.00000000E+00
  0.00000000E+00  0.00000000E+00  0.00000000E+00
  0.00000000E+00  0.00000000E+00  0.00000000E+00
  0.00000000E+00  0.00000000E+00  0.00000000E+00
  0.00000000E+00  0.00000000E+00  0.00000000E+00
  0.00000000E+00  0.00000000E+00  0.00000000E+00
  0.00000000E+00  0.00000000E+00  0.00000000E+00
  0.00000000E+00  0.00000000E+00  0.00000000E+00
  0.00000000E+00  0.00000000E+00  0.00000000E+00
  0.00000000E+00  0.00000000E+00  0.00000000E+00
  0.00000000E+00  0.00000000E+00  0.00000000E+00
  0.00000000E+00  0.00000000E+00  0.00000000E+00
  0.00000000E+00  0.00000000E+00  0.00000000E+00
  0.00000000E+00  0.00000000E+00  0.00000000E+00
  0.00000000E+00  0.00000000E+00  0.00000000E+00
  0.00000000E+00  0.00000000E+00  0.00000000E+00
  0.00000000E+00  0.00000000E+00  0.00000000E+00
  0.00000000E+00  0.00000000E+00  0.00000000E+00
