CeO2-you-111-you-Al                     
   1.00000000000000     
     9.8279901216816139   -5.6596280025646610   -0.0175119529249023
     0.0126137557850403   11.3411016774983704    0.0175119500386693
    -0.0194607513401035    0.0337070084344490   20.9489423278169404
   O    Al   Ce   H 
    53     1    26     2
Selective dynamics
Direct
  0.9995093303316386  0.9997492642329863  0.9947051667233399   T   T   T
  0.1141687088745584  0.2231801967111622  0.1494546804396109   F   F   F
  0.2167390278035831  0.0901297075857857  0.2996609931895879   T   T   T
  0.1540235589792409  0.2532196238363670  0.3639186942938374   T   T   T
 -0.0026664687426714 -0.0002818397116951  0.2287084326424291   T   T   T
  0.2213739671499582  0.1103038018613560  0.0741883012534998   F   F   F
  0.3345169134545696  0.0006794898052803  0.9953939863427754   T   T   T
  0.4403246986517004  0.2263413013477020  0.1520574942362813   F   F   F
  0.5476329541947762  0.1180247347378711  0.3080983206923993   T   T   T
  0.4151256285949787  0.2514991897496781  0.3828016613027381   T   T   T
  0.3376424715766479  0.9976618721132431  0.2275408423029228   T   T   T
  0.5552797594247849  0.1113872405744942  0.0777206768639402   F   F   F
  0.6658574534322824  0.0009300837327447  0.9958406944377245   T   T   T
  0.7850943170689675  0.2248177110552945  0.1513863687281400   F   F   F
  0.8847427897584361  0.1043913552326697  0.3068631262565772   T   T   T
  0.7657002381761503  0.2186865336519617  0.3884311941452744   T   T   T
  0.6648761504893890  0.0026148118405609  0.2311581604805290   T   T   T
  0.8907929113430626  0.1120524216761325  0.0747129662186055   F   F   F
  0.9981598405115969  0.3330437353537232  0.9943299005893843   T   T   T
  0.1115259008548577  0.5551410991428583  0.1487758048052470   F   F   F
  0.1061083611134218  0.5610483632148573  0.3874660405921779   T   T   T
  0.0166492330224315  0.3416417377052776  0.2349750469473921   T   T   T
  0.2223086615876184  0.4443573384142496  0.0733563641507615   F   F   F
  0.3334630971260319  0.3327231458835448  0.9942893206153075   T   T   T
  0.4434858032951610  0.5524982911279537  0.1494546804396037   F   F   F
  0.5774263165740052  0.4515658928414476  0.2998186777277274   T   T   T
  0.4140074147045796  0.5131217874803556  0.3647006958706616   T   T   T
  0.3266974885272503  0.3416957748723030  0.2465612977605603   T   T   T
  0.5563631981394153  0.4452920328497356  0.0741883012537059   F   F   F
  0.6654749484786863  0.3316353624729138  0.9954811001650765   T   T   T
  0.7772244693998189  0.5541383318336273  0.1510493743812873   F   F   F
  0.8842580773342625  0.4471601108599201  0.3045831802426833   T   T   T
  0.7772747511922234  0.5581444818004607  0.3881482318819373   T   T   T
  0.6689926400161245  0.3287913034048528  0.2278306513539371   T   T   T
  0.8888405494019764  0.4451549932599193  0.0748871535080511   F   F   F
  0.9991180761902040  0.6674807806586178  0.9946279670959621   T   T   T
  0.1125286681659006  0.8894425305977762  0.1510493743814578   F   F   F
  0.2199296152093053  0.7826832445637093  0.3048007932521908   T   T   T
  0.1094782411980071  0.8905918690760256  0.3882488872025274   T   T   T
  0.0000698175580965  0.6670893696479852  0.2295743228777743   T   T   T
  0.2215110067394903  0.7778264505979138  0.0748871535079587   F   F   F
  0.3331233461837773  0.6678929405682037  0.9942826576337119   T   T   T
  0.4418482889421185  0.8815726829285637  0.1513863687275219   F   F   F
  0.5624985861892391  0.7818390837565494  0.3060249910473228   T   T   T
  0.4493962840421591  0.9006291568019456  0.3887001171672037   T   T   T
  0.3246285872179463  0.6496069823430275  0.2349565528860120   T   T   T
  0.5546145783240846  0.7758740886557192  0.0747129662190602   F   F   F
  0.6672241940408044  0.6677493253262905  0.9945128395282810   T   T   T
  0.7755501073961852  0.8911168926068029  0.1490805554151606   F   F   F
  0.8888554149204972  0.7791616728275292  0.3046473898241875   T   T   T
  0.7792588973569747  0.8876740856366866  0.3872543755422678   T   T   T
  0.6678688697143903  0.6701039228750361  0.2286557449741880   T   T   T
  0.8887955617946588  0.7778714382051604  0.0753947533377968   F   F   F
  0.3301497252976585  0.3375617436975553  0.3365197312607549   T   T   T
  0.0037727850238535  0.0020018389795113  0.3429181784302144   T   T   T
  0.2215708224352326  0.1096188629872401  0.1915752341502568   F   F   F
  0.1104709293969961  0.2211774864932465  0.0337591115246454   F   F   F
  0.3265374679541803 -0.0060775446222921  0.3431420960165161   T   T   T
  0.5562277157259246  0.1104392842742357  0.1911798675519023   F   F   F
  0.4440944861129594  0.2225715138869973  0.0358433622166743   F   F   F
  0.6664328458890855  0.0002674242800709  0.3474973567832651   T   T   T
  0.8895002930373721  0.1116487994374822  0.1915179708521464   F   F   F
  0.7783103671388147  0.2229287330413428  0.0358467630073633   F   F   F
  0.9943555191791286  0.3310374824666478  0.3527525487295776   T   T   T
  0.2238389559221403  0.4428270440719189  0.1852483845305528   F   F   F
  0.1101434255978830  0.5565235744017869  0.0340947134530012   F   F   F
  0.5570481370064755  0.4450951775603542  0.1915752341505410   F   F   F
  0.4454885135091686  0.5561960706038889  0.0337591115247307   F   F   F
  0.6727653935778091  0.3405123298571533  0.3430752948149534   T   T   T
  0.8910018153023103  0.4449917043743241  0.1917812913156425   F   F   F
  0.7771894641773116  0.5552434193661284  0.0352388121109755   F   F   F
 -0.0002973502936149  0.6674292555871068  0.3469608669924989   T   T   T
  0.2216742956295050  0.7756651847061846  0.1917812913155572   F   F   F
  0.1114235806347068  0.8894775358232394  0.0352388121109612   F   F   F
  0.3361547073334585  0.6721636836562374  0.3528032538972740   T   T   T
  0.5550182005575621  0.7771667069625039  0.1915179708520540   F   F   F
  0.4437372669577329  0.8883566328615373  0.0358467630073918   F   F   F
  0.6657554663860541  0.6640379559183831  0.3429212407955300   T   T   T
  0.8885848416529285  0.7780821583490436  0.1890255309831730   F   F   F
  0.7771426930152430  0.8895243069851873  0.0354502190979673   F   F   F
  0.3042492970461043  0.3589208997689122  0.4612420059620354   T   T   T
  0.4011730118543811  0.2648529691374490  0.4276986934704561   T   T   T
 
  0.00000000E+00  0.00000000E+00  0.00000000E+00
  0.00000000E+00  0.00000000E+00  0.00000000E+00
  0.00000000E+00  0.00000000E+00  0.00000000E+00
  0.00000000E+00  0.00000000E+00  0.00000000E+00
  0.00000000E+00  0.00000000E+00  0.00000000E+00
  0.00000000E+00  0.00000000E+00  0.00000000E+00
  0.00000000E+00  0.00000000E+00  0.00000000E+00
  0.00000000E+00  0.00000000E+00  0.00000000E+00
  0.00000000E+00  0.00000000E+00  0.00000000E+00
  0.00000000E+00  0.00000000E+00  0.00000000E+00
  0.00000000E+00  0.00000000E+00  0.00000000E+00
  0.00000000E+00  0.00000000E+00  0.00000000E+00
  0.00000000E+00  0.00000000E+00  0.00000000E+00
  0.00000000E+00  0.00000000E+00  0.00000000E+00
  0.00000000E+00  0.00000000E+00  0.00000000E+00
  0.00000000E+00  0.00000000E+00  0.00000000E+00
  0.00000000E+00  0.00000000E+00  0.00000000E+00
  0.00000000E+00  0.00000000E+00  0.00000000E+00
  0.00000000E+00  0.00000000E+00  0.00000000E+00
  0.00000000E+00  0.00000000E+00  0.00000000E+00
  0.00000000E+00  0.00000000E+00  0.00000000E+00
  0.00000000E+00  0.00000000E+00  0.00000000E+00
  0.00000000E+00  0.00000000E+00  0.00000000E+00
  0.00000000E+00  0.00000000E+00  0.00000000E+00
  0.00000000E+00  0.00000000E+00  0.00000000E+00
  0.00000000E+00  0.00000000E+00  0.00000000E+00
  0.00000000E+00  0.00000000E+00  0.00000000E+00
  0.00000000E+00  0.00000000E+00  0.00000000E+00
  0.00000000E+00  0.00000000E+00  0.00000000E+00
  0.00000000E+00  0.00000000E+00  0.00000000E+00
  0.00000000E+00  0.00000000E+00  0.00000000E+00
  0.00000000E+00  0.00000000E+00  0.00000000E+00
  0.00000000E+00  0.00000000E+00  0.00000000E+00
  0.00000000E+00  0.00000000E+00  0.00000000E+00
  0.00000000E+00  0.00000000E+00  0.00000000E+00
  0.00000000E+00  0.00000000E+00  0.00000000E+00
  0.00000000E+00  0.00000000E+00  0.00000000E+00
  0.00000000E+00  0.00000000E+00  0.00000000E+00
  0.00000000E+00  0.00000000E+00  0.00000000E+00
  0.00000000E+00  0.00000000E+00  0.00000000E+00
  0.00000000E+00  0.00000000E+00  0.00000000E+00
  0.00000000E+00  0.00000000E+00  0.00000000E+00
  0.00000000E+00  0.00000000E+00  0.00000000E+00
  0.00000000E+00  0.00000000E+00  0.00000000E+00
  0.00000000E+00  0.00000000E+00  0.00000000E+00
  0.00000000E+00  0.00000000E+00  0.00000000E+00
  0.00000000E+00  0.00000000E+00  0.00000000E+00
  0.00000000E+00  0.00000000E+00  0.00000000E+00
  0.00000000E+00  0.00000000E+00  0.00000000E+00
  0.00000000E+00  0.00000000E+00  0.00000000E+00
  0.00000000E+00  0.00000000E+00  0.00000000E+00
  0.00000000E+00  0.00000000E+00  0.00000000E+00
  0.00000000E+00  0.00000000E+00  0.00000000E+00
  0.00000000E+00  0.00000000E+00  0.00000000E+00
  0.00000000E+00  0.00000000E+00  0.00000000E+00
  0.00000000E+00  0.00000000E+00  0.00000000E+00
  0.00000000E+00  0.00000000E+00  0.00000000E+00
  0.00000000E+00  0.00000000E+00  0.00000000E+00
  0.00000000E+00  0.00000000E+00  0.00000000E+00
  0.00000000E+00  0.00000000E+00  0.00000000E+00
  0.00000000E+00  0.00000000E+00  0.00000000E+00
  0.00000000E+00  0.00000000E+00  0.00000000E+00
  0.00000000E+00  0.00000000E+00  0.00000000E+00
  0.00000000E+00  0.00000000E+00  0.00000000E+00
  0.00000000E+00  0.00000000E+00  0.00000000E+00
  0.00000000E+00  0.00000000E+00  0.00000000E+00
  0.00000000E+00  0.00000000E+00  0.00000000E+00
  0.00000000E+00  0.00000000E+00  0.00000000E+00
  0.00000000E+00  0.00000000E+00  0.00000000E+00
  0.00000000E+00  0.00000000E+00  0.00000000E+00
  0.00000000E+00  0.00000000E+00  0.00000000E+00
  0.00000000E+00  0.00000000E+00  0.00000000E+00
  0.00000000E+00  0.00000000E+00  0.00000000E+00
  0.00000000E+00  0.00000000E+00  0.00000000E+00
  0.00000000E+00  0.00000000E+00  0.00000000E+00
  0.00000000E+00  0.00000000E+00  0.00000000E+00
  0.00000000E+00  0.00000000E+00  0.00000000E+00
  0.00000000E+00  0.00000000E+00  0.00000000E+00
  0.00000000E+00  0.00000000E+00  0.00000000E+00
  0.00000000E+00  0.00000000E+00  0.00000000E+00
  0.00000000E+00  0.00000000E+00  0.00000000E+00
  0.00000000E+00  0.00000000E+00  0.00000000E+00
