CeO2-you-111-you-Pd                     
   1.00000000000000     
     9.7930589559308263   -5.6540255964950514    0.0000000000000000
     0.0000000061946111   11.3080492137426738    0.0000000000000000
     0.0000000000000000    0.0000000000000000   21.3318176779854127
   O    Pd   Ce   H 
    54     1    26     1
Selective dynamics
Direct
  0.0002890598836918  0.0001493263645969  0.9965738509968297   T   T   T
  0.1019941245569953  0.2176635622784318  0.1482337035763308   F   F   F
  0.2453170907114609  0.1397615830018653  0.3098240446469672   T   T   T
  0.1242632087151939  0.2350876694016296  0.3820859916999229   T   T   T
  0.0072850732098161  0.0025093814659152  0.2320442424355456   T   T   T
  0.2225809182373766  0.1118288364743876  0.0757959453022039   F   F   F
  0.3332207789180037  0.0002617851524208  0.9965410036680594   T   T   T
  0.4490024377214326  0.2176635622783678  0.1482337035763308   F   F   F
  0.5531820348547271  0.1138449927735004  0.3046635885204119   T   T   T
  0.4696369000547034  0.1976989048277469  0.4076146629294897   T   T   T
  0.3295571147938153  0.0005748468385420  0.2308416671162835   T   T   T
  0.5574861144178200  0.1091808855814378  0.0756950286250913   F   F   F
  0.6669161600631860  0.0002049341390816  0.9951447545348288   T   T   T
  0.7778868761057467  0.2224397522116632  0.1521385155800630   F   F   F
  0.8924819156686423  0.1114854946657511  0.3050005441754442   T   T   T
  0.7801483424865293  0.2231854508724755  0.3816629705412132   T   T   T
  0.6665850686192862  0.0002464762155060  0.2320682640263244   T   T   T
  0.8850287711638458  0.1091808855816652  0.0756950286250913   F   F   F
  0.0003562126448756  0.3334052341777339  0.9965388048081222   T   T   T
  0.1103805197083290  0.5562864802931315  0.1499209815547147   F   F   F
  0.2247772612516842  0.4422853307375986  0.2994469007678177   T   T   T
  0.1117643441713619  0.5555026084146641  0.3819041965445110   T   T   T
 -0.0003387245489984  0.3334017457566779  0.2296600652763152   T   T   T
  0.2225809182381795  0.4440850817629851  0.0757959453022039   F   F   F
  0.3331798753136789  0.3331503106335446  0.9963633047444058   T   T   T
  0.4490024377215676  0.5646728754432075  0.1482337035763308   F   F   F
  0.5267183470085791  0.4214221733595533  0.3099812178562997   T   T   T
  0.4322186041222461  0.5437154250017540  0.3822240204184870   T   T   T
  0.3334450905263942  0.3332752236374141  0.2134329442207908   T   T   T
  0.5548381635244510  0.4440850817626227  0.0757959453022039   F   F   F
  0.6663067467106596  0.3337789325831613  0.9967989607122743   T   T   T
  0.7792389605843510  0.5562864802926839  0.1499209815547147   F   F   F
  0.8905770875903697  0.4467650220324265  0.3036666050948500   T   T   T
  0.7731235604951679  0.5523736464519886  0.3814132867461620   T   T   T
  0.6666153860370226  0.3369279570817909  0.2310499774504689   T   T   T
  0.8881938117381694  0.4430536234765015  0.0763745903982596   F   F   F
  0.0000796822895252  0.6667465578200908  0.9971467941295930   T   T   T
  0.1103805197073200  0.8874280394141891  0.1499209815547147   F   F   F
  0.2207048675151899  0.7774646572755467  0.3040600784291725   T   T   T
  0.1144156983304271  0.8946095242834022  0.3814942071090670   T   T   T
 -0.0007380757819159  0.6678795384372248  0.2302095070009486   T   T   T
  0.2236123765240237  0.7784731882618274  0.0763745903982596   F   F   F
  0.3336743993701881  0.6662665126988779  0.9967499026305927   T   T   T
  0.4442262477888690  0.8887801238942501  0.1521385155800630   F   F   F
  0.5550844489375210  0.7740094244373337  0.3046321922640459   T   T   T
  0.4441615099560203  0.8872681105301998  0.3816292900001428   T   T   T
  0.3324635820748778  0.6670086924918781  0.2298949220526491   T   T   T
  0.5574861144183387  0.7816382288368899  0.0756950286250913   F   F   F
  0.6669397310567197  0.6666478572996193  0.9965616141555944   T   T   T
  0.7778868761053772  0.8887801238940867  0.1521385155800630   F   F   F
  0.8883604630934736  0.7786498053817589  0.3047641641073832   T   T   T
  0.7766447388295329  0.8884606861034212  0.3827615694049411   T   T   T
  0.6644270302571768  0.6593524501846552  0.2319963109544558   T   T   T
  0.8881938117377999  0.7784731882616640  0.0763745903982596   F   F   F
  0.3275746553360202  0.3392841470846374  0.3460366978187084   T   T   T
  0.0070751080509687  0.0075196005894194  0.3432237399920658   T   T   T
  0.2235209980402146  0.1137089960812290  0.1879392198029137   F   F   F
  0.1102083235254270  0.2217706617631379  0.0359557024537267   F   F   F
  0.3332886744107965 -0.0013754606351782  0.3432568019211189   T   T   T
  0.5555208251502251  0.1111461748522800  0.1906029422800088   F   F   F
  0.4448953382377141  0.2217706617635216  0.0359557024537267   F   F   F
  0.6675917638813108 -0.0010306122942804  0.3445169426585961   T   T   T
  0.8889593497012882  0.1111461748515126  0.1906029422800088   F   F   F
  0.7773805266926317  0.2214270533850637  0.0362981682964616   F   F   F
  0.0052191611386463  0.3355577573340229  0.3423594780965758   T   T   T
  0.2235209980384170  0.4431450019589889  0.1879392198029137   F   F   F
  0.1109834740913485  0.5556835259070425  0.0369909248345834   F   F   F
  0.5529580039213755  0.4431450019597847  0.1879392198029137   F   F   F
  0.4448953382368614  0.5564586764733477  0.0359557024537267   F   F   F
  0.6689480184607628  0.3338762918137990  0.3432751556914129   T   T   T
  0.8888434735335764  0.4443529470665908  0.1905239228030879   F   F   F
  0.7780330518161875  0.5556835259075399  0.0369909248345834   F   F   F
 -0.0005499824418927  0.6678283533399583  0.3420823182157743   T   T   T
  0.2223130529315753  0.7778235264664204  0.1905239228030879   F   F   F
  0.1109834740924640  0.8886339481854222  0.0369909248345834   F   F   F
  0.3317387756991715  0.6623131684789139  0.3423969535194376   T   T   T
  0.5555208251484913  0.7777076502962075  0.1906029422800088   F   F   F
  0.4452389466142677  0.8892864733073651  0.0362981682964616   F   F   F
  0.6590294166128270  0.6596956108713097  0.3432861808921847   T   T   T
  0.8888434735348483  0.7778235264669817  0.1905239228030879   F   F   F
  0.7773805266930935  0.8892864733075712  0.0362981682964616   F   F   F
  0.4388619487408636  0.2292148209404196  0.4431470631529156   T   T   T
 
  0.00000000E+00  0.00000000E+00  0.00000000E+00
  0.00000000E+00  0.00000000E+00  0.00000000E+00
  0.00000000E+00  0.00000000E+00  0.00000000E+00
  0.00000000E+00  0.00000000E+00  0.00000000E+00
  0.00000000E+00  0.00000000E+00  0.00000000E+00
  0.00000000E+00  0.00000000E+00  0.00000000E+00
  0.00000000E+00  0.00000000E+00  0.00000000E+00
  0.00000000E+00  0.00000000E+00  0.00000000E+00
  0.00000000E+00  0.00000000E+00  0.00000000E+00
  0.00000000E+00  0.00000000E+00  0.00000000E+00
  0.00000000E+00  0.00000000E+00  0.00000000E+00
  0.00000000E+00  0.00000000E+00  0.00000000E+00
  0.00000000E+00  0.00000000E+00  0.00000000E+00
  0.00000000E+00  0.00000000E+00  0.00000000E+00
  0.00000000E+00  0.00000000E+00  0.00000000E+00
  0.00000000E+00  0.00000000E+00  0.00000000E+00
  0.00000000E+00  0.00000000E+00  0.00000000E+00
  0.00000000E+00  0.00000000E+00  0.00000000E+00
  0.00000000E+00  0.00000000E+00  0.00000000E+00
  0.00000000E+00  0.00000000E+00  0.00000000E+00
  0.00000000E+00  0.00000000E+00  0.00000000E+00
  0.00000000E+00  0.00000000E+00  0.00000000E+00
  0.00000000E+00  0.00000000E+00  0.00000000E+00
  0.00000000E+00  0.00000000E+00  0.00000000E+00
  0.00000000E+00  0.00000000E+00  0.00000000E+00
  0.00000000E+00  0.00000000E+00  0.00000000E+00
  0.00000000E+00  0.00000000E+00  0.00000000E+00
  0.00000000E+00  0.00000000E+00  0.00000000E+00
  0.00000000E+00  0.00000000E+00  0.00000000E+00
  0.00000000E+00  0.00000000E+00  0.00000000E+00
  0.00000000E+00  0.00000000E+00  0.00000000E+00
  0.00000000E+00  0.00000000E+00  0.00000000E+00
  0.00000000E+00  0.00000000E+00  0.00000000E+00
  0.00000000E+00  0.00000000E+00  0.00000000E+00
  0.00000000E+00  0.00000000E+00  0.00000000E+00
  0.00000000E+00  0.00000000E+00  0.00000000E+00
  0.00000000E+00  0.00000000E+00  0.00000000E+00
  0.00000000E+00  0.00000000E+00  0.00000000E+00
  0.00000000E+00  0.00000000E+00  0.00000000E+00
  0.00000000E+00  0.00000000E+00  0.00000000E+00
  0.00000000E+00  0.00000000E+00  0.00000000E+00
  0.00000000E+00  0.00000000E+00  0.00000000E+00
  0.00000000E+00  0.00000000E+00  0.00000000E+00
  0.00000000E+00  0.00000000E+00  0.00000000E+00
  0.00000000E+00  0.00000000E+00  0.00000000E+00
  0.00000000E+00  0.00000000E+00  0.00000000E+00
  0.00000000E+00  0.00000000E+00  0.00000000E+00
  0.00000000E+00  0.00000000E+00  0.00000000E+00
  0.00000000E+00  0.00000000E+00  0.00000000E+00
  0.00000000E+00  0.00000000E+00  0.00000000E+00
  0.00000000E+00  0.00000000E+00  0.00000000E+00
  0.00000000E+00  0.00000000E+00  0.00000000E+00
  0.00000000E+00  0.00000000E+00  0.00000000E+00
  0.00000000E+00  0.00000000E+00  0.00000000E+00
  0.00000000E+00  0.00000000E+00  0.00000000E+00
  0.00000000E+00  0.00000000E+00  0.00000000E+00
  0.00000000E+00  0.00000000E+00  0.00000000E+00
  0.00000000E+00  0.00000000E+00  0.00000000E+00
  0.00000000E+00  0.00000000E+00  0.00000000E+00
  0.00000000E+00  0.00000000E+00  0.00000000E+00
  0.00000000E+00  0.00000000E+00  0.00000000E+00
  0.00000000E+00  0.00000000E+00  0.00000000E+00
  0.00000000E+00  0.00000000E+00  0.00000000E+00
  0.00000000E+00  0.00000000E+00  0.00000000E+00
  0.00000000E+00  0.00000000E+00  0.00000000E+00
  0.00000000E+00  0.00000000E+00  0.00000000E+00
  0.00000000E+00  0.00000000E+00  0.00000000E+00
  0.00000000E+00  0.00000000E+00  0.00000000E+00
  0.00000000E+00  0.00000000E+00  0.00000000E+00
  0.00000000E+00  0.00000000E+00  0.00000000E+00
  0.00000000E+00  0.00000000E+00  0.00000000E+00
  0.00000000E+00  0.00000000E+00  0.00000000E+00
  0.00000000E+00  0.00000000E+00  0.00000000E+00
  0.00000000E+00  0.00000000E+00  0.00000000E+00
  0.00000000E+00  0.00000000E+00  0.00000000E+00
  0.00000000E+00  0.00000000E+00  0.00000000E+00
  0.00000000E+00  0.00000000E+00  0.00000000E+00
  0.00000000E+00  0.00000000E+00  0.00000000E+00
  0.00000000E+00  0.00000000E+00  0.00000000E+00
  0.00000000E+00  0.00000000E+00  0.00000000E+00
  0.00000000E+00  0.00000000E+00  0.00000000E+00
  0.00000000E+00  0.00000000E+00  0.00000000E+00
