CeO2-you-111-you-Ru                     
   1.00000000000000     
     9.8809530401205770   -5.6653203400641132    0.0037551451733296
    -0.0000000039326309   11.3306386793893044   -0.0000000003420548
     0.0087823004912364   -0.0000000007446759   21.0180464334301043
   O    Ru   Ce   H 
    53     1    26     2
Selective dynamics
Direct
  0.0000874649440514  0.0005039046310172  0.9954358455603727   T   T   T
  0.1137558769626494  0.2235444384812766  0.1494107487925049   F   F   F
  0.2278471511790251  0.1399229556915880  0.3118001730566709   T   T   T
  0.0428620778856961  0.1865596500083652  0.4015054068324547   T   T   T
  0.0050008089876026  0.0037471020792279  0.2289611816840758   T   T   T
  0.2225878510051302  0.1109220173397460  0.0740741736120256   F   F   F
  0.3343675545596549  0.0000864946000505  0.9949570115444387   T   T   T
  0.4451809307329455  0.2194589300266045  0.1465445348352432   F   F   F
  0.5449589456216987  0.1058643227573076  0.3073720122584266   T   T   T
  0.4424700760851159  0.2507845818433086  0.3895471204504204   T   T   T
  0.3269606687686544  0.0021121126594242  0.2315455023124440   T   T   T
  0.5561319101326916  0.1092022287699308  0.0750979427120839   F   F   F
  0.6694543987035213  0.0012280954102688  0.9954008885590254   T   T   T
  0.7732796072733805  0.2236741978507339  0.1528246036460246   F   F   F
  0.8831109424576492  0.1079499984753097  0.3006087650733394   T   T   T
  0.7772493614036575  0.2137450485344250  0.3873044494442934   T   T   T
  0.6619617126012443  0.9988288061461607  0.2300811802873003   T   T   T
  0.8879888649031003  0.1106609324513812  0.0773509767547722   F   F   F
  0.0001811372827670  0.3316391945044707  0.9954248706004715   T   T   T
  0.1102079480248008  0.5552002953325683  0.1498826161127766   F   F   F
  0.2192257284666101  0.4178144750446396  0.3065136723185705   T   T   T
  0.1211712090488478  0.5564996881612447  0.3831956745465483   T   T   T
  0.0021985528985650  0.3332701053798056  0.2281731367523321   T   T   T
  0.2225878510051800  0.4449988336644495  0.0740741736119830   F   F   F
  0.3328722202557462  0.3329270780844153  0.9947368231370615   T   T   T
  0.4451809307308281  0.5590560007071232  0.1465445348355843   F   F   F
  0.4429052505055402  0.5165481680025171  0.3702595008612031   T   T   T
  0.3499494234597256  0.3413885242514273  0.2255844383940891   T   T   T
  0.5567241650507171  0.4450280825258872  0.0717998263277906   F   F   F
  0.6686064179735159  0.3324814014592857  0.9949314796289689   T   T   T
  0.7803797658978340  0.5568568829492690  0.1470310868514062   F   F   F
  0.8981159764499670  0.4451544829593297  0.3042656358385901   T   T   T
  0.7949819176884058  0.5634398215993743  0.3867533050903736   T   T   T
  0.6595271826337336  0.3417669525298766  0.2340078057913869   T   T   T
  0.8901075058080679  0.4434669939540186  0.0747842767584288   F   F   F
  0.0006651790266530  0.6670649640631275  0.9950494846703019   T   T   T
  0.1102079480243674  0.8883416526899666  0.1498826161127980   F   F   F
  0.2243182802983505  0.7761795465120295  0.3025638187907221   T   T   T
  0.1216642352756745  0.8935922878962076  0.3840733495743244   T   T   T
  0.9992865572643076  0.6666808545575841  0.2294349632918657   T   T   T
  0.2229224062075943  0.7781282031035630  0.0750067863642698   F   F   F
  0.3343685033378617  0.6678411598131173  0.9946893833151276   T   T   T
  0.4428204031273211  0.8880772015639309  0.1524926767254584   F   F   F
  0.5485676831586569  0.7765245899241359  0.3059123586643357   T   T   T
  0.4346585162814894  0.8815681505372772  0.3858157783698654   T   T   T
  0.3287035826921951  0.6577184048403237  0.2310336409539455   T   T   T
  0.5561319101330113  0.7802626813642775  0.0750979427120981   F   F   F
  0.6684867220518135  0.6693060099571303  0.9950703013530419   T   T   T
  0.7732796072716255  0.8829384094217758  0.1528246036457830   F   F   F
  0.8993196515162517  0.7868309330051213  0.3046956644916969   T   T   T
  0.7767145029469986  0.8980240142353596  0.3876263074684867   T   T   T
  0.6609469670334548  0.6510025332153873  0.2338330900738092   T   T   T
  0.8901075058078192  0.7799735118533349  0.0747842767585070   F   F   F
  0.3288223821960119  0.3357719344291676  0.3417029887399851   T   T   T
 -0.0012296715563407  0.0070461091543938  0.3479191070209056   T   T   T
  0.2227860964481394  0.1141080638667944  0.1893133652281165   F   F   F
  0.1114681160196582  0.2224005580103636  0.0347756794911831   F   F   F
  0.3280063055499258 -0.0065711787511998  0.3433922190964652   T   T   T
  0.5542891682501860  0.1123185244633831  0.1921084256270547   F   F   F
  0.4443907091556341  0.2201723658119334  0.0333793402774347   F   F   F
  0.6628654021225284  0.9978831543962029  0.3458263814326389   T   T   T
  0.8875044776595473  0.1104187388314415  0.1907520639687661   F   F   F
  0.7777096285186502  0.2219080296638225  0.0360522342044121   F   F   F
 -0.0020489955587031  0.3241427125329705  0.3476523581823847   T   T   T
  0.2227860964478694  0.4420110325781508  0.1893133652282941   F   F   F
  0.1109198205461794  0.5548121276378453  0.0355706854338251   F   F   F
  0.5564813170391432  0.4449066585169490  0.1814672774411719   F   F   F
  0.4443907091560177  0.5575523433431613  0.0333793402772429   F   F   F
  0.6795730212530284  0.3352783424217584  0.3498229290973541   T   T   T
  0.8881412285178953  0.4441696308296628  0.1915539061462113   F   F   F
  0.7806670683344166  0.5570005341665265  0.0338307149592865   F   F   F
  0.0023367682412163  0.6668395530426157  0.3440580344955204   T   T   T
  0.2205362617522368  0.7769351308776251  0.1888146713325796   F   F   F
  0.1109198205462860  0.8894416929097133  0.0355706854338891   F   F   F
  0.3297726774853924  0.6599837885431961  0.3425117097286874   T   T   T
  0.5542891682556714  0.7753036437859109  0.1921084256271826   F   F   F
  0.4456509279581269  0.8894924639788186  0.0359827987579422   F   F   F
  0.6791200453748693  0.6777512844033362  0.3505220361558143   T   T   T
  0.8881412285226915  0.7773045976977571  0.1915539061466873   F   F   F
  0.7777096285195810  0.8891345988548451  0.0360522342043623   F   F   F
  0.2646771085908358  0.3056886115747696  0.4099185725784177   T   T   T
  0.4208311953301476  0.2577181157240009  0.4337067467669792   T   T   T
 
  0.00000000E+00  0.00000000E+00  0.00000000E+00
  0.00000000E+00  0.00000000E+00  0.00000000E+00
  0.00000000E+00  0.00000000E+00  0.00000000E+00
  0.00000000E+00  0.00000000E+00  0.00000000E+00
  0.00000000E+00  0.00000000E+00  0.00000000E+00
  0.00000000E+00  0.00000000E+00  0.00000000E+00
  0.00000000E+00  0.00000000E+00  0.00000000E+00
  0.00000000E+00  0.00000000E+00  0.00000000E+00
  0.00000000E+00  0.00000000E+00  0.00000000E+00
  0.00000000E+00  0.00000000E+00  0.00000000E+00
  0.00000000E+00  0.00000000E+00  0.00000000E+00
  0.00000000E+00  0.00000000E+00  0.00000000E+00
  0.00000000E+00  0.00000000E+00  0.00000000E+00
  0.00000000E+00  0.00000000E+00  0.00000000E+00
  0.00000000E+00  0.00000000E+00  0.00000000E+00
  0.00000000E+00  0.00000000E+00  0.00000000E+00
  0.00000000E+00  0.00000000E+00  0.00000000E+00
  0.00000000E+00  0.00000000E+00  0.00000000E+00
  0.00000000E+00  0.00000000E+00  0.00000000E+00
  0.00000000E+00  0.00000000E+00  0.00000000E+00
  0.00000000E+00  0.00000000E+00  0.00000000E+00
  0.00000000E+00  0.00000000E+00  0.00000000E+00
  0.00000000E+00  0.00000000E+00  0.00000000E+00
  0.00000000E+00  0.00000000E+00  0.00000000E+00
  0.00000000E+00  0.00000000E+00  0.00000000E+00
  0.00000000E+00  0.00000000E+00  0.00000000E+00
  0.00000000E+00  0.00000000E+00  0.00000000E+00
  0.00000000E+00  0.00000000E+00  0.00000000E+00
  0.00000000E+00  0.00000000E+00  0.00000000E+00
  0.00000000E+00  0.00000000E+00  0.00000000E+00
  0.00000000E+00  0.00000000E+00  0.00000000E+00
  0.00000000E+00  0.00000000E+00  0.00000000E+00
  0.00000000E+00  0.00000000E+00  0.00000000E+00
  0.00000000E+00  0.00000000E+00  0.00000000E+00
  0.00000000E+00  0.00000000E+00  0.00000000E+00
  0.00000000E+00  0.00000000E+00  0.00000000E+00
  0.00000000E+00  0.00000000E+00  0.00000000E+00
  0.00000000E+00  0.00000000E+00  0.00000000E+00
  0.00000000E+00  0.00000000E+00  0.00000000E+00
  0.00000000E+00  0.00000000E+00  0.00000000E+00
  0.00000000E+00  0.00000000E+00  0.00000000E+00
  0.00000000E+00  0.00000000E+00  0.00000000E+00
  0.00000000E+00  0.00000000E+00  0.00000000E+00
  0.00000000E+00  0.00000000E+00  0.00000000E+00
  0.00000000E+00  0.00000000E+00  0.00000000E+00
  0.00000000E+00  0.00000000E+00  0.00000000E+00
  0.00000000E+00  0.00000000E+00  0.00000000E+00
  0.00000000E+00  0.00000000E+00  0.00000000E+00
  0.00000000E+00  0.00000000E+00  0.00000000E+00
  0.00000000E+00  0.00000000E+00  0.00000000E+00
  0.00000000E+00  0.00000000E+00  0.00000000E+00
  0.00000000E+00  0.00000000E+00  0.00000000E+00
  0.00000000E+00  0.00000000E+00  0.00000000E+00
  0.00000000E+00  0.00000000E+00  0.00000000E+00
  0.00000000E+00  0.00000000E+00  0.00000000E+00
  0.00000000E+00  0.00000000E+00  0.00000000E+00
  0.00000000E+00  0.00000000E+00  0.00000000E+00
  0.00000000E+00  0.00000000E+00  0.00000000E+00
  0.00000000E+00  0.00000000E+00  0.00000000E+00
  0.00000000E+00  0.00000000E+00  0.00000000E+00
  0.00000000E+00  0.00000000E+00  0.00000000E+00
  0.00000000E+00  0.00000000E+00  0.00000000E+00
  0.00000000E+00  0.00000000E+00  0.00000000E+00
  0.00000000E+00  0.00000000E+00  0.00000000E+00
  0.00000000E+00  0.00000000E+00  0.00000000E+00
  0.00000000E+00  0.00000000E+00  0.00000000E+00
  0.00000000E+00  0.00000000E+00  0.00000000E+00
  0.00000000E+00  0.00000000E+00  0.00000000E+00
  0.00000000E+00  0.00000000E+00  0.00000000E+00
  0.00000000E+00  0.00000000E+00  0.00000000E+00
  0.00000000E+00  0.00000000E+00  0.00000000E+00
  0.00000000E+00  0.00000000E+00  0.00000000E+00
  0.00000000E+00  0.00000000E+00  0.00000000E+00
  0.00000000E+00  0.00000000E+00  0.00000000E+00
  0.00000000E+00  0.00000000E+00  0.00000000E+00
  0.00000000E+00  0.00000000E+00  0.00000000E+00
  0.00000000E+00  0.00000000E+00  0.00000000E+00
  0.00000000E+00  0.00000000E+00  0.00000000E+00
  0.00000000E+00  0.00000000E+00  0.00000000E+00
  0.00000000E+00  0.00000000E+00  0.00000000E+00
  0.00000000E+00  0.00000000E+00  0.00000000E+00
  0.00000000E+00  0.00000000E+00  0.00000000E+00
