CeO2-you-111-you-Re                     
   1.00000000000000     
     9.8574383390581062   -5.6911950451955384    0.0000000008021707
     0.0349891988231736   11.4429911535160898    0.0152387379200071
     0.0161160208337313    0.0279137622267962   21.1402671599840168
   O    Re   Ce   H 
    53     1    26     2
Selective dynamics
Direct
  0.9979723314353679  0.0001141859694967  0.9972566006201565   T   T   T
  0.1127332761707720  0.2235758685249820  0.1486794913576901   F   F   F
  0.2397343393468047  0.1342688894228098  0.3027709295204691   T   T   T
  0.1992545454631540  0.2692543285262451  0.3938423907827602   T   T   T
  0.0038254107082308  0.0004577545952960  0.2281585688289085   T   T   T
  0.2210186263695633  0.1087042527388533  0.0734591976352661   F   F   F
  0.3359325241703968  0.0004285850940739  0.9971660639074954   T   T   T
  0.4441755923531758  0.2235758685241791  0.1486794913576048   F   F   F
  0.5598075124225890  0.1214557736364483  0.3059559748184605   T   T   T
  0.4233347572501115  0.2316763560739061  0.3928375166661662   T   T   T
  0.3303988413407306 -0.0001776543781302  0.2276477725487964   T   T   T
  0.5571384196778268  0.1119841859082129  0.0776696917463369   F   F   F
  0.6671731764114295  0.0001362327202067  0.9985109446506283   T   T   T
  0.7801755708316946  0.2270171416636515  0.1540812316560860   F   F   F
  0.9020305832566834  0.1240017562698011  0.3076907284083442   T   T   T
  0.7824643871145232  0.2307476635895227  0.3853919848320103   T   T   T
  0.6705546713992852  0.0045996241165615  0.2309240429947880   T   T   T
  0.8881797662304862  0.1119841859084332  0.0776696917463440   F   F   F
  0.9994307367951696  0.3316738432216456  0.9971622550822425   T   T   T
  0.1095680576350162  0.5540030725571867  0.1482276278177963   F   F   F
  0.2416166005946321  0.4280770036829261  0.3057082578733870   T   T   T
  0.0989921435643927  0.5406871038915736  0.3816468497718524   T   T   T
  0.0090356801732103  0.3396025575876947  0.2305539040325758   T   T   T
  0.2230081119988228  0.4455310694325902  0.0753192125987354   F   F   F
  0.3327824488569917  0.3326541260213067  0.9969854426813916   T   T   T
  0.4430031262652108  0.5526742525302950  0.1501677788324187   F   F   F
  0.5079437889258916  0.4236915635967727  0.3124826619542738   T   T   T
  0.3303226221869868  0.3279542268775862  0.2287374269195205   T   T   T
  0.5558569574333561  0.4455310694323771  0.0753192125987212   F   F   F
  0.6660438034097947  0.3323117456707498  0.9973742663125102   T   T   T
  0.7777680149221524  0.5540030725568670  0.1482276278177537   F   F   F
  0.8874769563576116  0.4398553329665966  0.3007761583724371   T   T   T
  0.7743020347763508  0.5381943050856710  0.3813730147747071   T   T   T
  0.6623313305256920  0.3407320415264601  0.2319273625930035   T   T   T
  0.8885818379077790  0.4438296758155644  0.0748121792778136   F   F   F
  0.0002552448629605  0.6676221827575534  0.9963656884786343   T   T   T
  0.1096403901611609  0.8859477803213522  0.1473293373505840   F   F   F
  0.2166370116275638  0.7718809379054179  0.3015145600190122   T   T   T
  0.1030207607342906  0.8695729012717160  0.3879138210809315   T   T   T
  0.9982735504515323  0.6653146814627973  0.2267378991793388   T   T   T
  0.2232920243580665  0.7777555116549948  0.0749995259609051   F   F   F
  0.3339633114749243  0.6669764461525393  0.9968143337764206   T   T   T
  0.4470069446669385  0.8902251302334960  0.1512844127866231   F   F   F
  0.5580770456419445  0.7804766625834468  0.3016093236803836   T   T   T
  0.4594883650201556  0.8943845870049828  0.3874984903062741   T   T   T
  0.3295454988071617  0.6603474599516623  0.2277300619849295   T   T   T
  0.5546144097973951  0.7758948195946189  0.0766820865106297   F   F   F
  0.6663929821565358  0.6670657051028803  0.9966592860766111   T   T   T
  0.7765511855669160  0.8902251302339863  0.1512844127865947   F   F   F
  0.8909207774520959  0.7752498737389762  0.3028239802555859   T   T   T
  0.7742584311702704  0.8955800951653949  0.3870254148078178   T   T   T
  0.6646461001329870  0.6585035248619429  0.2286604073555975   T   T   T
  0.8877964872971660  0.7777555116550658  0.0749995259609193   F   F   F
  0.3171784939135636  0.3144880018562099  0.3283159669719463   T   T   T
  0.9959492771938396  0.9876823135684180  0.3478744445918793   T   T   T
  0.2183740303933916  0.1034150607863396  0.1842455171469055   F   F   F
  0.1101421971694876  0.2223674010858474  0.0360137386036712   F   F   F
  0.3304910072460249  0.9875556450236408  0.3484129892580374   T   T   T
  0.5542526379724322  0.1118885102263079  0.1920192997169892   F   F   F
  0.4455582039162280  0.2223674010862027  0.0360137386037209   F   F   F
  0.6678505474815031 -0.0017201473255419  0.3457909443027792   T   T   T
  0.8909698722525619  0.1118885102245386  0.1920192997170318   F   F   F
  0.7778431643414265  0.2223523286827671  0.0381661217823606   F   F   F
  0.9962533501958883  0.3374035371873341  0.3424197676986717   T   T   T
  0.2240849715455511  0.4462843863365293  0.1876444427957935   F   F   F
  0.1117437370730059  0.5559968111312088  0.0359308841308703   F   F   F
  0.5555334147934587  0.4462843863391583  0.1876444427962198   F   F   F
  0.4449199466971194  0.5565078933939986  0.0356580083468216   F   F   F
  0.6724718913281721  0.3336263634549116  0.3437112109731073   T   T   T
  0.8900527764450317  0.4467715528901977  0.1891464602866577   F   F   F
  0.7775860740585046  0.5559968111315854  0.0359308841308490   F   F   F
  0.0001479749436843  0.6657014573471858  0.3419219497517719   T   T   T
  0.2225854651184989  0.7773870720680591  0.1891636185079477   F   F   F
  0.1106134951523785  0.8878939903048817  0.0348506516024116   F   F   F
  0.3359438382519536  0.6683450766226924  0.3465661018091114   T   T   T
  0.5558381761463878  0.7783423522925119  0.1917278821652744   F   F   F
  0.4455327876613708  0.8894519109637216  0.0377816659009227   F   F   F
  0.6665494704132506  0.6677452412342518  0.3470624321503059   T   T   T
  0.8881346069482490  0.7773870720670359  0.1891636185080472   F   F   F
  0.7772521233023397  0.8894519109637713  0.0377816659008801   F   F   F
  0.4516124368543454  0.5700549657998992  0.3998105401248570   T   T   T
  0.4061758847791784  0.2524922227544004  0.4353228969847154   T   T   T
 
  0.00000000E+00  0.00000000E+00  0.00000000E+00
  0.00000000E+00  0.00000000E+00  0.00000000E+00
  0.00000000E+00  0.00000000E+00  0.00000000E+00
  0.00000000E+00  0.00000000E+00  0.00000000E+00
  0.00000000E+00  0.00000000E+00  0.00000000E+00
  0.00000000E+00  0.00000000E+00  0.00000000E+00
  0.00000000E+00  0.00000000E+00  0.00000000E+00
  0.00000000E+00  0.00000000E+00  0.00000000E+00
  0.00000000E+00  0.00000000E+00  0.00000000E+00
  0.00000000E+00  0.00000000E+00  0.00000000E+00
  0.00000000E+00  0.00000000E+00  0.00000000E+00
  0.00000000E+00  0.00000000E+00  0.00000000E+00
  0.00000000E+00  0.00000000E+00  0.00000000E+00
  0.00000000E+00  0.00000000E+00  0.00000000E+00
  0.00000000E+00  0.00000000E+00  0.00000000E+00
  0.00000000E+00  0.00000000E+00  0.00000000E+00
  0.00000000E+00  0.00000000E+00  0.00000000E+00
  0.00000000E+00  0.00000000E+00  0.00000000E+00
  0.00000000E+00  0.00000000E+00  0.00000000E+00
  0.00000000E+00  0.00000000E+00  0.00000000E+00
  0.00000000E+00  0.00000000E+00  0.00000000E+00
  0.00000000E+00  0.00000000E+00  0.00000000E+00
  0.00000000E+00  0.00000000E+00  0.00000000E+00
  0.00000000E+00  0.00000000E+00  0.00000000E+00
  0.00000000E+00  0.00000000E+00  0.00000000E+00
  0.00000000E+00  0.00000000E+00  0.00000000E+00
  0.00000000E+00  0.00000000E+00  0.00000000E+00
  0.00000000E+00  0.00000000E+00  0.00000000E+00
  0.00000000E+00  0.00000000E+00  0.00000000E+00
  0.00000000E+00  0.00000000E+00  0.00000000E+00
  0.00000000E+00  0.00000000E+00  0.00000000E+00
  0.00000000E+00  0.00000000E+00  0.00000000E+00
  0.00000000E+00  0.00000000E+00  0.00000000E+00
  0.00000000E+00  0.00000000E+00  0.00000000E+00
  0.00000000E+00  0.00000000E+00  0.00000000E+00
  0.00000000E+00  0.00000000E+00  0.00000000E+00
  0.00000000E+00  0.00000000E+00  0.00000000E+00
  0.00000000E+00  0.00000000E+00  0.00000000E+00
  0.00000000E+00  0.00000000E+00  0.00000000E+00
  0.00000000E+00  0.00000000E+00  0.00000000E+00
  0.00000000E+00  0.00000000E+00  0.00000000E+00
  0.00000000E+00  0.00000000E+00  0.00000000E+00
  0.00000000E+00  0.00000000E+00  0.00000000E+00
  0.00000000E+00  0.00000000E+00  0.00000000E+00
  0.00000000E+00  0.00000000E+00  0.00000000E+00
  0.00000000E+00  0.00000000E+00  0.00000000E+00
  0.00000000E+00  0.00000000E+00  0.00000000E+00
  0.00000000E+00  0.00000000E+00  0.00000000E+00
  0.00000000E+00  0.00000000E+00  0.00000000E+00
  0.00000000E+00  0.00000000E+00  0.00000000E+00
  0.00000000E+00  0.00000000E+00  0.00000000E+00
  0.00000000E+00  0.00000000E+00  0.00000000E+00
  0.00000000E+00  0.00000000E+00  0.00000000E+00
  0.00000000E+00  0.00000000E+00  0.00000000E+00
  0.00000000E+00  0.00000000E+00  0.00000000E+00
  0.00000000E+00  0.00000000E+00  0.00000000E+00
  0.00000000E+00  0.00000000E+00  0.00000000E+00
  0.00000000E+00  0.00000000E+00  0.00000000E+00
  0.00000000E+00  0.00000000E+00  0.00000000E+00
  0.00000000E+00  0.00000000E+00  0.00000000E+00
  0.00000000E+00  0.00000000E+00  0.00000000E+00
  0.00000000E+00  0.00000000E+00  0.00000000E+00
  0.00000000E+00  0.00000000E+00  0.00000000E+00
  0.00000000E+00  0.00000000E+00  0.00000000E+00
  0.00000000E+00  0.00000000E+00  0.00000000E+00
  0.00000000E+00  0.00000000E+00  0.00000000E+00
  0.00000000E+00  0.00000000E+00  0.00000000E+00
  0.00000000E+00  0.00000000E+00  0.00000000E+00
  0.00000000E+00  0.00000000E+00  0.00000000E+00
  0.00000000E+00  0.00000000E+00  0.00000000E+00
  0.00000000E+00  0.00000000E+00  0.00000000E+00
  0.00000000E+00  0.00000000E+00  0.00000000E+00
  0.00000000E+00  0.00000000E+00  0.00000000E+00
  0.00000000E+00  0.00000000E+00  0.00000000E+00
  0.00000000E+00  0.00000000E+00  0.00000000E+00
  0.00000000E+00  0.00000000E+00  0.00000000E+00
  0.00000000E+00  0.00000000E+00  0.00000000E+00
  0.00000000E+00  0.00000000E+00  0.00000000E+00
  0.00000000E+00  0.00000000E+00  0.00000000E+00
  0.00000000E+00  0.00000000E+00  0.00000000E+00
  0.00000000E+00  0.00000000E+00  0.00000000E+00
  0.00000000E+00  0.00000000E+00  0.00000000E+00
