CeO2-you-111-you-Sb                     
   1.00000000000000     
     9.8441232501382814   -5.7114742792296660    0.0042558884393028
     0.0000000002073876   11.4229465485933144   -0.0000000004986555
     0.0090010183268086   -0.0000000009066971   20.9792539983072395
   O    Sb   Ce   H 
    53     1    26     1
Selective dynamics
Direct
  0.9989342917826969  0.0011254514902029  0.9947202497371354   T   T   T
  0.1168849333086644  0.2254765641330686  0.1498572673565802   T   T   T
  0.2237007551397411  0.1218401871424592  0.3047416765625974   T   T   T
  0.1144009028591281  0.2247554910748730  0.3846130584956661   T   T   T
  0.0019816669292737  0.0010510261784416  0.2280593465047620   T   T   T
  0.2211653461079082  0.1098158958971412  0.0728262159693717   T   T   T
  0.3330558463523418  0.9989465978290837  0.9940619079020589   T   T   T
  0.4427938236085271  0.2205522602545390  0.1460732959759435   T   T   T
  0.5586904141893253  0.1086356810310146  0.3035610360220621   T   T   T
  0.4590453591901879  0.2037453237419942  0.4100044825459688   T   T   T
  0.3301822961048271 -0.0002930897812179  0.2280664574254647   T   T   T
  0.5551728304791971  0.1099792986448221  0.0742016339866818   T   T   T
  0.6687070712440970  0.0014225227152805  0.9949910614681364   T   T   T
  0.7759973707882458  0.2266015367780180  0.1513097883754305   T   T   T
  0.8910731213701688  0.1109837878307694  0.3034813772933229   T   T   T
  0.7880362985414484  0.2194181328999466  0.3875962139768293   T   T   T
  0.6696181381984256  0.0029427528646288  0.2266840294792084   T   T   T
  0.8883551102457610  0.1103960515060463  0.0769436290552663   T   T   T
  0.9984578130776399  0.3308879133683467  0.9952279383070116   T   T   T
  0.1098162821474130  0.5552755021843168  0.1497484864877520   T   T   T
  0.2250110975101537  0.4365977690860964  0.3043493910016169   T   T   T
  0.1100370315976396  0.5520607557094414  0.3844142179424129   T   T   T
  0.0020540595336501  0.3341866262758744  0.2285101082127085   T   T   T
  0.2216428844790219  0.4454541610147213  0.0731364827654297   T   T   T
  0.3313851707638071  0.3323799287312753  0.9937749318935369   T   T   T
  0.4442477733382045  0.5562588887831397  0.1454605750008528   T   T   T
  0.4630521324749259  0.5846099922800242  0.3848665924872702   T   T   T
  0.3468933437395504  0.3405118964227414  0.2318701570332012   T   T   T
  0.5558633874060551  0.4439631265012427  0.0703446306638152   T   T   T
  0.6667843719968006  0.3320503094843895  0.9935637658926362   T   T   T
  0.7795696304056573  0.5577024979184454  0.1457358259966096   T   T   T
  0.8940394639019313  0.4457306122199523  0.3035963991793295   T   T   T
  0.7678495537339642  0.5611904444144548  0.3787089174648269   T   T   T
  0.6569422608052586  0.3430541562754577  0.2325402737435805   T   T   T
  0.8887079381829769  0.4446993156830298  0.0732959216415267   T   T   T
  0.0009935273832638  0.6669905200102660  0.9935166653543350   T   T   T
  0.1094125464546304  0.8875023312807896  0.1487513676281446   T   T   T
  0.2176351100069930  0.7689905271496233  0.3037193520346437   T   T   T
  0.0944879237009440  0.8796944595272156  0.3845253989219346   T   T   T
  0.9969262074868751  0.6668914076338093  0.2288000989922476   T   T   T
  0.2225254016130782  0.7773762043062888  0.0742382530039642   T   T   T
  0.3329889854778723  0.6667824354886078  0.9936015331958099   T   T   T
  0.4444048563863202  0.8880912990261459  0.1505646101804915   T   T   T
  0.5631281415262006  0.7871623847716962  0.3000687434735542   T   T   T
  0.4511547776948171  0.8795552824877898  0.3861444958409305   T   T   T
  0.3334987674150880  0.6629352392204768  0.2291110702833221   T   T   T
  0.5553603975997824  0.7784891627638182  0.0730370296862321   T   T   T
  0.6665825885338597  0.6679241123716346  0.9931017867436155   T   T   T
  0.7749480154855859  0.8818739496947371  0.1509949931360150   T   T   T
  0.8872761828957759  0.7828756883586151  0.3014476095963965   T   T   T
  0.7815331685034244  0.8939075994648270  0.3865619752278508   T   T   T
  0.6541230278241861  0.6440731989129539  0.2347622432439234   T   T   T
  0.8890607321196269  0.7784266857553284  0.0722981789444589   T   T   T
  0.3021567564123817  0.3190847388052486  0.3392036652507195   T   T   T
 -0.0012696806537692  0.9980742925553022  0.3434631818067757   T   T   T
  0.2234324548424563  0.1105939802651151  0.1888330832783075   T   T   T
  0.1108801958614245  0.2220213274016299  0.0344559959050405   T   T   T
  0.3309279421067942 -0.0075079512181860  0.3486710900432154   T   T   T
  0.5542583550418541  0.1118048406029542  0.1915034861238602   T   T   T
  0.4435769499891150  0.2197769973002957  0.0322368542935090   T   T   T
  0.6674336037613013  0.0017630225610688  0.3438926495413171   T   T   T
  0.8897109588515781  0.1120011562188358  0.1899675680191524   T   T   T
  0.7773564220941639  0.2221667624060052  0.0353304640816998   T   T   T
  0.0000115712000473  0.3354432923688915  0.3445921266234973   T   T   T
  0.2236709629905045  0.4454611202968048  0.1881149428617952   T   T   T
  0.1107743557102656  0.5554316459582122  0.0345989074466729   T   T   T
  0.5554078911280553  0.4438426458534044  0.1803183608418341   T   T   T
  0.4436249312255632  0.5567166199216023  0.0316558922006192   T   T   T
  0.6729210802635035  0.3274672140197029  0.3515235331667734   T   T   T
  0.8872031749080675  0.4448867571265576  0.1902482288839168   T   T   T
  0.7796708938387866  0.5564804022733122  0.0317924721613698   T   T   T
  0.9974953267469678  0.6660210722097495  0.3428691143484774   T   T   T
  0.2221436448267776  0.7775870755047323  0.1900362622451950   T   T   T
  0.1109116828436101  0.8887986371764953  0.0344548284337037   T   T   T
  0.3383363092888436  0.6684223612502307  0.3454736762655336   T   T   T
  0.5547632963632501  0.7767123185283182  0.1893237805479120   T   T   T
  0.4449941779941187  0.8892300784499511  0.0350684741843087   T   T   T
  0.6707430604073572  0.6821379280495716  0.3478816763596340   T   T   T
  0.8875661594667528  0.7764214781392753  0.1891840793589235   T   T   T
  0.7777783265359656  0.8890282966856972  0.0343249127155474   T   T   T
  0.4383710663113357  0.2281560324805329  0.4511319436763209   T   T   T
 
  0.00000000E+00  0.00000000E+00  0.00000000E+00
  0.00000000E+00  0.00000000E+00  0.00000000E+00
  0.00000000E+00  0.00000000E+00  0.00000000E+00
  0.00000000E+00  0.00000000E+00  0.00000000E+00
  0.00000000E+00  0.00000000E+00  0.00000000E+00
  0.00000000E+00  0.00000000E+00  0.00000000E+00
  0.00000000E+00  0.00000000E+00  0.00000000E+00
  0.00000000E+00  0.00000000E+00  0.00000000E+00
  0.00000000E+00  0.00000000E+00  0.00000000E+00
  0.00000000E+00  0.00000000E+00  0.00000000E+00
  0.00000000E+00  0.00000000E+00  0.00000000E+00
  0.00000000E+00  0.00000000E+00  0.00000000E+00
  0.00000000E+00  0.00000000E+00  0.00000000E+00
  0.00000000E+00  0.00000000E+00  0.00000000E+00
  0.00000000E+00  0.00000000E+00  0.00000000E+00
  0.00000000E+00  0.00000000E+00  0.00000000E+00
  0.00000000E+00  0.00000000E+00  0.00000000E+00
  0.00000000E+00  0.00000000E+00  0.00000000E+00
  0.00000000E+00  0.00000000E+00  0.00000000E+00
  0.00000000E+00  0.00000000E+00  0.00000000E+00
  0.00000000E+00  0.00000000E+00  0.00000000E+00
  0.00000000E+00  0.00000000E+00  0.00000000E+00
  0.00000000E+00  0.00000000E+00  0.00000000E+00
  0.00000000E+00  0.00000000E+00  0.00000000E+00
  0.00000000E+00  0.00000000E+00  0.00000000E+00
  0.00000000E+00  0.00000000E+00  0.00000000E+00
  0.00000000E+00  0.00000000E+00  0.00000000E+00
  0.00000000E+00  0.00000000E+00  0.00000000E+00
  0.00000000E+00  0.00000000E+00  0.00000000E+00
  0.00000000E+00  0.00000000E+00  0.00000000E+00
  0.00000000E+00  0.00000000E+00  0.00000000E+00
  0.00000000E+00  0.00000000E+00  0.00000000E+00
  0.00000000E+00  0.00000000E+00  0.00000000E+00
  0.00000000E+00  0.00000000E+00  0.00000000E+00
  0.00000000E+00  0.00000000E+00  0.00000000E+00
  0.00000000E+00  0.00000000E+00  0.00000000E+00
  0.00000000E+00  0.00000000E+00  0.00000000E+00
  0.00000000E+00  0.00000000E+00  0.00000000E+00
  0.00000000E+00  0.00000000E+00  0.00000000E+00
  0.00000000E+00  0.00000000E+00  0.00000000E+00
  0.00000000E+00  0.00000000E+00  0.00000000E+00
  0.00000000E+00  0.00000000E+00  0.00000000E+00
  0.00000000E+00  0.00000000E+00  0.00000000E+00
  0.00000000E+00  0.00000000E+00  0.00000000E+00
  0.00000000E+00  0.00000000E+00  0.00000000E+00
  0.00000000E+00  0.00000000E+00  0.00000000E+00
  0.00000000E+00  0.00000000E+00  0.00000000E+00
  0.00000000E+00  0.00000000E+00  0.00000000E+00
  0.00000000E+00  0.00000000E+00  0.00000000E+00
  0.00000000E+00  0.00000000E+00  0.00000000E+00
  0.00000000E+00  0.00000000E+00  0.00000000E+00
  0.00000000E+00  0.00000000E+00  0.00000000E+00
  0.00000000E+00  0.00000000E+00  0.00000000E+00
  0.00000000E+00  0.00000000E+00  0.00000000E+00
  0.00000000E+00  0.00000000E+00  0.00000000E+00
  0.00000000E+00  0.00000000E+00  0.00000000E+00
  0.00000000E+00  0.00000000E+00  0.00000000E+00
  0.00000000E+00  0.00000000E+00  0.00000000E+00
  0.00000000E+00  0.00000000E+00  0.00000000E+00
  0.00000000E+00  0.00000000E+00  0.00000000E+00
  0.00000000E+00  0.00000000E+00  0.00000000E+00
  0.00000000E+00  0.00000000E+00  0.00000000E+00
  0.00000000E+00  0.00000000E+00  0.00000000E+00
  0.00000000E+00  0.00000000E+00  0.00000000E+00
  0.00000000E+00  0.00000000E+00  0.00000000E+00
  0.00000000E+00  0.00000000E+00  0.00000000E+00
  0.00000000E+00  0.00000000E+00  0.00000000E+00
  0.00000000E+00  0.00000000E+00  0.00000000E+00
  0.00000000E+00  0.00000000E+00  0.00000000E+00
  0.00000000E+00  0.00000000E+00  0.00000000E+00
  0.00000000E+00  0.00000000E+00  0.00000000E+00
  0.00000000E+00  0.00000000E+00  0.00000000E+00
  0.00000000E+00  0.00000000E+00  0.00000000E+00
  0.00000000E+00  0.00000000E+00  0.00000000E+00
  0.00000000E+00  0.00000000E+00  0.00000000E+00
  0.00000000E+00  0.00000000E+00  0.00000000E+00
  0.00000000E+00  0.00000000E+00  0.00000000E+00
  0.00000000E+00  0.00000000E+00  0.00000000E+00
  0.00000000E+00  0.00000000E+00  0.00000000E+00
  0.00000000E+00  0.00000000E+00  0.00000000E+00
  0.00000000E+00  0.00000000E+00  0.00000000E+00
