CeO2-you-111-you-Rh                     
   1.00000000000000     
     9.8200904642133562   -5.6696322416929537    0.0000000004416082
     0.0230928492644757   11.3792604735531633    0.0082387772396385
     0.0088499371747241    0.0153285382190821   20.9263051931956987
   O    Rh   Ce H
    53     1    26 2
Selective dynamics
Direct
 -0.0009696158370268  0.0000486956568161  0.9942939646793481   T   T   T
  0.1076736669444631  0.2210418541722041  0.1486412039901306   F   F   F
  0.2182600527217531  0.1031871054437214  0.2996042675810258   T   T   T
  0.1265583571044420  0.2237308058395840  0.3797420278278723   T   T   T
 -0.0026354516618298 -0.0017168370819495  0.2281340999590090   T   T   T
  0.2216307065957340  0.1099284131914761  0.0732390360217134   F   F   F
  0.3343513114937867  0.0000486956567489  0.9942939646793605   T   T   T
  0.4467011872276961  0.2210418541720743  0.1486412039901595   F   F   F
  0.5559654053638662  0.1144691840645779  0.3054230380618067   T   T   T
  0.4305054487363685  0.2237308058405782  0.3797420278282468   T   T   T
  0.3342516145795877 -0.0017168370822197  0.2281340999590505   T   T   T
  0.5578156695987101  0.1109781870648177  0.0747768034515863   F   F   F
  0.6670175528563931  0.0007011057127808  0.9939802297996210   T   T   T
  0.7786867896242157  0.2240395792485230  0.1532504177495697   F   F   F
  0.8918377787009643  0.1144691840649825  0.3054230380618021   T   T   T
  0.7780244717967353  0.2227149435932318  0.3855445963509087   T   T   T
  0.6646788084530327 -0.0039763830941759  0.2323812574602322   T   T   T
  0.8864965174662337  0.1109781870650127  0.0747768034516111   F   F   F
  0.0008633454625380  0.3332721146596457  0.9948241847477831   T   T   T
  0.1100089706318045  0.5547626004540398  0.1494256483791911   F   F   F
  0.2514085901389596  0.4462111687606549  0.3124879975265740   T   T   T
  0.1067131793595156  0.5512169605976965  0.3841748059275539   T   T   T
  0.0100035784788818  0.3388372096914718  0.2332510871982811   T   T   T
  0.2233056269679269  0.4445491222116340  0.0750278305031869   F   F   F
  0.3329565701482228  0.3325801402965033  0.9948604790509340   T   T   T
  0.4459100152913761  0.5584880305830165  0.1498606354447435   F   F   F
  0.5281365786210959  0.4462111687623266  0.3124879975271888   T   T   T
  0.3314837052246199  0.3296344104493271  0.2233268676327667   T   T   T
  0.5545774952435842  0.4445491222115156  0.0750278305031757   F   F   F
  0.6657427691969722  0.3332721146595615  0.9948241847477747   T   T   T
  0.7780866298222948  0.5547626004539763  0.1494256483792062   F   F   F
  0.8875206069220191  0.4417072138436003  0.3047252269756403   T   T   T
  0.7778367812382757  0.5512169605982637  0.3841748059273827   T   T   T
  0.6621676312124337  0.3388372096910559  0.2332510871981993   T   T   T
  0.8879181419668033  0.4425022839336015  0.0746993620168159   F   F   F
 -0.0001802031985475  0.6663065936028300  0.9949755718011269   T   T   T
  0.1103159504609529  0.8872989009217759  0.1477407149470405   F   F   F
  0.2198224913448126  0.7797297226789989  0.3038457554746168   T   T   T
  0.1102477610806929  0.8871625221617919  0.3853724232972067   T   T   T
 -0.0004939660047845  0.6656790679900455  0.2292925542649265   T   T   T
  0.2230248045833871  0.7773200799388144  0.0736726494774482   F   F   F
  0.3333283541077915  0.6656527857615435  0.9943491245646386   T   T   T
  0.4464575332067351  0.8896579013544029  0.1493494917309246   F   F   F
  0.5502815346406383  0.7672290692821033  0.3112786566039696   T   T   T
  0.4467304942946316  0.8970860969942694  0.3862869494827437   T   T   T
  0.3314444082771663  0.6668689243028630  0.2292224622212931   T   T   T
  0.5557867853123595  0.7782395706246953  0.0743498505029254   F   F   F
  0.6656574316537883  0.6656527857614928  0.9943491245646287   T   T   T
  0.7765333681478229  0.8896579013546660  0.1493494917309185   F   F   F
  0.8932402313351810  0.7797297226803083  0.3038457554746424   T   T   T
  0.7836886027008853  0.8970860969949078  0.3862869494827804   T   T   T
  0.6687575160257068  0.6668689243032432  0.2292224622212746   T   T   T
  0.8876282753555331  0.7773200799388926  0.0736726494774624   F   F   F
  0.3257821896247033  0.3182313792520032  0.3380131670784852   T   T   T
  0.0050517805630857  0.0030828572556267  0.3442670047631214   T   T   T
  0.2215769182315014  0.1098208364627705  0.1878471291987219   F   F   F
  0.1106899271128557  0.2222116139885965  0.0345820388731453   F   F   F
  0.3313640766943723  0.0030828572565503  0.3442670047631247   T   T   T
  0.5549686651199393  0.1109791111120442  0.1906840334722466   F   F   F
  0.4448546868757491  0.2222116139887680  0.0345820388731480   F   F   F
  0.6681385061878561  0.0029430123773150  0.3474031207309226   T   T   T
  0.8893444459916369  0.1109791111113638  0.1906840334722781   F   F   F
  0.7780178606961938  0.2227017213923661  0.0351554536475868   F   F   F
  0.0061945856386059  0.3329187667289249  0.3453679983922273   T   T   T
  0.2249586580045709  0.4438893998480375  0.1902514347728668   F   F   F
  0.1112645473955668  0.5549369544375791  0.0349645287525294   F   F   F
  0.5522647418439983  0.4438893998485102  0.1902514347729592   F   F   F
  0.4444804645189283  0.5556289290377778  0.0342770252658937   F   F   F
  0.6600581810899089  0.3329187667285157  0.3453679983923695   T   T   T
  0.8894253146256645  0.4455166292514665  0.1913633481225007   F   F   F
  0.7770054070421205  0.5549369544377654  0.0349645287525356   F   F   F
 -0.0012447654659237  0.6641774690690829  0.3443123354868202   T   T   T
  0.2219467476550188  0.7775848092209396  0.1879595934481140   F   F   F
  0.1108868795492020  0.8884407590984368  0.0331238846399622   F   F   F
  0.3277593778986843  0.6742584765703339  0.3429182460160421   T   T   T
  0.5555288418721483  0.7777236837442028  0.1902434837675106   F   F   F
  0.4455318939238980  0.8893399399797786  0.0343039485857522   F   F   F
  0.6798320986711436  0.6742584765667275  0.3429182460153690   T   T   T
  0.8889710615654131  0.7775848092204114  0.1879595934481067   F   F   F
  0.7771410460559582  0.8893399399797833  0.0343039485857485   F   F   F
0.43257821896247033 0.53182313792520032 0.438013 T T T
0.446598 0.216020 0.433410 T T T 
 
  0.00000000E+00  0.00000000E+00  0.00000000E+00
  0.00000000E+00  0.00000000E+00  0.00000000E+00
  0.00000000E+00  0.00000000E+00  0.00000000E+00
  0.00000000E+00  0.00000000E+00  0.00000000E+00
  0.00000000E+00  0.00000000E+00  0.00000000E+00
  0.00000000E+00  0.00000000E+00  0.00000000E+00
  0.00000000E+00  0.00000000E+00  0.00000000E+00
  0.00000000E+00  0.00000000E+00  0.00000000E+00
  0.00000000E+00  0.00000000E+00  0.00000000E+00
  0.00000000E+00  0.00000000E+00  0.00000000E+00
  0.00000000E+00  0.00000000E+00  0.00000000E+00
  0.00000000E+00  0.00000000E+00  0.00000000E+00
  0.00000000E+00  0.00000000E+00  0.00000000E+00
  0.00000000E+00  0.00000000E+00  0.00000000E+00
  0.00000000E+00  0.00000000E+00  0.00000000E+00
  0.00000000E+00  0.00000000E+00  0.00000000E+00
  0.00000000E+00  0.00000000E+00  0.00000000E+00
  0.00000000E+00  0.00000000E+00  0.00000000E+00
  0.00000000E+00  0.00000000E+00  0.00000000E+00
  0.00000000E+00  0.00000000E+00  0.00000000E+00
  0.00000000E+00  0.00000000E+00  0.00000000E+00
  0.00000000E+00  0.00000000E+00  0.00000000E+00
  0.00000000E+00  0.00000000E+00  0.00000000E+00
  0.00000000E+00  0.00000000E+00  0.00000000E+00
  0.00000000E+00  0.00000000E+00  0.00000000E+00
  0.00000000E+00  0.00000000E+00  0.00000000E+00
  0.00000000E+00  0.00000000E+00  0.00000000E+00
  0.00000000E+00  0.00000000E+00  0.00000000E+00
  0.00000000E+00  0.00000000E+00  0.00000000E+00
  0.00000000E+00  0.00000000E+00  0.00000000E+00
  0.00000000E+00  0.00000000E+00  0.00000000E+00
  0.00000000E+00  0.00000000E+00  0.00000000E+00
  0.00000000E+00  0.00000000E+00  0.00000000E+00
  0.00000000E+00  0.00000000E+00  0.00000000E+00
  0.00000000E+00  0.00000000E+00  0.00000000E+00
  0.00000000E+00  0.00000000E+00  0.00000000E+00
  0.00000000E+00  0.00000000E+00  0.00000000E+00
  0.00000000E+00  0.00000000E+00  0.00000000E+00
  0.00000000E+00  0.00000000E+00  0.00000000E+00
  0.00000000E+00  0.00000000E+00  0.00000000E+00
  0.00000000E+00  0.00000000E+00  0.00000000E+00
  0.00000000E+00  0.00000000E+00  0.00000000E+00
  0.00000000E+00  0.00000000E+00  0.00000000E+00
  0.00000000E+00  0.00000000E+00  0.00000000E+00
  0.00000000E+00  0.00000000E+00  0.00000000E+00
  0.00000000E+00  0.00000000E+00  0.00000000E+00
  0.00000000E+00  0.00000000E+00  0.00000000E+00
  0.00000000E+00  0.00000000E+00  0.00000000E+00
  0.00000000E+00  0.00000000E+00  0.00000000E+00
  0.00000000E+00  0.00000000E+00  0.00000000E+00
  0.00000000E+00  0.00000000E+00  0.00000000E+00
  0.00000000E+00  0.00000000E+00  0.00000000E+00
  0.00000000E+00  0.00000000E+00  0.00000000E+00
  0.00000000E+00  0.00000000E+00  0.00000000E+00
  0.00000000E+00  0.00000000E+00  0.00000000E+00
  0.00000000E+00  0.00000000E+00  0.00000000E+00
  0.00000000E+00  0.00000000E+00  0.00000000E+00
  0.00000000E+00  0.00000000E+00  0.00000000E+00
  0.00000000E+00  0.00000000E+00  0.00000000E+00
  0.00000000E+00  0.00000000E+00  0.00000000E+00
  0.00000000E+00  0.00000000E+00  0.00000000E+00
  0.00000000E+00  0.00000000E+00  0.00000000E+00
  0.00000000E+00  0.00000000E+00  0.00000000E+00
  0.00000000E+00  0.00000000E+00  0.00000000E+00
  0.00000000E+00  0.00000000E+00  0.00000000E+00
  0.00000000E+00  0.00000000E+00  0.00000000E+00
  0.00000000E+00  0.00000000E+00  0.00000000E+00
  0.00000000E+00  0.00000000E+00  0.00000000E+00
  0.00000000E+00  0.00000000E+00  0.00000000E+00
  0.00000000E+00  0.00000000E+00  0.00000000E+00
  0.00000000E+00  0.00000000E+00  0.00000000E+00
  0.00000000E+00  0.00000000E+00  0.00000000E+00
  0.00000000E+00  0.00000000E+00  0.00000000E+00
  0.00000000E+00  0.00000000E+00  0.00000000E+00
  0.00000000E+00  0.00000000E+00  0.00000000E+00
  0.00000000E+00  0.00000000E+00  0.00000000E+00
  0.00000000E+00  0.00000000E+00  0.00000000E+00
  0.00000000E+00  0.00000000E+00  0.00000000E+00
  0.00000000E+00  0.00000000E+00  0.00000000E+00
  0.00000000E+00  0.00000000E+00  0.00000000E+00
