CeO2-you-111-you-Y                      
   1.00000000000000     
     9.8541710964902656   -5.7002138870081378   -0.0061602052324821
    -0.0094441627184748   11.3840679991647793    0.0061602041997280
    -0.0065608522837107    0.0113637289249815   20.4772533645604646
   O    Y    Ce   H 
    53     1    26     1
Selective dynamics
Direct
  0.9997453251799773  0.0000417934091461  0.9893239102166667   T   T   T
  0.1103335016003859  0.2198863038586564  0.1451311613113571   T   T   T
  0.2341607472420370  0.1093727250491181  0.3054605659809798   T   T   T
  0.1245011851262176  0.2279701433958492  0.3815188302247621   T   T   T
  0.0036077815185483  0.0031355003874847  0.2312309185803132   T   T   T
  0.2222158417870525  0.1103387937315180  0.0710354874293442   T   T   T
  0.3344292045745064  0.0008608483820788  0.9902912651068068   T   T   T
  0.4408913296620682  0.2258413546738502  0.1505745952207543   T   T   T
  0.5503677206970520  0.1159303235623177  0.3069860494374170   T   T   T
  0.4425665327412823  0.2226638996272788  0.4051029831425946   T   T   T
  0.3345575809553499 -0.0028201856697982  0.2266735656687860   T   T   T
  0.5553358016677507  0.1116401148334304  0.0738563466697554   T   T   T
  0.6656580925443071  0.0011565452559192  0.9903226718474252   T   T   T
  0.7846656203338622  0.2241420195106252  0.1493131066751032   T   T   T
  0.8828285541250083  0.1040151264425980  0.3071206939928429   T   T   T
  0.7656338911884809  0.2178969376180849  0.3919255996841282   T   T   T
  0.6646136409359999  0.0024946460317777  0.2299187219319560   T   T   T
  0.8883882906087681  0.1099028184309536  0.0710167070223421   T   T   T
  0.9977220991982202  0.3326372875494807  0.9888278797690757   T   T   T
  0.1102601796223209  0.5558553429695849  0.1445868699711937   T   T   T
  0.1067124664787127  0.5605429199629760  0.3901475347858415   T   T   T
  0.0178311654540209  0.3420916292444927  0.2341028512181618   T   T   T
  0.2222979329294956  0.4446592510666031  0.0676708881674742   T   T   T
  0.3336682226220923  0.3322556884354910  0.9888343627301971   T   T   T
  0.4465671788194303  0.5561417808755109  0.1455471317767323   T   T   T
  0.5571562562797336  0.4332328817882030  0.3060773812635945   T   T   T
  0.4383825509537114  0.5428069786574463  0.3812721722480962   T   T   T
  0.3226076789339350  0.3436870587977883  0.2360987050635233   T   T   T
  0.5558176634365226  0.4445058824831518  0.0708622006050760   T   T   T
  0.6652356483499576  0.3322257483049805  0.9902955572261932   T   T   T
  0.7774002138912972  0.5560928303400086  0.1485867781168591   T   T   T
  0.8850231235731538  0.4458574193400625  0.3051180115930546   T   T   T
  0.7766098855068194  0.5553274809243646  0.3893202267475434   T   T   T
  0.6688664954737216  0.3319852460356455  0.2269138561310838   T   T   T
  0.8878639232452428  0.4448834402589607  0.0704999333880474   T   T   T
  0.9992918588947430  0.6680508204303901  0.9891089547832550   T   T   T
  0.1105639212681459  0.8891624215376802  0.1490683122961165   T   T   T
  0.2197691888964910  0.7814299230869539  0.3051587391016176   T   T   T
  0.1112938414755167  0.8901256116680416  0.3898169450375581   T   T   T
  0.0002579142564984  0.6658367206237070  0.2289924709985880   T   T   T
  0.2216945629850438  0.7783433485209137  0.0707557818374470   T   T   T
  0.3340440573452002  0.6685200255535702  0.9888562188864217   T   T   T
  0.4421854406068870  0.8816263790140930  0.1492575893343672   T   T   T
  0.5633279665443981  0.7840230731806327  0.3067285060372834   T   T   T
  0.4493697858335901  0.9007833053741893  0.3921444267451150   T   T   T
  0.3242973895593450  0.6484642269359296  0.2340960818008989   T   T   T
  0.5569481601598526  0.7783904948103767  0.0711424929189604   T   T   T
  0.6672918261032230  0.6676548419798402  0.9892360253701397   T   T   T
  0.7778152875323200  0.8894916866913301  0.1506967153685780   T   T   T
  0.8886401450534748  0.7781644206639401  0.3063006597082966   T   T   T
  0.7797256869741004  0.8881315553301834  0.3907357495660891   T   T   T
  0.6636825765378234  0.6628235342718536  0.2311057790685112   T   T   T
  0.8888023487184317  0.7789886948264356  0.0719513195386073   T   T   T
  0.3398695788214043  0.3267228004949202  0.3472945438126481   T   T   T
  0.0026254058741019  0.0025633288104500  0.3478413194067291   T   T   T
  0.2221626792587509  0.1116789697487705  0.1903079256572172   T   T   T
  0.1097786813050148  0.2199780352799390  0.0288053710773233   T   T   T
  0.3287986883904037 -0.0082460132028244  0.3452505126581828   T   T   T
  0.5555763879325932  0.1107938064334990  0.1894133608269996   T   T   T
  0.4439742930801677  0.2225070428938809  0.0308847377838057   T   T   T
  0.6669333999905405  0.9998567037545918  0.3485882606934891   T   T   T
  0.8908471143966340  0.1128038668771433  0.1914142192482415   T   T   T
  0.7779722887130074  0.2224070632943936  0.0311272647635466   T   T   T
  0.9910102786756386  0.3288006632448285  0.3561765926625812   T   T   T
  0.2221711274596026  0.4442870526734206  0.1806841597108396   T   T   T
  0.1098233179094505  0.5567764278804164  0.0281444486234049   T   T   T
  0.5547555322927188  0.4443545302413439  0.1902974028050117   T   T   T
  0.4466507218484225  0.5568785641272187  0.0288272670268668   T   T   T
  0.6745158622977488  0.3375526465553096  0.3451513597772775   T   T   T
  0.8912727556522623  0.4451285075547653  0.1892969473848714   T   T   T
  0.7771441977267932  0.5556222387300738  0.0311565470943939   T   T   T
 -0.0000232197434821  0.6663859962259523  0.3481560359009744   T   T   T
  0.2212666748736459  0.7750525881851268  0.1893341944814708   T   T   T
  0.1113429749077040  0.8895848715389688  0.0312303680948255   T   T   T
  0.3379149975384937  0.6757583161680220  0.3560390707544988   T   T   T
  0.5540257056681436  0.7759465763426231  0.1913370406482459   T   T   T
  0.4443462033897666  0.8885833586870915  0.0311698545629113   T   T   T
  0.6641576864302851  0.6641019464608545  0.3476648582094597   T   T   T
  0.8891445275359060  0.7776491544733977  0.1897125255459851   T   T   T
  0.7775077249212859  0.8896355082663426  0.0317793333127179   T   T   T
  0.4452851268508662  0.2191417881938155  0.4525301881326537   T   T   T
 
  0.00000000E+00  0.00000000E+00  0.00000000E+00
  0.00000000E+00  0.00000000E+00  0.00000000E+00
  0.00000000E+00  0.00000000E+00  0.00000000E+00
  0.00000000E+00  0.00000000E+00  0.00000000E+00
  0.00000000E+00  0.00000000E+00  0.00000000E+00
  0.00000000E+00  0.00000000E+00  0.00000000E+00
  0.00000000E+00  0.00000000E+00  0.00000000E+00
  0.00000000E+00  0.00000000E+00  0.00000000E+00
  0.00000000E+00  0.00000000E+00  0.00000000E+00
  0.00000000E+00  0.00000000E+00  0.00000000E+00
  0.00000000E+00  0.00000000E+00  0.00000000E+00
  0.00000000E+00  0.00000000E+00  0.00000000E+00
  0.00000000E+00  0.00000000E+00  0.00000000E+00
  0.00000000E+00  0.00000000E+00  0.00000000E+00
  0.00000000E+00  0.00000000E+00  0.00000000E+00
  0.00000000E+00  0.00000000E+00  0.00000000E+00
  0.00000000E+00  0.00000000E+00  0.00000000E+00
  0.00000000E+00  0.00000000E+00  0.00000000E+00
  0.00000000E+00  0.00000000E+00  0.00000000E+00
  0.00000000E+00  0.00000000E+00  0.00000000E+00
  0.00000000E+00  0.00000000E+00  0.00000000E+00
  0.00000000E+00  0.00000000E+00  0.00000000E+00
  0.00000000E+00  0.00000000E+00  0.00000000E+00
  0.00000000E+00  0.00000000E+00  0.00000000E+00
  0.00000000E+00  0.00000000E+00  0.00000000E+00
  0.00000000E+00  0.00000000E+00  0.00000000E+00
  0.00000000E+00  0.00000000E+00  0.00000000E+00
  0.00000000E+00  0.00000000E+00  0.00000000E+00
  0.00000000E+00  0.00000000E+00  0.00000000E+00
  0.00000000E+00  0.00000000E+00  0.00000000E+00
  0.00000000E+00  0.00000000E+00  0.00000000E+00
  0.00000000E+00  0.00000000E+00  0.00000000E+00
  0.00000000E+00  0.00000000E+00  0.00000000E+00
  0.00000000E+00  0.00000000E+00  0.00000000E+00
  0.00000000E+00  0.00000000E+00  0.00000000E+00
  0.00000000E+00  0.00000000E+00  0.00000000E+00
  0.00000000E+00  0.00000000E+00  0.00000000E+00
  0.00000000E+00  0.00000000E+00  0.00000000E+00
  0.00000000E+00  0.00000000E+00  0.00000000E+00
  0.00000000E+00  0.00000000E+00  0.00000000E+00
  0.00000000E+00  0.00000000E+00  0.00000000E+00
  0.00000000E+00  0.00000000E+00  0.00000000E+00
  0.00000000E+00  0.00000000E+00  0.00000000E+00
  0.00000000E+00  0.00000000E+00  0.00000000E+00
  0.00000000E+00  0.00000000E+00  0.00000000E+00
  0.00000000E+00  0.00000000E+00  0.00000000E+00
  0.00000000E+00  0.00000000E+00  0.00000000E+00
  0.00000000E+00  0.00000000E+00  0.00000000E+00
  0.00000000E+00  0.00000000E+00  0.00000000E+00
  0.00000000E+00  0.00000000E+00  0.00000000E+00
  0.00000000E+00  0.00000000E+00  0.00000000E+00
  0.00000000E+00  0.00000000E+00  0.00000000E+00
  0.00000000E+00  0.00000000E+00  0.00000000E+00
  0.00000000E+00  0.00000000E+00  0.00000000E+00
  0.00000000E+00  0.00000000E+00  0.00000000E+00
  0.00000000E+00  0.00000000E+00  0.00000000E+00
  0.00000000E+00  0.00000000E+00  0.00000000E+00
  0.00000000E+00  0.00000000E+00  0.00000000E+00
  0.00000000E+00  0.00000000E+00  0.00000000E+00
  0.00000000E+00  0.00000000E+00  0.00000000E+00
  0.00000000E+00  0.00000000E+00  0.00000000E+00
  0.00000000E+00  0.00000000E+00  0.00000000E+00
  0.00000000E+00  0.00000000E+00  0.00000000E+00
  0.00000000E+00  0.00000000E+00  0.00000000E+00
  0.00000000E+00  0.00000000E+00  0.00000000E+00
  0.00000000E+00  0.00000000E+00  0.00000000E+00
  0.00000000E+00  0.00000000E+00  0.00000000E+00
  0.00000000E+00  0.00000000E+00  0.00000000E+00
  0.00000000E+00  0.00000000E+00  0.00000000E+00
  0.00000000E+00  0.00000000E+00  0.00000000E+00
  0.00000000E+00  0.00000000E+00  0.00000000E+00
  0.00000000E+00  0.00000000E+00  0.00000000E+00
  0.00000000E+00  0.00000000E+00  0.00000000E+00
  0.00000000E+00  0.00000000E+00  0.00000000E+00
  0.00000000E+00  0.00000000E+00  0.00000000E+00
  0.00000000E+00  0.00000000E+00  0.00000000E+00
  0.00000000E+00  0.00000000E+00  0.00000000E+00
  0.00000000E+00  0.00000000E+00  0.00000000E+00
  0.00000000E+00  0.00000000E+00  0.00000000E+00
  0.00000000E+00  0.00000000E+00  0.00000000E+00
  0.00000000E+00  0.00000000E+00  0.00000000E+00
