CeO2-you-111-you-Ge                     
   1.00000000000000     
     9.9226737757821670   -5.7288587508534503   -0.0000000012377476
    -0.0512787102112422   11.3688981597340444   -0.0235440349574658
    -0.0259165893218115   -0.0448888418254432   20.2363011238330479
   O    Ge   Ce   H 
    53     1    26     1
Selective dynamics
Direct
  0.0002166680721050  0.0000352082740039  0.9869720677871647   T   T   T
  0.1124617959921306  0.2234271018663683  0.1472917222787771   T   T   T
  0.2338799870458375  0.1253469596711859  0.3109448659043832   T   T   T
  0.0806131777555470  0.2082981776015223  0.3948213614678236   T   T   T
  0.0057946303784629  0.0031020302590060  0.2296778748774490   T   T   T
  0.2227412859064724  0.1118489087214432  0.0692547733343118   T   T   T
  0.3340449546608683  0.0005659147007829  0.9870637256307564   T   T   T
  0.4441013357992044  0.2230739297440554  0.1487564370738261   T   T   T
  0.5493694581037994  0.1061643665871788  0.3085077741515584   T   T   T
  0.4580376935278018  0.1924814704935727  0.4168611124122921   T   T   T
  0.3297340989932702 -0.0005870912925168  0.2297964245597572   T   T   T
  0.5562378168133786  0.1125221903580658  0.0706484417876228   T   T   T
  0.6664944024073329  0.9998819274080287  0.9877324360600886   T   T   T
  0.7768870679969642  0.2179319221260280  0.1498252350005310   T   T   T
  0.8844396839635090  0.1069151644730364  0.3038332157336325   T   T   T
  0.7819988719059878  0.2104337712937258  0.3920602603579015   T   T   T
  0.6588158681932921  0.9889776798230222  0.2333846237957576   T   T   T
  0.8899255272007097  0.1115023100375756  0.0695262538888196   T   T   T
  0.0000084911787352  0.3335959708624402  0.9875169043185072   T   T   T
  0.1107462927707355  0.5550471581395497  0.1469971576715161   T   T   T
  0.2303477515882371  0.4480483574568785  0.3113588390431739   T   T   T
  0.1144038124514308  0.5619035814040090  0.3925721563771126   T   T   T
  0.0036903450789380  0.3347499896621410  0.2308463672481637   T   T   T
  0.2229121820693945  0.4452109355363301  0.0701407940930831   T   T   T
  0.3342509265155565  0.3342306908347430  0.9875568210354239   T   T   T
  0.4441126194548929  0.5543510919066463  0.1488595214145284   T   T   T
  0.5566120037992884  0.4565731335386166  0.3117883555402463   T   T   T
  0.3330932938770760  0.3353002689496820  0.2329579859677761   T   T   T
  0.5560543794225922  0.4449627867690241  0.0708628381532788   T   T   T
  0.6665154059274692  0.3329161323724239  0.9878676294139026   T   T   T
  0.7780207061272365  0.5558210181241967  0.1480390153603409   T   T   T
  0.8954168252949689  0.4479444619802641  0.3089861336330316   T   T   T
  0.7927938564582878  0.5753980663451653  0.3946853764662250   T   T   T
  0.6668746445610719  0.3344581131777624  0.2300586882906488   T   T   T
  0.8876508012384341  0.4426058313604312  0.0708007531126103   T   T   T
  0.9984993834490092  0.6647139305390127  0.9874543317730403   T   T   T
  0.1114734266284577  0.8896093943016022  0.1450783261942735   T   T   T
  0.2198451913706901  0.7781597237311646  0.3057403249852716   T   T   T
  0.1158116219663400  0.8930511453671148  0.3897547609015086   T   T   T
  0.0009232283219662  0.6681299247667407  0.2287151882262006   T   T   T
  0.2216963375386900  0.7778417074460606  0.0683345436802877   T   T   T
  0.3339461783623527  0.6668806877444025  0.9876146133667013   T   T   T
  0.4434869791387133  0.8891296167833861  0.1468718449369976   T   T   T
  0.5426921037540475  0.7523617334462245  0.3187080957252820   T   T   T
  0.4381100584648233  0.8842689887830740  0.3899391884169932   T   T   T
  0.3325421345470501  0.6697651361939799  0.2294834915589263   T   T   T
  0.5552701495331395  0.7776073756137881  0.0706800675161665   T   T   T
  0.6661023506685660  0.6663886515389663  0.9877202461637037   T   T   T
  0.7782228124443638  0.8897693086604859  0.1467729740955374   T   T   T
  0.8951892628922798  0.7825429893833731  0.3054467976480251   T   T   T
  0.7811139456392364  0.8907719809907614  0.3897165923578053   T   T   T
  0.6720754797306441  0.6732708306066278  0.2293752619637578   T   T   T
  0.8891972916646477  0.7783121131090129  0.0689860880727968   T   T   T
  0.3236804530890958  0.3298657129851459  0.3326186163574885   T   T   T
  0.0044375216573534  0.0084076069316667  0.3499997276073024   T   T   T
  0.2233466631068731  0.1121751114365618  0.1886104976780881   T   T   T
  0.1115903587526521  0.2224546100792338  0.0287266674826234   T   T   T
  0.3316769588630287 -0.0013194027227189  0.3494621245476421   T   T   T
  0.5543482978261515  0.1107377440989427  0.1909870972329184   T   T   T
  0.4450365237157694  0.2226696557439049  0.0294697460600844   T   T   T
  0.6657609731281440  0.9981446042511191  0.3506045573944898   T   T   T
  0.8895160787759352  0.1104376749306528  0.1892563948533517   T   T   T
  0.7773487573095188  0.2215222869024215  0.0297847705815408   T   T   T
 -0.0016992926153288  0.3287111099128349  0.3508666300744993   T   T   T
  0.2215413559823805  0.4450476196899435  0.1893586767296206   T   T   T
  0.1102895830484193  0.5541616109429236  0.0284287288693145   T   T   T
  0.5579932250251540  0.4458675882239346  0.1919511753944631   T   T   T
  0.4444398555372901  0.5548728800769446  0.0290943788605157   T   T   T
  0.6707021958719332  0.3363361612222708  0.3546177502790935   T   T   T
  0.8887557136197993  0.4439833379247959  0.1906687745722410   T   T   T
  0.7769685109834347  0.5541043020110814  0.0293558572082850   T   T   T
  0.0015657344665356  0.6685300780296404  0.3498059115072497   T   T   T
  0.2207126702377505  0.7786199537273919  0.1860878378226963   T   T   T
  0.1111333346641869  0.8890353243118254  0.0269980135589727   T   T   T
  0.3210093249449064  0.6707134987685504  0.3454729537626018   T   T   T
  0.5544007055588626  0.7761206952407179  0.1883012100165055   T   T   T
  0.4443917803269921  0.8889404873523127  0.0285200148645646   T   T   T
  0.6870476650275774  0.6748802099552520  0.3453709001777374   T   T   T
  0.8920258722387121  0.7799338520500625  0.1867654785583047   T   T   T
  0.7776604211814852  0.8886527599127885  0.0284119731499914   T   T   T
  0.4209761590293798  0.2192421564376223  0.4532438539726180   T   T   T
 
  0.00000000E+00  0.00000000E+00  0.00000000E+00
  0.00000000E+00  0.00000000E+00  0.00000000E+00
  0.00000000E+00  0.00000000E+00  0.00000000E+00
  0.00000000E+00  0.00000000E+00  0.00000000E+00
  0.00000000E+00  0.00000000E+00  0.00000000E+00
  0.00000000E+00  0.00000000E+00  0.00000000E+00
  0.00000000E+00  0.00000000E+00  0.00000000E+00
  0.00000000E+00  0.00000000E+00  0.00000000E+00
  0.00000000E+00  0.00000000E+00  0.00000000E+00
  0.00000000E+00  0.00000000E+00  0.00000000E+00
  0.00000000E+00  0.00000000E+00  0.00000000E+00
  0.00000000E+00  0.00000000E+00  0.00000000E+00
  0.00000000E+00  0.00000000E+00  0.00000000E+00
  0.00000000E+00  0.00000000E+00  0.00000000E+00
  0.00000000E+00  0.00000000E+00  0.00000000E+00
  0.00000000E+00  0.00000000E+00  0.00000000E+00
  0.00000000E+00  0.00000000E+00  0.00000000E+00
  0.00000000E+00  0.00000000E+00  0.00000000E+00
  0.00000000E+00  0.00000000E+00  0.00000000E+00
  0.00000000E+00  0.00000000E+00  0.00000000E+00
  0.00000000E+00  0.00000000E+00  0.00000000E+00
  0.00000000E+00  0.00000000E+00  0.00000000E+00
  0.00000000E+00  0.00000000E+00  0.00000000E+00
  0.00000000E+00  0.00000000E+00  0.00000000E+00
  0.00000000E+00  0.00000000E+00  0.00000000E+00
  0.00000000E+00  0.00000000E+00  0.00000000E+00
  0.00000000E+00  0.00000000E+00  0.00000000E+00
  0.00000000E+00  0.00000000E+00  0.00000000E+00
  0.00000000E+00  0.00000000E+00  0.00000000E+00
  0.00000000E+00  0.00000000E+00  0.00000000E+00
  0.00000000E+00  0.00000000E+00  0.00000000E+00
  0.00000000E+00  0.00000000E+00  0.00000000E+00
  0.00000000E+00  0.00000000E+00  0.00000000E+00
  0.00000000E+00  0.00000000E+00  0.00000000E+00
  0.00000000E+00  0.00000000E+00  0.00000000E+00
  0.00000000E+00  0.00000000E+00  0.00000000E+00
  0.00000000E+00  0.00000000E+00  0.00000000E+00
  0.00000000E+00  0.00000000E+00  0.00000000E+00
  0.00000000E+00  0.00000000E+00  0.00000000E+00
  0.00000000E+00  0.00000000E+00  0.00000000E+00
  0.00000000E+00  0.00000000E+00  0.00000000E+00
  0.00000000E+00  0.00000000E+00  0.00000000E+00
  0.00000000E+00  0.00000000E+00  0.00000000E+00
  0.00000000E+00  0.00000000E+00  0.00000000E+00
  0.00000000E+00  0.00000000E+00  0.00000000E+00
  0.00000000E+00  0.00000000E+00  0.00000000E+00
  0.00000000E+00  0.00000000E+00  0.00000000E+00
  0.00000000E+00  0.00000000E+00  0.00000000E+00
  0.00000000E+00  0.00000000E+00  0.00000000E+00
  0.00000000E+00  0.00000000E+00  0.00000000E+00
  0.00000000E+00  0.00000000E+00  0.00000000E+00
  0.00000000E+00  0.00000000E+00  0.00000000E+00
  0.00000000E+00  0.00000000E+00  0.00000000E+00
  0.00000000E+00  0.00000000E+00  0.00000000E+00
  0.00000000E+00  0.00000000E+00  0.00000000E+00
  0.00000000E+00  0.00000000E+00  0.00000000E+00
  0.00000000E+00  0.00000000E+00  0.00000000E+00
  0.00000000E+00  0.00000000E+00  0.00000000E+00
  0.00000000E+00  0.00000000E+00  0.00000000E+00
  0.00000000E+00  0.00000000E+00  0.00000000E+00
  0.00000000E+00  0.00000000E+00  0.00000000E+00
  0.00000000E+00  0.00000000E+00  0.00000000E+00
  0.00000000E+00  0.00000000E+00  0.00000000E+00
  0.00000000E+00  0.00000000E+00  0.00000000E+00
  0.00000000E+00  0.00000000E+00  0.00000000E+00
  0.00000000E+00  0.00000000E+00  0.00000000E+00
  0.00000000E+00  0.00000000E+00  0.00000000E+00
  0.00000000E+00  0.00000000E+00  0.00000000E+00
  0.00000000E+00  0.00000000E+00  0.00000000E+00
  0.00000000E+00  0.00000000E+00  0.00000000E+00
  0.00000000E+00  0.00000000E+00  0.00000000E+00
  0.00000000E+00  0.00000000E+00  0.00000000E+00
  0.00000000E+00  0.00000000E+00  0.00000000E+00
  0.00000000E+00  0.00000000E+00  0.00000000E+00
  0.00000000E+00  0.00000000E+00  0.00000000E+00
  0.00000000E+00  0.00000000E+00  0.00000000E+00
  0.00000000E+00  0.00000000E+00  0.00000000E+00
  0.00000000E+00  0.00000000E+00  0.00000000E+00
  0.00000000E+00  0.00000000E+00  0.00000000E+00
  0.00000000E+00  0.00000000E+00  0.00000000E+00
  0.00000000E+00  0.00000000E+00  0.00000000E+00
