CeO2-you-111-you-Ti                     
   1.00000000000000     
     9.8395689562612478   -5.6808781566672204   -0.0000000000000000
     0.0000000007491389   11.3617543152042124   -0.0000000000000000
     0.0000000000000000   -0.0000000000000000   20.4963938485402331
   O    Ti   Ce
    54     1    26
Selective dynamics
Direct
 -0.0001891999228639  0.0004937330124280  0.9898099455228493   T   T   T
  0.1105107690389766  0.2219218845195175  0.1470278316899547   T   T   T
  0.2384787352580835  0.1436244705185291  0.3124616133050548   T   T   T
  0.0675012451280386  0.2004171225549591  0.3979109715995751   T   T   T
  0.0073027124621067  0.0026687181929056  0.2315257793882818   T   T   T
  0.2213345640592385  0.1093361281183768  0.0714284866433986   T   T   T
  0.3340159329357110  0.0004937330129847  0.9898099455228493   T   T   T
  0.4447441154805372  0.2219218845195420  0.1470278316899547   T   T   T
  0.5577513445197525  0.1089156554761068  0.3034441118206613   T   T   T
  0.4662488774269168  0.2004171225469155  0.3979109715995751   T   T   T
  0.3286990057303329  0.0026687181934950  0.2315257793882818   T   T   T
  0.5562009854447354  0.1104660145541722  0.0719732547731273   T   T   T
  0.6666669999999968  0.0000000000000000  0.9898331336336792   T   T   T
  0.7794307877752784  0.2255275755513789  0.1497783911464881   T   T   T
  0.8844983109576290  0.1089156554773809  0.3034441118206613   T   T   T
  0.7763101763015735  0.2192863526025270  0.3895456734730672   T   T   T
  0.6666669999999968 -0.0000000000000000  0.2271673257905122   T   T   T
  0.8875990291097746  0.1104660145545093  0.0719732547731273   T   T   T
 -0.0001891999219268  0.3326500670659655  0.9898099455228493   T   T   T
  0.1095943591379483  0.5570726408638729  0.1480314361377348   T   T   T
  0.2384787352527547  0.4281872647395505  0.3124616133050548   T   T   T
  0.1133584303300183  0.5533085696675036  0.3866988952025779   T   T   T
  0.0073027124610498  0.3379669942705323  0.2315257793882818   T   T   T
  0.2213345640594574  0.4453314359408579  0.0714284866433986   T   T   T
  0.3333330000000032  0.3333330000000032  0.9907221605188945   T   T   T
  0.4447441154804816  0.5561562309609477  0.1470278316899547   T   T   T
  0.5230425294891690  0.4281872647419158  0.3124616133050548   T   T   T
  0.4662488774450401  0.5991657548981327  0.3979109715995751   T   T   T
  0.3333330000000032  0.3333330000000032  0.2246532946540366   T   T   T
  0.5573308718813109  0.4453314359407607  0.0714284866433986   T   T   T
  0.6661732669874703  0.3326500670661068  0.9898099455228493   T   T   T
  0.7808112817253626  0.5570726408633145  0.1480314361377348   T   T   T
  0.8876896345780643  0.4420452691560772  0.3080278865266850   T   T   T
  0.7732831393382446  0.5533085696682661  0.3866988952025779   T   T   T
  0.6639982818099456  0.3379669942715910  0.2315257793882818   T   T   T
  0.8889042861207076  0.4444745722409135  0.0710847574103471   T   T   T
 -0.0000000000000000  0.6666669999999968  0.9891319784985895   T   T   T
  0.1095943591366894  0.8858557182728166  0.1480314361377348   T   T   T
  0.2246207308437564  0.7789773654219325  0.3080278865266850   T   T   T
  0.1133584303317372  0.8933838606642343  0.3866988952025779   T   T   T
 -0.0000000000000000  0.6666669999999968  0.2320641055290578   T   T   T
  0.2221914277574573  0.7777627138792892  0.0710847574103471   T   T   T
  0.3340159329353937  0.6668561999214656  0.9898099455228493   T   T   T
  0.4411384244512732  0.8872362122247184  0.1497783911464881   T   T   T
  0.5577513445226223  0.7821686890465122  0.3034441118206613   T   T   T
  0.4473796473954339  0.8903568236984233  0.3895456734730673   T   T   T
  0.3286990057279482  0.6593642875355034  0.2315257793882818   T   T   T
  0.5562009854454950  0.7790679708913184  0.0719732547731273   T   T   T
  0.6661732669862160  0.6668561999210499  0.9898099455228493   T   T   T
  0.7794307877734411  0.8872362122239027  0.1497783911464881   T   T   T
  0.8876896345781795  0.7789773654219839  0.3080278865266850   T   T   T
  0.7763101763029853  0.8903568236990499  0.3895456734730672   T   T   T
  0.6639982818086174  0.6593642875359724  0.2315257793882818   T   T   T
  0.8889042861218351  0.7777627138797899  0.0710847574103471   T   T   T
  0.3333330000000032  0.3333330000000032  0.3170697932981851   T   T   T
 -0.0022073844907227  0.0034369850370630  0.3516411690733434   T   T   T
  0.2201402708319717  0.1069475416636584  0.1865483095110478   T   T   T
  0.1100459753698725  0.2216894876851067  0.0302738443127913   T   T   T
  0.3389773695280253  0.0034369850358513  0.3516411690733434   T   T   T
  0.5553160093873521  0.1113509906143033  0.1897734573011909   T   T   T
  0.4449765123152302  0.2216894876852566  0.0302738443127913   T   T   T
  0.6666669999999968 -0.0000000000000000  0.3476248718113134   T   T   T
  0.8893689812264450  0.1113509906137956  0.1897734573011909   T   T   T
  0.7778766509971627  0.2224193019945377  0.0309851719690990   T   T   T
 -0.0022073844901902  0.3276886304694875  0.3516411690733434   T   T   T
  0.2201402708326066  0.4465257291683092  0.1865483095110478   T   T   T
  0.1104644117881340  0.5562025882123942  0.0305225474528376   T   T   T
  0.5597194583354290  0.4465257291680276  0.1865483095110478   T   T   T
  0.4449765123148925  0.5566210246296437  0.0302738443127913   T   T   T
  0.6632300149594349  0.3276886304680394  0.3516411690733434   T   T   T
  0.8887391480828796  0.4441442961652212  0.1916237960470267   T   T   T
  0.7790711764240948  0.5562025882122327  0.0305225474528376   T   T   T
  0.0000000000000000  0.6666669999999968  0.3478366633909956   T   T   T
  0.2225217038330304  0.7779278519171172  0.1916237960470267   T   T   T
  0.1104644117877710  0.8875958235753777  0.0305225474528376   T   T   T
  0.3389773695312878  0.6688743844948976  0.3516411690733434   T   T   T
  0.5553160093862084  0.7772980187719010  0.1897734573011909   T   T   T
  0.4442466980061338  0.8887903490028340  0.0309851719690990   T   T   T
  0.6632300149621649  0.6688743844946614  0.3516411690733434   T   T   T
  0.8887391480840899  0.7779278519176543  0.1916237960470267   T   T   T
  0.7778766509966972  0.8887903490026278  0.0309851719690990   T   T   T
 
  0.00000000E+00  0.00000000E+00  0.00000000E+00
  0.00000000E+00  0.00000000E+00  0.00000000E+00
  0.00000000E+00  0.00000000E+00  0.00000000E+00
  0.00000000E+00  0.00000000E+00  0.00000000E+00
  0.00000000E+00  0.00000000E+00  0.00000000E+00
  0.00000000E+00  0.00000000E+00  0.00000000E+00
  0.00000000E+00  0.00000000E+00  0.00000000E+00
  0.00000000E+00  0.00000000E+00  0.00000000E+00
  0.00000000E+00  0.00000000E+00  0.00000000E+00
  0.00000000E+00  0.00000000E+00  0.00000000E+00
  0.00000000E+00  0.00000000E+00  0.00000000E+00
  0.00000000E+00  0.00000000E+00  0.00000000E+00
  0.00000000E+00  0.00000000E+00  0.00000000E+00
  0.00000000E+00  0.00000000E+00  0.00000000E+00
  0.00000000E+00  0.00000000E+00  0.00000000E+00
  0.00000000E+00  0.00000000E+00  0.00000000E+00
  0.00000000E+00  0.00000000E+00  0.00000000E+00
  0.00000000E+00  0.00000000E+00  0.00000000E+00
  0.00000000E+00  0.00000000E+00  0.00000000E+00
  0.00000000E+00  0.00000000E+00  0.00000000E+00
  0.00000000E+00  0.00000000E+00  0.00000000E+00
  0.00000000E+00  0.00000000E+00  0.00000000E+00
  0.00000000E+00  0.00000000E+00  0.00000000E+00
  0.00000000E+00  0.00000000E+00  0.00000000E+00
  0.00000000E+00  0.00000000E+00  0.00000000E+00
  0.00000000E+00  0.00000000E+00  0.00000000E+00
  0.00000000E+00  0.00000000E+00  0.00000000E+00
  0.00000000E+00  0.00000000E+00  0.00000000E+00
  0.00000000E+00  0.00000000E+00  0.00000000E+00
  0.00000000E+00  0.00000000E+00  0.00000000E+00
  0.00000000E+00  0.00000000E+00  0.00000000E+00
  0.00000000E+00  0.00000000E+00  0.00000000E+00
  0.00000000E+00  0.00000000E+00  0.00000000E+00
  0.00000000E+00  0.00000000E+00  0.00000000E+00
  0.00000000E+00  0.00000000E+00  0.00000000E+00
  0.00000000E+00  0.00000000E+00  0.00000000E+00
  0.00000000E+00  0.00000000E+00  0.00000000E+00
  0.00000000E+00  0.00000000E+00  0.00000000E+00
  0.00000000E+00  0.00000000E+00  0.00000000E+00
  0.00000000E+00  0.00000000E+00  0.00000000E+00
  0.00000000E+00  0.00000000E+00  0.00000000E+00
  0.00000000E+00  0.00000000E+00  0.00000000E+00
  0.00000000E+00  0.00000000E+00  0.00000000E+00
  0.00000000E+00  0.00000000E+00  0.00000000E+00
  0.00000000E+00  0.00000000E+00  0.00000000E+00
  0.00000000E+00  0.00000000E+00  0.00000000E+00
  0.00000000E+00  0.00000000E+00  0.00000000E+00
  0.00000000E+00  0.00000000E+00  0.00000000E+00
  0.00000000E+00  0.00000000E+00  0.00000000E+00
  0.00000000E+00  0.00000000E+00  0.00000000E+00
  0.00000000E+00  0.00000000E+00  0.00000000E+00
  0.00000000E+00  0.00000000E+00  0.00000000E+00
  0.00000000E+00  0.00000000E+00  0.00000000E+00
  0.00000000E+00  0.00000000E+00  0.00000000E+00
  0.00000000E+00  0.00000000E+00  0.00000000E+00
  0.00000000E+00  0.00000000E+00  0.00000000E+00
  0.00000000E+00  0.00000000E+00  0.00000000E+00
  0.00000000E+00  0.00000000E+00  0.00000000E+00
  0.00000000E+00  0.00000000E+00  0.00000000E+00
  0.00000000E+00  0.00000000E+00  0.00000000E+00
  0.00000000E+00  0.00000000E+00  0.00000000E+00
  0.00000000E+00  0.00000000E+00  0.00000000E+00
  0.00000000E+00  0.00000000E+00  0.00000000E+00
  0.00000000E+00  0.00000000E+00  0.00000000E+00
  0.00000000E+00  0.00000000E+00  0.00000000E+00
  0.00000000E+00  0.00000000E+00  0.00000000E+00
  0.00000000E+00  0.00000000E+00  0.00000000E+00
  0.00000000E+00  0.00000000E+00  0.00000000E+00
  0.00000000E+00  0.00000000E+00  0.00000000E+00
  0.00000000E+00  0.00000000E+00  0.00000000E+00
  0.00000000E+00  0.00000000E+00  0.00000000E+00
  0.00000000E+00  0.00000000E+00  0.00000000E+00
  0.00000000E+00  0.00000000E+00  0.00000000E+00
  0.00000000E+00  0.00000000E+00  0.00000000E+00
  0.00000000E+00  0.00000000E+00  0.00000000E+00
  0.00000000E+00  0.00000000E+00  0.00000000E+00
  0.00000000E+00  0.00000000E+00  0.00000000E+00
  0.00000000E+00  0.00000000E+00  0.00000000E+00
  0.00000000E+00  0.00000000E+00  0.00000000E+00
  0.00000000E+00  0.00000000E+00  0.00000000E+00
  0.00000000E+00  0.00000000E+00  0.00000000E+00
