CeO2-111-you 
1.0 
8.250326 -8.250326 -0.000000 
-0.000000 8.250326 -8.250325 
12.089068 12.089068 12.089068 
H O Ce 
2 54 27 
Selective Dynamics
Direct 
0.334067 0.334326 0.440566 T T T 
0.444394 0.222259 0.432157 T T T 
-0.000000 0.000000 0.000000 T T T 
0.111111 0.222222 0.151658 T T T 
0.222222 0.111111 0.303316 T T T 
0.111111 0.222222 0.379145 T T T 
-0.000000 0.000000 0.227487 T T T 
0.222222 0.111111 0.075829 T T T 
0.333333 0.000000 -0.000000 T T T 
0.444444 0.222222 0.151658 T T T 
0.555556 0.111111 0.303316 T T T 
0.444444 0.222222 0.379145 T T T 
0.333333 0.000000 0.227487 T T T 
0.555556 0.111111 0.075829 T T T 
0.666667 0.000000 -0.000000 T T T 
0.777778 0.222222 0.151658 T T T 
0.888889 0.111111 0.303316 T T T 
0.777778 0.222222 0.379145 T T T 
0.666667 0.000000 0.227487 T T T 
0.888889 0.111111 0.075829 T T T 
-0.000000 0.333333 0.000000 T T T 
0.111111 0.555556 0.151658 T T T 
0.222222 0.444444 0.303316 T T T 
0.111111 0.555556 0.379145 T T T 
-0.000000 0.333333 0.227487 T T T 
0.222222 0.444444 0.075829 T T T 
0.333333 0.333333 -0.000000 T T T 
0.444444 0.555556 0.151658 T T T 
0.555556 0.444444 0.303316 T T T 
0.444444 0.555556 0.379145 T T T 
0.333333 0.333333 0.227487 T T T 
0.555556 0.444444 0.075829 T T T 
0.666667 0.333333 -0.000000 T T T 
0.777778 0.555556 0.151658 T T T 
0.888889 0.444444 0.303316 T T T 
0.777778 0.555556 0.379145 T T T 
0.666667 0.333333 0.227487 T T T 
0.888889 0.444444 0.075829 T T T 
-0.000000 0.666667 -0.000000 T T T 
0.111111 0.888889 0.151658 T T T 
0.222222 0.777778 0.303316 T T T 
0.111111 0.888889 0.379145 T T T 
0.000000 0.666667 0.227487 T T T 
0.222222 0.777778 0.075829 T T T 
0.333333 0.666667 0.000000 T T T 
0.444444 0.888889 0.151658 T T T 
0.555556 0.777778 0.303316 T T T 
0.444444 0.888889 0.379145 T T T 
0.333333 0.666667 0.227487 T T T 
0.555556 0.777778 0.075829 T T T 
0.666667 0.666667 0.000000 T T T 
0.777778 0.888889 0.151658 T T T 
0.888889 0.777778 0.303316 T T T 
0.777778 0.888889 0.379145 T T T 
0.666667 0.666667 0.227487 T T T 
0.888889 0.777778 0.075829 T T T 
-0.000000 0.000000 0.341231 T T T 
0.222222 0.111111 0.189573 T T T 
0.111111 0.222222 0.037915 T T T 
0.333333 0.000000 0.341231 T T T 
0.555556 0.111111 0.189573 T T T 
0.444444 0.222222 0.037915 T T T 
0.666667 0.000000 0.341231 T T T 
0.888889 0.111111 0.189573 T T T 
0.777778 0.222222 0.037915 T T T 
-0.000000 0.333333 0.341231 T T T 
0.222222 0.444444 0.189573 T T T 
0.111111 0.555556 0.037915 T T T 
0.333333 0.333333 0.341231 T T T 
0.555556 0.444444 0.189573 T T T 
0.444444 0.555556 0.037915 T T T 
0.666667 0.333333 0.341231 T T T 
0.888889 0.444444 0.189573 T T T 
0.777778 0.555556 0.037915 T T T 
-0.000000 0.666667 0.341231 T T T 
0.222222 0.777778 0.189573 T T T 
0.111111 0.888889 0.037915 T T T 
0.333333 0.666667 0.341231 T T T 
0.555556 0.777778 0.189573 T T T 
0.444444 0.888889 0.037915 T T T 
0.666667 0.666667 0.341231 T T T 
0.888889 0.777778 0.189573 T T T 
0.777778 0.888889 0.037915 T T T 
