CeO2-you-111-you-Cu                     
   1.00000000000000     
     9.8211826437460985   -5.7153982406844754    0.0090528617177749
    -0.0390884138999806   11.3630913554210906   -0.0090528601635984
     0.0100878417317085   -0.0174726534100434   21.0850369688647135
   O    Cu   Ce H
    53     1    26 1
Selective dynamics
Direct
 -0.0001685588187023 -0.0001226793344067  0.9950849023077281   T   T   T
  0.1047385672614423  0.2183497053863375  0.1463210947572549   T   T   T
  0.2405288011795302  0.1313844285068604  0.3074370374278489   T   T   T
  0.1321288009389513  0.2572524787971971  0.3667954728784363   T   T   T
  0.0061576040106592  0.0037314450305580  0.2314754632758874   T   T   T
  0.2218079736731902  0.1112415696193813  0.0753956265901916   T   T   T
  0.3342999170799810  0.0012692874512313  0.9962796401163804   T   T   T
  0.4449183637984793  0.2217476361986708  0.1503457070453137   T   T   T
  0.5585624878255014  0.1081045121759289  0.3024769523841634   T   T   T
  0.4695002416771211  0.1971657583368958  0.3971559896261940   T   T   T
  0.3325164041652411  0.0015415720712056  0.2295971152783444   T   T   T
  0.5569435511910342  0.1097234488090717  0.0774633031475271   T   T   T
  0.6658188815554150  0.0008481184460212  0.9946614148092642   T   T   T
  0.7842012528523650  0.2249546840026251  0.1530193629979070   T   T   T
  0.8873955962024453  0.1089843738055315  0.3043995439221398   T   T   T
  0.7792066056212410  0.2180600759088731  0.3868603622111967   T   T   T
  0.6681638399155749 -0.0014968399144127  0.2287813917195974   T   T   T
  0.8850227793563942  0.1085696732172528  0.0746535669483376   T   T   T
 -0.0019390794307896  0.3323667814382288  0.9951704035378754   T   T   T
  0.1099821223728022  0.5566848776237255  0.1475889229719078   T   T   T
  0.1145042516404601  0.5521627483753540  0.3784569730979812   T   T   T
  0.0177802389586797  0.3436599745050699  0.2351852664211280   T   T   T
  0.2219756358121772  0.4446903641899539  0.0717286926308843   T   T   T
  0.3338836267676059  0.3327823732314689  0.9951053792266660   T   T   T
  0.4483162946187564  0.5619284327412374  0.1463210947564651   T   T   T
  0.5352825714899493  0.4261371988124861  0.3074370374284105   T   T   T
  0.4094135211982824  0.5345381990564912  0.3667954728802943   T   T   T
  0.3260476639471382  0.3406183360419572  0.2214999831692088   T   T   T
  0.5554254303798170  0.4448580263261245  0.0753956265903034   T   T   T
  0.6653977125483835  0.3323660829190118  0.9962796401163522   T   T   T
  0.7790540124910907  0.5557768394154351  0.1509492688672662   T   T   T
  0.8842475232155259  0.4430895752872140  0.3051608014032373   T   T   T
  0.7731787076552475  0.5582399886247079  0.3821681980447594   T   T   T
  0.6651254279250567  0.3341495958322487  0.2295971152785211   T   T   T
  0.8875178657864086  0.4438200058635685  0.0753808674899563   T   T   T
 -0.0002933464287684  0.6669603464272100  0.9957516077699131   T   T   T
  0.1108901605831580  0.8876129875066533  0.1509492688671658   T   T   T
  0.2235764247087014  0.7824194767793347  0.3051608014028351   T   T   T
  0.1084270113732103  0.8934882923413939  0.3821681980445216   T   T   T
  0.0006324390253576  0.6660345609727830  0.2307110584247193   T   T   T
  0.2228459941362020  0.7791491342131849  0.0753808674898802   T   T   T
  0.3342992185625324  0.6686060794324657  0.9951704035378850   T   T   T
  0.4417113160000130  0.8824657471486220  0.1530193629982824   T   T   T
  0.5576826261984437  0.7792714037988062  0.3043995439216151   T   T   T
  0.4486059240920982  0.8874603943794007  0.3868603622103019   T   T   T
  0.3230060255014108  0.6488867610555841  0.2351852664222943   T   T   T
  0.5580973267828074  0.7816442206449093  0.0746535669483123   T   T   T
  0.6667896793344574  0.6668355588181003  0.9950849023076621   T   T   T
  0.7790435214573180  0.8876234785427325  0.1522323168654389   T   T   T
  0.8884196968250634  0.7782473031734136  0.3030212534384634   T   T   T
  0.7795319535987499  0.8871350464015341  0.3829054859176815   T   T   T
  0.6629355549706233  0.6605093959893777  0.2314754632759533   T   T   T
  0.8883602218602012  0.7783067781384271  0.0756038555116820   T   T   T
  0.3283386278429846  0.3383273721613592  0.3378111675673857   T   T   T
  0.0086545938045105  0.0080843487549999  0.3420689207378470   T   T   T
  0.2254600958831020  0.1155407466530350  0.1915773974904909   T   T   T
  0.1095816311986576  0.2198130336282715  0.0334871585858119   T   T   T
  0.3389888564167368  0.0089973021777702  0.3470708592510153   T   T   T
  0.5561864688078380  0.1104805311954869  0.1915338425894650   T   T   T
  0.4444466117146045  0.2222193882849495  0.0362540753328986   T   T   T
  0.6685576121622010 -0.0018906121606451  0.3461057638681074   T   T   T
  0.8901830578096828  0.1112473821927720  0.1908502928384922   T   T   T
  0.7775000059377604  0.2217087290439519  0.0357760667697895   T   T   T
 -0.0094055838264605  0.3299817865815594  0.3461870782719936   T   T   T
  0.2225324703430547  0.4441335296494314  0.1806314425045850   T   T   T
  0.1097262045563028  0.5569407954417253  0.0340782088152431   T   T   T
  0.5511262533443235  0.4412059041142107  0.1915773974905185   T   T   T
  0.4468529663715449  0.5570853688016637  0.0334871585857321   T   T   T
  0.6576696978220551  0.3276771435849945  0.3470708592507906   T   T   T
  0.8885202094971201  0.4444037053525233  0.1914450855271863   T   T   T
  0.7771907394353237  0.5547808534088825  0.0366586409334422   T   T   T
 -0.0024151880911528  0.6690821880993550  0.3426183507598652   T   T   T
  0.2222622946522131  0.7781467905121164  0.1914450855274341   T   T   T
  0.1118861465928006  0.8894762605662336  0.0366586409333669   T   T   T
  0.3366842134141507  0.6760725838144102  0.3461870782724150   T   T   T
  0.5554196178014212  0.7764839421883423  0.1908502928389190   T   T   T
  0.4449572709546309  0.8891669940625622  0.0357760667699207   T   T   T
  0.6585826512418821  0.6580124061935652  0.3420689207378265   T   T   T
  0.8894159830827967  0.7772510169199293  0.1901260964655146   T   T   T
  0.7773761057858766  0.8892908942135080  0.0353637745745174   T   T   T
0.446598 0.216020 0.433410 T T T 
 
  0.00000000E+00  0.00000000E+00  0.00000000E+00
  0.00000000E+00  0.00000000E+00  0.00000000E+00
  0.00000000E+00  0.00000000E+00  0.00000000E+00
  0.00000000E+00  0.00000000E+00  0.00000000E+00
  0.00000000E+00  0.00000000E+00  0.00000000E+00
  0.00000000E+00  0.00000000E+00  0.00000000E+00
  0.00000000E+00  0.00000000E+00  0.00000000E+00
  0.00000000E+00  0.00000000E+00  0.00000000E+00
  0.00000000E+00  0.00000000E+00  0.00000000E+00
  0.00000000E+00  0.00000000E+00  0.00000000E+00
  0.00000000E+00  0.00000000E+00  0.00000000E+00
  0.00000000E+00  0.00000000E+00  0.00000000E+00
  0.00000000E+00  0.00000000E+00  0.00000000E+00
  0.00000000E+00  0.00000000E+00  0.00000000E+00
  0.00000000E+00  0.00000000E+00  0.00000000E+00
  0.00000000E+00  0.00000000E+00  0.00000000E+00
  0.00000000E+00  0.00000000E+00  0.00000000E+00
  0.00000000E+00  0.00000000E+00  0.00000000E+00
  0.00000000E+00  0.00000000E+00  0.00000000E+00
  0.00000000E+00  0.00000000E+00  0.00000000E+00
  0.00000000E+00  0.00000000E+00  0.00000000E+00
  0.00000000E+00  0.00000000E+00  0.00000000E+00
  0.00000000E+00  0.00000000E+00  0.00000000E+00
  0.00000000E+00  0.00000000E+00  0.00000000E+00
  0.00000000E+00  0.00000000E+00  0.00000000E+00
  0.00000000E+00  0.00000000E+00  0.00000000E+00
  0.00000000E+00  0.00000000E+00  0.00000000E+00
  0.00000000E+00  0.00000000E+00  0.00000000E+00
  0.00000000E+00  0.00000000E+00  0.00000000E+00
  0.00000000E+00  0.00000000E+00  0.00000000E+00
  0.00000000E+00  0.00000000E+00  0.00000000E+00
  0.00000000E+00  0.00000000E+00  0.00000000E+00
  0.00000000E+00  0.00000000E+00  0.00000000E+00
  0.00000000E+00  0.00000000E+00  0.00000000E+00
  0.00000000E+00  0.00000000E+00  0.00000000E+00
  0.00000000E+00  0.00000000E+00  0.00000000E+00
  0.00000000E+00  0.00000000E+00  0.00000000E+00
  0.00000000E+00  0.00000000E+00  0.00000000E+00
  0.00000000E+00  0.00000000E+00  0.00000000E+00
  0.00000000E+00  0.00000000E+00  0.00000000E+00
  0.00000000E+00  0.00000000E+00  0.00000000E+00
  0.00000000E+00  0.00000000E+00  0.00000000E+00
  0.00000000E+00  0.00000000E+00  0.00000000E+00
  0.00000000E+00  0.00000000E+00  0.00000000E+00
  0.00000000E+00  0.00000000E+00  0.00000000E+00
  0.00000000E+00  0.00000000E+00  0.00000000E+00
  0.00000000E+00  0.00000000E+00  0.00000000E+00
  0.00000000E+00  0.00000000E+00  0.00000000E+00
  0.00000000E+00  0.00000000E+00  0.00000000E+00
  0.00000000E+00  0.00000000E+00  0.00000000E+00
  0.00000000E+00  0.00000000E+00  0.00000000E+00
  0.00000000E+00  0.00000000E+00  0.00000000E+00
  0.00000000E+00  0.00000000E+00  0.00000000E+00
  0.00000000E+00  0.00000000E+00  0.00000000E+00
  0.00000000E+00  0.00000000E+00  0.00000000E+00
  0.00000000E+00  0.00000000E+00  0.00000000E+00
  0.00000000E+00  0.00000000E+00  0.00000000E+00
  0.00000000E+00  0.00000000E+00  0.00000000E+00
  0.00000000E+00  0.00000000E+00  0.00000000E+00
  0.00000000E+00  0.00000000E+00  0.00000000E+00
  0.00000000E+00  0.00000000E+00  0.00000000E+00
  0.00000000E+00  0.00000000E+00  0.00000000E+00
  0.00000000E+00  0.00000000E+00  0.00000000E+00
  0.00000000E+00  0.00000000E+00  0.00000000E+00
  0.00000000E+00  0.00000000E+00  0.00000000E+00
  0.00000000E+00  0.00000000E+00  0.00000000E+00
  0.00000000E+00  0.00000000E+00  0.00000000E+00
  0.00000000E+00  0.00000000E+00  0.00000000E+00
  0.00000000E+00  0.00000000E+00  0.00000000E+00
  0.00000000E+00  0.00000000E+00  0.00000000E+00
  0.00000000E+00  0.00000000E+00  0.00000000E+00
  0.00000000E+00  0.00000000E+00  0.00000000E+00
  0.00000000E+00  0.00000000E+00  0.00000000E+00
  0.00000000E+00  0.00000000E+00  0.00000000E+00
  0.00000000E+00  0.00000000E+00  0.00000000E+00
  0.00000000E+00  0.00000000E+00  0.00000000E+00
  0.00000000E+00  0.00000000E+00  0.00000000E+00
  0.00000000E+00  0.00000000E+00  0.00000000E+00
  0.00000000E+00  0.00000000E+00  0.00000000E+00
  0.00000000E+00  0.00000000E+00  0.00000000E+00
