CeO2-you-111-you-Fe                     
   1.00000000000000     
     9.8416082815900676   -5.6820555617039341    0.0000000000000000
     0.0000000006170993   11.3641091246345525    0.0000000000000000
     0.0000000000000000    0.0000000000000000   19.8948214410703947
   O    Fe   Ce   H 
    54     1    26     1
Selective dynamics
Direct
 -0.0002933078968964  0.0002640936682698  0.9834124538009651   T   T   T
  0.1078280226150170  0.2205805113110912  0.1441858009168087   F   F   F
  0.2422816438912362  0.1404984160368302  0.3204848325130920   T   T   T
  0.0598843823303174  0.1953360943639165  0.4070705517494031   T   T   T
  0.0095059196297793  0.0041510732466224  0.2331302294385545   T   T   T
  0.2213574781098089  0.1093819562194511  0.0671668688259572   F   F   F
  0.3342136976444536  0.0004986960320474  0.9831677027693769   T   T   T
  0.4460854886960703  0.2205805113142745  0.1441858009168087   F   F   F
  0.5521441272838528  0.1141472988977493  0.3101947873546230   T   T   T
  0.4714969974751507  0.1954237602700634  0.4208792599132728   T   T   T
  0.3285051275846767  0.0016480188266179  0.2328081614277174   T   T   T
  0.5570311720851464  0.1096358279218776  0.0678182453282190   F   F   F
  0.6665336052513443 -0.0001955778091351  0.9828551076856696   T   T   T
  0.7799824750497848  0.2266309501004073  0.1491971478283105   F   F   F
  0.8853663550875337  0.1089047284031395  0.3064084221913560   T   T   T
  0.7762554526937413  0.2212815385300600  0.3935094639673434   T   T   T
  0.6649262643406120  0.0019752510913240  0.2295612749175323   T   T   T
  0.8859386558345790  0.1096358279197176  0.0678182453282190   F   F   F
  0.9993302813512105  0.3322556848024283  0.9834467780629726   T   T   T
  0.1094467959328469  0.5572202040667662  0.1470888937534696   F   F   F
  0.2373036925412925  0.4292769888724972  0.3169512598790065   T   T   T
  0.1133143793616624  0.5534593999520757  0.3932283883076008   T   T   T
  0.0074091712818398  0.3372836969764667  0.2324250371758543   T   T   T
  0.2213574781101855  0.4453085218903539  0.0671668688259572   F   F   F
  0.3329599958241773  0.3329043352981571  0.9838941754883198   T   T   T
  0.4460854886889081  0.5588389773746414  0.1441858009168087   F   F   F
  0.5263874572077976  0.4252742686914073  0.3200111227161971   T   T   T
  0.4710852049044108  0.6063510881501744  0.4068288238931503   T   T   T
  0.3337310794271823  0.3323290157816789  0.2211580851739040   T   T   T
  0.5572850437800128  0.4453085218901904  0.0671668688259572   F   F   F
  0.6663562165332579  0.3328411977390785  0.9833365888488481   T   T   T
  0.7811064081340291  0.5572202040668799  0.1470888937534696   F   F   F
  0.8892156241670908  0.4433115845696207  0.3112449966586395   T   T   T
  0.7757057963628938  0.5516308085635376  0.3939188249205365   T   T   T
  0.6646906699011651  0.3380980776885658  0.2328446266940256   T   T   T
  0.8891085025101688  0.4448830050207562  0.0672745259271608   F   F   F
 -0.0000643462896189  0.6664002632880501  0.9824656491473404   T   T   T
  0.1094467959331240  0.8855605918663585  0.1470888937534696   F   F   F
  0.2234260183703195  0.7773320955651098  0.3110585488210917   T   T   T
  0.1153923601743275  0.8908392376204429  0.3938239627295221   T   T   T
 -0.0001465641941771  0.6671418759531049  0.2339149086940161   T   T   T
  0.2217829949805861  0.7775584974898280  0.0672745259271608   F   F   F
  0.3338352292093300  0.6669007125447532  0.9833036369599724   T   T   T
  0.4400350499022849  0.8866845249502120  0.1491971478283105   F   F   F
  0.5583654060136748  0.7817132570261808  0.3064145249779105   T   T   T
  0.4454477417622301  0.8901525446590507  0.3934459424596620   T   T   T
  0.3292371730122690  0.6585963400640700  0.2325127478160876   T   T   T
  0.5570311720802863  0.7807283441584048  0.0678182453282190   F   F   F
  0.6660201990598168  0.6669277140632683  0.9831419469709188   T   T   T
  0.7799824750479232  0.8866845249493807  0.1491971478283105   F   F   F
  0.8882675518771443  0.7789713033626828  0.3124574870580074   T   T   T
  0.7759956481215482  0.8916790197727292  0.3950869495130521   T   T   T
  0.6627977002429285  0.6576309707044575  0.2329963921833609   T   T   T
  0.8891085025092451  0.7775584974894159  0.0672745259271608   F   F   F
  0.3336727810601363  0.3330969462273144  0.3190559665173217   T   T   T
 -0.0009383457684357  0.0047962450037384  0.3564173778802268   T   T   T
  0.2208664813974366  0.1083999627934915  0.1850814326587198   F   F   F
  0.1096613667242821  0.2214971833631978  0.0246227629738343   F   F   F
  0.3319016489371550 -0.0035112075962514  0.3541213520223751   T   T   T
  0.5551303705064683  0.1115366294950277  0.1897903849078304   F   F   F
  0.4451688166389047  0.2214971833641286  0.0246227629738343   F   F   F
  0.6663078617877297  0.0007138696145850  0.3523604181264371   T   T   T
  0.8897402589881054  0.1115366294945659  0.1897903849078304   F   F   F
  0.7777638159969911  0.2221936319943225  0.0258858376995192   F   F   F
  0.0023176292422559  0.3282454667921621  0.3558684947287544   T   T   T
  0.2208664814005274  0.4457995186039412  0.1850814326587198   F   F   F
  0.1102969478498608  0.5563700521486012  0.0255318150999528   F   F   F
  0.5582670372020502  0.4457995186025627  0.1850814326587198   F   F   F
  0.4451688166368015  0.5570056332726878  0.0246227629738343   F   F   F
  0.6699924602617882  0.3349570355581891  0.3541131706346464   T   T   T
  0.8887251200129924  0.4441162400262542  0.1921949837881343   F   F   F
  0.7794061042992055  0.5563700521490773  0.0255318150999528   F   F   F
  0.0008357940742459  0.6659561078595224  0.3529177088756758   T   T   T
  0.2225497599746191  0.7779418799870044  0.1921949837881343   F   F   F
  0.1102969478509266  0.8872608957023260  0.0255318150999528   F   F   F
  0.3384555234016171  0.6643357569408475  0.3558028197111034   T   T   T
  0.5551303705054380  0.7769267410104064  0.1897903849078304   F   F   F
  0.4444723680067710  0.8889031840030057  0.0258858376995192   F   F   F
  0.6620958773850854  0.6680168056643492  0.3563378176908025   T   T   T
  0.8887251200123885  0.7779418799867344  0.1921949837881343   F   F   F
  0.7777638159962379  0.8889031840026718  0.0258858376995192   F   F   F
  0.4327137292374251  0.2327708186400068  0.4521207317466392   T   T   T
 
  0.00000000E+00  0.00000000E+00  0.00000000E+00
  0.00000000E+00  0.00000000E+00  0.00000000E+00
  0.00000000E+00  0.00000000E+00  0.00000000E+00
  0.00000000E+00  0.00000000E+00  0.00000000E+00
  0.00000000E+00  0.00000000E+00  0.00000000E+00
  0.00000000E+00  0.00000000E+00  0.00000000E+00
  0.00000000E+00  0.00000000E+00  0.00000000E+00
  0.00000000E+00  0.00000000E+00  0.00000000E+00
  0.00000000E+00  0.00000000E+00  0.00000000E+00
  0.00000000E+00  0.00000000E+00  0.00000000E+00
  0.00000000E+00  0.00000000E+00  0.00000000E+00
  0.00000000E+00  0.00000000E+00  0.00000000E+00
  0.00000000E+00  0.00000000E+00  0.00000000E+00
  0.00000000E+00  0.00000000E+00  0.00000000E+00
  0.00000000E+00  0.00000000E+00  0.00000000E+00
  0.00000000E+00  0.00000000E+00  0.00000000E+00
  0.00000000E+00  0.00000000E+00  0.00000000E+00
  0.00000000E+00  0.00000000E+00  0.00000000E+00
  0.00000000E+00  0.00000000E+00  0.00000000E+00
  0.00000000E+00  0.00000000E+00  0.00000000E+00
  0.00000000E+00  0.00000000E+00  0.00000000E+00
  0.00000000E+00  0.00000000E+00  0.00000000E+00
  0.00000000E+00  0.00000000E+00  0.00000000E+00
  0.00000000E+00  0.00000000E+00  0.00000000E+00
  0.00000000E+00  0.00000000E+00  0.00000000E+00
  0.00000000E+00  0.00000000E+00  0.00000000E+00
  0.00000000E+00  0.00000000E+00  0.00000000E+00
  0.00000000E+00  0.00000000E+00  0.00000000E+00
  0.00000000E+00  0.00000000E+00  0.00000000E+00
  0.00000000E+00  0.00000000E+00  0.00000000E+00
  0.00000000E+00  0.00000000E+00  0.00000000E+00
  0.00000000E+00  0.00000000E+00  0.00000000E+00
  0.00000000E+00  0.00000000E+00  0.00000000E+00
  0.00000000E+00  0.00000000E+00  0.00000000E+00
  0.00000000E+00  0.00000000E+00  0.00000000E+00
  0.00000000E+00  0.00000000E+00  0.00000000E+00
  0.00000000E+00  0.00000000E+00  0.00000000E+00
  0.00000000E+00  0.00000000E+00  0.00000000E+00
  0.00000000E+00  0.00000000E+00  0.00000000E+00
  0.00000000E+00  0.00000000E+00  0.00000000E+00
  0.00000000E+00  0.00000000E+00  0.00000000E+00
  0.00000000E+00  0.00000000E+00  0.00000000E+00
  0.00000000E+00  0.00000000E+00  0.00000000E+00
  0.00000000E+00  0.00000000E+00  0.00000000E+00
  0.00000000E+00  0.00000000E+00  0.00000000E+00
  0.00000000E+00  0.00000000E+00  0.00000000E+00
  0.00000000E+00  0.00000000E+00  0.00000000E+00
  0.00000000E+00  0.00000000E+00  0.00000000E+00
  0.00000000E+00  0.00000000E+00  0.00000000E+00
  0.00000000E+00  0.00000000E+00  0.00000000E+00
  0.00000000E+00  0.00000000E+00  0.00000000E+00
  0.00000000E+00  0.00000000E+00  0.00000000E+00
  0.00000000E+00  0.00000000E+00  0.00000000E+00
  0.00000000E+00  0.00000000E+00  0.00000000E+00
  0.00000000E+00  0.00000000E+00  0.00000000E+00
  0.00000000E+00  0.00000000E+00  0.00000000E+00
  0.00000000E+00  0.00000000E+00  0.00000000E+00
  0.00000000E+00  0.00000000E+00  0.00000000E+00
  0.00000000E+00  0.00000000E+00  0.00000000E+00
  0.00000000E+00  0.00000000E+00  0.00000000E+00
  0.00000000E+00  0.00000000E+00  0.00000000E+00
  0.00000000E+00  0.00000000E+00  0.00000000E+00
  0.00000000E+00  0.00000000E+00  0.00000000E+00
  0.00000000E+00  0.00000000E+00  0.00000000E+00
  0.00000000E+00  0.00000000E+00  0.00000000E+00
  0.00000000E+00  0.00000000E+00  0.00000000E+00
  0.00000000E+00  0.00000000E+00  0.00000000E+00
  0.00000000E+00  0.00000000E+00  0.00000000E+00
  0.00000000E+00  0.00000000E+00  0.00000000E+00
  0.00000000E+00  0.00000000E+00  0.00000000E+00
  0.00000000E+00  0.00000000E+00  0.00000000E+00
  0.00000000E+00  0.00000000E+00  0.00000000E+00
  0.00000000E+00  0.00000000E+00  0.00000000E+00
  0.00000000E+00  0.00000000E+00  0.00000000E+00
  0.00000000E+00  0.00000000E+00  0.00000000E+00
  0.00000000E+00  0.00000000E+00  0.00000000E+00
  0.00000000E+00  0.00000000E+00  0.00000000E+00
  0.00000000E+00  0.00000000E+00  0.00000000E+00
  0.00000000E+00  0.00000000E+00  0.00000000E+00
  0.00000000E+00  0.00000000E+00  0.00000000E+00
  0.00000000E+00  0.00000000E+00  0.00000000E+00
  0.00000000E+00  0.00000000E+00  0.00000000E+00
