CeO2-you-111-you-Mo                     
   1.00000000000000     
     9.8898060657063613   -5.7098825642105142    0.0000000000000000
    -0.0000000051255109   11.4197631099072900    0.0000000000000000
     0.0000000000000000    0.0000000000000000   20.8076767939309271
   O    Mo   Ce   H 
    54     1    26     1
Selective dynamics
Direct
  0.9997298778199314 -0.0000209101868623  0.9946940726292292   T   T   T
  0.1193479604966186  0.2263404802485312  0.1530014013479857   F   F   F
  0.2331106373854028  0.1286533108362243  0.3042003573568053   T   T   T
  0.1723852089085419  0.2497212935172179  0.3860028268495325   T   T   T
  0.9991216934380770  0.9968699392718219  0.2292718361794358   T   T   T
  0.2221413173322802  0.1109496346645642  0.0738856089170170   F   F   F
  0.3336341817377978  0.0000275558215297  0.9944069135854749   T   T   T
  0.4403255197519087  0.2263404802487301  0.1530014013479857   F   F   F
  0.5585197785442882  0.1177265126204132  0.3057356313475760   T   T   T
  0.4357675108411699  0.2384640879691968  0.3980795425747413   T   T   T
  0.3326537585804487  0.9974739511137842  0.2274352516025925   T   T   T
  0.5534154600817374  0.1132515399192258  0.0752151928258087   F   F   F
  0.6669359474490283 -0.0000941793409787  0.9961577242753232   T   T   T
  0.7761341740675860  0.2189343481348018  0.1486185958412349   F   F   F
  0.8971451486081484  0.1107578515724509  0.3078646389698671   T   T   T
  0.7683733849392976  0.2169605478600381  0.3882155573923952   T   T   T
  0.6678144095602453 -0.0008969082519985  0.2319186252632984   T   T   T
  0.8931700798371978  0.1132515399189344  0.0752151928258087   F   F   F
  0.9991644780216127  0.3324725428455622  0.9943931191876586   T   T   T
  0.1118082733101247  0.5548587266899148  0.1481397798217401   F   F   F
  0.2323699496092932  0.4452215119316956  0.3058834808040974   T   T   T
  0.1215573304471617  0.5701652777125479  0.3873678356095269   T   T   T
  0.0001789565717520  0.3342905634122229  0.2288904851170015   T   T   T
  0.2221413173322730  0.4445246826677121  0.0738856089170170   F   F   F
  0.3328117225178333  0.3329786383649663  0.9946853846659589   T   T   T
  0.4403255197514682  0.5473190395027459  0.1530014013479857   F   F   F
  0.5345501326754176  0.4175469547303100  0.3048669347427014   T   T   T
  0.4191053970702457  0.4949719007908312  0.3860447038631436   T   T   T
  0.3290384416956883  0.3387878213734329  0.2387042452253664   T   T   T
  0.5557173653354539  0.4445246826677192  0.0738856089170170   F   F   F
  0.6664454068183673  0.3328047540971576  0.9942233425607400   T   T   T
  0.7763834533797791  0.5548587266899005  0.1481397798217401   F   F   F
  0.8906357853663024  0.4469967815486529  0.3044766290379528   T   T   T
  0.7814292799985098  0.5463436813958408  0.3865523385424611   T   T   T
  0.6719798004306853  0.3362826396125981  0.2284806174059113   T   T   T
  0.8887986241623906  0.4442632483247806  0.0733102898694753   F   F   F
 -0.0002436627040617  0.6667877410584704  0.9939041204650895   T   T   T
  0.1118082733101033  0.8902835466201893  0.1481397798217401   F   F   F
  0.2199368679929220  0.7767578820010462  0.3040961141511156   T   T   T
  0.0974570011584026  0.8855428559019407  0.3864763018971717   T   T   T
 -0.0001532583142482  0.6667975630045962  0.2267692946620998   T   T   T
  0.2224027516752329  0.7778683758376062  0.0733102898694753   F   F   F
  0.3336630644331850  0.6671871718839877  0.9942483284859132   T   T   T
  0.4477316518639824  0.8905328259324108  0.1486185958412349   F   F   F
  0.5468106507153601  0.7703229320765291  0.3074870657015118   T   T   T
  0.4497550987448953  0.8842812180546651  0.3885225656753747   T   T   T
  0.3308754610789658  0.6681100901427646  0.2296296077024065   T   T   T
  0.5534154600810695  0.7734969201618398  0.0752151928258087   F   F   F
  0.6667778644035413  0.6675762784016112  0.9944058632051257   T   T   T
  0.7761341740684244  0.8905328259327874  0.1486185958412349   F   F   F
  0.8907419460138547  0.7771297092473329  0.3034096167606413   T   T   T
  0.7837772118717309  0.8960485281207933  0.3868249441709726   T   T   T
  0.6670100302355750  0.6653046250752188  0.2289856008736010   T   T   T
  0.8887986241623835  0.7778683758376062  0.0733102898694753   F   F   F
  0.3227766557316823  0.3453517854434830  0.3344918429614493   T   T   T
  0.9971652005000807  0.9917525778179517  0.3435491581439819   T   T   T
  0.2199172534882621  0.1065015069762083  0.1912117892866689   F   F   F
  0.1120946268887977  0.2227138134446278  0.0352788545295581   F   F   F
  0.3313474772271790  0.0024639986740584  0.3483104490229523   T   T   T
  0.5554085247386880  0.1112584752626873  0.1906662584730014   F   F   F
  0.4439521865558262  0.2227138134448268  0.0352788545295581   F   F   F
  0.6682887149690109 -0.0006643485325745  0.3472712567775271   T   T   T
  0.8891839505235737  0.1112584752622610  0.1906662584730014   F   F   F
  0.7778295956695587  0.2223251913390598  0.0348608598644304   F   F   F
 -0.0006143412821508  0.3368099748004107  0.3493313455421434   T   T   T
  0.2199172534889442  0.4467487465120428  0.1912117892866689   F   F   F
  0.1115325941710310  0.5551344058282552  0.0330921629897531   F   F   F
  0.5601654930228079  0.4467487465117372  0.1912117892866689   F   F   F
  0.4439521865553715  0.5545723731105596  0.0352788545295581   F   F   F
  0.6724742661733883  0.3345122597100711  0.3445238595219274   T   T   T
  0.8892609860556675  0.4451879721119028  0.1876021503459597   F   F   F
  0.7769348116574335  0.5551344058284755  0.0330921629897531   F   F   F
 -0.0006286547527460  0.6664875479118615  0.3445605249023752   T   T   T
  0.2214780278899298  0.7774060139443293  0.1876021503459597   F   F   F
  0.1115325941715284  0.8897321883432809  0.0330921629897531   F   F   F
  0.3306637388696552  0.6775217240984605  0.3449799149830018   T   T   T
  0.5554085247377429  0.7774830494750518  0.1906662584730014   F   F   F
  0.4443408086607263  0.8888374043304381  0.0348608598644304   F   F   F
  0.6668335921435048  0.6605714084148947  0.3478769405876779   T   T   T
  0.8892609860544027  0.7774060139437680  0.1876021503459597   F   F   F
  0.7778295956697079  0.8888374043305021  0.0348608598644304   F   F   F
  0.4236193272611186  0.2546233618738812  0.4428926462263093   T   T   T
 
  0.00000000E+00  0.00000000E+00  0.00000000E+00
  0.00000000E+00  0.00000000E+00  0.00000000E+00
  0.00000000E+00  0.00000000E+00  0.00000000E+00
  0.00000000E+00  0.00000000E+00  0.00000000E+00
  0.00000000E+00  0.00000000E+00  0.00000000E+00
  0.00000000E+00  0.00000000E+00  0.00000000E+00
  0.00000000E+00  0.00000000E+00  0.00000000E+00
  0.00000000E+00  0.00000000E+00  0.00000000E+00
  0.00000000E+00  0.00000000E+00  0.00000000E+00
  0.00000000E+00  0.00000000E+00  0.00000000E+00
  0.00000000E+00  0.00000000E+00  0.00000000E+00
  0.00000000E+00  0.00000000E+00  0.00000000E+00
  0.00000000E+00  0.00000000E+00  0.00000000E+00
  0.00000000E+00  0.00000000E+00  0.00000000E+00
  0.00000000E+00  0.00000000E+00  0.00000000E+00
  0.00000000E+00  0.00000000E+00  0.00000000E+00
  0.00000000E+00  0.00000000E+00  0.00000000E+00
  0.00000000E+00  0.00000000E+00  0.00000000E+00
  0.00000000E+00  0.00000000E+00  0.00000000E+00
  0.00000000E+00  0.00000000E+00  0.00000000E+00
  0.00000000E+00  0.00000000E+00  0.00000000E+00
  0.00000000E+00  0.00000000E+00  0.00000000E+00
  0.00000000E+00  0.00000000E+00  0.00000000E+00
  0.00000000E+00  0.00000000E+00  0.00000000E+00
  0.00000000E+00  0.00000000E+00  0.00000000E+00
  0.00000000E+00  0.00000000E+00  0.00000000E+00
  0.00000000E+00  0.00000000E+00  0.00000000E+00
  0.00000000E+00  0.00000000E+00  0.00000000E+00
  0.00000000E+00  0.00000000E+00  0.00000000E+00
  0.00000000E+00  0.00000000E+00  0.00000000E+00
  0.00000000E+00  0.00000000E+00  0.00000000E+00
  0.00000000E+00  0.00000000E+00  0.00000000E+00
  0.00000000E+00  0.00000000E+00  0.00000000E+00
  0.00000000E+00  0.00000000E+00  0.00000000E+00
  0.00000000E+00  0.00000000E+00  0.00000000E+00
  0.00000000E+00  0.00000000E+00  0.00000000E+00
  0.00000000E+00  0.00000000E+00  0.00000000E+00
  0.00000000E+00  0.00000000E+00  0.00000000E+00
  0.00000000E+00  0.00000000E+00  0.00000000E+00
  0.00000000E+00  0.00000000E+00  0.00000000E+00
  0.00000000E+00  0.00000000E+00  0.00000000E+00
  0.00000000E+00  0.00000000E+00  0.00000000E+00
  0.00000000E+00  0.00000000E+00  0.00000000E+00
  0.00000000E+00  0.00000000E+00  0.00000000E+00
  0.00000000E+00  0.00000000E+00  0.00000000E+00
  0.00000000E+00  0.00000000E+00  0.00000000E+00
  0.00000000E+00  0.00000000E+00  0.00000000E+00
  0.00000000E+00  0.00000000E+00  0.00000000E+00
  0.00000000E+00  0.00000000E+00  0.00000000E+00
  0.00000000E+00  0.00000000E+00  0.00000000E+00
  0.00000000E+00  0.00000000E+00  0.00000000E+00
  0.00000000E+00  0.00000000E+00  0.00000000E+00
  0.00000000E+00  0.00000000E+00  0.00000000E+00
  0.00000000E+00  0.00000000E+00  0.00000000E+00
  0.00000000E+00  0.00000000E+00  0.00000000E+00
  0.00000000E+00  0.00000000E+00  0.00000000E+00
  0.00000000E+00  0.00000000E+00  0.00000000E+00
  0.00000000E+00  0.00000000E+00  0.00000000E+00
  0.00000000E+00  0.00000000E+00  0.00000000E+00
  0.00000000E+00  0.00000000E+00  0.00000000E+00
  0.00000000E+00  0.00000000E+00  0.00000000E+00
  0.00000000E+00  0.00000000E+00  0.00000000E+00
  0.00000000E+00  0.00000000E+00  0.00000000E+00
  0.00000000E+00  0.00000000E+00  0.00000000E+00
  0.00000000E+00  0.00000000E+00  0.00000000E+00
  0.00000000E+00  0.00000000E+00  0.00000000E+00
  0.00000000E+00  0.00000000E+00  0.00000000E+00
  0.00000000E+00  0.00000000E+00  0.00000000E+00
  0.00000000E+00  0.00000000E+00  0.00000000E+00
  0.00000000E+00  0.00000000E+00  0.00000000E+00
  0.00000000E+00  0.00000000E+00  0.00000000E+00
  0.00000000E+00  0.00000000E+00  0.00000000E+00
  0.00000000E+00  0.00000000E+00  0.00000000E+00
  0.00000000E+00  0.00000000E+00  0.00000000E+00
  0.00000000E+00  0.00000000E+00  0.00000000E+00
  0.00000000E+00  0.00000000E+00  0.00000000E+00
  0.00000000E+00  0.00000000E+00  0.00000000E+00
  0.00000000E+00  0.00000000E+00  0.00000000E+00
  0.00000000E+00  0.00000000E+00  0.00000000E+00
  0.00000000E+00  0.00000000E+00  0.00000000E+00
  0.00000000E+00  0.00000000E+00  0.00000000E+00
  0.00000000E+00  0.00000000E+00  0.00000000E+00
