CeO2-you-111-you-Cr                     
   1.00000000000000     
     9.9085620875199947   -5.7207113624688679   -0.0000000012287758
    -0.0356895872398439   11.3796045370747834   -0.0238566722640071
    -0.0247993610709349   -0.0429537462108752   20.4048002315136081
   O    Cr   Ce   H 
    53     1    26     2
Selective dynamics
Direct
  0.9994948635761823  0.0001335296459365  0.9893482293850856   T   T   T
  0.1108133925118224  0.2216678955749316  0.1458804773369948   F   F   F
  0.2480996635215472  0.1538170687440600  0.3183660080189247   T   T   T
  0.0541198590505020  0.1969345527150169  0.4036209700794676   T   T   T
  0.0098266367629067  0.0049270212462242  0.2327470869660472   T   T   T
  0.2215718631431827  0.1098107262825962  0.0702003869184153   F   F   F
  0.3340032137603551  0.0001345251724216  0.9888582677099224   T   T   T
  0.4441875030617481  0.2216678955720397  0.1458804773366467   F   F   F
  0.5543325459366085  0.1142694101730504  0.3068428364981924   T   T   T
  0.4710334971016141  0.2048964184648296  0.4123225477730859   T   T   T
  0.3285874224530715  0.0028929258252747  0.2327397603623186   T   T   T
  0.5565491378413654  0.1102725544289740  0.0717153901767347   F   F   F
  0.6663144322224335  0.9987444618742060  0.9896271399010961   T   T   T
  0.7785237023260052  0.2237134046536084  0.1518981427525077   F   F   F
  0.8849053398388880  0.1094385063553335  0.3035237477514499   T   T   T
  0.7762076656465799  0.2213769162339408  0.3889794246335853   T   T   T
  0.6623479530557586  0.9967117111402065  0.2308199555076145   T   T   T
  0.8870574165878509  0.1102725544306651  0.0717153901770189   F   F   F
  0.9988713007163567  0.3311835834861567  0.9889597154355956   T   T   T
  0.1084843522199819  0.5566799129237054  0.1467614120517382   F   F   F
  0.2484934031572165  0.4306468169124387  0.3167601925701649   T   T   T
  0.0990176684231546  0.5487747052732932  0.3896229037373024   T   T   T
  0.0105808505538568  0.3390788395521008  0.2321432798361011   T   T   T
  0.2212808762165324  0.4458712655818431  0.0701083616690568   F   F   F
  0.3333625308370464  0.3331261541338232  0.9898178218794764   T   T   T
  0.4448404482222799  0.5563488964446606  0.1463091228574456   F   F   F
  0.5200360512621857  0.4270842351877139  0.3133210593768138   T   T   T
  0.3327990828903193  0.3335274142091359  0.2200530232240114   T   T   T
  0.5579243893630661  0.4458712655817791  0.0701083616691989   F   F   F
  0.6659291910950926  0.3317591234549978  0.9889496643873525   T   T   T
  0.7815285607041389  0.5566799129226609  0.1467614120517879   F   F   F
  0.8880457346146435  0.4406253630247315  0.3058393041918423   T   T   T
  0.7813346190027762  0.5459378925046069  0.3895205768574693   T   T   T
  0.6643096163471590  0.3388755021832767  0.2316701125988961   T   T   T
  0.8877916035725377  0.4422492071510860  0.0701529017360301   F   F   F
  0.9995255264153778  0.6658093391420276  0.9885656656075519   T   T   T
  0.1104124594419247  0.8874919188797037  0.1471381804303746   F   F   F
  0.2197558392937941  0.7804003844892210  0.3079235851125494   T   T   T
  0.1193224773558888  0.8989487828489660  0.3889246288140925   T   T   T
  0.9997217175717474  0.6672595822202060  0.2312529924074869   T   T   T
  0.2225507958229329  0.7788477454057272  0.0705803378143699   F   F   F
  0.3342291449008609  0.6673589101517424  0.9893138698159459   T   T   T
  0.4420188700282850  0.8878209130594072  0.1506819469401037   F   F   F
  0.5525462338240735  0.7720127444457963  0.3104973180763912   T   T   T
  0.4476062450541551  0.9003678020952487  0.3913177473908586   T   T   T
  0.3274977711919435  0.6623620386490522  0.2296864796749872   T   T   T
  0.5563410629970704  0.7793481259919730  0.0724029539120821   F   F   F
  0.6667420312284538  0.6678353980990382  0.9893398455171226   T   T   T
  0.7791350430325608  0.8878209130604162  0.1506819469405869   F   F   F
  0.8949633423371435  0.7818539706113188  0.3094085865851853   T   T   T
  0.7814593852451127  0.8999698363744905  0.3921982125186623   T   T   T
  0.6682818562749079  0.6622457627670089  0.2298517286939402   T   T   T
  0.8896299495855473  0.7788477454060896  0.0705803378146044   F   F   F
  0.3378871320896337  0.3377504880840421  0.3215800145286980   T   T   T
 -0.0005423104369892  0.0086199397952052  0.3541527063351819   T   T   T
  0.2209474447326158  0.1085618894644966  0.1862448796660487   F   F   F
  0.1096553110793437  0.2209109108818836  0.0292365536845622   F   F   F
  0.3343920015514685  0.0010038914604472  0.3517721507176857   T   T   T
  0.5543089166886404  0.1112599065291278  0.1906578673165527   F   F   F
  0.4445885998040495  0.2209109108814147  0.0292365536844486   F   F   F
  0.6649155490436635  0.9976768765223146  0.3490086396513744   T   T   T
  0.8902849898395999  0.1112599065278417  0.1906578673165953   F   F   F
  0.7770646466162177  0.2207952932327757  0.0306719268321416   F   F   F
  0.9973576290083273  0.3269883232078499  0.3524534996718163   T   T   T
  0.2202083629830796  0.4470581140036884  0.1843967176722145   F   F   F
  0.1095966715464840  0.5553055062442809  0.0296873826426136   F   F   F
  0.5601837510217962  0.4470581140051664  0.1843967176726764   F   F   F
  0.4452165841141351  0.5571011682284421  0.0294452279544046   F   F   F
  0.6725476928451466  0.3324454967341425  0.3498562340569536   T   T   T
  0.8886667091125133  0.4439994182230649  0.1915030036114800   F   F   F
  0.7790418346971038  0.5553055062445438  0.0296873826426847   F   F   F
  0.0003765964106575  0.6657755860432905  0.3485664723383335   T   T   T
  0.2219736718644825  0.7793847194075951  0.1903684733120912   F   F   F
  0.1108052284852192  0.8882774569686660  0.0294869141156440   F   F   F
  0.3257513900082591  0.6701337203012602  0.3492836389971314   T   T   T
  0.5546982200644237  0.7760624401284062  0.1920675471811109   F   F   F
  0.4445251251278108  0.8883199615303852  0.0313099846407994   F   F   F
  0.6787692618359107  0.6720720584812253  0.3494226744760612   T   T   T
  0.8907440475427535  0.7793847194075454  0.1903684733120699   F   F   F
  0.7771278364032170  0.8883199615306907  0.0313099846409131   F   F   F
  0.3562437690216753  0.3580817010981800  0.4020646757629340   T   T   T
  0.4244618912775241  0.2564556228637667  0.4221472859022146   T   T   T
 
  0.00000000E+00  0.00000000E+00  0.00000000E+00
  0.00000000E+00  0.00000000E+00  0.00000000E+00
  0.00000000E+00  0.00000000E+00  0.00000000E+00
  0.00000000E+00  0.00000000E+00  0.00000000E+00
  0.00000000E+00  0.00000000E+00  0.00000000E+00
  0.00000000E+00  0.00000000E+00  0.00000000E+00
  0.00000000E+00  0.00000000E+00  0.00000000E+00
  0.00000000E+00  0.00000000E+00  0.00000000E+00
  0.00000000E+00  0.00000000E+00  0.00000000E+00
  0.00000000E+00  0.00000000E+00  0.00000000E+00
  0.00000000E+00  0.00000000E+00  0.00000000E+00
  0.00000000E+00  0.00000000E+00  0.00000000E+00
  0.00000000E+00  0.00000000E+00  0.00000000E+00
  0.00000000E+00  0.00000000E+00  0.00000000E+00
  0.00000000E+00  0.00000000E+00  0.00000000E+00
  0.00000000E+00  0.00000000E+00  0.00000000E+00
  0.00000000E+00  0.00000000E+00  0.00000000E+00
  0.00000000E+00  0.00000000E+00  0.00000000E+00
  0.00000000E+00  0.00000000E+00  0.00000000E+00
  0.00000000E+00  0.00000000E+00  0.00000000E+00
  0.00000000E+00  0.00000000E+00  0.00000000E+00
  0.00000000E+00  0.00000000E+00  0.00000000E+00
  0.00000000E+00  0.00000000E+00  0.00000000E+00
  0.00000000E+00  0.00000000E+00  0.00000000E+00
  0.00000000E+00  0.00000000E+00  0.00000000E+00
  0.00000000E+00  0.00000000E+00  0.00000000E+00
  0.00000000E+00  0.00000000E+00  0.00000000E+00
  0.00000000E+00  0.00000000E+00  0.00000000E+00
  0.00000000E+00  0.00000000E+00  0.00000000E+00
  0.00000000E+00  0.00000000E+00  0.00000000E+00
  0.00000000E+00  0.00000000E+00  0.00000000E+00
  0.00000000E+00  0.00000000E+00  0.00000000E+00
  0.00000000E+00  0.00000000E+00  0.00000000E+00
  0.00000000E+00  0.00000000E+00  0.00000000E+00
  0.00000000E+00  0.00000000E+00  0.00000000E+00
  0.00000000E+00  0.00000000E+00  0.00000000E+00
  0.00000000E+00  0.00000000E+00  0.00000000E+00
  0.00000000E+00  0.00000000E+00  0.00000000E+00
  0.00000000E+00  0.00000000E+00  0.00000000E+00
  0.00000000E+00  0.00000000E+00  0.00000000E+00
  0.00000000E+00  0.00000000E+00  0.00000000E+00
  0.00000000E+00  0.00000000E+00  0.00000000E+00
  0.00000000E+00  0.00000000E+00  0.00000000E+00
  0.00000000E+00  0.00000000E+00  0.00000000E+00
  0.00000000E+00  0.00000000E+00  0.00000000E+00
  0.00000000E+00  0.00000000E+00  0.00000000E+00
  0.00000000E+00  0.00000000E+00  0.00000000E+00
  0.00000000E+00  0.00000000E+00  0.00000000E+00
  0.00000000E+00  0.00000000E+00  0.00000000E+00
  0.00000000E+00  0.00000000E+00  0.00000000E+00
  0.00000000E+00  0.00000000E+00  0.00000000E+00
  0.00000000E+00  0.00000000E+00  0.00000000E+00
  0.00000000E+00  0.00000000E+00  0.00000000E+00
  0.00000000E+00  0.00000000E+00  0.00000000E+00
  0.00000000E+00  0.00000000E+00  0.00000000E+00
  0.00000000E+00  0.00000000E+00  0.00000000E+00
  0.00000000E+00  0.00000000E+00  0.00000000E+00
  0.00000000E+00  0.00000000E+00  0.00000000E+00
  0.00000000E+00  0.00000000E+00  0.00000000E+00
  0.00000000E+00  0.00000000E+00  0.00000000E+00
  0.00000000E+00  0.00000000E+00  0.00000000E+00
  0.00000000E+00  0.00000000E+00  0.00000000E+00
  0.00000000E+00  0.00000000E+00  0.00000000E+00
  0.00000000E+00  0.00000000E+00  0.00000000E+00
  0.00000000E+00  0.00000000E+00  0.00000000E+00
  0.00000000E+00  0.00000000E+00  0.00000000E+00
  0.00000000E+00  0.00000000E+00  0.00000000E+00
  0.00000000E+00  0.00000000E+00  0.00000000E+00
  0.00000000E+00  0.00000000E+00  0.00000000E+00
  0.00000000E+00  0.00000000E+00  0.00000000E+00
  0.00000000E+00  0.00000000E+00  0.00000000E+00
  0.00000000E+00  0.00000000E+00  0.00000000E+00
  0.00000000E+00  0.00000000E+00  0.00000000E+00
  0.00000000E+00  0.00000000E+00  0.00000000E+00
  0.00000000E+00  0.00000000E+00  0.00000000E+00
  0.00000000E+00  0.00000000E+00  0.00000000E+00
  0.00000000E+00  0.00000000E+00  0.00000000E+00
  0.00000000E+00  0.00000000E+00  0.00000000E+00
  0.00000000E+00  0.00000000E+00  0.00000000E+00
  0.00000000E+00  0.00000000E+00  0.00000000E+00
  0.00000000E+00  0.00000000E+00  0.00000000E+00
  0.00000000E+00  0.00000000E+00  0.00000000E+00
