CeO2-you-111-you-Pt                     
   1.00000000000000     
     9.8188542044952261   -5.7092917562430952    0.0011264555094801
    -0.0349642631865452   11.3580216267111123   -0.0011264552524717
     0.0009379747147454   -0.0016246195948108   21.2183918281675687
   O    Pt   Ce H
    53     1    26 2
Selective dynamics
Direct
  0.0001136618768094  0.0000790414491632  0.9958246290698239   T   T   T
  0.1012283077796608  0.2170762381025718  0.1461622714304367   F   F   F
  0.2445237548496990  0.1445597624050611  0.3087114632498590   T   T   T
  0.1250712387306258  0.2508519293573648  0.3759153384177363   T   T   T
  0.0082262580948751  0.0036950451778779  0.2316309822894258   T   T   T
  0.2215848129404998  0.1111994539822045  0.0759189653009537   F   F   F
  0.3341027655936386  0.0016176314829998  0.9970382295449788   T   T   T
  0.4484404236096241  0.2182255763897492  0.1483057094178211   F   F   F
  0.5580623025363342  0.1086046974669598  0.3001740199616526   T   T   T
  0.4756619499605218  0.1910040500629872  0.3980491034225600   T   T   T
  0.3301490523841935  0.0019684917272363  0.2299285510002011   T   T   T
  0.5585500147271166  0.1081169852720629  0.0766645291610598   F   F   F
  0.6664247211052517  0.0002422788968096  0.9944851486520508   T   T   T
  0.7836534006102975  0.2249616468563265  0.1534744121543425   F   F   F
  0.8895315467226452  0.1098832808589891  0.3038412901895777   T   T   T
  0.7794814041202232  0.2192114924897227  0.3840057736577164   T   T   T
  0.6686142368434184 -0.0019472368423289  0.2291352178099090   T   T   T
  0.8838390288961002  0.1080754656342302  0.0750039840901868   F   F   F
 -0.0015372707497786  0.3324773012964555  0.9960321710099206   T   T   T
  0.1100639632607560  0.5566030367406268  0.1484576726424980   F   F   F
  0.1136025873478040  0.5530644126706674  0.3777410955539466   T   T   T
  0.0179905572694544  0.3435726384857790  0.2350111937114697   T   T   T
  0.2219142342525453  0.4447517657504828  0.0729708700595801   F   F   F
  0.3336653998938198  0.3330006001049234  0.9961868097259372   T   T   T
  0.4495897619003068  0.5654386922212857  0.1461622714309167   F   F   F
  0.5221072375834391  0.4221422451400769  0.3087114632496379   T   T   T
  0.4158140706436858  0.5415957612766132  0.3759153384192419   T   T   T
  0.3305983228505016  0.3360676771426726  0.2107143631520608   T   T   T
  0.5554675460159688  0.4450811870578736  0.0759189653009082   F   F   F
  0.6650493685161663  0.3325632344057277  0.9970382295449761   T   T   T
  0.7806227927543092  0.5563326189277804  0.1503591103597749   F   F   F
  0.8846956227913163  0.4436044353968290  0.3043226959793198   T   T   T
  0.7714528748182242  0.5564833249756110  0.3799855011309534   T   T   T
  0.6646985082691106  0.3365169476143153  0.2299285510003053   T   T   T
  0.8879094922645212  0.4434777956430754  0.0756078827514700   F   F   F
 -0.0004282410313532  0.6670952410299430  0.9965651338591894   T   T   T
  0.1103343810691827  0.8860442072415003  0.1503591103597871   F   F   F
  0.2230615646053437  0.7819713772090328  0.3043226959794300   T   T   T
  0.1101836750216304  0.8952141251786526  0.3799855011312806   T   T   T
  0.0004086716871183  0.6662583283072306  0.2304460417649636   T   T   T
  0.2231882043563252  0.7787575077339335  0.0756078827513877   F   F   F
  0.3341886987060066  0.6682042707517136  0.9960321710099184   T   T   T
  0.4417043531465176  0.8830135993903907  0.1534744121538585   F   F   F
  0.5567837191424704  0.7771354532766587  0.3038412901894368   T   T   T
  0.4474545075167087  0.8871855958853634  0.3840057736582857   T   T   T
  0.3230933615246485  0.6486764427422085  0.2350111937119534   T   T   T
  0.5585915343682165  0.7828279711063725  0.0750039840902878   F   F   F
  0.6665879585502102  0.6665533381220493  0.9958246290698360   T   T   T
  0.7791628938084073  0.8875041061914842  0.1526662717805532   F   F   F
  0.8881685482459507  0.7784984517510001  0.3027725914279404   T   T   T
  0.7788492030557590  0.8878177969421793  0.3816807422901316   T   T   T
  0.6629719548216439  0.6584407419050062  0.2316309822890951   T   T   T
  0.8882749484642125  0.7783920515336350  0.0759368259126907   F   F   F
  0.3228322217672197  0.3438337782082020  0.3427546026090457   T   T   T
  0.0072062512975507  0.0074848441853008  0.3421600857733695   T   T   T
  0.2254423163975370  0.1141945338078886  0.1890431717574626   F   F   F
  0.1093077139010439  0.2200302681580687  0.0342319893476646   F   F   F
  0.3396924480458083  0.0094114797716463  0.3459763003677035   T   T   T
  0.5562448793181834  0.1104221206851304  0.1908238164883360   F   F   F
  0.4448307071502686  0.2218352928518025  0.0362637457378282   F   F   F
  0.6682465450977614 -0.0015795450951403  0.3442577886225159   T   T   T
  0.8904599148409076  0.1109373821634457  0.1909153378730173   F   F   F
  0.7775904488404778  0.2212197535884118  0.0359840250482953   F   F   F
 -0.0078474468485555  0.3310375609149271  0.3452831202533843   T   T   T
  0.2232256952578181  0.4434403047383963  0.1812435203409165   F   F   F
  0.1098217866363868  0.5568452133612871  0.0353371788907636   F   F   F
  0.5524724661899895  0.4412236835992748  0.1890431717579135   F   F   F
  0.4466357318400139  0.5573592860976548  0.0342319893476793   F   F   F
  0.6572555202176905  0.3269735519441357  0.3459763003683725   T   T   T
  0.8888067074259297  0.4443389464963510  0.1915053519410241   F   F   F
  0.7776959045834513  0.5552308040438070  0.0371308807372467   F   F   F
 -0.0021372943391346  0.6688042943500155  0.3412708928361407   T   T   T
  0.2223270535068098  0.7778602925835821  0.1915053519417000   F   F   F
  0.1114361959588786  0.8889710954201432  0.0371308807374025   F   F   F
  0.3356284390749301  0.6745144468398621  0.3452831202519849   T   T   T
  0.5557296178289663  0.7762070851559036  0.1909153378731351   F   F   F
  0.4454462464094265  0.8890765511592951  0.0359840250483115   F   F   F
  0.6591821558164613  0.6594607487057720  0.3421600857738720   T   T   T
  0.8893450161823790  0.7773219838248496  0.1903482828417133   F   F   F
  0.7773568694791124  0.8893101305208523  0.0356626081600751   F   F   F
0.3228322217672197 0.3438337782082020 0.442755 T T T
0.446598 0.216020 0.433410 T T T 
 
  0.00000000E+00  0.00000000E+00  0.00000000E+00
  0.00000000E+00  0.00000000E+00  0.00000000E+00
  0.00000000E+00  0.00000000E+00  0.00000000E+00
  0.00000000E+00  0.00000000E+00  0.00000000E+00
  0.00000000E+00  0.00000000E+00  0.00000000E+00
  0.00000000E+00  0.00000000E+00  0.00000000E+00
  0.00000000E+00  0.00000000E+00  0.00000000E+00
  0.00000000E+00  0.00000000E+00  0.00000000E+00
  0.00000000E+00  0.00000000E+00  0.00000000E+00
  0.00000000E+00  0.00000000E+00  0.00000000E+00
  0.00000000E+00  0.00000000E+00  0.00000000E+00
  0.00000000E+00  0.00000000E+00  0.00000000E+00
  0.00000000E+00  0.00000000E+00  0.00000000E+00
  0.00000000E+00  0.00000000E+00  0.00000000E+00
  0.00000000E+00  0.00000000E+00  0.00000000E+00
  0.00000000E+00  0.00000000E+00  0.00000000E+00
  0.00000000E+00  0.00000000E+00  0.00000000E+00
  0.00000000E+00  0.00000000E+00  0.00000000E+00
  0.00000000E+00  0.00000000E+00  0.00000000E+00
  0.00000000E+00  0.00000000E+00  0.00000000E+00
  0.00000000E+00  0.00000000E+00  0.00000000E+00
  0.00000000E+00  0.00000000E+00  0.00000000E+00
  0.00000000E+00  0.00000000E+00  0.00000000E+00
  0.00000000E+00  0.00000000E+00  0.00000000E+00
  0.00000000E+00  0.00000000E+00  0.00000000E+00
  0.00000000E+00  0.00000000E+00  0.00000000E+00
  0.00000000E+00  0.00000000E+00  0.00000000E+00
  0.00000000E+00  0.00000000E+00  0.00000000E+00
  0.00000000E+00  0.00000000E+00  0.00000000E+00
  0.00000000E+00  0.00000000E+00  0.00000000E+00
  0.00000000E+00  0.00000000E+00  0.00000000E+00
  0.00000000E+00  0.00000000E+00  0.00000000E+00
  0.00000000E+00  0.00000000E+00  0.00000000E+00
  0.00000000E+00  0.00000000E+00  0.00000000E+00
  0.00000000E+00  0.00000000E+00  0.00000000E+00
  0.00000000E+00  0.00000000E+00  0.00000000E+00
  0.00000000E+00  0.00000000E+00  0.00000000E+00
  0.00000000E+00  0.00000000E+00  0.00000000E+00
  0.00000000E+00  0.00000000E+00  0.00000000E+00
  0.00000000E+00  0.00000000E+00  0.00000000E+00
  0.00000000E+00  0.00000000E+00  0.00000000E+00
  0.00000000E+00  0.00000000E+00  0.00000000E+00
  0.00000000E+00  0.00000000E+00  0.00000000E+00
  0.00000000E+00  0.00000000E+00  0.00000000E+00
  0.00000000E+00  0.00000000E+00  0.00000000E+00
  0.00000000E+00  0.00000000E+00  0.00000000E+00
  0.00000000E+00  0.00000000E+00  0.00000000E+00
  0.00000000E+00  0.00000000E+00  0.00000000E+00
  0.00000000E+00  0.00000000E+00  0.00000000E+00
  0.00000000E+00  0.00000000E+00  0.00000000E+00
  0.00000000E+00  0.00000000E+00  0.00000000E+00
  0.00000000E+00  0.00000000E+00  0.00000000E+00
  0.00000000E+00  0.00000000E+00  0.00000000E+00
  0.00000000E+00  0.00000000E+00  0.00000000E+00
  0.00000000E+00  0.00000000E+00  0.00000000E+00
  0.00000000E+00  0.00000000E+00  0.00000000E+00
  0.00000000E+00  0.00000000E+00  0.00000000E+00
  0.00000000E+00  0.00000000E+00  0.00000000E+00
  0.00000000E+00  0.00000000E+00  0.00000000E+00
  0.00000000E+00  0.00000000E+00  0.00000000E+00
  0.00000000E+00  0.00000000E+00  0.00000000E+00
  0.00000000E+00  0.00000000E+00  0.00000000E+00
  0.00000000E+00  0.00000000E+00  0.00000000E+00
  0.00000000E+00  0.00000000E+00  0.00000000E+00
  0.00000000E+00  0.00000000E+00  0.00000000E+00
  0.00000000E+00  0.00000000E+00  0.00000000E+00
  0.00000000E+00  0.00000000E+00  0.00000000E+00
  0.00000000E+00  0.00000000E+00  0.00000000E+00
  0.00000000E+00  0.00000000E+00  0.00000000E+00
  0.00000000E+00  0.00000000E+00  0.00000000E+00
  0.00000000E+00  0.00000000E+00  0.00000000E+00
  0.00000000E+00  0.00000000E+00  0.00000000E+00
  0.00000000E+00  0.00000000E+00  0.00000000E+00
  0.00000000E+00  0.00000000E+00  0.00000000E+00
  0.00000000E+00  0.00000000E+00  0.00000000E+00
  0.00000000E+00  0.00000000E+00  0.00000000E+00
  0.00000000E+00  0.00000000E+00  0.00000000E+00
  0.00000000E+00  0.00000000E+00  0.00000000E+00
  0.00000000E+00  0.00000000E+00  0.00000000E+00
  0.00000000E+00  0.00000000E+00  0.00000000E+00
