CeO2-you-111-you-Mo                     
   1.00000000000000     
     9.9059185507015428   -5.7212532296641152   -0.0230118922262670
    -0.0017910490466321   11.4394022578460159    0.0230118882484359
    -0.0263015096193510    0.0455555481336310   19.9394090318852939
   O    Mo   Ce H
    53     1    26 1
Selective dynamics
Direct
 -0.0004792996949914  0.0004045282705407  0.9854677708139320   T   T   T
  0.1162145104725920  0.2243099266579123  0.1470724173714797   T   T   T
  0.2236923256238983  0.1143119794402556  0.3063651966871109   T   T   T
  0.1686177729248101  0.2670813437799608  0.3799461725537117   T   T   T
 -0.0002009084230777 -0.0023012531107216  0.2290179005533684   T   T   T
  0.2211719946710588  0.1098055171482509  0.0682517819103516   T   T   T
  0.3359155597166417  0.0019635425010160  0.9870328238678810   T   T   T
  0.4377717074145121  0.2288942925849319  0.1512870348242737   T   T   T
  0.5561395815882186  0.1105274184164939  0.3092829183593422   T   T   T
  0.4176843973326212  0.2489816026424131  0.3945821073640179   T   T   T
  0.3329866220813957 -0.0011164824989427  0.2272276061920216   T   T   T
  0.5543472666848109  0.1123197333154006  0.0739638617868645   T   T   T
  0.6652950656512145  0.0013719343499229  0.9888512628514908   T   T   T
  0.7849106979931343  0.2231677316711005  0.1505248417781795   T   T   T
  0.8947998547914086  0.1065643073183203  0.3121830444313438   T   T   T
  0.7723074015149500  0.2073293235042387  0.3997058769182791   T   T   T
  0.6686105095168562 -0.0019435095172543  0.2323243058953745   T   T   T
  0.8910214156491869  0.1113218202267485  0.0699541166715934   T   T   T
 -0.0024601784227516  0.3319493603015464  0.9858773368291021   T   T   T
  0.1107848871759654  0.5558821128236890  0.1442774158106658   T   T   T
  0.1062409546052440  0.5604260453985903  0.3961054211384932   T   T   T
  0.0173311316048365  0.3426186967157681  0.2353447528408004   T   T   T
  0.2215533605082879  0.4451126394911240  0.0659181955844037   T   T   T
  0.3336958901650227  0.3329701098340215  0.9858242005471670   T   T   T
  0.4423560733472058  0.5504524895297472  0.1470724173718824   T   T   T
  0.5523550205545830  0.4429736743656065  0.3063651966903351   T   T   T
  0.3995846562317845  0.4980492270742094  0.3799461725544285   T   T   T
  0.3199535269798799  0.3467124730188907  0.2500516272538335   T   T   T
  0.5568614828507801  0.4454940053278681  0.0682517819105674   T   T   T
  0.6647034574988991  0.3307504402827303  0.9870328238678459   T   T   T
  0.7777647052344294  0.5554687123596576  0.1463791084703908   T   T   T
  0.8868677651361749  0.4465998405614181  0.3088668734917658   T   T   T
  0.7822653543943326  0.5706068870187305  0.3943752435904759   T   T   T
  0.6677834824952401  0.3336793779144750  0.2272276061915257   T   T   T
  0.8880793181643440  0.4441982879854988  0.0684992375266630   T   T   T
 -0.0002537825410762  0.6669207825406978  0.9851965453536924   T   T   T
  0.1111982876398264  0.8889022947637815  0.1463791084703452   T   T   T
  0.2200661594353114  0.7797992348627631  0.3088668734918464   T   T   T
  0.0960601129767292  0.8844016456045962  0.3943752435896841   T   T   T
  0.0007991313934881  0.6658678686018971  0.2285060509990522   T   T   T
  0.2224677120129477  0.7785876818341996  0.0684992375266229   T   T   T
  0.3347166396992710  0.6691271784244966  0.9858773368292796   T   T   T
  0.4434982683296504  0.8817563020076832  0.1505248417781603   T   T   T
  0.5601026926855819  0.7718671452092329  0.3121830444304911   T   T   T
  0.4593366764995644  0.8943595984799764  0.3997058769189812   T   T   T
  0.3240473032913645  0.6493358683948205  0.2353447528425277   T   T   T
  0.5553451797738818  0.7756455843508743  0.0699541166717649   T   T   T
  0.6662624717295130  0.6671462996946249  0.9854677708138910   T   T   T
  0.7774299366892234  0.8892370633111382  0.1474071925852159   T   T   T
  0.8892669001067660  0.7774000998890636  0.3047877729105941   T   T   T
  0.7844634109868873  0.8822035890113853  0.3935861883271389   T   T   T
  0.6689682531113106  0.6668679084254948  0.2290179005535700   T   T   T
  0.8887989112645089  0.7778680887356991  0.0676993542514306   T   T   T
  0.3390714455809495  0.3275945544593691  0.3458227427119818   T   T   T
 -0.0010009815762113 -0.0088855050616954  0.3477933490543501   T   T   T
  0.2204391029512157  0.1070138035425313  0.1901041438495215   T   T   T
  0.1100536703343575  0.2205070494083676  0.0262605511511582   T   T   T
  0.3313326051191298 -0.0018172805512580  0.3539240817161204   T   T   T
  0.5560652256549428  0.1106017743460262  0.1932341011917812   T   T   T
  0.4441007608465465  0.2225652391559856  0.0289590155246085   T   T   T
  0.6678144327793327 -0.0011474327824033  0.3544370177193884   T   T   T
  0.8914321147753079  0.1117585976331342  0.1919953882560333   T   T   T
  0.7779467359035140  0.2224444465463816  0.0298895824747817   T   T   T
 -0.0113121346562556  0.3323083255814674  0.3592963869468065   T   T   T
  0.2199732373753099  0.4466927626171425  0.1813614688270335   T   T   T
  0.1098650990588452  0.5568019009389515  0.0252927488780722   T   T   T
  0.5596531964562211  0.4462268970516853  0.1901041438484540   T   T   T
  0.4461589505930491  0.5566133296656202  0.0262605511509128   T   T   T
  0.6684842805518491  0.3353333948805240  0.3539240817169131   T   T   T
  0.8903263326853327  0.4443507991620767  0.1909109942078994   T   T   T
  0.7768030206097913  0.5543637583289910  0.0269028809196020   T   T   T
  0.0006980363324021  0.6659689636714364  0.3514463287108174   T   T   T
  0.2223152008417065  0.7763406673203124  0.1909109942075498   T   T   T
  0.1123032416721670  0.8898639793898326  0.0269028809193537   T   T   T
  0.3343576744064062  0.6779791346645504  0.3592963869440858   T   T   T
  0.5549084023583803  0.7752348852249447  0.1919953882552365   T   T   T
  0.4442215534526907  0.8887202640966085  0.0298895824749237   T   T   T
  0.6755525050605693  0.6676679815764351  0.3477933490547294   T   T   T
  0.8898542185897352  0.7768127814103655  0.1859085863843535   T   T   T
  0.7772584431244641  0.8894085568760350  0.0284716120583908   T   T   T
0.446598 0.216020 0.433410 T T T 
 
  0.00000000E+00  0.00000000E+00  0.00000000E+00
  0.00000000E+00  0.00000000E+00  0.00000000E+00
  0.00000000E+00  0.00000000E+00  0.00000000E+00
  0.00000000E+00  0.00000000E+00  0.00000000E+00
  0.00000000E+00  0.00000000E+00  0.00000000E+00
  0.00000000E+00  0.00000000E+00  0.00000000E+00
  0.00000000E+00  0.00000000E+00  0.00000000E+00
  0.00000000E+00  0.00000000E+00  0.00000000E+00
  0.00000000E+00  0.00000000E+00  0.00000000E+00
  0.00000000E+00  0.00000000E+00  0.00000000E+00
  0.00000000E+00  0.00000000E+00  0.00000000E+00
  0.00000000E+00  0.00000000E+00  0.00000000E+00
  0.00000000E+00  0.00000000E+00  0.00000000E+00
  0.00000000E+00  0.00000000E+00  0.00000000E+00
  0.00000000E+00  0.00000000E+00  0.00000000E+00
  0.00000000E+00  0.00000000E+00  0.00000000E+00
  0.00000000E+00  0.00000000E+00  0.00000000E+00
  0.00000000E+00  0.00000000E+00  0.00000000E+00
  0.00000000E+00  0.00000000E+00  0.00000000E+00
  0.00000000E+00  0.00000000E+00  0.00000000E+00
  0.00000000E+00  0.00000000E+00  0.00000000E+00
  0.00000000E+00  0.00000000E+00  0.00000000E+00
  0.00000000E+00  0.00000000E+00  0.00000000E+00
  0.00000000E+00  0.00000000E+00  0.00000000E+00
  0.00000000E+00  0.00000000E+00  0.00000000E+00
  0.00000000E+00  0.00000000E+00  0.00000000E+00
  0.00000000E+00  0.00000000E+00  0.00000000E+00
  0.00000000E+00  0.00000000E+00  0.00000000E+00
  0.00000000E+00  0.00000000E+00  0.00000000E+00
  0.00000000E+00  0.00000000E+00  0.00000000E+00
  0.00000000E+00  0.00000000E+00  0.00000000E+00
  0.00000000E+00  0.00000000E+00  0.00000000E+00
  0.00000000E+00  0.00000000E+00  0.00000000E+00
  0.00000000E+00  0.00000000E+00  0.00000000E+00
  0.00000000E+00  0.00000000E+00  0.00000000E+00
  0.00000000E+00  0.00000000E+00  0.00000000E+00
  0.00000000E+00  0.00000000E+00  0.00000000E+00
  0.00000000E+00  0.00000000E+00  0.00000000E+00
  0.00000000E+00  0.00000000E+00  0.00000000E+00
  0.00000000E+00  0.00000000E+00  0.00000000E+00
  0.00000000E+00  0.00000000E+00  0.00000000E+00
  0.00000000E+00  0.00000000E+00  0.00000000E+00
  0.00000000E+00  0.00000000E+00  0.00000000E+00
  0.00000000E+00  0.00000000E+00  0.00000000E+00
  0.00000000E+00  0.00000000E+00  0.00000000E+00
  0.00000000E+00  0.00000000E+00  0.00000000E+00
  0.00000000E+00  0.00000000E+00  0.00000000E+00
  0.00000000E+00  0.00000000E+00  0.00000000E+00
  0.00000000E+00  0.00000000E+00  0.00000000E+00
  0.00000000E+00  0.00000000E+00  0.00000000E+00
  0.00000000E+00  0.00000000E+00  0.00000000E+00
  0.00000000E+00  0.00000000E+00  0.00000000E+00
  0.00000000E+00  0.00000000E+00  0.00000000E+00
  0.00000000E+00  0.00000000E+00  0.00000000E+00
  0.00000000E+00  0.00000000E+00  0.00000000E+00
  0.00000000E+00  0.00000000E+00  0.00000000E+00
  0.00000000E+00  0.00000000E+00  0.00000000E+00
  0.00000000E+00  0.00000000E+00  0.00000000E+00
  0.00000000E+00  0.00000000E+00  0.00000000E+00
  0.00000000E+00  0.00000000E+00  0.00000000E+00
  0.00000000E+00  0.00000000E+00  0.00000000E+00
  0.00000000E+00  0.00000000E+00  0.00000000E+00
  0.00000000E+00  0.00000000E+00  0.00000000E+00
  0.00000000E+00  0.00000000E+00  0.00000000E+00
  0.00000000E+00  0.00000000E+00  0.00000000E+00
  0.00000000E+00  0.00000000E+00  0.00000000E+00
  0.00000000E+00  0.00000000E+00  0.00000000E+00
  0.00000000E+00  0.00000000E+00  0.00000000E+00
  0.00000000E+00  0.00000000E+00  0.00000000E+00
  0.00000000E+00  0.00000000E+00  0.00000000E+00
  0.00000000E+00  0.00000000E+00  0.00000000E+00
  0.00000000E+00  0.00000000E+00  0.00000000E+00
  0.00000000E+00  0.00000000E+00  0.00000000E+00
  0.00000000E+00  0.00000000E+00  0.00000000E+00
  0.00000000E+00  0.00000000E+00  0.00000000E+00
  0.00000000E+00  0.00000000E+00  0.00000000E+00
  0.00000000E+00  0.00000000E+00  0.00000000E+00
  0.00000000E+00  0.00000000E+00  0.00000000E+00
  0.00000000E+00  0.00000000E+00  0.00000000E+00
  0.00000000E+00  0.00000000E+00  0.00000000E+00
