CeO2-you-111-you-Ni                     
   1.00000000000000     
     9.8864953867214354   -5.7079711474224455   -0.0000000012273416
    -0.0378154252860952   11.3504420522509726   -0.0235540315798074
    -0.0256574251026684   -0.0444399563412426   20.9875683142953342
   O    Ni   Ce H
    53     1    26 2
Selective dynamics
Direct
  0.0001553915034247 -0.0000947076185339  0.9950147150849656   T   T   T
  0.1085986319690613  0.2216697038007293  0.1487949286358224   F   F   F
  0.2327210234904646  0.1321090469856041  0.3075672414176637   T   T   T
  0.0654579054173864  0.2029063624545827  0.3944112448679997   T   T   T
  0.0044919736082987  0.0021722703153210  0.2292901219957222   T   T   T
  0.2223130948561289  0.1112931897122642  0.0745648871451554   F   F   F
  0.3330829008780172 -0.0000947076187174  0.9950147150849911   T   T   T
  0.4464040718315414  0.2216697038003618  0.1487949286358808   F   F   F
  0.5574220867518358  0.1091518757724557  0.3009610639640529   T   T   T
  0.4707814570399549  0.2029063624560072  0.3944112448690019   T   T   T
  0.3310132967072604  0.0021722703144432  0.2292901219956168   T   T   T
  0.5567337956907138  0.1108858280323384  0.0746097953187465   F   F   F
  0.6663997653064948 -0.0005344693868622  0.9947547848346630   T   T   T
  0.7774644875875271  0.2215949751753866  0.1530525687454234   F   F   F
  0.8850637890220341  0.1091518757732703  0.3009610639638657   T   T   T
  0.7754583407302957  0.2175826814598219  0.3838624818601223   T   T   T
  0.6617565566659925 -0.0098208866697786  0.2305721683797633   T   T   T
  0.8874860323412487  0.1108858280323997  0.0746097953186539   F   F   F
  0.0000811062925387  0.3325571546052052  0.9952045928496572   T   T   T
  0.1093759496610446  0.5551218796645347  0.1496206184174703   F   F   F
  0.2478187242065885  0.4493866600013078  0.3137361102496623   T   T   T
  0.1119572026646304  0.5600412167954448  0.3834912663091725   T   T   T
  0.0091061559072652  0.3385595880945098  0.2319614617427616   T   T   T
  0.2226787828701225  0.4453045733358579  0.0752257117710918   F   F   F
  0.3331406969155795  0.3329483938314414  0.9954165271893001   T   T   T
  0.4458362755525723  0.5583405511062649  0.1490954560477221   F   F   F
  0.5349019357919403  0.4493866599971714  0.3137361102492214   T   T   T
  0.3344217359349746  0.3355104718707898  0.2216843617856694   T   T   T
  0.5559597904652184  0.4453045733356441  0.0752257117710700   F   F   F
  0.6658100483123863  0.3325571546050618  0.9952045928496446   T   T   T
  0.7790789300036061  0.5551218796643111  0.1496206184175368   F   F   F
  0.8883007340712890  0.4432674681420563  0.3050166515545341   T   T   T
  0.7814170141310539  0.5600412167965415  0.3834912663092143   T   T   T
  0.6627874321855425  0.3385595880932508  0.2319614617424940   T   T   T
  0.8880471604112381  0.4427603208221295  0.0751236589484371   F   F   F
 -0.0006710396489056  0.6653249207016212  0.9953185965115375   T   T   T
  0.1106557822886450  0.8879785645764252  0.1477928945606389   F   F   F
  0.2212671540934852  0.7802037050854372  0.3030011433515369   T   T   T
  0.1132826785669400  0.8932323571343731  0.3830289567886236   T   T   T
  0.0005695035247138  0.6678060070486952  0.2292545261083982   T   T   T
  0.2224146980378914  0.7773839170131792  0.0740372597667694   F   F   F
  0.3338163945039347  0.6659947825539727  0.9951431413788989   T   T   T
  0.4435973753337988  0.8888304500670450  0.1496379597786105   F   F   F
  0.5448988396222971  0.7564636792461925  0.3112320880318002   T   T   T
  0.4438334941014963  0.8881311166175792  0.3826796210088223   T   T   T
  0.3309802340051554  0.6677216988618750  0.2290084135950431   T   T   T
  0.5562670133993850  0.7792000267984530  0.0750495281006784   F   F   F
  0.6655113880503890  0.6659947825539613  0.9951431413788920   T   T   T
  0.7785660747334942  0.8888304500673972  0.1496379597785919   F   F   F
  0.8922695509936607  0.7802037050875332  0.3030011433516462   T   T   T
  0.7776306225163739  0.8881311166184369  0.3826796210089357   T   T   T
  0.6700744648565188  0.6677216988628129  0.2290084135951782   T   T   T
  0.8883022189756009  0.7773839170131609  0.0740372597667745   F   F   F
  0.3326913388635990  0.3320496777296484  0.3145971880726396   T   T   T
  0.0057086255410479  0.0099740313414450  0.3463436705040118   T   T   T
  0.2222427152144059  0.1111524304292440  0.1892578317020157   F   F   F
  0.1106772727291969  0.2217303590518751  0.0350227848290428   F   F   F
  0.3375984058016153  0.0099740313432121  0.3463436705041056   T   T   T
  0.5544180659484469  0.1107225784791221  0.1904293390402732   F   F   F
  0.4443860863229108  0.2217303590522086  0.0350227848290866   F   F   F
  0.6658142396485929 -0.0017055206983137  0.3445860019998247   T   T   T
  0.8896385125293582  0.1107225784778280  0.1904293390403078   F   F   F
  0.7774118688090796  0.2214897376180315  0.0354114281395958   F   F   F
 -0.0001747457439712  0.3288982657261889  0.3473200076002557   T   T   T
  0.2220883512005313  0.4454132294049274  0.1889063296282389   F   F   F
  0.1100896873302414  0.5543627373302270  0.0352158206783044   F   F   F
  0.5566588782054834  0.4454132294053019  0.1889063296283317   F   F   F
  0.4444427212107601  0.5555534424213668  0.0345362363585950   F   F   F
  0.6624070114706603  0.3288982657252479  0.3473200076004418   T   T   T
  0.8889187700460282  0.4445035400914954  0.1920505633917239   F   F   F
  0.7776060500001256  0.5543627373303666  0.0352158206783393   F   F   F
  0.0013066062013264  0.6692802124044711  0.3437910740242597   T   T   T
  0.2215863879391489  0.7793994903688640  0.1883392382126714   F   F   F
  0.1109156816755903  0.8884983633512300  0.0339618488016067   F   F   F
  0.3231599936589910  0.6709956393055203  0.3404829445515504   T   T   T
  0.5549927448460051  0.7766514896918367  0.1891181912628475   F   F   F
  0.4445075387468672  0.8885322577417526  0.0346003239869741   F   F   F
  0.6811686456502489  0.6709956393062895  0.3404829445512926   T   T   T
  0.8911461024289034  0.7793994903684097  0.1883392382126724   F   F   F
  0.7773577189946604  0.8885322577414321  0.0346003239869495   F   F   F
0.43326913388635990 0.53320496777296484 0.414597 T T T
0.446598 0.216020 0.433410 T T T 
 
  0.00000000E+00  0.00000000E+00  0.00000000E+00
  0.00000000E+00  0.00000000E+00  0.00000000E+00
  0.00000000E+00  0.00000000E+00  0.00000000E+00
  0.00000000E+00  0.00000000E+00  0.00000000E+00
  0.00000000E+00  0.00000000E+00  0.00000000E+00
  0.00000000E+00  0.00000000E+00  0.00000000E+00
  0.00000000E+00  0.00000000E+00  0.00000000E+00
  0.00000000E+00  0.00000000E+00  0.00000000E+00
  0.00000000E+00  0.00000000E+00  0.00000000E+00
  0.00000000E+00  0.00000000E+00  0.00000000E+00
  0.00000000E+00  0.00000000E+00  0.00000000E+00
  0.00000000E+00  0.00000000E+00  0.00000000E+00
  0.00000000E+00  0.00000000E+00  0.00000000E+00
  0.00000000E+00  0.00000000E+00  0.00000000E+00
  0.00000000E+00  0.00000000E+00  0.00000000E+00
  0.00000000E+00  0.00000000E+00  0.00000000E+00
  0.00000000E+00  0.00000000E+00  0.00000000E+00
  0.00000000E+00  0.00000000E+00  0.00000000E+00
  0.00000000E+00  0.00000000E+00  0.00000000E+00
  0.00000000E+00  0.00000000E+00  0.00000000E+00
  0.00000000E+00  0.00000000E+00  0.00000000E+00
  0.00000000E+00  0.00000000E+00  0.00000000E+00
  0.00000000E+00  0.00000000E+00  0.00000000E+00
  0.00000000E+00  0.00000000E+00  0.00000000E+00
  0.00000000E+00  0.00000000E+00  0.00000000E+00
  0.00000000E+00  0.00000000E+00  0.00000000E+00
  0.00000000E+00  0.00000000E+00  0.00000000E+00
  0.00000000E+00  0.00000000E+00  0.00000000E+00
  0.00000000E+00  0.00000000E+00  0.00000000E+00
  0.00000000E+00  0.00000000E+00  0.00000000E+00
  0.00000000E+00  0.00000000E+00  0.00000000E+00
  0.00000000E+00  0.00000000E+00  0.00000000E+00
  0.00000000E+00  0.00000000E+00  0.00000000E+00
  0.00000000E+00  0.00000000E+00  0.00000000E+00
  0.00000000E+00  0.00000000E+00  0.00000000E+00
  0.00000000E+00  0.00000000E+00  0.00000000E+00
  0.00000000E+00  0.00000000E+00  0.00000000E+00
  0.00000000E+00  0.00000000E+00  0.00000000E+00
  0.00000000E+00  0.00000000E+00  0.00000000E+00
  0.00000000E+00  0.00000000E+00  0.00000000E+00
  0.00000000E+00  0.00000000E+00  0.00000000E+00
  0.00000000E+00  0.00000000E+00  0.00000000E+00
  0.00000000E+00  0.00000000E+00  0.00000000E+00
  0.00000000E+00  0.00000000E+00  0.00000000E+00
  0.00000000E+00  0.00000000E+00  0.00000000E+00
  0.00000000E+00  0.00000000E+00  0.00000000E+00
  0.00000000E+00  0.00000000E+00  0.00000000E+00
  0.00000000E+00  0.00000000E+00  0.00000000E+00
  0.00000000E+00  0.00000000E+00  0.00000000E+00
  0.00000000E+00  0.00000000E+00  0.00000000E+00
  0.00000000E+00  0.00000000E+00  0.00000000E+00
  0.00000000E+00  0.00000000E+00  0.00000000E+00
  0.00000000E+00  0.00000000E+00  0.00000000E+00
  0.00000000E+00  0.00000000E+00  0.00000000E+00
  0.00000000E+00  0.00000000E+00  0.00000000E+00
  0.00000000E+00  0.00000000E+00  0.00000000E+00
  0.00000000E+00  0.00000000E+00  0.00000000E+00
  0.00000000E+00  0.00000000E+00  0.00000000E+00
  0.00000000E+00  0.00000000E+00  0.00000000E+00
  0.00000000E+00  0.00000000E+00  0.00000000E+00
  0.00000000E+00  0.00000000E+00  0.00000000E+00
  0.00000000E+00  0.00000000E+00  0.00000000E+00
  0.00000000E+00  0.00000000E+00  0.00000000E+00
  0.00000000E+00  0.00000000E+00  0.00000000E+00
  0.00000000E+00  0.00000000E+00  0.00000000E+00
  0.00000000E+00  0.00000000E+00  0.00000000E+00
  0.00000000E+00  0.00000000E+00  0.00000000E+00
  0.00000000E+00  0.00000000E+00  0.00000000E+00
  0.00000000E+00  0.00000000E+00  0.00000000E+00
  0.00000000E+00  0.00000000E+00  0.00000000E+00
  0.00000000E+00  0.00000000E+00  0.00000000E+00
  0.00000000E+00  0.00000000E+00  0.00000000E+00
  0.00000000E+00  0.00000000E+00  0.00000000E+00
  0.00000000E+00  0.00000000E+00  0.00000000E+00
  0.00000000E+00  0.00000000E+00  0.00000000E+00
  0.00000000E+00  0.00000000E+00  0.00000000E+00
  0.00000000E+00  0.00000000E+00  0.00000000E+00
  0.00000000E+00  0.00000000E+00  0.00000000E+00
  0.00000000E+00  0.00000000E+00  0.00000000E+00
  0.00000000E+00  0.00000000E+00  0.00000000E+00
