CeO2-you-111-you-Ta                     
   1.00000000000000     
     9.8302922736783671   -5.6755222565919121    0.0000000005590858
     0.0431129029423804   11.4257162491860775    0.0105633847442164
     0.0116443294957368    0.0201685669053349   20.7507070522619337
   O    Ta   Ce   H 
    53     1    26     1
Selective dynamics
Direct
 -0.0000212519937256 -0.0003850421386518  0.9922262398168158   T   T   T
  0.1228081700829767  0.2249845455922675  0.1508874476767366   T   T   T
  0.2327737786840823  0.1282695879350769  0.3056716780722361   T   T   T
  0.1431259255894702  0.2455686823140415  0.3886323201422513   T   T   T
  0.0025276851006340 -0.0008344237338598  0.2284001949900015   T   T   T
  0.2222190984876550  0.1074061237798653  0.0720299974513890   T   T   T
  0.3354638080096821 -0.0012111403510722  0.9914954913427736   T   T   T
  0.4438901019061743  0.2211814435562165  0.1467323485468841   T   T   T
  0.5620380963736517  0.1174169957983966  0.3066900073132980   T   T   T
  0.4394561149251013  0.2587044655449960  0.3849328771325814   T   T   T
  0.3343825331768981  0.9983458652329636  0.2287132319534501   T   T   T
  0.5554889537314828  0.1083168688846904  0.0730020172799046   T   T   T
  0.6705766176873721 -0.0003690428269686  0.9945077086726946   T   T   T
  0.7744419405663121  0.2235035752694706  0.1505339396443478   T   T   T
  0.8936715967720322  0.1178533147049128  0.3069422769322944   T   T   T
  0.7822907464184631  0.2256708734103732  0.3901971493912580   T   T   T
  0.6694925655193936  0.0003904164376074  0.2291445267348758   T   T   T
  0.8918089925254283  0.1102909307489500  0.0765135261137949   T   T   T
 -0.0006375060597163  0.3278455102860144  0.9918439056382521   T   T   T
  0.1123199363726782  0.5535408083955665  0.1464914680300426   T   T   T
  0.2163384260435700  0.4257374851296164  0.3003787956019947   T   T   T
  0.0997537296285978  0.5407093012759322  0.3863490931576145   T   T   T
  0.0013761490100291  0.3327154655636627  0.2256282131781608   T   T   T
  0.2218203220693243  0.4420133148840829  0.0702412158494723   T   T   T
  0.3330486278528687  0.3298463178897010  0.9910822025260851   T   T   T
  0.4438535840746940  0.5515919579255516  0.1442144865874244   T   T   T
  0.4374366363399330  0.4921681591897020  0.3713500687091389   T   T   T
  0.3583387966610636  0.3456538917763236  0.2394785728908680   T   T   T
  0.5575003276946598  0.4427384840116857  0.0681976762066149   T   T   T
  0.6683966156501470  0.3295975545600754  0.9912999838383613   T   T   T
  0.7810314818612367  0.5542387481011819  0.1438697771095351   T   T   T
  0.8903884888522406  0.4364290584738160  0.3019819572870683   T   T   T
  0.7682402930199613  0.5326983953684572  0.3821503184050308   T   T   T
  0.6598570603092209  0.3438045398581312  0.2338717396396612   T   T   T
  0.8912966815913576  0.4421874529629318  0.0706737418073784   T   T   T
  0.0020810238873573  0.6653764564672975  0.9906180650942951   T   T   T
  0.1128784009916040  0.8870429241914776  0.1495055181659477   T   T   T
  0.2200530869240350  0.7696844005658280  0.3033167635831965   T   T   T
  0.1034527888777941  0.8661518005547347  0.3907373924249271   T   T   T
 -0.0011230500500281  0.6602952436297540  0.2275530047920632   T   T   T
  0.2238623981021530  0.7761841834369599  0.0722365251751539   T   T   T
  0.3349707590573310  0.6654647943075779  0.9908184349958973   T   T   T
  0.4469763405606189  0.8878420601381134  0.1499304921673159   T   T   T
  0.5592576058138267  0.7782333175756071  0.3029477556384332   T   T   T
  0.4573762763146789  0.8892507489937992  0.3897914188203003   T   T   T
  0.3331019997464677  0.6591683421664170  0.2269948075815051   T   T   T
  0.5563586746396731  0.7757896869984222  0.0722357856746764   T   T   T
  0.6693916646415010  0.6671433842550679  0.9912837862463202   T   T   T
  0.7766219167278100  0.8820546788382848  0.1511811248767814   T   T   T
  0.8921110904643944  0.7731133029240661  0.3037326141379379   T   T   T
  0.7715171808713884  0.8911462783171197  0.3922236958236815   T   T   T
  0.6595723866102388  0.6460821121347311  0.2304631083088161   T   T   T
  0.8919142777285577  0.7775861937362030  0.0717700534979468   T   T   T
  0.3022227806182547  0.3230692342866450  0.3348118207787918   T   T   T
  0.0008539836254500 -0.0058698478433239  0.3510486018137041   T   T   T
  0.2239078965294468  0.1071668738609923  0.1905528394555862   T   T   T
  0.1121706857380946  0.2196094069036706  0.0324723383044013   T   T   T
  0.3293387982308685  0.9883764364667479  0.3493232547902752   T   T   T
  0.5551203161453766  0.1091962878454290  0.1907468353982074   T   T   T
  0.4445823460144030  0.2180771896561318  0.0304803332631718   T   T   T
  0.6659470604998302 -0.0063968743270630  0.3479085477970609   T   T   T
  0.8911151797776636  0.1097800252771221  0.1916474041821515   T   T   T
  0.7790283543150684  0.2201933169250800  0.0333326770800670   T   T   T
 -0.0004796909164284  0.3317542773178101  0.3458478337340505   T   T   T
  0.2235319914965909  0.4445733147668073  0.1857923027631722   T   T   T
  0.1123830716490638  0.5538072656959643  0.0309778419289455   T   T   T
  0.5589316329706033  0.4450527845104714  0.1790036308105478   T   T   T
  0.4454446009980882  0.5553900364608317  0.0293915589840344   T   T   T
  0.6811061983737421  0.3274454832035824  0.3453723326829122   T   T   T
  0.8902750177741885  0.4434147203762943  0.1871428563168310   T   T   T
  0.7816110513416153  0.5554404006928008  0.0294594573146709   T   T   T
  0.0017514821754424  0.6630298967557786  0.3448425526050984   T   T   T
  0.2237438788951311  0.7750667817597174  0.1894105874617946   T   T   T
  0.1126974735176477  0.8879811790608589  0.0329850027914829   T   T   T
  0.3341892861056366  0.6617590537563190  0.3466695381230555   T   T   T
  0.5564590929619047  0.7742381967553432  0.1910562683683235   T   T   T
  0.4465607381678089  0.8877157153405320  0.0337429693895456   T   T   T
  0.6727017184318145  0.6720435216505517  0.3501469946034218   T   T   T
  0.8900607632399122  0.7749295308268082  0.1908704948803637   T   T   T
  0.7797790994693967  0.8876384372048991  0.0342974855161946   T   T   T
  0.4599492454090398  0.3097509597700421  0.4250560961867739   T   T   T
 
  0.00000000E+00  0.00000000E+00  0.00000000E+00
  0.00000000E+00  0.00000000E+00  0.00000000E+00
  0.00000000E+00  0.00000000E+00  0.00000000E+00
  0.00000000E+00  0.00000000E+00  0.00000000E+00
  0.00000000E+00  0.00000000E+00  0.00000000E+00
  0.00000000E+00  0.00000000E+00  0.00000000E+00
  0.00000000E+00  0.00000000E+00  0.00000000E+00
  0.00000000E+00  0.00000000E+00  0.00000000E+00
  0.00000000E+00  0.00000000E+00  0.00000000E+00
  0.00000000E+00  0.00000000E+00  0.00000000E+00
  0.00000000E+00  0.00000000E+00  0.00000000E+00
  0.00000000E+00  0.00000000E+00  0.00000000E+00
  0.00000000E+00  0.00000000E+00  0.00000000E+00
  0.00000000E+00  0.00000000E+00  0.00000000E+00
  0.00000000E+00  0.00000000E+00  0.00000000E+00
  0.00000000E+00  0.00000000E+00  0.00000000E+00
  0.00000000E+00  0.00000000E+00  0.00000000E+00
  0.00000000E+00  0.00000000E+00  0.00000000E+00
  0.00000000E+00  0.00000000E+00  0.00000000E+00
  0.00000000E+00  0.00000000E+00  0.00000000E+00
  0.00000000E+00  0.00000000E+00  0.00000000E+00
  0.00000000E+00  0.00000000E+00  0.00000000E+00
  0.00000000E+00  0.00000000E+00  0.00000000E+00
  0.00000000E+00  0.00000000E+00  0.00000000E+00
  0.00000000E+00  0.00000000E+00  0.00000000E+00
  0.00000000E+00  0.00000000E+00  0.00000000E+00
  0.00000000E+00  0.00000000E+00  0.00000000E+00
  0.00000000E+00  0.00000000E+00  0.00000000E+00
  0.00000000E+00  0.00000000E+00  0.00000000E+00
  0.00000000E+00  0.00000000E+00  0.00000000E+00
  0.00000000E+00  0.00000000E+00  0.00000000E+00
  0.00000000E+00  0.00000000E+00  0.00000000E+00
  0.00000000E+00  0.00000000E+00  0.00000000E+00
  0.00000000E+00  0.00000000E+00  0.00000000E+00
  0.00000000E+00  0.00000000E+00  0.00000000E+00
  0.00000000E+00  0.00000000E+00  0.00000000E+00
  0.00000000E+00  0.00000000E+00  0.00000000E+00
  0.00000000E+00  0.00000000E+00  0.00000000E+00
  0.00000000E+00  0.00000000E+00  0.00000000E+00
  0.00000000E+00  0.00000000E+00  0.00000000E+00
  0.00000000E+00  0.00000000E+00  0.00000000E+00
  0.00000000E+00  0.00000000E+00  0.00000000E+00
  0.00000000E+00  0.00000000E+00  0.00000000E+00
  0.00000000E+00  0.00000000E+00  0.00000000E+00
  0.00000000E+00  0.00000000E+00  0.00000000E+00
  0.00000000E+00  0.00000000E+00  0.00000000E+00
  0.00000000E+00  0.00000000E+00  0.00000000E+00
  0.00000000E+00  0.00000000E+00  0.00000000E+00
  0.00000000E+00  0.00000000E+00  0.00000000E+00
  0.00000000E+00  0.00000000E+00  0.00000000E+00
  0.00000000E+00  0.00000000E+00  0.00000000E+00
  0.00000000E+00  0.00000000E+00  0.00000000E+00
  0.00000000E+00  0.00000000E+00  0.00000000E+00
  0.00000000E+00  0.00000000E+00  0.00000000E+00
  0.00000000E+00  0.00000000E+00  0.00000000E+00
  0.00000000E+00  0.00000000E+00  0.00000000E+00
  0.00000000E+00  0.00000000E+00  0.00000000E+00
  0.00000000E+00  0.00000000E+00  0.00000000E+00
  0.00000000E+00  0.00000000E+00  0.00000000E+00
  0.00000000E+00  0.00000000E+00  0.00000000E+00
  0.00000000E+00  0.00000000E+00  0.00000000E+00
  0.00000000E+00  0.00000000E+00  0.00000000E+00
  0.00000000E+00  0.00000000E+00  0.00000000E+00
  0.00000000E+00  0.00000000E+00  0.00000000E+00
  0.00000000E+00  0.00000000E+00  0.00000000E+00
  0.00000000E+00  0.00000000E+00  0.00000000E+00
  0.00000000E+00  0.00000000E+00  0.00000000E+00
  0.00000000E+00  0.00000000E+00  0.00000000E+00
  0.00000000E+00  0.00000000E+00  0.00000000E+00
  0.00000000E+00  0.00000000E+00  0.00000000E+00
  0.00000000E+00  0.00000000E+00  0.00000000E+00
  0.00000000E+00  0.00000000E+00  0.00000000E+00
  0.00000000E+00  0.00000000E+00  0.00000000E+00
  0.00000000E+00  0.00000000E+00  0.00000000E+00
  0.00000000E+00  0.00000000E+00  0.00000000E+00
  0.00000000E+00  0.00000000E+00  0.00000000E+00
  0.00000000E+00  0.00000000E+00  0.00000000E+00
  0.00000000E+00  0.00000000E+00  0.00000000E+00
  0.00000000E+00  0.00000000E+00  0.00000000E+00
  0.00000000E+00  0.00000000E+00  0.00000000E+00
  0.00000000E+00  0.00000000E+00  0.00000000E+00
