CeO2-you-111-you-Hf                     
   1.00000000000000     
     9.8619590680797273   -5.6774977908801709    0.0092171674820506
    -0.0000000017734778   11.3549935805432227   -0.0000000010859093
     0.0210025747266469   -0.0000000021792587   20.8195059257523027
   O    Hf   Ce   H 
    53     1    26     2
Selective dynamics
Direct
  0.9995195281107793  0.0007195139439585  0.9944553672294630   T   T   T
  0.1191382009953514  0.2262356004982067  0.1510301699911238   F   F   F
  0.2203017461905877  0.1207183862301494  0.3054657860790652   T   T   T
  0.1201353389707827  0.2308478264722016  0.3870981748352215   T   T   T
  0.0000931382189059  0.0003339640349623  0.2283567990330173   T   T   T
  0.2213574923080870  0.1098828030145853  0.0727328037463977   F   F   F
  0.3341164720235174  0.9999102648201609  0.9927872253857698   T   T   T
  0.4421493873595921  0.2213720735283431  0.1472077389547479   F   F   F
  0.5566289838980384  0.1070327216049653  0.3075908218466455   T   T   T
  0.4348899874934762  0.2591034763424874  0.3879619953386662   T   T   T
  0.3311881051420006  0.0009227499296957  0.2291466877450089   T   T   T
  0.5548325553212266  0.1103367382190825  0.0741282762299704   F   F   F
  0.6695791104553587  0.0013912146661019  0.9949572950367293   T   T   T
  0.7727497667345986  0.2242514371034332  0.1514736611230560   F   F   F
  0.8913505291373625  0.1115439738156722  0.3051655968610404   T   T   T
  0.7848316507495617  0.2165113110289685  0.3915650132550318   T   T   T
  0.6681293977428411  0.0002976418145125  0.2295462003069765   T   T   T
  0.8898781185613061  0.1116055592805623  0.0772151797040621   F   F   F
  0.9989593092052984  0.3311755695435140  0.9942354186899172   T   T   T
  0.1106826873244557  0.5552106729105404  0.1497348669229623   F   F   F
  0.2123374102476970  0.4344010286399702  0.3029201348689995   T   T   T
  0.1134172449579719  0.5521513494912428  0.3872729680194985   T   T   T
  0.9975871369312560  0.3310340366816135  0.2277277846167840   T   T   T
  0.2213574923077957  0.4448076892932420  0.0727328037464119   F   F   F
  0.3328407314528228  0.3331440989419506  0.9928275606230893   T   T   T
  0.4421493873585334  0.5541113138309228  0.1472077389548758   F   F   F
  0.4336832051594998  0.5181154306262226  0.3723661676856015   T   T   T
  0.3535356531878382  0.3456429575351466  0.2398641572610881   T   T   T
  0.5563472375843830  0.4448396187920736  0.0709933433518799   F   F   F
  0.6680816361230357  0.3325340818404838  0.9931512619992658   T   T   T
  0.7788339315519934  0.5560839657757128  0.1469804503744427   F   F   F
  0.8944856081304822  0.4426738985882976  0.3048023339314619   T   T   T
  0.7872758319808962  0.5588770580195506  0.3874129144072428   T   T   T
  0.6572735892760031  0.3427510964340790  0.2351223276144792   T   T   T
  0.8899132920176385  0.4448218574733076  0.0737649025619405   F   F   F
  0.0010036631352365  0.6668332844048221  0.9930090221554235   T   T   T
  0.1106826873249176  0.8888060144143139  0.1497348669229979   F   F   F
  0.2201927181410520  0.7706562281925827  0.3048797006895018   T   T   T
  0.0981214115107228  0.8826399087245823  0.3883981290757121   T   T   T
  0.9978157018066193  0.6653347653009963  0.2296252550397905   T   T   T
  0.2231943599764534  0.7782641799882697  0.0739241910048420   F   F   F
  0.3340822487822280  0.6675067309490922  0.9929050261981910   T   T   T
  0.4443932053935526  0.8888636026968442  0.1512694721466872   F   F   F
  0.5527893972246247  0.7782526391202204  0.3049734642515380   T   T   T
  0.4444736713020032  0.8729949159964651  0.3900507376706017   T   T   T
  0.3317100807977322  0.6621708539158401  0.2301196766094775   T   T   T
  0.5548325553209281  0.7778288171020833  0.0741282762300273   F   F   F
  0.6681968730957366  0.6690701796029784  0.9932270552040822   T   T   T
  0.7727497667347123  0.8818313296311047  0.1514736611228074   F   F   F
  0.8927153439051002  0.7825092298172933  0.3036169357709880   T   T   T
  0.7836060905763308  0.8994806685202228  0.3895531744690605   T   T   T
  0.6575509056384899  0.6479024369069706  0.2336350814971623   T   T   T
  0.8899132920175319  0.7784244345440214  0.0737649025620328   F   F   F
  0.3006180608086675  0.3259141376587169  0.3386793372138615   T   T   T
 -0.0007831157339098 -0.0023139745606565  0.3457117273501919   T   T   T
  0.2215828026232742  0.1102641955586705  0.1898733342436358   F   F   F
  0.1116462178735773  0.2224896089367832  0.0339849839634283   F   F   F
  0.3279838242855894 -0.0074476926285289  0.3479372060204892   T   T   T
  0.5546477936099592  0.1122367500538815  0.1919194212164257   F   F   F
  0.4440157785231378  0.2203398866817281  0.0320490099012218   F   F   F
  0.6647601300374439  0.9964128315461983  0.3472010250730467   T   T   T
  0.8876794324779311  0.1105062162390311  0.1906613312900660   F   F   F
  0.7779844621748921  0.2226120704429775  0.0349791552454874   F   F   F
 -0.0027052328118943  0.3316882148959358  0.3470614871580810   T   T   T
  0.2215828026285465  0.4446516070647490  0.1898733342433019   F   F   F
  0.1110672681310305  0.5552985514688658  0.0340757830353695   F   F   F
  0.5560080025454042  0.4446700012735505  0.1822624562135147   F   F   F
  0.4440157785235499  0.5570098918416306  0.0320490099011366   F   F   F
  0.6786830817299618  0.3305935986757840  0.3521468073918436   T   T   T
  0.8871773943218884  0.4444874287084701  0.1914439350428410   F   F   F
  0.7803090392985084  0.5568215196493469  0.0324839003422142   F   F   F
 -0.0008521716406406  0.6661772760753879  0.3465849518151458   T   T   T
  0.2213131134073549  0.7773235567033012  0.1894954762076821   F   F   F
  0.1110672681304479  0.8891027166618457  0.0340757830354335   F   F   F
  0.3322720514014755  0.6628974425265129  0.3451812246069834   T   T   T
  0.5546477936133769  0.7757440435575944  0.1919194212161699   F   F   F
  0.4455407313922635  0.8894373656959331  0.0347107595843354   F   F   F
  0.6722125566906265  0.6738703471345284  0.3530411863966816   T   T   T
  0.8871773943219239  0.7760229656155033  0.1914439350428623   F   F   F
  0.7779844621748850  0.8887053917320316  0.0349791552454235   F   F   F
  0.2928440020823581  0.3392335771153184  0.4548278211011817   T   T   T
  0.4367079364330383  0.2896132988582151  0.4320371837700245   T   T   T
 
  0.00000000E+00  0.00000000E+00  0.00000000E+00
  0.00000000E+00  0.00000000E+00  0.00000000E+00
  0.00000000E+00  0.00000000E+00  0.00000000E+00
  0.00000000E+00  0.00000000E+00  0.00000000E+00
  0.00000000E+00  0.00000000E+00  0.00000000E+00
  0.00000000E+00  0.00000000E+00  0.00000000E+00
  0.00000000E+00  0.00000000E+00  0.00000000E+00
  0.00000000E+00  0.00000000E+00  0.00000000E+00
  0.00000000E+00  0.00000000E+00  0.00000000E+00
  0.00000000E+00  0.00000000E+00  0.00000000E+00
  0.00000000E+00  0.00000000E+00  0.00000000E+00
  0.00000000E+00  0.00000000E+00  0.00000000E+00
  0.00000000E+00  0.00000000E+00  0.00000000E+00
  0.00000000E+00  0.00000000E+00  0.00000000E+00
  0.00000000E+00  0.00000000E+00  0.00000000E+00
  0.00000000E+00  0.00000000E+00  0.00000000E+00
  0.00000000E+00  0.00000000E+00  0.00000000E+00
  0.00000000E+00  0.00000000E+00  0.00000000E+00
  0.00000000E+00  0.00000000E+00  0.00000000E+00
  0.00000000E+00  0.00000000E+00  0.00000000E+00
  0.00000000E+00  0.00000000E+00  0.00000000E+00
  0.00000000E+00  0.00000000E+00  0.00000000E+00
  0.00000000E+00  0.00000000E+00  0.00000000E+00
  0.00000000E+00  0.00000000E+00  0.00000000E+00
  0.00000000E+00  0.00000000E+00  0.00000000E+00
  0.00000000E+00  0.00000000E+00  0.00000000E+00
  0.00000000E+00  0.00000000E+00  0.00000000E+00
  0.00000000E+00  0.00000000E+00  0.00000000E+00
  0.00000000E+00  0.00000000E+00  0.00000000E+00
  0.00000000E+00  0.00000000E+00  0.00000000E+00
  0.00000000E+00  0.00000000E+00  0.00000000E+00
  0.00000000E+00  0.00000000E+00  0.00000000E+00
  0.00000000E+00  0.00000000E+00  0.00000000E+00
  0.00000000E+00  0.00000000E+00  0.00000000E+00
  0.00000000E+00  0.00000000E+00  0.00000000E+00
  0.00000000E+00  0.00000000E+00  0.00000000E+00
  0.00000000E+00  0.00000000E+00  0.00000000E+00
  0.00000000E+00  0.00000000E+00  0.00000000E+00
  0.00000000E+00  0.00000000E+00  0.00000000E+00
  0.00000000E+00  0.00000000E+00  0.00000000E+00
  0.00000000E+00  0.00000000E+00  0.00000000E+00
  0.00000000E+00  0.00000000E+00  0.00000000E+00
  0.00000000E+00  0.00000000E+00  0.00000000E+00
  0.00000000E+00  0.00000000E+00  0.00000000E+00
  0.00000000E+00  0.00000000E+00  0.00000000E+00
  0.00000000E+00  0.00000000E+00  0.00000000E+00
  0.00000000E+00  0.00000000E+00  0.00000000E+00
  0.00000000E+00  0.00000000E+00  0.00000000E+00
  0.00000000E+00  0.00000000E+00  0.00000000E+00
  0.00000000E+00  0.00000000E+00  0.00000000E+00
  0.00000000E+00  0.00000000E+00  0.00000000E+00
  0.00000000E+00  0.00000000E+00  0.00000000E+00
  0.00000000E+00  0.00000000E+00  0.00000000E+00
  0.00000000E+00  0.00000000E+00  0.00000000E+00
  0.00000000E+00  0.00000000E+00  0.00000000E+00
  0.00000000E+00  0.00000000E+00  0.00000000E+00
  0.00000000E+00  0.00000000E+00  0.00000000E+00
  0.00000000E+00  0.00000000E+00  0.00000000E+00
  0.00000000E+00  0.00000000E+00  0.00000000E+00
  0.00000000E+00  0.00000000E+00  0.00000000E+00
  0.00000000E+00  0.00000000E+00  0.00000000E+00
  0.00000000E+00  0.00000000E+00  0.00000000E+00
  0.00000000E+00  0.00000000E+00  0.00000000E+00
  0.00000000E+00  0.00000000E+00  0.00000000E+00
  0.00000000E+00  0.00000000E+00  0.00000000E+00
  0.00000000E+00  0.00000000E+00  0.00000000E+00
  0.00000000E+00  0.00000000E+00  0.00000000E+00
  0.00000000E+00  0.00000000E+00  0.00000000E+00
  0.00000000E+00  0.00000000E+00  0.00000000E+00
  0.00000000E+00  0.00000000E+00  0.00000000E+00
  0.00000000E+00  0.00000000E+00  0.00000000E+00
  0.00000000E+00  0.00000000E+00  0.00000000E+00
  0.00000000E+00  0.00000000E+00  0.00000000E+00
  0.00000000E+00  0.00000000E+00  0.00000000E+00
  0.00000000E+00  0.00000000E+00  0.00000000E+00
  0.00000000E+00  0.00000000E+00  0.00000000E+00
  0.00000000E+00  0.00000000E+00  0.00000000E+00
  0.00000000E+00  0.00000000E+00  0.00000000E+00
  0.00000000E+00  0.00000000E+00  0.00000000E+00
  0.00000000E+00  0.00000000E+00  0.00000000E+00
  0.00000000E+00  0.00000000E+00  0.00000000E+00
  0.00000000E+00  0.00000000E+00  0.00000000E+00
