CeO2-you-111-you-Mg                     
   1.00000000000000     
     9.8251922789720680   -5.6722943789780365   -0.0017360994406230
     0.0000000022307311   11.3445867654002708    0.0000000002024025
    -0.0039627959918697    0.0000000004081289   20.9225493105347766
   O    Mg   Ce   H 
    53     1    26     1
Selective dynamics
Direct
  0.9997118520192568  0.0002582568521418  0.9947834041437359   T   T   T
  0.1179189782340425  0.2251669358954196  0.1511331620227532   T   T   T
  0.2228638934717663  0.1063731642420727  0.3034549592677619   T   T   T
  0.1103718871854005  0.2193291642330273  0.3832969721251424   T   T   T
  0.0005048065982131  0.0009762532319338  0.2284863389103073   T   T   T
  0.2227506656754052  0.1103156143650231  0.0735226836453081   T   T   T
  0.3333576222413865  0.9988232653367789  0.9931069150209558   T   T   T
  0.4441618048522309  0.2201329047632763  0.1472613534786965   T   T   T
  0.5486567527542029  0.1062260351249754  0.3080420164903584   T   T   T
  0.4316329154294223  0.2482202576608871  0.3863220881501513   T   T   T
  0.3339337683307165 -0.0032792774110985  0.2291381353705714   T   T   T
  0.5552717320904006  0.1099520067133585  0.0742155180837722   T   T   T
  0.6691057621125697  0.0008559404532783  0.9945795957005411   T   T   T
  0.7746558027914419  0.2250163135303664  0.1513725047773558   T   T   T
  0.8879870222800618  0.1084100016141537  0.3044360337760239   T   T   T
  0.7829410369108887  0.2150673173933118  0.3893736669075016   T   T   T
  0.6663537566377977  0.0020376867110821  0.2295640657909283   T   T   T
  0.8890847188415694  0.1104026864241243  0.0772862546184060   T   T   T
  0.9991235634381134  0.3306286614105219  0.9947821075099395   T   T   T
  0.1103920761732213  0.5540537623147742  0.1503598208952268   T   T   T
  0.2196140524945713  0.4406512130700826  0.3035128226280304   T   T   T
  0.1167821549773057  0.5570282924206044  0.3862486610855799   T   T   T
  0.9989075629322447  0.3305401499792280  0.2289522931978749   T   T   T
  0.2228625020118592  0.4447873251802988  0.0734686141598862   T   T   T
  0.3322831380843530  0.3322711031685163  0.9928834326082355   T   T   T
  0.4451423099299671  0.5571748901922688  0.1471761631168285   T   T   T
  0.4560252630422671  0.5425989718474067  0.3705543299630702   T   T   T
  0.3509876524675061  0.3403646501875165  0.2346444331653419   T   T   T
  0.5557207234666872  0.4436715464781073  0.0712443369397954   T   T   T
  0.6674234056516379  0.3318202543763317  0.9931302837677531   T   T   T
  0.7790234435285289  0.5558965465349472  0.1472515434649595   T   T   T
  0.8966265844688479  0.4460185963861080  0.3057856492218721   T   T   T
  0.7755326036623424  0.5630177619584416  0.3829623924752791   T   T   T
  0.6586984333106423  0.3411776605527017  0.2347772112093232   T   T   T
  0.8892243045034847  0.4441690223693570  0.0739310447146297   T   T   T
  0.0007325238676511  0.6663522531529540  0.9934038089518265   T   T   T
  0.1110456192330087  0.8880436411866021  0.1499252244654977   T   T   T
  0.2217410597972955  0.7743818343951551  0.3037547605151317   T   T   T
  0.1150421956534750  0.8865868810677523  0.3863687809396636   T   T   T
  0.9984574092135934  0.6660335062530297  0.2300711828623377   T   T   T
  0.2228624392568796  0.7768911524511261  0.0741066369632628   T   T   T
  0.3337494700320313  0.6666614595295242  0.9931555465402091   T   T   T
  0.4456873679694541  0.8881270593670328  0.1498181655350041   T   T   T
  0.5597329822866292  0.7828955192019053  0.3046868825549551   T   T   T
  0.4404011887608689  0.8823376313041184  0.3860267535255271   T   T   T
  0.3351426151811248  0.6655611872111067  0.2299289300266992   T   T   T
  0.5562568619583885  0.7781415992484183  0.0734705569137768   T   T   T
  0.6676732172124491  0.6676421044697741  0.9928173087511953   T   T   T
  0.7741740421376306  0.8821078639228686  0.1519665344884578   T   T   T
  0.8934964464528186  0.7835638885589807  0.3047977523798581   T   T   T
  0.7789418472677546  0.8914842584627023  0.3882630817683603   T   T   T
  0.6591838439493225  0.6480932665518461  0.2358522143623260   T   T   T
  0.8893578227624621  0.7777861354390817  0.0737717694548202   T   T   T
  0.3070264213729772  0.3239182297226985  0.3371986028661699   T   T   T
  0.0061852447928969  0.0057955792372748  0.3452060954617367   T   T   T
  0.2246490567856388  0.1123531713595584  0.1919376934971809   T   T   T
  0.1121087276733982  0.2220964050704363  0.0350843927216845   T   T   T
  0.3272045740716288 -0.0090299448211434  0.3427774059537203   T   T   T
  0.5550824059052045  0.1116880983293443  0.1913278101089508   T   T   T
  0.4436165748336718  0.2197278271993140  0.0322041545611042   T   T   T
  0.6665349576496390  0.0000059050353675  0.3467656716778629   T   T   T
  0.8890186170938310  0.1110072387365880  0.1908051493454308   T   T   T
  0.7777054136289713  0.2219852233934905  0.0350608921241626   T   T   T
  0.0049796561702056  0.3311414101777204  0.3461096648232639   T   T   T
  0.2243760553230316  0.4431448583549019  0.1917084258913460   T   T   T
  0.1109228893391960  0.5540678663415908  0.0345690720702486   T   T   T
  0.5541035600707035  0.4428355767295654  0.1823547471890888   T   T   T
  0.4439503088096862  0.5561588848666712  0.0320748356652118   T   T   T
  0.6755722219359400  0.3307057975195919  0.3515956721160048   T   T   T
  0.8879599792774345  0.4442310691585230  0.1914729114446262   T   T   T
  0.7797683969967700  0.5559282292852733  0.0324851462092384   T   T   T
  0.0013679109718509  0.6658498720663618  0.3450031135534201   T   T   T
  0.2218640848559762  0.7758254764745504  0.1885816472893027   T   T   T
  0.1111801223782877  0.8888863985873340  0.0346430915041880   T   T   T
  0.3345069313354834  0.6585570345245604  0.3439687900383295   T   T   T
  0.5553916859153503  0.7767034981449606  0.1905457555626690   T   T   T
  0.4455764626111131  0.8889034832391912  0.0343214549040769   T   T   T
  0.6726197450744460  0.6780533043992096  0.3484607046359086   T   T   T
  0.8889832414681488  0.7765558785316420  0.1908702194350478   T   T   T
  0.7781540332546760  0.8883604274762327  0.0346217033261293   T   T   T
  0.4213192148106715  0.2632730235239035  0.4313524766212388   T   T   T
 
  0.00000000E+00  0.00000000E+00  0.00000000E+00
  0.00000000E+00  0.00000000E+00  0.00000000E+00
  0.00000000E+00  0.00000000E+00  0.00000000E+00
  0.00000000E+00  0.00000000E+00  0.00000000E+00
  0.00000000E+00  0.00000000E+00  0.00000000E+00
  0.00000000E+00  0.00000000E+00  0.00000000E+00
  0.00000000E+00  0.00000000E+00  0.00000000E+00
  0.00000000E+00  0.00000000E+00  0.00000000E+00
  0.00000000E+00  0.00000000E+00  0.00000000E+00
  0.00000000E+00  0.00000000E+00  0.00000000E+00
  0.00000000E+00  0.00000000E+00  0.00000000E+00
  0.00000000E+00  0.00000000E+00  0.00000000E+00
  0.00000000E+00  0.00000000E+00  0.00000000E+00
  0.00000000E+00  0.00000000E+00  0.00000000E+00
  0.00000000E+00  0.00000000E+00  0.00000000E+00
  0.00000000E+00  0.00000000E+00  0.00000000E+00
  0.00000000E+00  0.00000000E+00  0.00000000E+00
  0.00000000E+00  0.00000000E+00  0.00000000E+00
  0.00000000E+00  0.00000000E+00  0.00000000E+00
  0.00000000E+00  0.00000000E+00  0.00000000E+00
  0.00000000E+00  0.00000000E+00  0.00000000E+00
  0.00000000E+00  0.00000000E+00  0.00000000E+00
  0.00000000E+00  0.00000000E+00  0.00000000E+00
  0.00000000E+00  0.00000000E+00  0.00000000E+00
  0.00000000E+00  0.00000000E+00  0.00000000E+00
  0.00000000E+00  0.00000000E+00  0.00000000E+00
  0.00000000E+00  0.00000000E+00  0.00000000E+00
  0.00000000E+00  0.00000000E+00  0.00000000E+00
  0.00000000E+00  0.00000000E+00  0.00000000E+00
  0.00000000E+00  0.00000000E+00  0.00000000E+00
  0.00000000E+00  0.00000000E+00  0.00000000E+00
  0.00000000E+00  0.00000000E+00  0.00000000E+00
  0.00000000E+00  0.00000000E+00  0.00000000E+00
  0.00000000E+00  0.00000000E+00  0.00000000E+00
  0.00000000E+00  0.00000000E+00  0.00000000E+00
  0.00000000E+00  0.00000000E+00  0.00000000E+00
  0.00000000E+00  0.00000000E+00  0.00000000E+00
  0.00000000E+00  0.00000000E+00  0.00000000E+00
  0.00000000E+00  0.00000000E+00  0.00000000E+00
  0.00000000E+00  0.00000000E+00  0.00000000E+00
  0.00000000E+00  0.00000000E+00  0.00000000E+00
  0.00000000E+00  0.00000000E+00  0.00000000E+00
  0.00000000E+00  0.00000000E+00  0.00000000E+00
  0.00000000E+00  0.00000000E+00  0.00000000E+00
  0.00000000E+00  0.00000000E+00  0.00000000E+00
  0.00000000E+00  0.00000000E+00  0.00000000E+00
  0.00000000E+00  0.00000000E+00  0.00000000E+00
  0.00000000E+00  0.00000000E+00  0.00000000E+00
  0.00000000E+00  0.00000000E+00  0.00000000E+00
  0.00000000E+00  0.00000000E+00  0.00000000E+00
  0.00000000E+00  0.00000000E+00  0.00000000E+00
  0.00000000E+00  0.00000000E+00  0.00000000E+00
  0.00000000E+00  0.00000000E+00  0.00000000E+00
  0.00000000E+00  0.00000000E+00  0.00000000E+00
  0.00000000E+00  0.00000000E+00  0.00000000E+00
  0.00000000E+00  0.00000000E+00  0.00000000E+00
  0.00000000E+00  0.00000000E+00  0.00000000E+00
  0.00000000E+00  0.00000000E+00  0.00000000E+00
  0.00000000E+00  0.00000000E+00  0.00000000E+00
  0.00000000E+00  0.00000000E+00  0.00000000E+00
  0.00000000E+00  0.00000000E+00  0.00000000E+00
  0.00000000E+00  0.00000000E+00  0.00000000E+00
  0.00000000E+00  0.00000000E+00  0.00000000E+00
  0.00000000E+00  0.00000000E+00  0.00000000E+00
  0.00000000E+00  0.00000000E+00  0.00000000E+00
  0.00000000E+00  0.00000000E+00  0.00000000E+00
  0.00000000E+00  0.00000000E+00  0.00000000E+00
  0.00000000E+00  0.00000000E+00  0.00000000E+00
  0.00000000E+00  0.00000000E+00  0.00000000E+00
  0.00000000E+00  0.00000000E+00  0.00000000E+00
  0.00000000E+00  0.00000000E+00  0.00000000E+00
  0.00000000E+00  0.00000000E+00  0.00000000E+00
  0.00000000E+00  0.00000000E+00  0.00000000E+00
  0.00000000E+00  0.00000000E+00  0.00000000E+00
  0.00000000E+00  0.00000000E+00  0.00000000E+00
  0.00000000E+00  0.00000000E+00  0.00000000E+00
  0.00000000E+00  0.00000000E+00  0.00000000E+00
  0.00000000E+00  0.00000000E+00  0.00000000E+00
  0.00000000E+00  0.00000000E+00  0.00000000E+00
  0.00000000E+00  0.00000000E+00  0.00000000E+00
  0.00000000E+00  0.00000000E+00  0.00000000E+00
