CeO2-you-111-you-Ba                     
   1.00000000000000     
     9.8962393604856267   -5.7135968289044463    0.0000000000000000
    -0.0000000051665033   11.4271916379168932    0.0000000000000000
     0.0000000000000000    0.0000000000000000   21.1782510806590736
   O    Ba   Ce   H 
    54     1    26     1
Selective dynamics
Direct
  0.0002009369337229  0.0000542404230675  0.9974569698410845   T   T   T
  0.1115215399731042  0.2224272699865324  0.1502706581157014   F   F   F
  0.2252315087653925  0.1069221180143336  0.3074289435427206   T   T   T
  0.0700439017270360  0.2006418529878741  0.3896147627201347   T   T   T
  0.0005133470696178  0.0002599862323102  0.2288456663311121   T   T   T
  0.2224140578082228  0.1114951156163215  0.0763973186403675   F   F   F
  0.3324850539105692  0.0001126674854880  0.9971205727627609   T   T   T
  0.4442387300134243  0.2224272699865182  0.1502706581157014   F   F   F
  0.5521121765721794  0.1135395781745717  0.3017129848146461   T   T   T
  0.4676609752506128  0.2005358683494474  0.4083134531621695   T   T   T
  0.3327102483411599  0.9978713831513516  0.2281173460200079   T   T   T
  0.5553410209177514  0.1113259790819114  0.0746998418830245   F   F   F
  0.6668680504041721  0.0000802986501824  0.9964271184705291   T   T   T
  0.7786037831566901  0.2238735663132587  0.1480766529676458   F   F   F
  0.8835594803735543  0.1081446213764999  0.2990577720620956   T   T   T
  0.7758443528869708  0.2216195549864355  0.3799996056543121   T   T   T
  0.6650818834727066  0.0018132297150019  0.2258146987358685   T   T   T
  0.8893189581642602  0.1113259790820180  0.0746998418830245   F   F   F
  0.0006772834218184  0.3338499913513746  0.9970083215034856   T   T   T
  0.1110837598675829  0.5555832401326910  0.1501232513202027   F   F   F
  0.2212917289869486  0.4457332440332240  0.3060187035749849   T   T   T
  0.1132202265415676  0.5544774084139419  0.3816545464728440   T   T   T
  0.9997627919265725  0.3324437879372759  0.2286278827116574   T   T   T
  0.2224140578085070  0.4442519421919044  0.0763973186403675   F   F   F
  0.3330743516168592  0.3330549075407638  0.9972184227416796   T   T   T
  0.4442387300134669  0.5551454600269565  0.1502706581157014   F   F   F
  0.5596941281507810  0.4414066631047959  0.3073062868040837   T   T   T
  0.4661310332735717  0.5963856189569753  0.3894649050377819   T   T   T
  0.3325268398449046  0.3335410764104574  0.2263712508306780   T   T   T
  0.5551718843832774  0.4442519421917765  0.0763973186403675   F   F   F
  0.6664120895004507  0.3338436200016932  0.9973318095843230   T   T   T
  0.7778324802650189  0.5555832401326057  0.1501232513202027   F   F   F
  0.8913083114202556  0.4456817595834109  0.3026312700988347   T   T   T
  0.7824724199736486  0.5560710669559581  0.3826024927799502   T   T   T
  0.6687888815504351  0.3338300384408227  0.2280225271003156   T   T   T
  0.8891253900314240  0.4449167800628473  0.0754269529566827   F   F   F
  0.0000460903701800  0.6671358783246475  0.9973632975158837   T   T   T
  0.1110837598673982  0.8888345197347078  0.1501232513202027   F   F   F
  0.2212976651999670  0.7758425264148562  0.3023656917413007   T   T   T
  0.1107598085673718  0.8842290312412303  0.3827139077380007   T   T   T
 -0.0001306857871277  0.6670186080853150  0.2287155086639761   T   T   T
  0.2217492199371591  0.7775416099685728  0.0754269529566827   F   F   F
  0.3328000132708966  0.6661494136148547  0.9972836689954996   T   T   T
  0.4427924336863072  0.8880632168433067  0.1480766529676458   F   F   F
  0.5588550620263988  0.7829990881570463  0.2988233688067452   T   T   T
  0.4451967254487216  0.8905693148118350  0.3801746873169582   T   T   T
  0.3338367078424970  0.6667732720866504  0.2283540812930016   T   T   T
  0.5553410209179859  0.7773480418360705  0.0746998418830245   F   F   F
  0.6668610855117997  0.6661639685125308  0.9970506260861864   T   T   T
  0.7786037831569956  0.8880632168434417  0.1480766529676458   F   F   F
  0.8892957454496411  0.7778057917129397  0.3030994826723611   T   T   T
  0.7765610150779756  0.8901613062311338  0.3798012250740231   T   T   T
  0.6664362726246239  0.6658473800119306  0.2287006795768298   T   T   T
  0.8891253900314169  0.7775416099685728  0.0754269529566827   F   F   F
  0.3329361711167955  0.3337237670188609  0.3795237892470592   T   T   T
  0.9970573791965133 -0.0008076714749828  0.3419518536474655   T   T   T
  0.2225042857370028  0.1116755714744855  0.1915633499608447   F   F   F
  0.1121072215954584  0.2227201107977024  0.0371570963741377   F   F   F
  0.3285246840801167  0.9912541915258508  0.3400590640891849   T   T   T
  0.5556817835662500  0.1109852164340523  0.1873567335122743   F   F   F
  0.4439458892022401  0.2227201107976811  0.0371570963741377   F   F   F
  0.6660421003337734  0.0008315974204306  0.3392195468686990   T   T   T
  0.8886374328677107  0.1109852164339600  0.1873567335122743   F   F   F
  0.7781124232188148  0.2228908464375863  0.0354710925018438   F   F   F
  0.9972542584686479  0.3280602173554484  0.3418897089620613   T   T   T
  0.2225042857359085  0.4441617142625063  0.1915633499608447   F   F   F
  0.1112762741071407  0.5553907258929200  0.0368351813428234   F   F   F
  0.5549914285270958  0.4441617142629966  0.1915633499608447   F   F   F
  0.4439458892022969  0.5545597784046237  0.0371570963741377   F   F   F
  0.6754864368857625  0.3382198985541148  0.3399953153091467   T   T   T
  0.8889472887040313  0.4445605774079624  0.1887060217023517   F   F   F
  0.7774474517857612  0.5553907258929058  0.0368351813428234   F   F   F
  0.0003660491427657  0.6666916649542672  0.3424123385501449   T   T   T
  0.2221054225917172  0.7777197112959655  0.1887060217023517   F   F   F
  0.1112762741070981  0.8892195482141716  0.0368351813428234   F   F   F
  0.3389829755596511  0.6697318983245777  0.3418382513293782   T   T   T
  0.5556817835660439  0.7780295671319877  0.1873567335122743   F   F   F
  0.4437751535622567  0.8885545767811820  0.0354710925018438   F   F   F
  0.6676560606501803  0.6695563203130797  0.3418970074681130   T   T   T
  0.8889472887042515  0.7777197112960650  0.1887060217023517   F   F   F
  0.7781124232189214  0.8885545767812317  0.0354710925018438   F   F   F
  0.4903896992433436  0.1774460358204576  0.4490412443046510   T   T   T
 
  0.00000000E+00  0.00000000E+00  0.00000000E+00
  0.00000000E+00  0.00000000E+00  0.00000000E+00
  0.00000000E+00  0.00000000E+00  0.00000000E+00
  0.00000000E+00  0.00000000E+00  0.00000000E+00
  0.00000000E+00  0.00000000E+00  0.00000000E+00
  0.00000000E+00  0.00000000E+00  0.00000000E+00
  0.00000000E+00  0.00000000E+00  0.00000000E+00
  0.00000000E+00  0.00000000E+00  0.00000000E+00
  0.00000000E+00  0.00000000E+00  0.00000000E+00
  0.00000000E+00  0.00000000E+00  0.00000000E+00
  0.00000000E+00  0.00000000E+00  0.00000000E+00
  0.00000000E+00  0.00000000E+00  0.00000000E+00
  0.00000000E+00  0.00000000E+00  0.00000000E+00
  0.00000000E+00  0.00000000E+00  0.00000000E+00
  0.00000000E+00  0.00000000E+00  0.00000000E+00
  0.00000000E+00  0.00000000E+00  0.00000000E+00
  0.00000000E+00  0.00000000E+00  0.00000000E+00
  0.00000000E+00  0.00000000E+00  0.00000000E+00
  0.00000000E+00  0.00000000E+00  0.00000000E+00
  0.00000000E+00  0.00000000E+00  0.00000000E+00
  0.00000000E+00  0.00000000E+00  0.00000000E+00
  0.00000000E+00  0.00000000E+00  0.00000000E+00
  0.00000000E+00  0.00000000E+00  0.00000000E+00
  0.00000000E+00  0.00000000E+00  0.00000000E+00
  0.00000000E+00  0.00000000E+00  0.00000000E+00
  0.00000000E+00  0.00000000E+00  0.00000000E+00
  0.00000000E+00  0.00000000E+00  0.00000000E+00
  0.00000000E+00  0.00000000E+00  0.00000000E+00
  0.00000000E+00  0.00000000E+00  0.00000000E+00
  0.00000000E+00  0.00000000E+00  0.00000000E+00
  0.00000000E+00  0.00000000E+00  0.00000000E+00
  0.00000000E+00  0.00000000E+00  0.00000000E+00
  0.00000000E+00  0.00000000E+00  0.00000000E+00
  0.00000000E+00  0.00000000E+00  0.00000000E+00
  0.00000000E+00  0.00000000E+00  0.00000000E+00
  0.00000000E+00  0.00000000E+00  0.00000000E+00
  0.00000000E+00  0.00000000E+00  0.00000000E+00
  0.00000000E+00  0.00000000E+00  0.00000000E+00
  0.00000000E+00  0.00000000E+00  0.00000000E+00
  0.00000000E+00  0.00000000E+00  0.00000000E+00
  0.00000000E+00  0.00000000E+00  0.00000000E+00
  0.00000000E+00  0.00000000E+00  0.00000000E+00
  0.00000000E+00  0.00000000E+00  0.00000000E+00
  0.00000000E+00  0.00000000E+00  0.00000000E+00
  0.00000000E+00  0.00000000E+00  0.00000000E+00
  0.00000000E+00  0.00000000E+00  0.00000000E+00
  0.00000000E+00  0.00000000E+00  0.00000000E+00
  0.00000000E+00  0.00000000E+00  0.00000000E+00
  0.00000000E+00  0.00000000E+00  0.00000000E+00
  0.00000000E+00  0.00000000E+00  0.00000000E+00
  0.00000000E+00  0.00000000E+00  0.00000000E+00
  0.00000000E+00  0.00000000E+00  0.00000000E+00
  0.00000000E+00  0.00000000E+00  0.00000000E+00
  0.00000000E+00  0.00000000E+00  0.00000000E+00
  0.00000000E+00  0.00000000E+00  0.00000000E+00
  0.00000000E+00  0.00000000E+00  0.00000000E+00
  0.00000000E+00  0.00000000E+00  0.00000000E+00
  0.00000000E+00  0.00000000E+00  0.00000000E+00
  0.00000000E+00  0.00000000E+00  0.00000000E+00
  0.00000000E+00  0.00000000E+00  0.00000000E+00
  0.00000000E+00  0.00000000E+00  0.00000000E+00
  0.00000000E+00  0.00000000E+00  0.00000000E+00
  0.00000000E+00  0.00000000E+00  0.00000000E+00
  0.00000000E+00  0.00000000E+00  0.00000000E+00
  0.00000000E+00  0.00000000E+00  0.00000000E+00
  0.00000000E+00  0.00000000E+00  0.00000000E+00
  0.00000000E+00  0.00000000E+00  0.00000000E+00
  0.00000000E+00  0.00000000E+00  0.00000000E+00
  0.00000000E+00  0.00000000E+00  0.00000000E+00
  0.00000000E+00  0.00000000E+00  0.00000000E+00
  0.00000000E+00  0.00000000E+00  0.00000000E+00
  0.00000000E+00  0.00000000E+00  0.00000000E+00
  0.00000000E+00  0.00000000E+00  0.00000000E+00
  0.00000000E+00  0.00000000E+00  0.00000000E+00
  0.00000000E+00  0.00000000E+00  0.00000000E+00
  0.00000000E+00  0.00000000E+00  0.00000000E+00
  0.00000000E+00  0.00000000E+00  0.00000000E+00
  0.00000000E+00  0.00000000E+00  0.00000000E+00
  0.00000000E+00  0.00000000E+00  0.00000000E+00
  0.00000000E+00  0.00000000E+00  0.00000000E+00
  0.00000000E+00  0.00000000E+00  0.00000000E+00
  0.00000000E+00  0.00000000E+00  0.00000000E+00
