CeO2-you-111-you-Sb                     
   1.00000000000000     
     9.9073984811053251   -5.7200395526849528   -0.0000000003237202
    -0.0260647985777335   11.3949315396582396   -0.0061565696862372
    -0.0070662036398796   -0.0122390216405651   20.3066452120837333
   O    Sb   Ce H
    53     1    26 1
Selective dynamics
Direct
  0.0003020514853094  0.0004782276080872  0.9886362424067623   T   T   T
  0.1128116051583164  0.2235210211979008  0.1480752515985130   T   T   T
  0.2291969423120222  0.1250608846260930  0.3099080762353105   T   T   T
  0.0849663989653876  0.2106152685651190  0.3930654851212845   T   T   T
  0.0038769957088014  0.0017682556361942  0.2301109371176707   T   T   T
  0.2224116771341625  0.1114903542685978  0.0703673654633737   T   T   T
  0.3335091761227977  0.0004782276082084  0.9886362424067691   T   T   T
  0.4440424160392458  0.2235210211976069  0.1480752515984840   T   T   T
  0.5584497420843190  0.1089750547696703  0.3049294638648431   T   T   T
  0.4589818696014985  0.2106152685679811  0.3930654851219609   T   T   T
  0.3312242599270523  0.0017682556357837  0.2301109371176120   T   T   T
  0.5556049186750912  0.1118804484717165  0.0710898884169893   T   T   T
  0.6663952176097714 -0.0005435647807220  0.9897637920690234   T   T   T
  0.7768089416164925  0.2202838832326085  0.1503077109864281   T   T   T
  0.8838593126859130  0.1089750547697240  0.3049294638647627   T   T   T
  0.7763496526720748  0.2193653053436772  0.3901036945011080   T   T   T
  0.6617897341252507 -0.0097545317511051  0.2312165601320943   T   T   T
  0.8896095297965130  0.1118804484718625  0.0710898884170178   T   T   T
  0.0000082142891844  0.3335481359801986  0.9893315768547605   T   T   T
  0.1105229073517569  0.5556956177924156  0.1481338964516297   T   T   T
  0.2317180425397106  0.4436966890050086  0.3117080591633152   T   T   T
  0.1050386871466832  0.5552529813467577  0.3904452986284444   T   T   T
  0.0038649814742973  0.3350491656623261  0.2313394084463243   T   T   T
  0.2221554243352762  0.4451645291495711  0.0715232103288827   T   T   T
  0.3339544656821803  0.3345759313648485  0.9893464201594400   T   T   T
  0.4431882293014470  0.5530444586026885  0.1495133423598629   T   T   T
  0.5453126464649671  0.4436966890040793  0.3117080591628726   T   T   T
  0.3330956765990084  0.3328583531983682  0.2337622353868455   T   T   T
  0.5563431048142039  0.4451645291497732  0.0715232103289080   T   T   T
  0.6668739216910234  0.3335481359803025  0.9893315768548262   T   T   T
  0.7785057104406081  0.5556956177924146  0.1481338964516362   T   T   T
  0.8880436814876270  0.4427533629750755  0.3068195088745188   T   T   T
  0.7835472942000770  0.5552529813468927  0.3904452986283997   T   T   T
  0.6645181841879733  0.3350491656624390  0.2313394084463037   T   T   T
  0.8881955809651111  0.4430571619299855  0.0716186756758445   T   T   T
 -0.0003698285444908  0.6659273429104425  0.9890127340581932   T   T   T
  0.1113764407098385  0.8894198814197977  0.1463602784363170   T   T   T
  0.2212720612290589  0.7808312308950036  0.3067017534121747   T   T   T
  0.1127387971261703  0.8921445942527090  0.3885967701373219   T   T   T
  0.0005898911937718  0.6678467823877582  0.2298359471343046   T   T   T
  0.2222113284379859  0.7783576208712838  0.0703605262100423   T   T   T
  0.3340297907867866  0.6672053114852845  0.9895705464168035   T   T   T
  0.4435411383826164  0.8891153231896480  0.1480737432700448   T   T   T
  0.5468469212836118  0.7603598425652187  0.3153214114686431   T   T   T
  0.4469533304581139  0.8957024831022111  0.3913675501268366   T   T   T
  0.3317191329470898  0.6683584819521562  0.2296357772003690   T   T   T
  0.5552089259788140  0.7770838519572448  0.0723539305132135   T   T   T
  0.6665085206983644  0.6672053114853111  0.9895705464168146   T   T   T
  0.7789071848073671  0.8891153231900277  0.1480737432701390   T   T   T
  0.8928921696662432  0.7808312308955662  0.3067017534121735   T   T   T
  0.7820821526442336  0.8957024831028152  0.3913675501269364   T   T   T
  0.6699723490049811  0.6683584819522476  0.2296357772003711   T   T   T
  0.8894792924336024  0.7783576208716017  0.0703605262101271   T   T   T
  0.3297894515530564  0.3262459031060477  0.3402582958521225   T   T   T
  0.0005595484099533  0.0049324452056604  0.3508566977105827   T   T   T
  0.2221280981463164  0.1109231962925914  0.1881316141695344   T   T   T
  0.1112729586431817  0.2228136952927068  0.0300589632858886   T   T   T
  0.3377058967952193  0.0049324452060683  0.3508566977106175   T   T   T
  0.5543689244135027  0.1100731615996041  0.1899815709213485   T   T   T
  0.4448737366493891  0.2228136952927129  0.0300589632858909   T   T   T
  0.6658743463382587 -0.0015853073234873  0.3498135345455293   T   T   T
  0.8890382371861766  0.1100731615996011  0.1899815709213533   T   T   T
  0.7776667209032486  0.2219994418065338  0.0308685975970263   T   T   T
 -0.0021573541189046  0.3301487342996187  0.3501149725702907   T   T   T
  0.2215642785809198  0.4450886332130782  0.1903767560707770   T   T   T
  0.1107712060478188  0.5551527882784894  0.0303341748073831   T   T   T
  0.5568583546319109  0.4450886332128399  0.1903767560707763   T   T   T
  0.4444374310949967  0.5555428621900081  0.0306291216897011   T   T   T
  0.6656400884188663  0.3301487342994837  0.3501149725703182   T   T   T
  0.8888834003518596  0.4444328007036862  0.1904684888670597   T   T   T
  0.7777145822307542  0.5551527882785500  0.0303341748074260   T   T   T
  0.0001592294793222  0.6669854589587985  0.3489493092157425   T   T   T
  0.2215304014272135  0.7790840080949070  0.1880478662365698   T   T   T
  0.1113553038387843  0.8893776076776241  0.0286272624103084   T   T   T
  0.3235929725250720  0.6737156121330040  0.3471895186631703   T   T   T
  0.5544254696481569  0.7755169392958911  0.1900261957264957   T   T   T
  0.4443730282283678  0.8887906765957018  0.0302889278653750   T   T   T
  0.6834556396062385  0.6737156121314666  0.3471895186632186   T   T   T
  0.8908866066675798  0.7790840080947212  0.1880478662365635   T   T   T
  0.7777506483674314  0.8887906765956116  0.0302889278653876   T   T   T
0.446598 0.216020 0.433410 T T T 
 
  0.00000000E+00  0.00000000E+00  0.00000000E+00
  0.00000000E+00  0.00000000E+00  0.00000000E+00
  0.00000000E+00  0.00000000E+00  0.00000000E+00
  0.00000000E+00  0.00000000E+00  0.00000000E+00
  0.00000000E+00  0.00000000E+00  0.00000000E+00
  0.00000000E+00  0.00000000E+00  0.00000000E+00
  0.00000000E+00  0.00000000E+00  0.00000000E+00
  0.00000000E+00  0.00000000E+00  0.00000000E+00
  0.00000000E+00  0.00000000E+00  0.00000000E+00
  0.00000000E+00  0.00000000E+00  0.00000000E+00
  0.00000000E+00  0.00000000E+00  0.00000000E+00
  0.00000000E+00  0.00000000E+00  0.00000000E+00
  0.00000000E+00  0.00000000E+00  0.00000000E+00
  0.00000000E+00  0.00000000E+00  0.00000000E+00
  0.00000000E+00  0.00000000E+00  0.00000000E+00
  0.00000000E+00  0.00000000E+00  0.00000000E+00
  0.00000000E+00  0.00000000E+00  0.00000000E+00
  0.00000000E+00  0.00000000E+00  0.00000000E+00
  0.00000000E+00  0.00000000E+00  0.00000000E+00
  0.00000000E+00  0.00000000E+00  0.00000000E+00
  0.00000000E+00  0.00000000E+00  0.00000000E+00
  0.00000000E+00  0.00000000E+00  0.00000000E+00
  0.00000000E+00  0.00000000E+00  0.00000000E+00
  0.00000000E+00  0.00000000E+00  0.00000000E+00
  0.00000000E+00  0.00000000E+00  0.00000000E+00
  0.00000000E+00  0.00000000E+00  0.00000000E+00
  0.00000000E+00  0.00000000E+00  0.00000000E+00
  0.00000000E+00  0.00000000E+00  0.00000000E+00
  0.00000000E+00  0.00000000E+00  0.00000000E+00
  0.00000000E+00  0.00000000E+00  0.00000000E+00
  0.00000000E+00  0.00000000E+00  0.00000000E+00
  0.00000000E+00  0.00000000E+00  0.00000000E+00
  0.00000000E+00  0.00000000E+00  0.00000000E+00
  0.00000000E+00  0.00000000E+00  0.00000000E+00
  0.00000000E+00  0.00000000E+00  0.00000000E+00
  0.00000000E+00  0.00000000E+00  0.00000000E+00
  0.00000000E+00  0.00000000E+00  0.00000000E+00
  0.00000000E+00  0.00000000E+00  0.00000000E+00
  0.00000000E+00  0.00000000E+00  0.00000000E+00
  0.00000000E+00  0.00000000E+00  0.00000000E+00
  0.00000000E+00  0.00000000E+00  0.00000000E+00
  0.00000000E+00  0.00000000E+00  0.00000000E+00
  0.00000000E+00  0.00000000E+00  0.00000000E+00
  0.00000000E+00  0.00000000E+00  0.00000000E+00
  0.00000000E+00  0.00000000E+00  0.00000000E+00
  0.00000000E+00  0.00000000E+00  0.00000000E+00
  0.00000000E+00  0.00000000E+00  0.00000000E+00
  0.00000000E+00  0.00000000E+00  0.00000000E+00
  0.00000000E+00  0.00000000E+00  0.00000000E+00
  0.00000000E+00  0.00000000E+00  0.00000000E+00
  0.00000000E+00  0.00000000E+00  0.00000000E+00
  0.00000000E+00  0.00000000E+00  0.00000000E+00
  0.00000000E+00  0.00000000E+00  0.00000000E+00
  0.00000000E+00  0.00000000E+00  0.00000000E+00
  0.00000000E+00  0.00000000E+00  0.00000000E+00
  0.00000000E+00  0.00000000E+00  0.00000000E+00
  0.00000000E+00  0.00000000E+00  0.00000000E+00
  0.00000000E+00  0.00000000E+00  0.00000000E+00
  0.00000000E+00  0.00000000E+00  0.00000000E+00
  0.00000000E+00  0.00000000E+00  0.00000000E+00
  0.00000000E+00  0.00000000E+00  0.00000000E+00
  0.00000000E+00  0.00000000E+00  0.00000000E+00
  0.00000000E+00  0.00000000E+00  0.00000000E+00
  0.00000000E+00  0.00000000E+00  0.00000000E+00
  0.00000000E+00  0.00000000E+00  0.00000000E+00
  0.00000000E+00  0.00000000E+00  0.00000000E+00
  0.00000000E+00  0.00000000E+00  0.00000000E+00
  0.00000000E+00  0.00000000E+00  0.00000000E+00
  0.00000000E+00  0.00000000E+00  0.00000000E+00
  0.00000000E+00  0.00000000E+00  0.00000000E+00
  0.00000000E+00  0.00000000E+00  0.00000000E+00
  0.00000000E+00  0.00000000E+00  0.00000000E+00
  0.00000000E+00  0.00000000E+00  0.00000000E+00
  0.00000000E+00  0.00000000E+00  0.00000000E+00
  0.00000000E+00  0.00000000E+00  0.00000000E+00
  0.00000000E+00  0.00000000E+00  0.00000000E+00
  0.00000000E+00  0.00000000E+00  0.00000000E+00
  0.00000000E+00  0.00000000E+00  0.00000000E+00
  0.00000000E+00  0.00000000E+00  0.00000000E+00
  0.00000000E+00  0.00000000E+00  0.00000000E+00
