CeO2-you-111-you-Os                     
   1.00000000000000     
     9.9078975902706254   -5.7045105352930641    0.0025264086139170
    -0.0000000070273173   11.4090190507288263   -0.0000000002411347
     0.0082006571320754   -0.0000000007714027   20.3609244280082713
   O    Os   Ce   H 
    53     1    26     1
Selective dynamics
Direct
  0.9993368950357850  0.0003923981886821  0.9894878434905847   T   T   T
  0.1236367420680669  0.2280309615988064  0.1514704756962823   T   T   T
  0.2269200938291228  0.1238694310033771  0.3048429202021943   T   T   T
  0.1619557433655418  0.2397651766212838  0.3967339526453841   T   T   T
  0.0002852277178592 -0.0002753442121505  0.2266614893417743   T   T   T
  0.2209136212141115  0.1097142918832391  0.0699877237822268   T   T   T
  0.3340432709468768  0.0000942898710623  0.9887172108245698   T   T   T
  0.4420527721773539  0.2215495642845675  0.1462551271564855   T   T   T
  0.5450068365185214  0.1064866431554986  0.3097248154648810   T   T   T
  0.4252627510530949  0.2468977576739898  0.3895749346847824   T   T   T
  0.3301397133034679 -0.0015695087063844  0.2295635556466194   T   T   T
  0.5539247335776465  0.1097935292205252  0.0717517732732997   T   T   T
  0.6691043756862326  0.0005494397472753  0.9915279083560609   T   T   T
  0.7727245459134509  0.2223896427263963  0.1510588719445910   T   T   T
  0.8875757663700456  0.1108127404499129  0.3072693380506362   T   T   T
  0.7685869753470873  0.2087102428385048  0.3962051055175597   T   T   T
  0.6634487204025349  0.9983574612885738  0.2315887249579737   T   T   T
  0.8916538126128606  0.1119476790766745  0.0748241616445247   T   T   T
  0.9988670345186926  0.3302930602024871  0.9896747431163582   T   T   T
  0.1115357547441262  0.5548857594392923  0.1469015324285317   T   T   T
  0.2245737415028723  0.4321717629629431  0.3049738903144964   T   T   T
  0.1248036560184791  0.5688445472724279  0.3899353726165991   T   T   T
  0.0014503408238842  0.3345604238008328  0.2270478805113716   T   T   T
  0.2212183148001447  0.4439963718326539  0.0698263223100413   T   T   T
  0.3321286888536976  0.3323805022602494  0.9888194966971225   T   T   T
  0.4416371111922799  0.5520586289070679  0.1464250674908631   T   T   T
  0.4360401252219832  0.4984524262735936  0.3730952663042146   T   T   T
  0.3725233459417815  0.3490725498110413  0.2474307857722826   T   T   T
  0.5563770044325188  0.4446272415282905  0.0677659704462458   T   T   T
  0.6679853113820161  0.3317560279737348  0.9895061523919938   T   T   T
  0.7801846380817442  0.5565530963325510  0.1452136428872652   T   T   T
  0.8937360089134004  0.4460240104351160  0.3069160274515211   T   T   T
  0.7885115919508650  0.5596957850769217  0.3919919267219309   T   T   T
  0.6601551980504505  0.3410636916530182  0.2339443713996756   T   T   T
  0.8898963599070737  0.4432547920954679  0.0708124325742634   T   T   T
  0.9992889174301650  0.6662165055931889  0.9885442445838102   T   T   T
  0.1118714903194065  0.8885405670760756  0.1476147587306072   T   T   T
  0.2229307668122155  0.7765001329812986  0.3029725225974939   T   T   T
  0.1238588519601798  0.8857922011257463  0.3901461734304343   T   T   T
  0.9996618872403377  0.6655145478028788  0.2284957334727271   T   T   T
  0.2222150469183372  0.7773883542232148  0.0696696951632488   T   T   T
  0.3335871685687926  0.6665145733223941  0.9887959290773022   T   T   T
  0.4438647583900609  0.8876931564411482  0.1493188460557160   T   T   T
  0.5463551425527018  0.7737801406423921  0.3092562854631714   T   T   T
  0.4333988649320733  0.8824648712177814  0.3902706995276755   T   T   T
  0.3295305466877401  0.6616938539609653  0.2296901268981421   T   T   T
  0.5534451657566356  0.7764086941375906  0.0717608396653956   T   T   T
  0.6683490566131648  0.6694646425684214  0.9895482221779248   T   T   T
  0.7721983880395493  0.8828673384540345  0.1509423913579237   T   T   T
  0.8944234243844127  0.7795707082514417  0.3065389475460075   T   T   T
  0.7693201869601951  0.8946027030774940  0.3958383673030667   T   T   T
  0.6602498019306619  0.6516069242654627  0.2335295042834076   T   T   T
  0.8898811108601057  0.7792406511971881  0.0706443768536630   T   T   T
  0.3101304100824964  0.3288136515036763  0.3415956295071427   T   T   T
  0.0012766387497903 -0.0006221807285894  0.3511834263249045   T   T   T
  0.2222062695350681  0.1091927880534248  0.1901878281717261   T   T   T
  0.1113268997174240  0.2215148137677979  0.0307020194179510   T   T   T
  0.3268624133168512  0.9915082582201949  0.3453383664647237   T   T   T
  0.5539389099707789  0.1113162295271262  0.1915983640093566   T   T   T
  0.4434537664848313  0.2198625223435542  0.0287822465319912   T   T   T
  0.6653415129562891  0.9990460755859586  0.3510119771696047   T   T   T
  0.8886918684980480  0.1108894986114554  0.1928079532156797   T   T   T
  0.7777622745010873  0.2216916976644270  0.0322308950573970   T   T   T
 -0.0013193897019275  0.3330247716356246  0.3521464371901661   T   T   T
  0.2213866637994492  0.4447621392584364  0.1883514569266160   T   T   T
  0.1102282324773337  0.5537341703776187  0.0295011988027725   T   T   T
  0.5597721951158160  0.4458382335806546  0.1815426444655632   T   T   T
  0.4436421307395469  0.5562083694984952  0.0287161361762068   T   T   T
  0.6772214619272251  0.3323797044908747  0.3545401150925174   T   T   T
  0.8885909961093390  0.4439688190074809  0.1906258049183692   T   T   T
  0.7800429568573979  0.5564136124866197  0.0285560514996314   T   T   T
 -0.0002829097573008  0.6654820757709138  0.3480317709412902   T   T   T
  0.2203800376894264  0.7760485172868687  0.1864343402019515   T   T   T
  0.1105025362081394  0.8894246911544140  0.0298410764316225   T   T   T
  0.3288315573809411  0.6693902314575938  0.3452609416136189   T   T   T
  0.5542145192865319  0.7748667117130660  0.1915441193549932   T   T   T
  0.4450804082056533  0.8888131830715131  0.0311910407322804   T   T   T
  0.6780366649990808  0.6778861958758001  0.3547349330591376   T   T   T
  0.8885929575902660  0.7771611636911755  0.1906081113091736   T   T   T
  0.7777585069796098  0.8885933572885155  0.0322435573508501   T   T   T
  0.4147441104484065  0.2612990568991304  0.4359210797599631   T   T   T
 
  0.00000000E+00  0.00000000E+00  0.00000000E+00
  0.00000000E+00  0.00000000E+00  0.00000000E+00
  0.00000000E+00  0.00000000E+00  0.00000000E+00
  0.00000000E+00  0.00000000E+00  0.00000000E+00
  0.00000000E+00  0.00000000E+00  0.00000000E+00
  0.00000000E+00  0.00000000E+00  0.00000000E+00
  0.00000000E+00  0.00000000E+00  0.00000000E+00
  0.00000000E+00  0.00000000E+00  0.00000000E+00
  0.00000000E+00  0.00000000E+00  0.00000000E+00
  0.00000000E+00  0.00000000E+00  0.00000000E+00
  0.00000000E+00  0.00000000E+00  0.00000000E+00
  0.00000000E+00  0.00000000E+00  0.00000000E+00
  0.00000000E+00  0.00000000E+00  0.00000000E+00
  0.00000000E+00  0.00000000E+00  0.00000000E+00
  0.00000000E+00  0.00000000E+00  0.00000000E+00
  0.00000000E+00  0.00000000E+00  0.00000000E+00
  0.00000000E+00  0.00000000E+00  0.00000000E+00
  0.00000000E+00  0.00000000E+00  0.00000000E+00
  0.00000000E+00  0.00000000E+00  0.00000000E+00
  0.00000000E+00  0.00000000E+00  0.00000000E+00
  0.00000000E+00  0.00000000E+00  0.00000000E+00
  0.00000000E+00  0.00000000E+00  0.00000000E+00
  0.00000000E+00  0.00000000E+00  0.00000000E+00
  0.00000000E+00  0.00000000E+00  0.00000000E+00
  0.00000000E+00  0.00000000E+00  0.00000000E+00
  0.00000000E+00  0.00000000E+00  0.00000000E+00
  0.00000000E+00  0.00000000E+00  0.00000000E+00
  0.00000000E+00  0.00000000E+00  0.00000000E+00
  0.00000000E+00  0.00000000E+00  0.00000000E+00
  0.00000000E+00  0.00000000E+00  0.00000000E+00
  0.00000000E+00  0.00000000E+00  0.00000000E+00
  0.00000000E+00  0.00000000E+00  0.00000000E+00
  0.00000000E+00  0.00000000E+00  0.00000000E+00
  0.00000000E+00  0.00000000E+00  0.00000000E+00
  0.00000000E+00  0.00000000E+00  0.00000000E+00
  0.00000000E+00  0.00000000E+00  0.00000000E+00
  0.00000000E+00  0.00000000E+00  0.00000000E+00
  0.00000000E+00  0.00000000E+00  0.00000000E+00
  0.00000000E+00  0.00000000E+00  0.00000000E+00
  0.00000000E+00  0.00000000E+00  0.00000000E+00
  0.00000000E+00  0.00000000E+00  0.00000000E+00
  0.00000000E+00  0.00000000E+00  0.00000000E+00
  0.00000000E+00  0.00000000E+00  0.00000000E+00
  0.00000000E+00  0.00000000E+00  0.00000000E+00
  0.00000000E+00  0.00000000E+00  0.00000000E+00
  0.00000000E+00  0.00000000E+00  0.00000000E+00
  0.00000000E+00  0.00000000E+00  0.00000000E+00
  0.00000000E+00  0.00000000E+00  0.00000000E+00
  0.00000000E+00  0.00000000E+00  0.00000000E+00
  0.00000000E+00  0.00000000E+00  0.00000000E+00
  0.00000000E+00  0.00000000E+00  0.00000000E+00
  0.00000000E+00  0.00000000E+00  0.00000000E+00
  0.00000000E+00  0.00000000E+00  0.00000000E+00
  0.00000000E+00  0.00000000E+00  0.00000000E+00
  0.00000000E+00  0.00000000E+00  0.00000000E+00
  0.00000000E+00  0.00000000E+00  0.00000000E+00
  0.00000000E+00  0.00000000E+00  0.00000000E+00
  0.00000000E+00  0.00000000E+00  0.00000000E+00
  0.00000000E+00  0.00000000E+00  0.00000000E+00
  0.00000000E+00  0.00000000E+00  0.00000000E+00
  0.00000000E+00  0.00000000E+00  0.00000000E+00
  0.00000000E+00  0.00000000E+00  0.00000000E+00
  0.00000000E+00  0.00000000E+00  0.00000000E+00
  0.00000000E+00  0.00000000E+00  0.00000000E+00
  0.00000000E+00  0.00000000E+00  0.00000000E+00
  0.00000000E+00  0.00000000E+00  0.00000000E+00
  0.00000000E+00  0.00000000E+00  0.00000000E+00
  0.00000000E+00  0.00000000E+00  0.00000000E+00
  0.00000000E+00  0.00000000E+00  0.00000000E+00
  0.00000000E+00  0.00000000E+00  0.00000000E+00
  0.00000000E+00  0.00000000E+00  0.00000000E+00
  0.00000000E+00  0.00000000E+00  0.00000000E+00
  0.00000000E+00  0.00000000E+00  0.00000000E+00
  0.00000000E+00  0.00000000E+00  0.00000000E+00
  0.00000000E+00  0.00000000E+00  0.00000000E+00
  0.00000000E+00  0.00000000E+00  0.00000000E+00
  0.00000000E+00  0.00000000E+00  0.00000000E+00
  0.00000000E+00  0.00000000E+00  0.00000000E+00
  0.00000000E+00  0.00000000E+00  0.00000000E+00
  0.00000000E+00  0.00000000E+00  0.00000000E+00
  0.00000000E+00  0.00000000E+00  0.00000000E+00
