CeO2-you-111-you-Cr                     
   1.00000000000000     
     9.9085620875199947   -5.7207113624688679   -0.0000000012287758
    -0.0356895872398439   11.3796045370747834   -0.0238566722640071
    -0.0247993610709349   -0.0429537462108752   20.4048002315136081
   O    Cr   Ce   H 
    53     1    26     1
Selective dynamics
Direct
  0.9995358629034918  0.0003421646551439  0.9891792340034327   T   T   T
  0.1113590588111008  0.2218060104798344  0.1453410867617337   T   T   T
  0.2423887988858005  0.1527431192595385  0.3158220534559141   T   T   T
  0.0592565778297203  0.1979438979750686  0.4028624671984020   T   T   T
  0.0105514002808381  0.0055632118208222  0.2310052054526180   T   T   T
  0.2216799974195944  0.1092904984958307  0.0696635723081996   T   T   T
  0.3342994837969788 -0.0000581962944918  0.9883221874646116   T   T   T
  0.4457003189944518  0.2225112460505267  0.1450543071057337   T   T   T
  0.5604821175497344  0.1190346032067745  0.3066028947187168   T   T   T
  0.4858581343468035  0.2085689602850102  0.4201192785842347   T   T   T
  0.3293532623926725  0.0044764732707438  0.2293889686233674   T   T   T
  0.5568379799596265  0.1099013627266481  0.0712271085410646   T   T   T
  0.6673707045210273  0.9992868634666060  0.9887940903034780   T   T   T
  0.7778180416596078  0.2242384104516624  0.1516495994373143   T   T   T
  0.8847159579900837  0.1091511696116723  0.3034578554133668   T   T   T
  0.7794000948778486  0.2221336932826134  0.3909007984813976   T   T   T
  0.6623394344357882  0.9967622786338283  0.2296810515709639   T   T   T
  0.8874709335663437  0.1112322739683353  0.0715707188236266   T   T   T
  0.9990664132690177  0.3314007630027045  0.9882568787966598   T   T   T
  0.1077357568154790  0.5550570437761235  0.1456288621004038   T   T   T
  0.2494413084072068  0.4287051943571143  0.3212595481466146   T   T   T
  0.0989339050974325  0.5483732146954983  0.3896725912084753   T   T   T
  0.0139507493635057  0.3398306798056729  0.2317874587811153   T   T   T
  0.2214585328776730  0.4458709536850934  0.0689402860668170   T   T   T
  0.3325951349323029  0.3322495861715232  0.9886761153314482   T   T   T
  0.4443743799061495  0.5562177272438934  0.1446589811603868   T   T   T
  0.5084973626616622  0.4243559250502144  0.3277636539324376   T   T   T
  0.3377776324625839  0.3375858327866290  0.2238398978026506   T   T   T
  0.5570439248029097  0.4454658458559345  0.0681955273155786   T   T   T
  0.6654128489903273  0.3310469810842122  0.9879488614384674   T   T   T
  0.7809054540222129  0.5554405736440888  0.1447456407551576   T   T   T
  0.8880448010888952  0.4382513913131488  0.3047417561611543   T   T   T
  0.7819046505295141  0.5464939105337164  0.3883922303323290   T   T   T
  0.6614866361547858  0.3434140520998791  0.2322072861571750   T   T   T
  0.8878651105075944  0.4426875075605219  0.0688364685654126   T   T   T
  0.9995782288012303  0.6661018171375592  0.9872766882355907   T   T   T
  0.1096121162153267  0.8867475451828687  0.1460832864039405   T   T   T
  0.2178646275375463  0.7779348165896089  0.3060131707680951   T   T   T
  0.0997702301185041  0.8873807303527315  0.3903900086897690   T   T   T
  0.9985870944090479  0.6656992874583746  0.2291046691548247   T   T   T
  0.2218978804433598  0.7777206507154585  0.0696632979153249   T   T   T
  0.3345397421268064  0.6675235003260461  0.9882777978474759   T   T   T
  0.4421712294433335  0.8875738598164254  0.1495699629573988   T   T   T
  0.5529624566239348  0.7706795620295503  0.3072559083917943   T   T   T
  0.4567329283534785  0.8939523372321436  0.3932152864490289   T   T   T
  0.3259925012985502  0.6589463541429688  0.2285660644578421   T   T   T
  0.5569614734642649  0.7793943542813047  0.0711985970761935   T   T   T
  0.6665470390002670  0.6676498237386137  0.9880890406580392   T   T   T
  0.7794999129481343  0.8887158028551050  0.1503615841406241   T   T   T
  0.8910256813675842  0.7807906468676037  0.3052014532760102   T   T   T
  0.7800518521625762  0.8966238213312964  0.3922720160605821   T   T   T
  0.6648662511716414  0.6567187275547754  0.2284927079048737   T   T   T
  0.8888037063402298  0.7779783299702632  0.0695788658955686   T   T   T
  0.3323690261926844  0.3334607617610875  0.3136180023347358   T   T   T
 -0.0037849770701318  0.0044022337174026  0.3539907045338638   T   T   T
  0.2211552725166336  0.1078980663587507  0.1853978313124272   T   T   T
  0.1096606744124415  0.2208961326236826  0.0286776064359943   T   T   T
  0.3341077581152733  0.0023946539282280  0.3560742328888560   T   T   T
  0.5537770165983887  0.1115141011342290  0.1913687456283416   T   T   T
  0.4445268648615565  0.2201111663215429  0.0281345765381445   T   T   T
  0.6636581009345720  0.9966704739743641  0.3494536986333636   T   T   T
  0.8903553741691727  0.1116707438181987  0.1907496442448481   T   T   T
  0.7769944486069015  0.2207880427814390  0.0303292067836117   T   T   T
  0.9969732396872134  0.3261898981115690  0.3534805116602968   T   T   T
  0.2203841489378268  0.4467599491671503  0.1833115678409824   T   T   T
  0.1095082970149727  0.5551077382370384  0.0284269433187390   T   T   T
  0.5605535756591155  0.4472145545305736  0.1815665875174198   T   T   T
  0.4450113133945519  0.5571476212682877  0.0278073653153546   T   T   T
  0.6753563418612784  0.3320571112435661  0.3512210237482539   T   T   T
  0.8892409081808809  0.4443621764634238  0.1902063160682267   T   T   T
  0.7789764682866013  0.5554582578211910  0.0279290261720802   T   T   T
  0.0004025721579107  0.6667689225656075  0.3477191573872621   T   T   T
  0.2216237464414829  0.7785979596610682  0.1896161161036257   T   T   T
  0.1105314147418128  0.8876475944493839  0.0288557804991541   T   T   T
  0.3265400066665111  0.6730100804946793  0.3489585737669008   T   T   T
  0.5541132468279560  0.7760978759076680  0.1912622439571833   T   T   T
  0.4449070803901212  0.8884361876437997  0.0308144523131090   T   T   T
  0.6787363165005089  0.6728946840988309  0.3480335784253267   T   T   T
  0.8901794405720164  0.7788056260648663  0.1893970980832423   T   T   T
  0.7772476603275910  0.8887313899831908  0.0307505433724569   T   T   T
  0.4586709490775964  0.2498628042743666  0.4541309365328779   T   T   T
 
  0.00000000E+00  0.00000000E+00  0.00000000E+00
  0.00000000E+00  0.00000000E+00  0.00000000E+00
  0.00000000E+00  0.00000000E+00  0.00000000E+00
  0.00000000E+00  0.00000000E+00  0.00000000E+00
  0.00000000E+00  0.00000000E+00  0.00000000E+00
  0.00000000E+00  0.00000000E+00  0.00000000E+00
  0.00000000E+00  0.00000000E+00  0.00000000E+00
  0.00000000E+00  0.00000000E+00  0.00000000E+00
  0.00000000E+00  0.00000000E+00  0.00000000E+00
  0.00000000E+00  0.00000000E+00  0.00000000E+00
  0.00000000E+00  0.00000000E+00  0.00000000E+00
  0.00000000E+00  0.00000000E+00  0.00000000E+00
  0.00000000E+00  0.00000000E+00  0.00000000E+00
  0.00000000E+00  0.00000000E+00  0.00000000E+00
  0.00000000E+00  0.00000000E+00  0.00000000E+00
  0.00000000E+00  0.00000000E+00  0.00000000E+00
  0.00000000E+00  0.00000000E+00  0.00000000E+00
  0.00000000E+00  0.00000000E+00  0.00000000E+00
  0.00000000E+00  0.00000000E+00  0.00000000E+00
  0.00000000E+00  0.00000000E+00  0.00000000E+00
  0.00000000E+00  0.00000000E+00  0.00000000E+00
  0.00000000E+00  0.00000000E+00  0.00000000E+00
  0.00000000E+00  0.00000000E+00  0.00000000E+00
  0.00000000E+00  0.00000000E+00  0.00000000E+00
  0.00000000E+00  0.00000000E+00  0.00000000E+00
  0.00000000E+00  0.00000000E+00  0.00000000E+00
  0.00000000E+00  0.00000000E+00  0.00000000E+00
  0.00000000E+00  0.00000000E+00  0.00000000E+00
  0.00000000E+00  0.00000000E+00  0.00000000E+00
  0.00000000E+00  0.00000000E+00  0.00000000E+00
  0.00000000E+00  0.00000000E+00  0.00000000E+00
  0.00000000E+00  0.00000000E+00  0.00000000E+00
  0.00000000E+00  0.00000000E+00  0.00000000E+00
  0.00000000E+00  0.00000000E+00  0.00000000E+00
  0.00000000E+00  0.00000000E+00  0.00000000E+00
  0.00000000E+00  0.00000000E+00  0.00000000E+00
  0.00000000E+00  0.00000000E+00  0.00000000E+00
  0.00000000E+00  0.00000000E+00  0.00000000E+00
  0.00000000E+00  0.00000000E+00  0.00000000E+00
  0.00000000E+00  0.00000000E+00  0.00000000E+00
  0.00000000E+00  0.00000000E+00  0.00000000E+00
  0.00000000E+00  0.00000000E+00  0.00000000E+00
  0.00000000E+00  0.00000000E+00  0.00000000E+00
  0.00000000E+00  0.00000000E+00  0.00000000E+00
  0.00000000E+00  0.00000000E+00  0.00000000E+00
  0.00000000E+00  0.00000000E+00  0.00000000E+00
  0.00000000E+00  0.00000000E+00  0.00000000E+00
  0.00000000E+00  0.00000000E+00  0.00000000E+00
  0.00000000E+00  0.00000000E+00  0.00000000E+00
  0.00000000E+00  0.00000000E+00  0.00000000E+00
  0.00000000E+00  0.00000000E+00  0.00000000E+00
  0.00000000E+00  0.00000000E+00  0.00000000E+00
  0.00000000E+00  0.00000000E+00  0.00000000E+00
  0.00000000E+00  0.00000000E+00  0.00000000E+00
  0.00000000E+00  0.00000000E+00  0.00000000E+00
  0.00000000E+00  0.00000000E+00  0.00000000E+00
  0.00000000E+00  0.00000000E+00  0.00000000E+00
  0.00000000E+00  0.00000000E+00  0.00000000E+00
  0.00000000E+00  0.00000000E+00  0.00000000E+00
  0.00000000E+00  0.00000000E+00  0.00000000E+00
  0.00000000E+00  0.00000000E+00  0.00000000E+00
  0.00000000E+00  0.00000000E+00  0.00000000E+00
  0.00000000E+00  0.00000000E+00  0.00000000E+00
  0.00000000E+00  0.00000000E+00  0.00000000E+00
  0.00000000E+00  0.00000000E+00  0.00000000E+00
  0.00000000E+00  0.00000000E+00  0.00000000E+00
  0.00000000E+00  0.00000000E+00  0.00000000E+00
  0.00000000E+00  0.00000000E+00  0.00000000E+00
  0.00000000E+00  0.00000000E+00  0.00000000E+00
  0.00000000E+00  0.00000000E+00  0.00000000E+00
  0.00000000E+00  0.00000000E+00  0.00000000E+00
  0.00000000E+00  0.00000000E+00  0.00000000E+00
  0.00000000E+00  0.00000000E+00  0.00000000E+00
  0.00000000E+00  0.00000000E+00  0.00000000E+00
  0.00000000E+00  0.00000000E+00  0.00000000E+00
  0.00000000E+00  0.00000000E+00  0.00000000E+00
  0.00000000E+00  0.00000000E+00  0.00000000E+00
  0.00000000E+00  0.00000000E+00  0.00000000E+00
  0.00000000E+00  0.00000000E+00  0.00000000E+00
  0.00000000E+00  0.00000000E+00  0.00000000E+00
  0.00000000E+00  0.00000000E+00  0.00000000E+00
