CeO2-you-111-you-Sb                     
   1.00000000000000     
     9.8441232501382814   -5.7114742792296660    0.0042558884393028
     0.0000000002073876   11.4229465485933144   -0.0000000004986555
     0.0090010183268086   -0.0000000009066971   20.9792539983072395
   O    Sb   Ce   H 
    53     1    26     2
Selective dynamics
Direct
  0.9990304964510420  0.0004702603242394  0.9956354044520128   T   T   T
  0.1165760530518369  0.2249545265259343  0.1506639507556713   F   F   F
  0.2355323770597696  0.1298835916736689  0.3131824935795149   T   T   T
  0.1065129342858371  0.2294891522966765  0.3878697642344749   T   T   T
  0.0054206253827434  0.0037723302315581  0.2299100076904978   T   T   T
  0.2209912384301234  0.1099931512452486  0.0743159541011309   F   F   F
  0.3328595045662577  0.9993849154294410  0.9950360658321479   T   T   T
  0.4440790080908741  0.2210345131172957  0.1462334469704345   F   F   F
  0.5501564510408978  0.1031217729116809  0.3042029401689198   T   T   T
  0.4621540539772513  0.1846133551509102  0.4104153531876327   T   T   T
  0.3298222321760440  0.0008392180899641  0.2300093555840044   T   T   T
  0.5554294057817017  0.1096287837204812  0.0744427989358556   F   F   F
  0.6686895466992283  0.0007392117801732  0.9956018042089931   T   T   T
  0.7757071297813951  0.2270554512171685  0.1514049495865066   F   F   F
  0.8910627636367681  0.1112589770645592  0.3032333113812034   T   T   T
  0.7833708160183592  0.2164131566345681  0.3863718332538083   T   T   T
  0.6689686056352483  0.0017133083350225  0.2278752175272402   T   T   T
  0.8887900128685473  0.1110615064340195  0.0774506075151322   F   F   F
  0.9984875344877316  0.3309674304828512  0.9955509541250203   T   T   T
  0.1103256790714440  0.5554299140671617  0.1502571099975611   F   F   F
  0.2209975104949323  0.4329386326915655  0.3050190968332708   T   T   T
  0.1132718499744281  0.5564974285029471  0.3823245739311113   T   T   T
  0.0002622970242745  0.3332270362577966  0.2284949966616683   T   T   T
  0.2209912384298818  0.4443310871848496  0.0743159541011593   F   F   F
  0.3310194234518938  0.3323365439893624  0.9947211120269298   T   T   T
  0.4440790080897443  0.5563784949745596  0.1462334469702711   F   F   F
  0.4329153125725713  0.5433962368044752  0.3803092448803164   T   T   T
  0.3465057771061562  0.3399220245651688  0.2253225877648538   T   T   T
  0.5556760663074911  0.4445040331540824  0.0711810258123649   F   F   F
  0.6668958954663282  0.3317106141506969  0.9945048083619019   T   T   T
  0.7794746631771474  0.5564043315878848  0.1467781377756623   F   F   F
  0.8934175543953798  0.4444210174557577  0.3030958954072985   T   T   T
  0.7827591913743764  0.5583002013092622  0.3827008036376811   T   T   T
  0.6565552501205318  0.3405809098776327  0.2335133666059583   T   T   T
  0.8893723036926744  0.4445626242874283  0.0741875448020721   F   F   F
  0.0003147577245383  0.6669695086865699  0.9949180325753749   T   T   T
  0.1103256790712521  0.8882297650036648  0.1502571099975327   F   F   F
  0.2216621050566840  0.7767916446756105  0.3032896921914595   T   T   T
  0.1135043784569733  0.8897936036882141  0.3840947989454906   T   T   T
 -0.0019830449731821  0.6664977628542663  0.2294758676134697   T   T   T
  0.2221077326977650  0.7777208663487940  0.0750742753747886   F   F   F
  0.3328219582427080  0.6668688211193341  0.9947592945252851   T   T   T
  0.4440458216349370  0.8886899108175541  0.1509291874405960   F   F   F
  0.5548617355822647  0.7842533325268228  0.3039532622050653   T   T   T
  0.4402253287691762  0.8822426540858640  0.3856041376300722   T   T   T
  0.3317893961892593  0.6628510344117929  0.2302078077530364   T   T   T
  0.5554294057815525  0.7791336220612664  0.0744427989358343   F   F   F
  0.6675272484928370  0.6690754209800326  0.9947506728628429   T   T   T
  0.7757071297807698  0.8819846785638532  0.1514049495866203   F   F   F
  0.8963285627249890  0.7865570595051118  0.3037218711397321   T   T   T
  0.7866164392919307  0.9032193735012490  0.3873338359538102   T   T   T
  0.6582662224766548  0.6505590367024429  0.2334747217066353   T   T   T
  0.8893723036927241  0.7781426794050859  0.0741875448020011   F   F   F
  0.3036633480409588  0.3345199121335489  0.3573198197775179   T   T   T
  0.0021529626140732  0.0020493948368501  0.3441938689159632   T   T   T
  0.2239421090084832  0.1120404524358989  0.1894696736386976   F   F   F
  0.1110415108440463  0.2221872554221633  0.0352533935744077   F   F   F
  0.3313210225455829 -0.0074132638465591  0.3454672199756746   T   T   T
  0.5552337852112288  0.1120284798954856  0.1902086221931043   F   F   F
  0.4434528579573609  0.2200349031127118  0.0330886922427922   F   F   F
  0.6668163771136597 -0.0000396347747088  0.3443018917611388   T   T   T
  0.8899938654184609  0.1116634327097614  0.1901371199318334   F   F   F
  0.7778964009589515  0.2223954932429351  0.0355418808423593   F   F   F
  0.9959380609374984  0.3335845874470620  0.3429965278974572   T   T   T
  0.2239421090090872  0.4452346565718486  0.1894696736387118   F   F   F
  0.1105941594117965  0.5551230161242913  0.0356863800787011   F   F   F
  0.5554223055725274  0.4443771527845186  0.1814366414626107   F   F   F
  0.4434528579576380  0.5567519548441098  0.0330886922428277   F   F   F
  0.6727630615865403  0.3275642447512833  0.3516319920105045   T   T   T
  0.8873398355597928  0.4446379390523063  0.1906340749649473   F   F   F
  0.7798921276973658  0.5566130638487721  0.0331795168782776   F   F   F
  0.9975367091361601  0.6659786160102940  0.3435628839939521   T   T   T
  0.2225214684082601  0.7779277342047664  0.1902649582564138   F   F   F
  0.1105941594115620  0.8888051432883799  0.0356863800786655   F   F   F
  0.3327708438033776  0.6668761355067384  0.3437190152242343   T   T   T
  0.5552337852141065  0.7765383053155119  0.1902086221931256   F   F   F
  0.4449269200208548  0.8891304600100156  0.0356883462708666   F   F   F
  0.6733408167521769  0.6790820841289521  0.3510943259273760   T   T   T
  0.8873398355618676  0.7760348965116250  0.1906340749649260   F   F   F
  0.7778964009594560  0.8888339077160055  0.0355418808423664   F   F   F
  0.3355903901827326  0.3083879429764778  0.4386739650909081   T   T   T
  0.4213134764389123  0.2130814383541352  0.4434845841987102   T   T   T
 
  0.00000000E+00  0.00000000E+00  0.00000000E+00
  0.00000000E+00  0.00000000E+00  0.00000000E+00
  0.00000000E+00  0.00000000E+00  0.00000000E+00
  0.00000000E+00  0.00000000E+00  0.00000000E+00
  0.00000000E+00  0.00000000E+00  0.00000000E+00
  0.00000000E+00  0.00000000E+00  0.00000000E+00
  0.00000000E+00  0.00000000E+00  0.00000000E+00
  0.00000000E+00  0.00000000E+00  0.00000000E+00
  0.00000000E+00  0.00000000E+00  0.00000000E+00
  0.00000000E+00  0.00000000E+00  0.00000000E+00
  0.00000000E+00  0.00000000E+00  0.00000000E+00
  0.00000000E+00  0.00000000E+00  0.00000000E+00
  0.00000000E+00  0.00000000E+00  0.00000000E+00
  0.00000000E+00  0.00000000E+00  0.00000000E+00
  0.00000000E+00  0.00000000E+00  0.00000000E+00
  0.00000000E+00  0.00000000E+00  0.00000000E+00
  0.00000000E+00  0.00000000E+00  0.00000000E+00
  0.00000000E+00  0.00000000E+00  0.00000000E+00
  0.00000000E+00  0.00000000E+00  0.00000000E+00
  0.00000000E+00  0.00000000E+00  0.00000000E+00
  0.00000000E+00  0.00000000E+00  0.00000000E+00
  0.00000000E+00  0.00000000E+00  0.00000000E+00
  0.00000000E+00  0.00000000E+00  0.00000000E+00
  0.00000000E+00  0.00000000E+00  0.00000000E+00
  0.00000000E+00  0.00000000E+00  0.00000000E+00
  0.00000000E+00  0.00000000E+00  0.00000000E+00
  0.00000000E+00  0.00000000E+00  0.00000000E+00
  0.00000000E+00  0.00000000E+00  0.00000000E+00
  0.00000000E+00  0.00000000E+00  0.00000000E+00
  0.00000000E+00  0.00000000E+00  0.00000000E+00
  0.00000000E+00  0.00000000E+00  0.00000000E+00
  0.00000000E+00  0.00000000E+00  0.00000000E+00
  0.00000000E+00  0.00000000E+00  0.00000000E+00
  0.00000000E+00  0.00000000E+00  0.00000000E+00
  0.00000000E+00  0.00000000E+00  0.00000000E+00
  0.00000000E+00  0.00000000E+00  0.00000000E+00
  0.00000000E+00  0.00000000E+00  0.00000000E+00
  0.00000000E+00  0.00000000E+00  0.00000000E+00
  0.00000000E+00  0.00000000E+00  0.00000000E+00
  0.00000000E+00  0.00000000E+00  0.00000000E+00
  0.00000000E+00  0.00000000E+00  0.00000000E+00
  0.00000000E+00  0.00000000E+00  0.00000000E+00
  0.00000000E+00  0.00000000E+00  0.00000000E+00
  0.00000000E+00  0.00000000E+00  0.00000000E+00
  0.00000000E+00  0.00000000E+00  0.00000000E+00
  0.00000000E+00  0.00000000E+00  0.00000000E+00
  0.00000000E+00  0.00000000E+00  0.00000000E+00
  0.00000000E+00  0.00000000E+00  0.00000000E+00
  0.00000000E+00  0.00000000E+00  0.00000000E+00
  0.00000000E+00  0.00000000E+00  0.00000000E+00
  0.00000000E+00  0.00000000E+00  0.00000000E+00
  0.00000000E+00  0.00000000E+00  0.00000000E+00
  0.00000000E+00  0.00000000E+00  0.00000000E+00
  0.00000000E+00  0.00000000E+00  0.00000000E+00
  0.00000000E+00  0.00000000E+00  0.00000000E+00
  0.00000000E+00  0.00000000E+00  0.00000000E+00
  0.00000000E+00  0.00000000E+00  0.00000000E+00
  0.00000000E+00  0.00000000E+00  0.00000000E+00
  0.00000000E+00  0.00000000E+00  0.00000000E+00
  0.00000000E+00  0.00000000E+00  0.00000000E+00
  0.00000000E+00  0.00000000E+00  0.00000000E+00
  0.00000000E+00  0.00000000E+00  0.00000000E+00
  0.00000000E+00  0.00000000E+00  0.00000000E+00
  0.00000000E+00  0.00000000E+00  0.00000000E+00
  0.00000000E+00  0.00000000E+00  0.00000000E+00
  0.00000000E+00  0.00000000E+00  0.00000000E+00
  0.00000000E+00  0.00000000E+00  0.00000000E+00
  0.00000000E+00  0.00000000E+00  0.00000000E+00
  0.00000000E+00  0.00000000E+00  0.00000000E+00
  0.00000000E+00  0.00000000E+00  0.00000000E+00
  0.00000000E+00  0.00000000E+00  0.00000000E+00
  0.00000000E+00  0.00000000E+00  0.00000000E+00
  0.00000000E+00  0.00000000E+00  0.00000000E+00
  0.00000000E+00  0.00000000E+00  0.00000000E+00
  0.00000000E+00  0.00000000E+00  0.00000000E+00
  0.00000000E+00  0.00000000E+00  0.00000000E+00
  0.00000000E+00  0.00000000E+00  0.00000000E+00
  0.00000000E+00  0.00000000E+00  0.00000000E+00
  0.00000000E+00  0.00000000E+00  0.00000000E+00
  0.00000000E+00  0.00000000E+00  0.00000000E+00
  0.00000000E+00  0.00000000E+00  0.00000000E+00
  0.00000000E+00  0.00000000E+00  0.00000000E+00
