CeO2-you-111-you-Al                     
   1.00000000000000     
     9.8829253117396068   -5.7059099636841282   -0.0000000014905152
    -0.0372195020341468   11.3473518548364485   -0.0291991679703432
    -0.0317910316764666   -0.0550636728468761   20.9385108264259046
   O    Al   Ce   H 
    53     1    26     2
Selective dynamics
Direct
  0.9998557488332062 -0.0002565983651114  0.9944280307656749   T   T   T
  0.1089694714568168  0.2214909526695266  0.1474867095156611   F   F   F
  0.2475173161556662  0.1520508392809038  0.3145632765141343   T   T   T
  0.0529710307174180  0.1935514032680119  0.3995545033019347   T   T   T
  0.0104367690481730  0.0047771741700637  0.2309450985379831   T   T   T
  0.2218285268621045  0.1103240537236161  0.0738737153451510   F   F   F
  0.3333142313699850  0.9997501645303909  0.9942308692369323   T   T   T
  0.4458544812166210  0.2214909526702442  0.1474867095160590   F   F   F
  0.5520358758501127  0.1168147104330479  0.3035765799652043   T   T   T
  0.4746281009817238  0.1983422915619700  0.4102914804663483   T   T   T
  0.3282385966696381  0.0028804166770538  0.2302309763855295   T   T   T
  0.5568353440035736  0.1103793174137095  0.0742593815197026   F   F   F
  0.6660102475709100  0.9984100423866351  0.9940765846095934   T   T   T
  0.7775292375264939  0.2217244750545220  0.1530270065023558   F   F   F
  0.8853977172284035  0.1088903863092142  0.3008827337334286   T   T   T
  0.7746667380050313  0.2220329811973716  0.3828270528240224   T   T   T
  0.6621690855891245 -0.0020338063473450  0.2297459829941243   T   T   T
  0.8868779734087440  0.1103793174114998  0.0742593815187931   F   F   F
  0.9989829022747656  0.3316801153620838  0.9943293943885672   T   T   T
  0.1092097173329520  0.5563782977508751  0.1483299559917057   F   F   F
  0.2414213644032931  0.4217303438534801  0.3163199811882824   T   T   T
  0.0988077472458206  0.5489173999886061  0.3848210009021061   T   T   T
  0.0092478538529838  0.3395779340612681  0.2309513939802244   T   T   T
  0.2216378129997238  0.4450568857708461  0.0736281581786571   F   F   F
  0.3327920983619684  0.3322325565416108  0.9945690375213976   T   T   T
  0.4458544407344291  0.5583768814740324  0.1472366964876031   F   F   F
  0.5173282228706506  0.4276655851926206  0.3169436074273285   T   T   T
  0.3356122709574463  0.3356774755714759  0.2212192594951718   T   T   T
  0.5567530727703698  0.4450568857706330  0.0736281581786074   F   F   F
  0.6660006041218028  0.3320024278230933  0.9939594613815644   T   T   T
  0.7805015804183384  0.5563782977512233  0.1483299559918905   F   F   F
  0.8863878628788242  0.4433187760515026  0.3036784004772853   T   T   T
  0.7756927070410762  0.5543371534626689  0.3821530427975000   T   T   T
  0.6630750126964005  0.3399532823715398  0.2310740516009476   T   T   T
  0.8877436909708436  0.4421533819412318  0.0740624064328017   F   F   F
  0.9987324240112549  0.6645273277216720  0.9934592404469436   T   T   T
  0.1103904670495481  0.8874479340961727  0.1478373725418010   F   F   F
  0.2196721464378022  0.7805920665719984  0.3043916992742392   T   T   T
  0.1168550360482679  0.8965591253774836  0.3839679303526086   T   T   T
 -0.0000335189601019  0.6680305323029088  0.2294365654673620   T   T   T
  0.2218537324571415  0.7776070814616247  0.0732748778837191   F   F   F
  0.3340830380338549  0.6663313214938359  0.9940282282754596   T   T   T
  0.4421184921543500  0.8883353294906442  0.1505675416611894   F   F   F
  0.5590926817891700  0.7734861164969132  0.3036086053289614   T   T   T
  0.4504923730066518  0.9009682576561736  0.3838982497696563   T   T   T
  0.3284601610284426  0.6600063629805838  0.2288815359708422   T   T   T
  0.5566180420641729  0.7799020841295317  0.0749791831917506   F   F   F
  0.6657353060084872  0.6668971817298207  0.9941923406056915   T   T   T
  0.7795498373371927  0.8883353294898626  0.1505675416608625   F   F   F
  0.8907775507263553  0.7811335099762139  0.3049106136596135   T   T   T
  0.7768451798722622  0.8897171446146664  0.3848360088751535   T   T   T
  0.6669087461166709  0.6596701202891969  0.2298157951736373   T   T   T
  0.8890863490043515  0.7776070814607507  0.0732748778834491   F   F   F
  0.3349967241264185  0.3350243011221641  0.3083328582601378   T   T   T
  0.0018857531650197  0.0089752807414569  0.3491110348471603   T   T   T
  0.2221749089388823  0.1110168178781521  0.1873575725847090   F   F   F
  0.1097812649733712  0.2207972100749132  0.0336543597628491   F   F   F
  0.3324642522367326 -0.0004944915381876  0.3462118591719641   T   T   T
  0.5545203486597075  0.1109865047541660  0.1907541629210669   F   F   F
  0.4443489451019857  0.2207972100755811  0.0336543597630552   F   F   F
  0.6641391820860401  0.9990238795039379  0.3450714432146478   T   T   T
  0.8898001560938411  0.1109865047527094  0.1907541629209035   F   F   F
  0.7770918713157968  0.2208497426318417  0.0347629493908528   F   F   F
  0.0002276872124228  0.3282832390123243  0.3485812237607256   T   T   T
  0.2209418125207279  0.4460131040004072  0.1857780034855097   F   F   F
  0.1093833903292492  0.5544974065805590  0.0338855606978754   F   F   F
  0.5584052914802058  0.4460131040022617  0.1857780034858862   F   F   F
  0.4448365350989079  0.5563410701987621  0.0332173327752798   F   F   F
  0.6689773022209672  0.3352606100039508  0.3456575683349704   T   T   T
  0.8887856201531434  0.4442372403056751  0.1920173701292640   F   F   F
  0.7784470162523007  0.5544974065807438  0.0338855606979038   F   F   F
  0.0020846525845054  0.6676400384378133  0.3438078950734625   T   T   T
  0.2215615488000253  0.7795505050081104  0.1894762251196980   F   F   F
  0.1105011176865816  0.8876692353720514  0.0335396628684066   F   F   F
  0.3311032331623522  0.6623065050127394  0.3482942880563863   T   T   T
  0.5547471932518135  0.7761603865047420  0.1904133710653753   F   F   F
  0.4444707567615893  0.8882855494094386  0.0346114705561575   F   F   F
  0.6728039745633344  0.6721707857899974  0.3443347672227484   T   T   T
  0.8913219562084294  0.7795505050074283  0.1894762251196482   F   F   F
  0.7771477926476749  0.8882855494084225  0.0346114705557312   F   F   F
  0.4866784835891330  0.6103353047343194  0.4034644897351265   T   T   T
  0.4373566000168943  0.2385884107792751  0.4391480563638123   T   T   T
 
  0.00000000E+00  0.00000000E+00  0.00000000E+00
  0.00000000E+00  0.00000000E+00  0.00000000E+00
  0.00000000E+00  0.00000000E+00  0.00000000E+00
  0.00000000E+00  0.00000000E+00  0.00000000E+00
  0.00000000E+00  0.00000000E+00  0.00000000E+00
  0.00000000E+00  0.00000000E+00  0.00000000E+00
  0.00000000E+00  0.00000000E+00  0.00000000E+00
  0.00000000E+00  0.00000000E+00  0.00000000E+00
  0.00000000E+00  0.00000000E+00  0.00000000E+00
  0.00000000E+00  0.00000000E+00  0.00000000E+00
  0.00000000E+00  0.00000000E+00  0.00000000E+00
  0.00000000E+00  0.00000000E+00  0.00000000E+00
  0.00000000E+00  0.00000000E+00  0.00000000E+00
  0.00000000E+00  0.00000000E+00  0.00000000E+00
  0.00000000E+00  0.00000000E+00  0.00000000E+00
  0.00000000E+00  0.00000000E+00  0.00000000E+00
  0.00000000E+00  0.00000000E+00  0.00000000E+00
  0.00000000E+00  0.00000000E+00  0.00000000E+00
  0.00000000E+00  0.00000000E+00  0.00000000E+00
  0.00000000E+00  0.00000000E+00  0.00000000E+00
  0.00000000E+00  0.00000000E+00  0.00000000E+00
  0.00000000E+00  0.00000000E+00  0.00000000E+00
  0.00000000E+00  0.00000000E+00  0.00000000E+00
  0.00000000E+00  0.00000000E+00  0.00000000E+00
  0.00000000E+00  0.00000000E+00  0.00000000E+00
  0.00000000E+00  0.00000000E+00  0.00000000E+00
  0.00000000E+00  0.00000000E+00  0.00000000E+00
  0.00000000E+00  0.00000000E+00  0.00000000E+00
  0.00000000E+00  0.00000000E+00  0.00000000E+00
  0.00000000E+00  0.00000000E+00  0.00000000E+00
  0.00000000E+00  0.00000000E+00  0.00000000E+00
  0.00000000E+00  0.00000000E+00  0.00000000E+00
  0.00000000E+00  0.00000000E+00  0.00000000E+00
  0.00000000E+00  0.00000000E+00  0.00000000E+00
  0.00000000E+00  0.00000000E+00  0.00000000E+00
  0.00000000E+00  0.00000000E+00  0.00000000E+00
  0.00000000E+00  0.00000000E+00  0.00000000E+00
  0.00000000E+00  0.00000000E+00  0.00000000E+00
  0.00000000E+00  0.00000000E+00  0.00000000E+00
  0.00000000E+00  0.00000000E+00  0.00000000E+00
  0.00000000E+00  0.00000000E+00  0.00000000E+00
  0.00000000E+00  0.00000000E+00  0.00000000E+00
  0.00000000E+00  0.00000000E+00  0.00000000E+00
  0.00000000E+00  0.00000000E+00  0.00000000E+00
  0.00000000E+00  0.00000000E+00  0.00000000E+00
  0.00000000E+00  0.00000000E+00  0.00000000E+00
  0.00000000E+00  0.00000000E+00  0.00000000E+00
  0.00000000E+00  0.00000000E+00  0.00000000E+00
  0.00000000E+00  0.00000000E+00  0.00000000E+00
  0.00000000E+00  0.00000000E+00  0.00000000E+00
  0.00000000E+00  0.00000000E+00  0.00000000E+00
  0.00000000E+00  0.00000000E+00  0.00000000E+00
  0.00000000E+00  0.00000000E+00  0.00000000E+00
  0.00000000E+00  0.00000000E+00  0.00000000E+00
  0.00000000E+00  0.00000000E+00  0.00000000E+00
  0.00000000E+00  0.00000000E+00  0.00000000E+00
  0.00000000E+00  0.00000000E+00  0.00000000E+00
  0.00000000E+00  0.00000000E+00  0.00000000E+00
  0.00000000E+00  0.00000000E+00  0.00000000E+00
  0.00000000E+00  0.00000000E+00  0.00000000E+00
  0.00000000E+00  0.00000000E+00  0.00000000E+00
  0.00000000E+00  0.00000000E+00  0.00000000E+00
  0.00000000E+00  0.00000000E+00  0.00000000E+00
  0.00000000E+00  0.00000000E+00  0.00000000E+00
  0.00000000E+00  0.00000000E+00  0.00000000E+00
  0.00000000E+00  0.00000000E+00  0.00000000E+00
  0.00000000E+00  0.00000000E+00  0.00000000E+00
  0.00000000E+00  0.00000000E+00  0.00000000E+00
  0.00000000E+00  0.00000000E+00  0.00000000E+00
  0.00000000E+00  0.00000000E+00  0.00000000E+00
  0.00000000E+00  0.00000000E+00  0.00000000E+00
  0.00000000E+00  0.00000000E+00  0.00000000E+00
  0.00000000E+00  0.00000000E+00  0.00000000E+00
  0.00000000E+00  0.00000000E+00  0.00000000E+00
  0.00000000E+00  0.00000000E+00  0.00000000E+00
  0.00000000E+00  0.00000000E+00  0.00000000E+00
  0.00000000E+00  0.00000000E+00  0.00000000E+00
  0.00000000E+00  0.00000000E+00  0.00000000E+00
  0.00000000E+00  0.00000000E+00  0.00000000E+00
  0.00000000E+00  0.00000000E+00  0.00000000E+00
  0.00000000E+00  0.00000000E+00  0.00000000E+00
  0.00000000E+00  0.00000000E+00  0.00000000E+00
