CeO2-you-111-you-Fe                     
   1.00000000000000     
     9.8263711040876043   -5.6806859574253643    0.0151894043577219
     0.0000000023822585   11.3613699196264193   -0.0000000017699212
     0.0329185190073629   -0.0000000033407485   20.9768263626342488
   O    Fe   Ce H
    53     1    26 1
Selective dynamics
Direct
 -0.0002557706849108  0.0010624181589981  0.9956283762317385   T   T   T
  0.1175942007569185  0.2254636003777663  0.1515968511824264   T   T   T
  0.2117170610325049  0.0909547050599961  0.2998604563843056   T   T   T
  0.1361285812524031  0.2347307906268208  0.3752109370345972   T   T   T
 -0.0042343068323494 -0.0001792816917910  0.2283083476635247   T   T   T
  0.2222421519009554  0.1105350245844382  0.0744553818681142   T   T   T
  0.3336829701655538 -0.0001410021039915  0.9945508491745397   T   T   T
  0.4434686604044097  0.2217505324823538  0.1486748629912905   T   T   T
  0.5546262926824352  0.1078668942352449  0.3063358544911370   T   T   T
  0.4377241664861238  0.2509000281497642  0.3661232553122911   T   T   T
  0.3366832389515795 -0.0005334860530725  0.2288202609921072   T   T   T
  0.5549925003410641  0.1109132453039777  0.0745699692671646   T   T   T
  0.6696108785332046  0.0014719392668099  0.9955127685119296   T   T   T
  0.7733460246164945  0.2247825105793138  0.1516672788875422   T   T   T
  0.8910719007887169  0.1122024503940096  0.3063554051222578   T   T   T
  0.7796447970707103  0.2193391744326483  0.3878519070884509   T   T   T
  0.6675876236415417  0.0004603118209198  0.2301157666311419   T   T   T
  0.8887633951963807  0.1110481975980901  0.0779257609785397   T   T   T
 -0.0002557706845064  0.3320148111559477  0.9956283762316193   T   T   T
  0.1107001386154169  0.5549841607538579  0.1507800192222284   T   T   T
  0.2117170610320316  0.4540953559703221  0.2998604563854005   T   T   T
  0.1131219101709173  0.5589767325042825  0.3868311683829281   T   T   T
 -0.0042343068310322  0.3292779748580079  0.2283083476634385   T   T   T
  0.2222421519005637  0.4450401273160645  0.0744553818681591   T   T   T
  0.3326008585703807  0.3329669292850012  0.9947850943916873   T   T   T
  0.4434686604016229  0.5550521279231093  0.1486748629912718   T   T   T
  0.4377241664920034  0.5201581383374739  0.3661232553119092   T   T   T
  0.3463245312323388  0.3398287656129101  0.2393256421060412   T   T   T
  0.5552179305291131  0.4442749652651252  0.0731146938761532   T   T   T
  0.6684428914050773  0.3334998070742050  0.9949688794060534   T   T   T
  0.7774490795415231  0.5553915397699321  0.1480141888725663   T   T   T
  0.8943705779480752  0.4445898662253442  0.3050460393267725   T   T   T
  0.7707269822891586  0.5520304911481791  0.3804662976060052   T   T   T
  0.6590662745449802  0.3423974516691544  0.2351831658669646   T   T   T
  0.8900183849566515  0.4445173706151473  0.0750660966103573   T   T   T
  0.0006892528776999  0.6670116264384490  0.9950737942875690   T   T   T
  0.1107001386145378  0.8890499778599618  0.1507800192221649   T   T   T
  0.2210842440352959  0.7772091220172312  0.3035467503793388   T   T   T
  0.1131219101702632  0.8874791776649583  0.3868311683827516   T   T   T
 -0.0020035625194759  0.6656652187394249  0.2299704451151276   T   T   T
  0.2228099737297473  0.7780719868646170  0.0750252848716159   T   T   T
  0.3336829701651498  0.6671579722693398  0.9945508491745908   T   T   T
  0.4466996377379511  0.8900168188691766  0.1498270507634964   T   T   T
  0.5546262926790984  0.7800923984473056  0.3063358544910385   T   T   T
  0.4403299274941088  0.8868319637466916  0.3850922432021267   T   T   T
  0.3366832389515258  0.6705507250052228  0.2288202609922839   T   T   T
  0.5549925003407871  0.7774122550376145  0.0745699692671902   T   T   T
  0.6684428914053721  0.6682760843317922  0.9949688794060914   T   T   T
  0.7733460246152055  0.8818965140369390  0.1516672788875846   T   T   T
  0.8943705779462621  0.7831137117181581  0.3050460393267236   T   T   T
  0.7796447970689114  0.8936386226371774  0.3878519070883613   T   T   T
  0.6590662745505317  0.6500018228833648  0.2351831658669327   T   T   T
  0.8900183849565420  0.7788340143411216  0.0750660966103319   T   T   T
  0.3268054452195903  0.3300692226151588  0.3407178571770585   T   T   T
  0.0053491866425274  0.0036299343093541  0.3443902894092515   T   T   T
  0.2224083821555001  0.1113141513218019  0.1916798055863507   T   T   T
  0.1117194157235985  0.2225262078618451  0.0360401058512849   T   T   T
  0.3301062965087392  0.0002091703002675  0.3426717124256736   T   T   T
  0.5552047807179721  0.1116625975431403  0.1912043064288876   T   T   T
  0.4438832533062568  0.2208421816942805  0.0338140003110985   T   T   T
  0.6664651597771499 -0.0001009201105332  0.3466614449244043   T   T   T
  0.8880689396355878  0.1107009698186899  0.1911077705757418   T   T   T
  0.7780656226486951  0.2226946160696382  0.0357857135405917   T   T   T
  0.0053491866421067  0.3350522523323632  0.3443902894092725   T   T   T
  0.2224083821565982  0.4444272308322255  0.1916798055863746   T   T   T
  0.1112655631286832  0.5549980309750151  0.0354901500943239   T   T   T
  0.5529405243401787  0.4431362621678557  0.1842533084351182   T   T   T
  0.4438832533067006  0.5563750716116914  0.0338140003111128   T   T   T
  0.6700520396578793  0.3288365638732552  0.3489772780032511   T   T   T
  0.8876936129004935  0.4448585106636490  0.1913343299596777   T   T   T
  0.7797985506645436  0.5565662753320457  0.0342149111034674   T   T   T
  0.0011890555793917  0.6672615277928867  0.3446590462125274   T   T   T
  0.2223253741776106  0.7778296870898163  0.1889778170782913   T   T   T
  0.1112655631278122  0.8896015321551193  0.0354901500943240   T   T   T
  0.3301062965116995  0.6632311262071431  0.3426717124258296   T   T   T
  0.5552047807230265  0.7768751831746223  0.1912043064288439   T   T   T
  0.4456726962989482  0.8895033481489318  0.0351932538559911   T   T   T
  0.6700520396563923  0.6745484757815241  0.3489772780031262   T   T   T
  0.8876936129048321  0.7761681022440171  0.1913343299596025   T   T   T
  0.7780656226499175  0.8887040065792902  0.0357857135406599   T   T   T
0.446598 0.216020 0.433410 T T T 
 
  0.00000000E+00  0.00000000E+00  0.00000000E+00
  0.00000000E+00  0.00000000E+00  0.00000000E+00
  0.00000000E+00  0.00000000E+00  0.00000000E+00
  0.00000000E+00  0.00000000E+00  0.00000000E+00
  0.00000000E+00  0.00000000E+00  0.00000000E+00
  0.00000000E+00  0.00000000E+00  0.00000000E+00
  0.00000000E+00  0.00000000E+00  0.00000000E+00
  0.00000000E+00  0.00000000E+00  0.00000000E+00
  0.00000000E+00  0.00000000E+00  0.00000000E+00
  0.00000000E+00  0.00000000E+00  0.00000000E+00
  0.00000000E+00  0.00000000E+00  0.00000000E+00
  0.00000000E+00  0.00000000E+00  0.00000000E+00
  0.00000000E+00  0.00000000E+00  0.00000000E+00
  0.00000000E+00  0.00000000E+00  0.00000000E+00
  0.00000000E+00  0.00000000E+00  0.00000000E+00
  0.00000000E+00  0.00000000E+00  0.00000000E+00
  0.00000000E+00  0.00000000E+00  0.00000000E+00
  0.00000000E+00  0.00000000E+00  0.00000000E+00
  0.00000000E+00  0.00000000E+00  0.00000000E+00
  0.00000000E+00  0.00000000E+00  0.00000000E+00
  0.00000000E+00  0.00000000E+00  0.00000000E+00
  0.00000000E+00  0.00000000E+00  0.00000000E+00
  0.00000000E+00  0.00000000E+00  0.00000000E+00
  0.00000000E+00  0.00000000E+00  0.00000000E+00
  0.00000000E+00  0.00000000E+00  0.00000000E+00
  0.00000000E+00  0.00000000E+00  0.00000000E+00
  0.00000000E+00  0.00000000E+00  0.00000000E+00
  0.00000000E+00  0.00000000E+00  0.00000000E+00
  0.00000000E+00  0.00000000E+00  0.00000000E+00
  0.00000000E+00  0.00000000E+00  0.00000000E+00
  0.00000000E+00  0.00000000E+00  0.00000000E+00
  0.00000000E+00  0.00000000E+00  0.00000000E+00
  0.00000000E+00  0.00000000E+00  0.00000000E+00
  0.00000000E+00  0.00000000E+00  0.00000000E+00
  0.00000000E+00  0.00000000E+00  0.00000000E+00
  0.00000000E+00  0.00000000E+00  0.00000000E+00
  0.00000000E+00  0.00000000E+00  0.00000000E+00
  0.00000000E+00  0.00000000E+00  0.00000000E+00
  0.00000000E+00  0.00000000E+00  0.00000000E+00
  0.00000000E+00  0.00000000E+00  0.00000000E+00
  0.00000000E+00  0.00000000E+00  0.00000000E+00
  0.00000000E+00  0.00000000E+00  0.00000000E+00
  0.00000000E+00  0.00000000E+00  0.00000000E+00
  0.00000000E+00  0.00000000E+00  0.00000000E+00
  0.00000000E+00  0.00000000E+00  0.00000000E+00
  0.00000000E+00  0.00000000E+00  0.00000000E+00
  0.00000000E+00  0.00000000E+00  0.00000000E+00
  0.00000000E+00  0.00000000E+00  0.00000000E+00
  0.00000000E+00  0.00000000E+00  0.00000000E+00
  0.00000000E+00  0.00000000E+00  0.00000000E+00
  0.00000000E+00  0.00000000E+00  0.00000000E+00
  0.00000000E+00  0.00000000E+00  0.00000000E+00
  0.00000000E+00  0.00000000E+00  0.00000000E+00
  0.00000000E+00  0.00000000E+00  0.00000000E+00
  0.00000000E+00  0.00000000E+00  0.00000000E+00
  0.00000000E+00  0.00000000E+00  0.00000000E+00
  0.00000000E+00  0.00000000E+00  0.00000000E+00
  0.00000000E+00  0.00000000E+00  0.00000000E+00
  0.00000000E+00  0.00000000E+00  0.00000000E+00
  0.00000000E+00  0.00000000E+00  0.00000000E+00
  0.00000000E+00  0.00000000E+00  0.00000000E+00
  0.00000000E+00  0.00000000E+00  0.00000000E+00
  0.00000000E+00  0.00000000E+00  0.00000000E+00
  0.00000000E+00  0.00000000E+00  0.00000000E+00
  0.00000000E+00  0.00000000E+00  0.00000000E+00
  0.00000000E+00  0.00000000E+00  0.00000000E+00
  0.00000000E+00  0.00000000E+00  0.00000000E+00
  0.00000000E+00  0.00000000E+00  0.00000000E+00
  0.00000000E+00  0.00000000E+00  0.00000000E+00
  0.00000000E+00  0.00000000E+00  0.00000000E+00
  0.00000000E+00  0.00000000E+00  0.00000000E+00
  0.00000000E+00  0.00000000E+00  0.00000000E+00
  0.00000000E+00  0.00000000E+00  0.00000000E+00
  0.00000000E+00  0.00000000E+00  0.00000000E+00
  0.00000000E+00  0.00000000E+00  0.00000000E+00
  0.00000000E+00  0.00000000E+00  0.00000000E+00
  0.00000000E+00  0.00000000E+00  0.00000000E+00
  0.00000000E+00  0.00000000E+00  0.00000000E+00
  0.00000000E+00  0.00000000E+00  0.00000000E+00
  0.00000000E+00  0.00000000E+00  0.00000000E+00
