CeO2-you-111-you-Sn                     
   1.00000000000000     
     9.8566926187027928   -5.7035769000262535   -0.0076315529427243
    -0.0110958555657416   11.3879332081374720    0.0076315516352933
    -0.0086330062662853    0.0149528045082338   21.1781210706499827
   O    Sn   Ce   H 
    53     1    26     2
Selective dynamics
Direct
  0.9994651090708963  0.9998571182620652  0.9964305596229501   T   T   T
  0.1129167518785437  0.2215439631030947  0.1483566802929772   F   F   F
  0.2501043943160003  0.1246530462182449  0.3062165423140082   T   T   T
  0.1289153348899824  0.2419194418208545  0.3645137204972185   T   T   T
  0.0079486817967197  0.0041233157793170  0.2312366952807484   T   T   T
  0.2217372796494601  0.1099591228171448  0.0747672231428922   F   F   F
  0.3353542220040698  0.0012229058734033  0.9970905016520485   T   T   T
  0.4397800690079663  0.2268859309933262  0.1520476747486583   F   F   F
  0.5544723486858293  0.1119056207327981  0.3014940477450526   T   T   T
  0.4826300424075254  0.1838465396395447  0.4093074899929267   T   T   T
  0.3337812676989567 -0.0006099011206088  0.2259867135871843   T   T   T
  0.5546509483623936  0.1120160516375108  0.0789249657188691   F   F   F
  0.6659151896651848  0.0009325947563500  0.9987658747778710   T   T   T
  0.7843160747066662  0.2237769095790512  0.1519970714547227   F   F   F
  0.8823306286935357  0.1019088812322142  0.3032972255585509   T   T   T
  0.7684998364070202  0.2155825965448631  0.3852683714060834   T   T   T
  0.6661062959091891  0.0004795623690837  0.2282242593468315   T   T   T
  0.8894992151284384  0.1106394033910050  0.0766216853986066   F   F   F
  0.9977388582935428  0.3318762637245793  0.9963815821314232   T   T   T
  0.1106243537599170  0.5560426462369250  0.1471282493378254   F   F   F
  0.1023209587107908  0.5638165005131761  0.3834638006050106   T   T   T
  0.0154684964731708  0.3425108918358228  0.2327205792317754   T   T   T
  0.2220746761732215  0.4445913238263728  0.0727756564427366   F   F   F
  0.3335556111041116  0.3326182851787008  0.9961228598261985   T   T   T
  0.4451220369007842  0.5537502481211689  0.1483566802933183   F   F   F
  0.5419898448699068  0.4162852251052260  0.3068850173392123   T   T   T
  0.4239053218849631  0.5368756610448673  0.3647339503727545   T   T   T
  0.3199765954267019  0.3473616990782031  0.2393796406843703   T   T   T
  0.5567078771829799  0.4449287203499495  0.0747672231428709   F   F   F
  0.6657456381088950  0.3316178921138583  0.9971557711068526   T   T   T
  0.7779724440144236  0.5558297131502599  0.1504484453880011   F   F   F
  0.8812294931801945  0.4471813471964862  0.3019409327200384   T   T   T
  0.7724907348605712  0.5585155038465788  0.3818318172492900   T   T   T
  0.6670912190824052  0.3331760862506661  0.2260777455234061   T   T   T
  0.8881269958327209  0.4444084151125978  0.0753885215126715   F   F   F
  0.9995097224854520  0.6672529181649169  0.9963006843301335   T   T   T
  0.1108372868493959  0.8886945559859427  0.1504484453880721   F   F   F
  0.2196871981718211  0.7853102926525312  0.3020508814786175   T   T   T
  0.1082227078313389  0.8943202276958196  0.3817579894188126   T   T   T
 -0.0001713489613810  0.6671855450549946  0.2284192386021681   T   T   T
  0.2222575848868971  0.7785400041667003  0.0753885215128278   F   F   F
  0.3344421298905214  0.6686948414240891  0.9964196060075297   T   T   T
  0.4428890904203655  0.8823509252931103  0.1519970714543817   F   F   F
  0.5641482815664460  0.7834470912275723  0.3031999992663041   T   T   T
  0.4504754356461096  0.8973707085645214  0.3851217823675417   T   T   T
  0.3243601031473892  0.6514525703834231  0.2324146177603728   T   T   T
  0.5560275966094679  0.7771677848714944  0.0766216853986847   F   F   F
  0.6670457638496478  0.6680399346939294  0.9965211421475698   T   T   T
  0.7777755965125337  0.8888914034884436  0.1520948528491317   F   F   F
  0.8866856242004411  0.7799059930389757  0.3018130504781921   T   T   T
  0.7801773337643065  0.8858675126080615  0.3848012377483394   T   T   T
  0.6623143714501165  0.6584888539452975  0.2312363562055297   T   T   T
  0.8887042576947124  0.7779627423053057  0.0760689078886969   F   F   F
  0.3349686588273821  0.3312831628448877  0.3413335931731759   T   T   T
  0.0018925836902594  0.0027742446207672  0.3424312967951524   T   T   T
  0.2216677837008589  0.1102829132108170  0.1899674876596933   F   F   F
  0.1099511834266806  0.2203583349282496  0.0348354054624949   F   F   F
  0.3353131117607038 -0.0029794543131792  0.3437449258380562   T   T   T
  0.5560085668816441  0.1106584331183385  0.1904613498035062   F   F   F
  0.4442349454818455  0.2224310545180614  0.0364131034652431   F   F   F
  0.6670787603146532 -0.0009485440396204  0.3443027570445955   T   T   T
  0.8908040044461529  0.1123845628432036  0.1921325689370832   F   F   F
  0.7781048616610065  0.2223093852809228  0.0375664646284193   F   F   F
  0.9898894882183268  0.3334464420499491  0.3493438622618076   T   T   T
  0.2217007281320988  0.4449652718703732  0.1824154258203947   F   F   F
  0.1101360098255313  0.5565309901744229  0.0345572168164310   F   F   F
  0.5563840867808523  0.4449982162981314  0.1899674876592741   F   F   F
  0.4463076650719131  0.5567158165735790  0.0348354054624025   F   F   F
  0.6695676758813083  0.3310989812373569  0.3438508474001349   T   T   T
  0.8905347073846244  0.4443782474121747  0.1908824429411808   F   F   F
  0.7773623414516138  0.5550188650844063  0.0366151945045061   F   F   F
 -0.0023439697353614  0.6688093136564587  0.3427020350628443   T   T   T
  0.2222877525915194  0.7761322926203462  0.1908824429411808   F   F   F
  0.1116481349163152  0.8893046585480420  0.0366151945046411   F   F   F
  0.3328444369723896  0.6762704287086798  0.3492860263612867   T   T   T
  0.5542824371534181  0.7758629955571195  0.1921325689367137   F   F   F
  0.4443566147194105  0.8885621383395019  0.0375664646283838   F   F   F
  0.6634189578792897  0.6641191619559944  0.3424878531473184   T   T   T
  0.8893438728651688  0.7773231271336698  0.1893660531677170   F   F   F
  0.7773587777752056  0.8893082222241659  0.0380839594677838   F   F   F
  0.3633001166209797  0.3023539427652616  0.4204929074217026   T   T   T
  0.4383006804283010  0.2289176115748299  0.4301251646406992   T   T   T
 
  0.00000000E+00  0.00000000E+00  0.00000000E+00
  0.00000000E+00  0.00000000E+00  0.00000000E+00
  0.00000000E+00  0.00000000E+00  0.00000000E+00
  0.00000000E+00  0.00000000E+00  0.00000000E+00
  0.00000000E+00  0.00000000E+00  0.00000000E+00
  0.00000000E+00  0.00000000E+00  0.00000000E+00
  0.00000000E+00  0.00000000E+00  0.00000000E+00
  0.00000000E+00  0.00000000E+00  0.00000000E+00
  0.00000000E+00  0.00000000E+00  0.00000000E+00
  0.00000000E+00  0.00000000E+00  0.00000000E+00
  0.00000000E+00  0.00000000E+00  0.00000000E+00
  0.00000000E+00  0.00000000E+00  0.00000000E+00
  0.00000000E+00  0.00000000E+00  0.00000000E+00
  0.00000000E+00  0.00000000E+00  0.00000000E+00
  0.00000000E+00  0.00000000E+00  0.00000000E+00
  0.00000000E+00  0.00000000E+00  0.00000000E+00
  0.00000000E+00  0.00000000E+00  0.00000000E+00
  0.00000000E+00  0.00000000E+00  0.00000000E+00
  0.00000000E+00  0.00000000E+00  0.00000000E+00
  0.00000000E+00  0.00000000E+00  0.00000000E+00
  0.00000000E+00  0.00000000E+00  0.00000000E+00
  0.00000000E+00  0.00000000E+00  0.00000000E+00
  0.00000000E+00  0.00000000E+00  0.00000000E+00
  0.00000000E+00  0.00000000E+00  0.00000000E+00
  0.00000000E+00  0.00000000E+00  0.00000000E+00
  0.00000000E+00  0.00000000E+00  0.00000000E+00
  0.00000000E+00  0.00000000E+00  0.00000000E+00
  0.00000000E+00  0.00000000E+00  0.00000000E+00
  0.00000000E+00  0.00000000E+00  0.00000000E+00
  0.00000000E+00  0.00000000E+00  0.00000000E+00
  0.00000000E+00  0.00000000E+00  0.00000000E+00
  0.00000000E+00  0.00000000E+00  0.00000000E+00
  0.00000000E+00  0.00000000E+00  0.00000000E+00
  0.00000000E+00  0.00000000E+00  0.00000000E+00
  0.00000000E+00  0.00000000E+00  0.00000000E+00
  0.00000000E+00  0.00000000E+00  0.00000000E+00
  0.00000000E+00  0.00000000E+00  0.00000000E+00
  0.00000000E+00  0.00000000E+00  0.00000000E+00
  0.00000000E+00  0.00000000E+00  0.00000000E+00
  0.00000000E+00  0.00000000E+00  0.00000000E+00
  0.00000000E+00  0.00000000E+00  0.00000000E+00
  0.00000000E+00  0.00000000E+00  0.00000000E+00
  0.00000000E+00  0.00000000E+00  0.00000000E+00
  0.00000000E+00  0.00000000E+00  0.00000000E+00
  0.00000000E+00  0.00000000E+00  0.00000000E+00
  0.00000000E+00  0.00000000E+00  0.00000000E+00
  0.00000000E+00  0.00000000E+00  0.00000000E+00
  0.00000000E+00  0.00000000E+00  0.00000000E+00
  0.00000000E+00  0.00000000E+00  0.00000000E+00
  0.00000000E+00  0.00000000E+00  0.00000000E+00
  0.00000000E+00  0.00000000E+00  0.00000000E+00
  0.00000000E+00  0.00000000E+00  0.00000000E+00
  0.00000000E+00  0.00000000E+00  0.00000000E+00
  0.00000000E+00  0.00000000E+00  0.00000000E+00
  0.00000000E+00  0.00000000E+00  0.00000000E+00
  0.00000000E+00  0.00000000E+00  0.00000000E+00
  0.00000000E+00  0.00000000E+00  0.00000000E+00
  0.00000000E+00  0.00000000E+00  0.00000000E+00
  0.00000000E+00  0.00000000E+00  0.00000000E+00
  0.00000000E+00  0.00000000E+00  0.00000000E+00
  0.00000000E+00  0.00000000E+00  0.00000000E+00
  0.00000000E+00  0.00000000E+00  0.00000000E+00
  0.00000000E+00  0.00000000E+00  0.00000000E+00
  0.00000000E+00  0.00000000E+00  0.00000000E+00
  0.00000000E+00  0.00000000E+00  0.00000000E+00
  0.00000000E+00  0.00000000E+00  0.00000000E+00
  0.00000000E+00  0.00000000E+00  0.00000000E+00
  0.00000000E+00  0.00000000E+00  0.00000000E+00
  0.00000000E+00  0.00000000E+00  0.00000000E+00
  0.00000000E+00  0.00000000E+00  0.00000000E+00
  0.00000000E+00  0.00000000E+00  0.00000000E+00
  0.00000000E+00  0.00000000E+00  0.00000000E+00
  0.00000000E+00  0.00000000E+00  0.00000000E+00
  0.00000000E+00  0.00000000E+00  0.00000000E+00
  0.00000000E+00  0.00000000E+00  0.00000000E+00
  0.00000000E+00  0.00000000E+00  0.00000000E+00
  0.00000000E+00  0.00000000E+00  0.00000000E+00
  0.00000000E+00  0.00000000E+00  0.00000000E+00
  0.00000000E+00  0.00000000E+00  0.00000000E+00
  0.00000000E+00  0.00000000E+00  0.00000000E+00
  0.00000000E+00  0.00000000E+00  0.00000000E+00
  0.00000000E+00  0.00000000E+00  0.00000000E+00
