CeO2-you-111-you-Bi                     
   1.00000000000000     
     9.9021613725124880   -5.7170159052523282   -0.0000000001729331
    -0.0139054290409182   11.4099448903148346   -0.0033082970747776
    -0.0035732862429518   -0.0061891122757566   20.3889996296802458
   O    Bi   Ce   H 
    53     1    26     2
Selective dynamics
Direct
  0.9997995275723929  0.0002932518766547  0.9894493969498818   T   T   T
  0.1119059404243146  0.2229792666506256  0.1481623151505289   F   F   F
  0.2267834947139591  0.1104757428269029  0.3096969666477693   T   T   T
  0.0933813734958559  0.2148947111683253  0.3907639834084995   T   T   T
  0.0024439347677048  0.0012674427094782  0.2300859844049992   T   T   T
  0.2221375457266248  0.1109420914535377  0.0706390076666423   F   F   F
  0.3344682121242905  0.0009164967613580  0.9895365411471470   T   T   T
  0.4444063262262290  0.2229792666505332  0.1481623151505005   F   F   F
  0.5517812223998303  0.1130175184652291  0.3085391862526207   T   T   T
  0.4559965028238428  0.2064296750162389  0.4103144525382582   T   T   T
  0.3316665074234106 -0.0011826461849761  0.2292724474245764   T   T   T
  0.5561800677268138  0.1118544778128410  0.0716671109427125   F   F   F
  0.6670228063731729 -0.0001647811440726  0.9904978854979117   T   T   T
  0.7770783622006547  0.2208227244011951  0.1505185820118271   F   F   F
  0.8863664002468927  0.1108924352121117  0.3048015041487960   T   T   T
  0.7786197482874010  0.2214792030571463  0.3890580168231257   T   T   T
  0.6626788282462670  0.9959383907910830  0.2316860639002984   T   T   T
  0.8890084100858786  0.1118544778127557  0.0716671109426912   F   F   F
  0.0000937449196769  0.3333407797946799  0.9904088087686225   T   T   T
  0.1108818781110941  0.5554429302086561  0.1482753045726142   F   F   F
  0.2289933545225056  0.4493848142528040  0.3095056610050383   T   T   T
  0.1119411001955873  0.5575015820031346  0.3889022063835040   T   T   T
  0.0037676421783324  0.3347945801138079  0.2312129457147257   T   T   T
  0.2224656898843875  0.4445582495930367  0.0721643306149815   F   F   F
  0.3335061706807143  0.3338026944329240  0.9904313209390687   T   T   T
  0.4438487879007695  0.5543655758014623  0.1503054020180201   F   F   F
  0.5513781913562094  0.4336928774145005  0.3117577061650603   T   T   T
  0.3310162845043638  0.3318809763465367  0.2312963647469679   T   T   T
  0.5554265597084793  0.4445582495928804  0.0721643306149957   F   F   F
  0.6667310525709473  0.3334833814857096  0.9901123663534587   T   T   T
  0.7778940520974444  0.5554429302087769  0.1482753045726000   F   F   F
  0.8911304737913311  0.4434725664688748  0.3063646976357193   T   T   T
  0.7869604952088817  0.5477750681860329  0.3922565074023427   T   T   T
  0.6679423406778544  0.3342773665465348  0.2305222691458466   T   T   T
  0.8882015042884603  0.4430690085767779  0.0720683803714408   F   F   F
  0.9995944143976585  0.6661184882154830  0.9903615145470872   T   T   T
  0.1112802249060607  0.8892274498120329  0.1463626024186269   F   F   F
  0.2201108384126904  0.7779043271034500  0.3060811528595573   T   T   T
  0.1139038630599373  0.8877413078282270  0.3911392864911996   T   T   T
  0.0001894629876353  0.6672749780156441  0.2292248028559464   T   T   T
  0.2223366277632124  0.7784560350236873  0.0706585205324544   F   F   F
  0.3337528786604250  0.6666756486007068  0.9904830387467575   T   T   T
  0.4445262964444083  0.8895039485501073  0.1480101542868510   F   F   F
  0.5466010726833970  0.7714045134520202  0.3107893439848698   T   T   T
  0.4389672905013791  0.8877351848152740  0.3899038570828677   T   T   T
  0.3310505991820097  0.6679875876938901  0.2298106391497263   T   T   T
  0.5551136640691894  0.7768933281380015  0.0725055367298424   F   F   F
  0.6666543542352121  0.6667862385120606  0.9905956690345498   T   T   T
  0.7783106521057590  0.8895039485502849  0.1480101542868226   F   F   F
  0.8954020743907873  0.7809456664195046  0.3079721559298615   T   T   T
  0.7826169094228360  0.9028794815245591  0.3904535868971497   T   T   T
  0.6680350642093690  0.6669436558470184  0.2297014972107713   T   T   T
  0.8894524072606274  0.7784560350238721  0.0706585205324401   F   F   F
  0.3254530336294603  0.3316725525082415  0.3474139739325749   T   T   T
 -0.0012815375549483  0.0009935004264711  0.3486537232686585   T   T   T
  0.2222145402813283  0.1110960805626036  0.1876176331424091   F   F   F
  0.1111082224282711  0.2227870677877419  0.0308531049950957   F   F   F
  0.3279332190166142 -0.0067258614615330  0.3479854658147909   T   T   T
  0.5546395138817672  0.1103003828452955  0.1898963049877906   F   F   F
  0.4450118453594172  0.2227870677877135  0.0308531049951029   F   F   F
  0.6659984961274549 -0.0012842572157053  0.3484833360162463   T   T   T
  0.8889948689635148  0.1103003828453879  0.1898963049877409   F   F   F
  0.7777823470199863  0.2222306940400998  0.0314319902547666   F   F   F
  0.9989513393803434  0.3308309242184717  0.3486579141906845   T   T   T
  0.2223380974617015  0.4448645060074625  0.1911310448415904   F   F   F
  0.1110525718422082  0.5549452722747432  0.0311275874622865   F   F   F
  0.5558604085456693  0.4448645060073275  0.1911310448415051   F   F   F
  0.4441841993709303  0.5550363987419686  0.0316227155555779   F   F   F
  0.6747805384716010  0.3362097202091852  0.3482502584658493   T   T   T
  0.8890330513844447  0.4447321027689384  0.1900597279180190   F   F   F
  0.7772257004325382  0.5549452722746935  0.0311275874622723   F   F   F
 -0.0004140111585776  0.6664496955323663  0.3487552648149496   T   T   T
  0.2214966851676294  0.7789130242724340  0.1875520992697730   F   F   F
  0.1112324494516983  0.8891318989034431  0.0290817732894126   F   F   F
  0.3280757546759923  0.6716256189274962  0.3467416764675901   T   T   T
  0.5548022540597515  0.7762705081195591  0.1901244859790054   F   F   F
  0.4447120716001791  0.8888369878297624  0.0308629462884227   F   F   F
  0.6731983351815887  0.6680197445444794  0.3508094497530992   T   T   T
  0.8907493391047794  0.7789130242721924  0.1875520992697446   F   F   F
  0.7774579162295367  0.8888369878295919  0.0308629462884511   F   F   F
  0.4321107843070621  0.5560829995489959  0.3983913968468187   T   T   T
  0.4488269076754197  0.2120841642081953  0.4575984540874295   T   T   T
 
  0.00000000E+00  0.00000000E+00  0.00000000E+00
  0.00000000E+00  0.00000000E+00  0.00000000E+00
  0.00000000E+00  0.00000000E+00  0.00000000E+00
  0.00000000E+00  0.00000000E+00  0.00000000E+00
  0.00000000E+00  0.00000000E+00  0.00000000E+00
  0.00000000E+00  0.00000000E+00  0.00000000E+00
  0.00000000E+00  0.00000000E+00  0.00000000E+00
  0.00000000E+00  0.00000000E+00  0.00000000E+00
  0.00000000E+00  0.00000000E+00  0.00000000E+00
  0.00000000E+00  0.00000000E+00  0.00000000E+00
  0.00000000E+00  0.00000000E+00  0.00000000E+00
  0.00000000E+00  0.00000000E+00  0.00000000E+00
  0.00000000E+00  0.00000000E+00  0.00000000E+00
  0.00000000E+00  0.00000000E+00  0.00000000E+00
  0.00000000E+00  0.00000000E+00  0.00000000E+00
  0.00000000E+00  0.00000000E+00  0.00000000E+00
  0.00000000E+00  0.00000000E+00  0.00000000E+00
  0.00000000E+00  0.00000000E+00  0.00000000E+00
  0.00000000E+00  0.00000000E+00  0.00000000E+00
  0.00000000E+00  0.00000000E+00  0.00000000E+00
  0.00000000E+00  0.00000000E+00  0.00000000E+00
  0.00000000E+00  0.00000000E+00  0.00000000E+00
  0.00000000E+00  0.00000000E+00  0.00000000E+00
  0.00000000E+00  0.00000000E+00  0.00000000E+00
  0.00000000E+00  0.00000000E+00  0.00000000E+00
  0.00000000E+00  0.00000000E+00  0.00000000E+00
  0.00000000E+00  0.00000000E+00  0.00000000E+00
  0.00000000E+00  0.00000000E+00  0.00000000E+00
  0.00000000E+00  0.00000000E+00  0.00000000E+00
  0.00000000E+00  0.00000000E+00  0.00000000E+00
  0.00000000E+00  0.00000000E+00  0.00000000E+00
  0.00000000E+00  0.00000000E+00  0.00000000E+00
  0.00000000E+00  0.00000000E+00  0.00000000E+00
  0.00000000E+00  0.00000000E+00  0.00000000E+00
  0.00000000E+00  0.00000000E+00  0.00000000E+00
  0.00000000E+00  0.00000000E+00  0.00000000E+00
  0.00000000E+00  0.00000000E+00  0.00000000E+00
  0.00000000E+00  0.00000000E+00  0.00000000E+00
  0.00000000E+00  0.00000000E+00  0.00000000E+00
  0.00000000E+00  0.00000000E+00  0.00000000E+00
  0.00000000E+00  0.00000000E+00  0.00000000E+00
  0.00000000E+00  0.00000000E+00  0.00000000E+00
  0.00000000E+00  0.00000000E+00  0.00000000E+00
  0.00000000E+00  0.00000000E+00  0.00000000E+00
  0.00000000E+00  0.00000000E+00  0.00000000E+00
  0.00000000E+00  0.00000000E+00  0.00000000E+00
  0.00000000E+00  0.00000000E+00  0.00000000E+00
  0.00000000E+00  0.00000000E+00  0.00000000E+00
  0.00000000E+00  0.00000000E+00  0.00000000E+00
  0.00000000E+00  0.00000000E+00  0.00000000E+00
  0.00000000E+00  0.00000000E+00  0.00000000E+00
  0.00000000E+00  0.00000000E+00  0.00000000E+00
  0.00000000E+00  0.00000000E+00  0.00000000E+00
  0.00000000E+00  0.00000000E+00  0.00000000E+00
  0.00000000E+00  0.00000000E+00  0.00000000E+00
  0.00000000E+00  0.00000000E+00  0.00000000E+00
  0.00000000E+00  0.00000000E+00  0.00000000E+00
  0.00000000E+00  0.00000000E+00  0.00000000E+00
  0.00000000E+00  0.00000000E+00  0.00000000E+00
  0.00000000E+00  0.00000000E+00  0.00000000E+00
  0.00000000E+00  0.00000000E+00  0.00000000E+00
  0.00000000E+00  0.00000000E+00  0.00000000E+00
  0.00000000E+00  0.00000000E+00  0.00000000E+00
  0.00000000E+00  0.00000000E+00  0.00000000E+00
  0.00000000E+00  0.00000000E+00  0.00000000E+00
  0.00000000E+00  0.00000000E+00  0.00000000E+00
  0.00000000E+00  0.00000000E+00  0.00000000E+00
  0.00000000E+00  0.00000000E+00  0.00000000E+00
  0.00000000E+00  0.00000000E+00  0.00000000E+00
  0.00000000E+00  0.00000000E+00  0.00000000E+00
  0.00000000E+00  0.00000000E+00  0.00000000E+00
  0.00000000E+00  0.00000000E+00  0.00000000E+00
  0.00000000E+00  0.00000000E+00  0.00000000E+00
  0.00000000E+00  0.00000000E+00  0.00000000E+00
  0.00000000E+00  0.00000000E+00  0.00000000E+00
  0.00000000E+00  0.00000000E+00  0.00000000E+00
  0.00000000E+00  0.00000000E+00  0.00000000E+00
  0.00000000E+00  0.00000000E+00  0.00000000E+00
  0.00000000E+00  0.00000000E+00  0.00000000E+00
  0.00000000E+00  0.00000000E+00  0.00000000E+00
  0.00000000E+00  0.00000000E+00  0.00000000E+00
  0.00000000E+00  0.00000000E+00  0.00000000E+00
