CeO2-you-111-you-Al                     
   1.00000000000000     
     9.8829253117396068   -5.7059099636841282   -0.0000000014905152
    -0.0372195020341468   11.3473518548364485   -0.0291991679703432
    -0.0317910316764666   -0.0550636728468761   20.9385108264259046
   O    Al   Ce   H 
    53     1    26     1
Selective dynamics
Direct
  0.9996058435473265  0.9999904991524711  0.9938934853555360   T   T   T
  0.1093339067613947  0.2198411116005150  0.1465423526041455   T   T   T
  0.2466903629271583  0.1505277467973610  0.3141212361006744   T   T   T
  0.0568151060869726  0.1967902315239540  0.3990773178564221   T   T   T
  0.0105863673053816  0.0051580276523609  0.2305962624659921   T   T   T
  0.2224033280261263  0.1100238941156512  0.0725415580061894   T   T   T
  0.3342463276436000  0.9995255576050315  0.9930073368668210   T   T   T
  0.4458423344362006  0.2212045056142978  0.1469213411422121   T   T   T
  0.5522068533811317  0.1177392147642119  0.3036534538576450   T   T   T
  0.4756152897760487  0.1944449252009314  0.4121787703677894   T   T   T
  0.3284063663898358  0.0021630569061099  0.2295924834680591   T   T   T
  0.5569808649675644  0.1102415654782667  0.0741198868949070   T   T   T
  0.6660865442288323  0.9984032237055914  0.9935691027582892   T   T   T
  0.7785198233708931  0.2236844469572794  0.1519558544690822   T   T   T
  0.8874468874915836  0.1121191212071641  0.3000627283053263   T   T   T
  0.7766044900651186  0.2227255911707121  0.3837570443721338   T   T   T
  0.6624393754692982  0.9991203429937846  0.2299267637823093   T   T   T
  0.8866872299104609  0.1103564110660898  0.0739053004208941   T   T   T
  0.9993925200214816  0.3317167477291958  0.9929675450327675   T   T   T
  0.1091019972277927  0.5559761751065064  0.1464724307941177   T   T   T
  0.2489021690262329  0.4266615697855358  0.3199221793177262   T   T   T
  0.0988342056867407  0.5500162764623102  0.3854475829934103   T   T   T
  0.0136365448918024  0.3414361740723775  0.2301795519805566   T   T   T
  0.2219642336729896  0.4448164414673570  0.0726945804871206   T   T   T
  0.3331986498338670  0.3326269472561727  0.9936200673744676   T   T   T
  0.4466824284764433  0.5584863246924533  0.1467711631737136   T   T   T
  0.5144717609972711  0.4233231985009330  0.3218722562664425   T   T   T
  0.3359480542607435  0.3361158983379056  0.2217172001895395   T   T   T
  0.5569372856553020  0.4450108365966092  0.0726771055243146   T   T   T
  0.6654246423971609  0.3315998887857477  0.9930278516866466   T   T   T
  0.7808967418616762  0.5567149233726446  0.1469758460139765   T   T   T
  0.8879828036322087  0.4416603561564387  0.3021169590156664   T   T   T
  0.7838822187980532  0.5481195236072226  0.3857600936376121   T   T   T
  0.6631157813988572  0.3411036638391184  0.2304930495415193   T   T   T
  0.8880014686692476  0.4427209539995802  0.0722068593673878   T   T   T
  0.9993337739799524  0.6656633614951204  0.9923470594184174   T   T   T
  0.1100345370484097  0.8872991800445351  0.1471023684225505   T   T   T
  0.2196418361302934  0.7803962217250296  0.3034116357887304   T   T   T
  0.1184263478790177  0.8970185738128468  0.3844554197463438   T   T   T
  0.0000463048881948  0.6667647194367371  0.2285073230197041   T   T   T
  0.2218752205885925  0.7775492022477303  0.0724178522228458   T   T   T
  0.3340417116909639  0.6663931678732865  0.9933021284944329   T   T   T
  0.4422725983228868  0.8877496801576653  0.1507776833454438   T   T   T
  0.5528247326746997  0.7730651643278169  0.3061061279387383   T   T   T
  0.4484853154965500  0.9007759617605954  0.3849442167072056   T   T   T
  0.3263798052972292  0.6589784255384248  0.2282264875074833   T   T   T
  0.5566333578881717  0.7798097659227096  0.0746276163529108   T   T   T
  0.6655393765050264  0.6667255958840068  0.9932220359549614   T   T   T
  0.7788367517991167  0.8888257198788991  0.1523371028566852   T   T   T
  0.8943656362372251  0.7812082552502377  0.3047514796270728   T   T   T
  0.7821443077660245  0.9019440668139339  0.3865047654643426   T   T   T
  0.6663484510330759  0.6595088251699428  0.2290312047336570   T   T   T
  0.8885055192208089  0.7781846556820532  0.0726100781386997   T   T   T
  0.3350725444673279  0.3334144838171982  0.3086127687257764   T   T   T
  0.0020207878591700  0.0099089106558158  0.3491136671049799   T   T   T
  0.2218161618551857  0.1096737796196465  0.1863560574917769   T   T   T
  0.1099161736753957  0.2206153165079435  0.0326933008327259   T   T   T
  0.3325130802807210  0.0012622341084112  0.3465257002442533   T   T   T
  0.5544876990733869  0.1119603922869483  0.1904587043408205   T   T   T
  0.4446634860713246  0.2205342680289560  0.0324907052441006   T   T   T
  0.6655233540541184 -0.0000164066533340  0.3455129863426568   T   T   T
  0.8904906682704048  0.1122990513883979  0.1905287423616439   T   T   T
  0.7770877500259964  0.2208016004533011  0.0339490003767178   T   T   T
  0.0012266840052451  0.3289197129181039  0.3485720074687191   T   T   T
  0.2218404029658699  0.4454951611950062  0.1847139371928020   T   T   T
  0.1098202682143193  0.5546891667393641  0.0324530974216822   T   T   T
  0.5588135004688880  0.4464179567576080  0.1843790430431382   T   T   T
  0.4451857111978405  0.5567389069099121  0.0326086152183278   T   T   T
  0.6707775790718817  0.3350428246953184  0.3464077009754414   T   T   T
  0.8899793198329378  0.4449272198860346  0.1901422854569188   T   T   T
  0.7785225876406563  0.5552907973369918  0.0327931600167966   T   T   T
  0.0003521520748794  0.6653784013923911  0.3441765089837868   T   T   T
  0.2212890507445106  0.7777569607828304  0.1886259256010536   T   T   T
  0.1104387432167425  0.8876635339251656  0.0327373507927071   T   T   T
  0.3254602736167267  0.6683438401009135  0.3444324446357435   T   T   T
  0.5546307877601534  0.7767316797707801  0.1921616335282199   T   T   T
  0.4447982118334934  0.8881589635099145  0.0343517689921832   T   T   T
  0.6776338555947744  0.6713141000175034  0.3448545776020111   T   T   T
  0.8906855300096075  0.7791624315941786  0.1902324590296418   T   T   T
  0.7765870457063121  0.8881718195342837  0.0347816145798112   T   T   T
  0.4398941976730458  0.2297809764189561  0.4443940491640120   T   T   T
 
  0.00000000E+00  0.00000000E+00  0.00000000E+00
  0.00000000E+00  0.00000000E+00  0.00000000E+00
  0.00000000E+00  0.00000000E+00  0.00000000E+00
  0.00000000E+00  0.00000000E+00  0.00000000E+00
  0.00000000E+00  0.00000000E+00  0.00000000E+00
  0.00000000E+00  0.00000000E+00  0.00000000E+00
  0.00000000E+00  0.00000000E+00  0.00000000E+00
  0.00000000E+00  0.00000000E+00  0.00000000E+00
  0.00000000E+00  0.00000000E+00  0.00000000E+00
  0.00000000E+00  0.00000000E+00  0.00000000E+00
  0.00000000E+00  0.00000000E+00  0.00000000E+00
  0.00000000E+00  0.00000000E+00  0.00000000E+00
  0.00000000E+00  0.00000000E+00  0.00000000E+00
  0.00000000E+00  0.00000000E+00  0.00000000E+00
  0.00000000E+00  0.00000000E+00  0.00000000E+00
  0.00000000E+00  0.00000000E+00  0.00000000E+00
  0.00000000E+00  0.00000000E+00  0.00000000E+00
  0.00000000E+00  0.00000000E+00  0.00000000E+00
  0.00000000E+00  0.00000000E+00  0.00000000E+00
  0.00000000E+00  0.00000000E+00  0.00000000E+00
  0.00000000E+00  0.00000000E+00  0.00000000E+00
  0.00000000E+00  0.00000000E+00  0.00000000E+00
  0.00000000E+00  0.00000000E+00  0.00000000E+00
  0.00000000E+00  0.00000000E+00  0.00000000E+00
  0.00000000E+00  0.00000000E+00  0.00000000E+00
  0.00000000E+00  0.00000000E+00  0.00000000E+00
  0.00000000E+00  0.00000000E+00  0.00000000E+00
  0.00000000E+00  0.00000000E+00  0.00000000E+00
  0.00000000E+00  0.00000000E+00  0.00000000E+00
  0.00000000E+00  0.00000000E+00  0.00000000E+00
  0.00000000E+00  0.00000000E+00  0.00000000E+00
  0.00000000E+00  0.00000000E+00  0.00000000E+00
  0.00000000E+00  0.00000000E+00  0.00000000E+00
  0.00000000E+00  0.00000000E+00  0.00000000E+00
  0.00000000E+00  0.00000000E+00  0.00000000E+00
  0.00000000E+00  0.00000000E+00  0.00000000E+00
  0.00000000E+00  0.00000000E+00  0.00000000E+00
  0.00000000E+00  0.00000000E+00  0.00000000E+00
  0.00000000E+00  0.00000000E+00  0.00000000E+00
  0.00000000E+00  0.00000000E+00  0.00000000E+00
  0.00000000E+00  0.00000000E+00  0.00000000E+00
  0.00000000E+00  0.00000000E+00  0.00000000E+00
  0.00000000E+00  0.00000000E+00  0.00000000E+00
  0.00000000E+00  0.00000000E+00  0.00000000E+00
  0.00000000E+00  0.00000000E+00  0.00000000E+00
  0.00000000E+00  0.00000000E+00  0.00000000E+00
  0.00000000E+00  0.00000000E+00  0.00000000E+00
  0.00000000E+00  0.00000000E+00  0.00000000E+00
  0.00000000E+00  0.00000000E+00  0.00000000E+00
  0.00000000E+00  0.00000000E+00  0.00000000E+00
  0.00000000E+00  0.00000000E+00  0.00000000E+00
  0.00000000E+00  0.00000000E+00  0.00000000E+00
  0.00000000E+00  0.00000000E+00  0.00000000E+00
  0.00000000E+00  0.00000000E+00  0.00000000E+00
  0.00000000E+00  0.00000000E+00  0.00000000E+00
  0.00000000E+00  0.00000000E+00  0.00000000E+00
  0.00000000E+00  0.00000000E+00  0.00000000E+00
  0.00000000E+00  0.00000000E+00  0.00000000E+00
  0.00000000E+00  0.00000000E+00  0.00000000E+00
  0.00000000E+00  0.00000000E+00  0.00000000E+00
  0.00000000E+00  0.00000000E+00  0.00000000E+00
  0.00000000E+00  0.00000000E+00  0.00000000E+00
  0.00000000E+00  0.00000000E+00  0.00000000E+00
  0.00000000E+00  0.00000000E+00  0.00000000E+00
  0.00000000E+00  0.00000000E+00  0.00000000E+00
  0.00000000E+00  0.00000000E+00  0.00000000E+00
  0.00000000E+00  0.00000000E+00  0.00000000E+00
  0.00000000E+00  0.00000000E+00  0.00000000E+00
  0.00000000E+00  0.00000000E+00  0.00000000E+00
  0.00000000E+00  0.00000000E+00  0.00000000E+00
  0.00000000E+00  0.00000000E+00  0.00000000E+00
  0.00000000E+00  0.00000000E+00  0.00000000E+00
  0.00000000E+00  0.00000000E+00  0.00000000E+00
  0.00000000E+00  0.00000000E+00  0.00000000E+00
  0.00000000E+00  0.00000000E+00  0.00000000E+00
  0.00000000E+00  0.00000000E+00  0.00000000E+00
  0.00000000E+00  0.00000000E+00  0.00000000E+00
  0.00000000E+00  0.00000000E+00  0.00000000E+00
  0.00000000E+00  0.00000000E+00  0.00000000E+00
  0.00000000E+00  0.00000000E+00  0.00000000E+00
  0.00000000E+00  0.00000000E+00  0.00000000E+00
