CeO2-you-111-you-Ga                     
   1.00000000000000     
     9.8323671652880389   -5.6859258280819702    0.0167539287382873
     0.0000000015928553   11.3718496577703281   -0.0000000019275607
     0.0368993222373947   -0.0000000037104964   20.9837402888364970
   O    Ga   Ce   H 
    53     1    26     2
Selective dynamics
Direct
 -0.0003262748533811  0.0006481249898487  0.9958272207786404   T   T   T
  0.1187604648648630  0.2260467324327067  0.1519784922019838   F   F   F
  0.2136293017695666  0.0864869184381078  0.2999438468303531   T   T   T
  0.1340824434972042  0.2331767714634954  0.3757940110891119   T   T   T
  0.9969218577625352  0.0008957513407913  0.2278062663003722   T   T   T
  0.2219945529820890  0.1099919816135753  0.0745660187146910   F   F   F
  0.3339444239502092  0.0000348240812505  0.9948428027182291   T   T   T
  0.4427561568092031  0.2227359410804510  0.1488850165370437   F   F   F
  0.5475266941988421  0.1062204920874895  0.3090639800202207   T   T   T
  0.4240077882200310  0.2652935329741647  0.3781580779939994   T   T   T
  0.3367035273531490  0.9973954919932053  0.2277674363854948   T   T   T
  0.5545195049963851  0.1113005311375801  0.0749875396500173   F   F   F
  0.6693836240272701  0.0012813299539663  0.9962121251977681   T   T   T
  0.7730877504503439  0.2246100477646849  0.1514927302362423   F   F   F
  0.8912612304361426  0.1119354542598870  0.3050397363949768   T   T   T
  0.7837096916511999  0.2169891416786563  0.3887536080307583   T   T   T
  0.6673343864455089  0.0022786532869059  0.2303608354933156   T   T   T
  0.8895457789015282  0.1114393894506236  0.0781475043478039   F   F   F
  0.9993748460037953  0.3311252850986219  0.9957515765311139   T   T   T
  0.1106779567714469  0.5550493055644594  0.1509397867449067   F   F   F
  0.2142359200009412  0.4475853292294162  0.3002953375184662   T   T   T
  0.1129997418519999  0.5550872912419622  0.3860520858379810   T   T   T
  0.9969481776734561  0.3299215066278881  0.2280231582253537   T   T   T
  0.2219945529818261  0.4453355713680835  0.0745660187147479   F   F   F
  0.3322228251081331  0.3326201872459777  0.9949514068012670   T   T   T
  0.4427561568067091  0.5533542157313960  0.1488850165369087   F   F   F
  0.4304147113323356  0.5272631474477801  0.3720190257954977   T   T   T
  0.3502425082081416  0.3403729943123854  0.2446720400627762   T   T   T
  0.5554852949158615  0.4444086474580402  0.0731067066060902   F   F   F
  0.6682562815489262  0.3335294219021314  0.9949560262119915   T   T   T
  0.7773056311137410  0.5553198155554568  0.1480098717980525   F   F   F
  0.8946966830754528  0.4429605647057760  0.3043388524243292   T   T   T
  0.7857215094457982  0.5591422517598373  0.3861528455479798   T   T   T
  0.6576916845998511  0.3417586826262202  0.2351091059098409   T   T   T
  0.8902235840533663  0.4446857316239345  0.0751415152841588   F   F   F
  0.0010310687385359  0.6674084830877729  0.9951208841430952   T   T   T
  0.1106779567705587  0.8889626512064979  0.1509397867448072   F   F   F
  0.2196626721282280  0.7751276353345484  0.3034594361629100   T   T   T
  0.1132056348992882  0.8860024341708933  0.3884184001736263   T   T   T
  0.9973306806970370  0.6649978773657900  0.2294948203956275   T   T   T
  0.2229002266537492  0.7781171133268856  0.0752205785561912   F   F   F
  0.3338662478877037  0.6671882742120996  0.9946066007070636   T   T   T
  0.4472897347484022  0.8903118673746846  0.1497731323647287   F   F   F
  0.5533774192556342  0.7834259318685354  0.3060062566970168   T   T   T
  0.4360293421886043  0.8829836350377214  0.3872854396073808   T   T   T
  0.3350712768705959  0.6684879263831224  0.2290675682433226   T   T   T
  0.5545195049961364  0.7765519738582540  0.0749875396502162   F   F   F
  0.6688055063189365  0.6688521379437153  0.9949736537904973   T   T   T
  0.7730877504507845  0.8818107026843407  0.1514927302357876   F   F   F
  0.8970998939600651  0.7853773834765890  0.3046179772415151   T   T   T
  0.7838033960094346  0.9023423136598148  0.3888741337538009   T   T   T
  0.6581233379023372  0.6493188052886899  0.2345821802861188   T   T   T
  0.8902235840533237  0.7788708524294918  0.0751415152842299   F   F   F
  0.3124232014061415  0.3470873470958967  0.3373602086456355   T   T   T
  0.0054765835588463  0.0024551899221611  0.3440459158870897   T   T   T
  0.2218650227824313  0.1101781087198717  0.1915767339341485   F   F   F
  0.1119150892879190  0.2226240446437018  0.0363343569172230   F   F   F
  0.3244161267713571  0.9887388385084633  0.3424878004545477   T   T   T
  0.5554156003179287  0.1116371864660834  0.1913841184924081   F   F   F
  0.4439677898834020  0.2208936779113344  0.0340624073919855   F   F   F
  0.6664618294702594  0.0000236884321750  0.3469010259089205   T   T   T
  0.8879099139350615  0.1106214569678485  0.1912198610142042   F   F   F
  0.7781236792015633  0.2228379824173459  0.0361059915477071   F   F   F
  0.0019542811265999  0.3329546297982375  0.3443571157692448   T   T   T
  0.2218650227834829  0.4450199140600333  0.1915767339343262   F   F   F
  0.1113288896510340  0.5550828421098117  0.0355621336800951   F   F   F
  0.5532441638697563  0.4432880819332610  0.1844538364352246   F   F   F
  0.4439677898828904  0.5564081119727504  0.0340624073920495   F   F   F
  0.6763354240000216  0.3320262557219947  0.3509791521389419   T   T   T
  0.8875271760487067  0.4448270518452162  0.1912974147825537   F   F   F
  0.7798385672887918  0.5565862836443571  0.0342511665667402   F   F   F
 -0.0019898315515002  0.6651045156515970  0.3459203304746279   T   T   T
  0.2225215052907998  0.7779277526460220  0.1890567272277295   F   F   F
  0.1113288896506077  0.8895800475409530  0.0355621336800738   F   F   F
  0.3313604174759454  0.6636819429471758  0.3441145080667958   T   T   T
  0.5554156003216022  0.7771114138519124  0.1913841184923939   F   F   F
  0.4456755897736002  0.8895047948869959  0.0356559690023204   F   F   F
  0.6718481065633284  0.6767785125352944  0.3526668793884925   T   T   T
  0.8875271760510799  0.7760331242089364  0.1912974147826034   F   F   F
  0.7781236792020181  0.8886186967845120  0.0361059915477782   F   F   F
  0.3190579764913583  0.3670796690225638  0.4681892753350870   T   T   T
  0.4123415206782995  0.2832528654875751  0.4226982518999147   T   T   T
 
  0.00000000E+00  0.00000000E+00  0.00000000E+00
  0.00000000E+00  0.00000000E+00  0.00000000E+00
  0.00000000E+00  0.00000000E+00  0.00000000E+00
  0.00000000E+00  0.00000000E+00  0.00000000E+00
  0.00000000E+00  0.00000000E+00  0.00000000E+00
  0.00000000E+00  0.00000000E+00  0.00000000E+00
  0.00000000E+00  0.00000000E+00  0.00000000E+00
  0.00000000E+00  0.00000000E+00  0.00000000E+00
  0.00000000E+00  0.00000000E+00  0.00000000E+00
  0.00000000E+00  0.00000000E+00  0.00000000E+00
  0.00000000E+00  0.00000000E+00  0.00000000E+00
  0.00000000E+00  0.00000000E+00  0.00000000E+00
  0.00000000E+00  0.00000000E+00  0.00000000E+00
  0.00000000E+00  0.00000000E+00  0.00000000E+00
  0.00000000E+00  0.00000000E+00  0.00000000E+00
  0.00000000E+00  0.00000000E+00  0.00000000E+00
  0.00000000E+00  0.00000000E+00  0.00000000E+00
  0.00000000E+00  0.00000000E+00  0.00000000E+00
  0.00000000E+00  0.00000000E+00  0.00000000E+00
  0.00000000E+00  0.00000000E+00  0.00000000E+00
  0.00000000E+00  0.00000000E+00  0.00000000E+00
  0.00000000E+00  0.00000000E+00  0.00000000E+00
  0.00000000E+00  0.00000000E+00  0.00000000E+00
  0.00000000E+00  0.00000000E+00  0.00000000E+00
  0.00000000E+00  0.00000000E+00  0.00000000E+00
  0.00000000E+00  0.00000000E+00  0.00000000E+00
  0.00000000E+00  0.00000000E+00  0.00000000E+00
  0.00000000E+00  0.00000000E+00  0.00000000E+00
  0.00000000E+00  0.00000000E+00  0.00000000E+00
  0.00000000E+00  0.00000000E+00  0.00000000E+00
  0.00000000E+00  0.00000000E+00  0.00000000E+00
  0.00000000E+00  0.00000000E+00  0.00000000E+00
  0.00000000E+00  0.00000000E+00  0.00000000E+00
  0.00000000E+00  0.00000000E+00  0.00000000E+00
  0.00000000E+00  0.00000000E+00  0.00000000E+00
  0.00000000E+00  0.00000000E+00  0.00000000E+00
  0.00000000E+00  0.00000000E+00  0.00000000E+00
  0.00000000E+00  0.00000000E+00  0.00000000E+00
  0.00000000E+00  0.00000000E+00  0.00000000E+00
  0.00000000E+00  0.00000000E+00  0.00000000E+00
  0.00000000E+00  0.00000000E+00  0.00000000E+00
  0.00000000E+00  0.00000000E+00  0.00000000E+00
  0.00000000E+00  0.00000000E+00  0.00000000E+00
  0.00000000E+00  0.00000000E+00  0.00000000E+00
  0.00000000E+00  0.00000000E+00  0.00000000E+00
  0.00000000E+00  0.00000000E+00  0.00000000E+00
  0.00000000E+00  0.00000000E+00  0.00000000E+00
  0.00000000E+00  0.00000000E+00  0.00000000E+00
  0.00000000E+00  0.00000000E+00  0.00000000E+00
  0.00000000E+00  0.00000000E+00  0.00000000E+00
  0.00000000E+00  0.00000000E+00  0.00000000E+00
  0.00000000E+00  0.00000000E+00  0.00000000E+00
  0.00000000E+00  0.00000000E+00  0.00000000E+00
  0.00000000E+00  0.00000000E+00  0.00000000E+00
  0.00000000E+00  0.00000000E+00  0.00000000E+00
  0.00000000E+00  0.00000000E+00  0.00000000E+00
  0.00000000E+00  0.00000000E+00  0.00000000E+00
  0.00000000E+00  0.00000000E+00  0.00000000E+00
  0.00000000E+00  0.00000000E+00  0.00000000E+00
  0.00000000E+00  0.00000000E+00  0.00000000E+00
  0.00000000E+00  0.00000000E+00  0.00000000E+00
  0.00000000E+00  0.00000000E+00  0.00000000E+00
  0.00000000E+00  0.00000000E+00  0.00000000E+00
  0.00000000E+00  0.00000000E+00  0.00000000E+00
  0.00000000E+00  0.00000000E+00  0.00000000E+00
  0.00000000E+00  0.00000000E+00  0.00000000E+00
  0.00000000E+00  0.00000000E+00  0.00000000E+00
  0.00000000E+00  0.00000000E+00  0.00000000E+00
  0.00000000E+00  0.00000000E+00  0.00000000E+00
  0.00000000E+00  0.00000000E+00  0.00000000E+00
  0.00000000E+00  0.00000000E+00  0.00000000E+00
  0.00000000E+00  0.00000000E+00  0.00000000E+00
  0.00000000E+00  0.00000000E+00  0.00000000E+00
  0.00000000E+00  0.00000000E+00  0.00000000E+00
  0.00000000E+00  0.00000000E+00  0.00000000E+00
  0.00000000E+00  0.00000000E+00  0.00000000E+00
  0.00000000E+00  0.00000000E+00  0.00000000E+00
  0.00000000E+00  0.00000000E+00  0.00000000E+00
  0.00000000E+00  0.00000000E+00  0.00000000E+00
  0.00000000E+00  0.00000000E+00  0.00000000E+00
  0.00000000E+00  0.00000000E+00  0.00000000E+00
  0.00000000E+00  0.00000000E+00  0.00000000E+00
