CeO2-you-111-you-Zn                     
   1.00000000000000     
     9.8190175168190610   -5.6491485673770798   -0.0137909514713684
     0.0172029100728462   11.3280914588514783    0.0137909491410664
    -0.0149756420717091    0.0259385716269717   20.7095356203293797
   O    Zn   Ce   H 
    53     1    26     1
Selective dynamics
Direct
  0.0000853404969671  0.9997514956595709  0.9886357727572280   T   T   T
  0.1075696762385077  0.2189630030600927  0.1455059531406235   T   T   T
  0.2243494033907455  0.1028310849130025  0.3046633315938388   T   T   T
  0.1292061167284716  0.2443109290100119  0.3757514238912544   T   T   T
  0.0014671992403765  0.0013561330141799  0.2293444121131376   T   T   T
  0.2218201641494196  0.1106259324586192  0.0711773619411170   T   T   T
  0.3352481035612342  0.0002128781685727  0.9915163123498263   T   T   T
  0.4433291282215704  0.2227062471950182  0.1507416941787539   T   T   T
  0.5471127898410576  0.1075527758454967  0.3107668185404063   T   T   T
  0.4230026074762573  0.2326555546299895  0.4041252929113953   T   T   T
  0.3345929483540523  0.9963375596595612  0.2287046746981355   T   T   T
  0.5558227869386279  0.1098593831613075  0.0751409621708054   T   T   T
  0.6660929112050804  0.0017695534771485  0.9902640674402760   T   T   T
  0.7846993543921529  0.2241461965172417  0.1505926609735698   T   T   T
  0.8881859864882430  0.1082938095893740  0.3051783949733869   T   T   T
  0.7841771611572681  0.2125989874459326  0.3920558426046697   T   T   T
  0.6662113211239777  0.0009032637258708  0.2310922481819589   T   T   T
  0.8886523265699273  0.1097014205163151  0.0707899359907091   T   T   T
  0.9983937467815464  0.3329324088769756  0.9897013757813187   T   T   T
  0.1107206451051257  0.5551718823370331  0.1461849786693654   T   T   T
  0.1203653712241897  0.5454755425617028  0.3810445458528371   T   T   T
  0.0190080364116433  0.3415614556376450  0.2357200502411778   T   T   T
  0.2229118553708187  0.4435906598355543  0.0691265546463008   T   T   T
  0.3346453066428495  0.3325626300803153  0.9895964631264198   T   T   T
  0.4489940738011755  0.5602761170721299  0.1460696081736789   T   T   T
  0.5589679695710214  0.4500534706148380  0.3051697187222485   T   T   T
  0.4190630455308382  0.5392910159245188  0.3795987077709658   T   T   T
  0.3260700502937571  0.3385000965081756  0.2275330037085509   T   T   T
  0.5557669942663039  0.4435227483215505  0.0722761564789574   T   T   T
  0.6658944818076257  0.3312678153724846  0.9915160473115850   T   T   T
  0.7786918360204075  0.5557265148717490  0.1497066242848831   T   T   T
  0.8913341232304005  0.4454893487926595  0.3072396936859709   T   T   T
  0.7882874447309337  0.5723242540898072  0.3905336500401334   T   T   T
  0.6681675623650168  0.3304121685599658  0.2291292111235142   T   T   T
  0.8879354995385087  0.4434632678117675  0.0723948810194315   T   T   T
  0.9995139840684081  0.6660575636838849  0.9907333151724131   T   T   T
  0.1118804065938842  0.8879131914672519  0.1485713662789272   T   T   T
  0.2227980765428782  0.7784258773203083  0.3063409770525006   T   T   T
  0.1107375446816562  0.8875262430501631  0.3881986757026640   T   T   T
  0.0017164681768828  0.6659192301659260  0.2299512937991387   T   T   T
  0.2226609782414558  0.7775711334321808  0.0718646766937583   T   T   T
  0.3341360295007659  0.6676078108032977  0.9900575853974356   T   T   T
  0.4423762098682321  0.8815258733217340  0.1504050941977378   T   T   T
  0.5569706169566537  0.7792653416724927  0.3070931294632709   T   T   T
  0.4428858102897963  0.8855423508324749  0.3907314119180033   T   T   T
  0.3243705082425360  0.6471383453536401  0.2360713548798594   T   T   T
  0.5585423066684305  0.7796738854041074  0.0709598574914916   T   T   T
  0.6667106796736187  0.6656509887485136  0.9898149988637539   T   T   T
  0.7778410476766685  0.8904390083241909  0.1486196417915139   T   T   T
  0.8920291276971505  0.7798765275028984  0.3041294331173441   T   T   T
  0.7812192391565224  0.8900714956825257  0.3866106036760903   T   T   T
  0.6685422482119551  0.6697413906896694  0.2297059727772088   T   T   T
  0.8891674590964899  0.7787482425223816  0.0714431307334062   T   T   T
  0.3333609780046964  0.3385738006558804  0.3630584837290730   T   T   T
  0.0063683957045840  0.0030865832771675  0.3439820587002614   T   T   T
  0.2243710823923896  0.1140573184818770  0.1912045985184838   T   T   T
  0.1103544842955629  0.2199969875915172  0.0290432077214050   T   T   T
  0.3274062914818339 -0.0057786531203187  0.3446741937831379   T   T   T
  0.5560574898468882  0.1110707620078073  0.1912383710250216   T   T   T
  0.4446186509007556  0.2222661651491065  0.0329272441476074   T   T   T
  0.6681036243021073 -0.0006374687795555  0.3483493922254373   T   T   T
  0.8907546557353231  0.1114670993900643  0.1894493613192912   T   T   T
  0.7777827990429528  0.2220768539697512  0.0320994205183623   T   T   T
  0.9921224279824893  0.3248727291106291  0.3490748601829178   T   T   T
  0.2245426469215514  0.4420612423221271  0.1809022828329299   T   T   T
  0.1099067223809566  0.5558860950658528  0.0299135139843331   T   T   T
  0.5529573968957439  0.4430817225997434  0.1935858920634718   T   T   T
  0.4470927968944826  0.5562612202255719  0.0298706241656396   T   T   T
  0.6675097632150303  0.3378158378738816  0.3504189322769654   T   T   T
  0.8898516827206050  0.4442305787643037  0.1908833628409954   T   T   T
  0.7766715484263527  0.5540993982082535  0.0328576489733129   T   T   T
  0.9988393443638066  0.6660773401318516  0.3458493373734127   T   T   T
  0.2215107780376660  0.7747035766456526  0.1891885769437901   T   T   T
  0.1119142767498557  0.8892585516847273  0.0317091649536680   T   T   T
  0.3401987618675614  0.6732902655669772  0.3498679528895300   T   T   T
  0.5561479093822290  0.7769339831354287  0.1899226153995765   T   T   T
  0.4447851769674482  0.8885568229446692  0.0319129671694435   T   T   T
  0.6671189136437876  0.6639752924081018  0.3447747383659265   T   T   T
  0.8900448295384140  0.7780886868741412  0.1880340437102639   T   T   T
  0.7778407390075862  0.8896567461617192  0.0306984350029185   T   T   T
  0.4151997236872352  0.2316543563592376  0.4509517690880162   T   T   T
 
  0.00000000E+00  0.00000000E+00  0.00000000E+00
  0.00000000E+00  0.00000000E+00  0.00000000E+00
  0.00000000E+00  0.00000000E+00  0.00000000E+00
  0.00000000E+00  0.00000000E+00  0.00000000E+00
  0.00000000E+00  0.00000000E+00  0.00000000E+00
  0.00000000E+00  0.00000000E+00  0.00000000E+00
  0.00000000E+00  0.00000000E+00  0.00000000E+00
  0.00000000E+00  0.00000000E+00  0.00000000E+00
  0.00000000E+00  0.00000000E+00  0.00000000E+00
  0.00000000E+00  0.00000000E+00  0.00000000E+00
  0.00000000E+00  0.00000000E+00  0.00000000E+00
  0.00000000E+00  0.00000000E+00  0.00000000E+00
  0.00000000E+00  0.00000000E+00  0.00000000E+00
  0.00000000E+00  0.00000000E+00  0.00000000E+00
  0.00000000E+00  0.00000000E+00  0.00000000E+00
  0.00000000E+00  0.00000000E+00  0.00000000E+00
  0.00000000E+00  0.00000000E+00  0.00000000E+00
  0.00000000E+00  0.00000000E+00  0.00000000E+00
  0.00000000E+00  0.00000000E+00  0.00000000E+00
  0.00000000E+00  0.00000000E+00  0.00000000E+00
  0.00000000E+00  0.00000000E+00  0.00000000E+00
  0.00000000E+00  0.00000000E+00  0.00000000E+00
  0.00000000E+00  0.00000000E+00  0.00000000E+00
  0.00000000E+00  0.00000000E+00  0.00000000E+00
  0.00000000E+00  0.00000000E+00  0.00000000E+00
  0.00000000E+00  0.00000000E+00  0.00000000E+00
  0.00000000E+00  0.00000000E+00  0.00000000E+00
  0.00000000E+00  0.00000000E+00  0.00000000E+00
  0.00000000E+00  0.00000000E+00  0.00000000E+00
  0.00000000E+00  0.00000000E+00  0.00000000E+00
  0.00000000E+00  0.00000000E+00  0.00000000E+00
  0.00000000E+00  0.00000000E+00  0.00000000E+00
  0.00000000E+00  0.00000000E+00  0.00000000E+00
  0.00000000E+00  0.00000000E+00  0.00000000E+00
  0.00000000E+00  0.00000000E+00  0.00000000E+00
  0.00000000E+00  0.00000000E+00  0.00000000E+00
  0.00000000E+00  0.00000000E+00  0.00000000E+00
  0.00000000E+00  0.00000000E+00  0.00000000E+00
  0.00000000E+00  0.00000000E+00  0.00000000E+00
  0.00000000E+00  0.00000000E+00  0.00000000E+00
  0.00000000E+00  0.00000000E+00  0.00000000E+00
  0.00000000E+00  0.00000000E+00  0.00000000E+00
  0.00000000E+00  0.00000000E+00  0.00000000E+00
  0.00000000E+00  0.00000000E+00  0.00000000E+00
  0.00000000E+00  0.00000000E+00  0.00000000E+00
  0.00000000E+00  0.00000000E+00  0.00000000E+00
  0.00000000E+00  0.00000000E+00  0.00000000E+00
  0.00000000E+00  0.00000000E+00  0.00000000E+00
  0.00000000E+00  0.00000000E+00  0.00000000E+00
  0.00000000E+00  0.00000000E+00  0.00000000E+00
  0.00000000E+00  0.00000000E+00  0.00000000E+00
  0.00000000E+00  0.00000000E+00  0.00000000E+00
  0.00000000E+00  0.00000000E+00  0.00000000E+00
  0.00000000E+00  0.00000000E+00  0.00000000E+00
  0.00000000E+00  0.00000000E+00  0.00000000E+00
  0.00000000E+00  0.00000000E+00  0.00000000E+00
  0.00000000E+00  0.00000000E+00  0.00000000E+00
  0.00000000E+00  0.00000000E+00  0.00000000E+00
  0.00000000E+00  0.00000000E+00  0.00000000E+00
  0.00000000E+00  0.00000000E+00  0.00000000E+00
  0.00000000E+00  0.00000000E+00  0.00000000E+00
  0.00000000E+00  0.00000000E+00  0.00000000E+00
  0.00000000E+00  0.00000000E+00  0.00000000E+00
  0.00000000E+00  0.00000000E+00  0.00000000E+00
  0.00000000E+00  0.00000000E+00  0.00000000E+00
  0.00000000E+00  0.00000000E+00  0.00000000E+00
  0.00000000E+00  0.00000000E+00  0.00000000E+00
  0.00000000E+00  0.00000000E+00  0.00000000E+00
  0.00000000E+00  0.00000000E+00  0.00000000E+00
  0.00000000E+00  0.00000000E+00  0.00000000E+00
  0.00000000E+00  0.00000000E+00  0.00000000E+00
  0.00000000E+00  0.00000000E+00  0.00000000E+00
  0.00000000E+00  0.00000000E+00  0.00000000E+00
  0.00000000E+00  0.00000000E+00  0.00000000E+00
  0.00000000E+00  0.00000000E+00  0.00000000E+00
  0.00000000E+00  0.00000000E+00  0.00000000E+00
  0.00000000E+00  0.00000000E+00  0.00000000E+00
  0.00000000E+00  0.00000000E+00  0.00000000E+00
  0.00000000E+00  0.00000000E+00  0.00000000E+00
  0.00000000E+00  0.00000000E+00  0.00000000E+00
  0.00000000E+00  0.00000000E+00  0.00000000E+00
