CeO2-you-111-you-V                      
   1.00000000000000     
     9.8185291003654775   -5.6687307847348212    0.0000000017166181
     0.0496735372381683   11.4234966589933382    0.0330911136874583
     0.0362642158852654    0.0628114537915946   20.4396957206150205
   O    V    Ce   H 
    53     1    26     2
Selective dynamics
Direct
  0.9989449007424495  0.0002206278436508  0.9900846549321937   T   T   T
  0.1121137909726784  0.2228300022512002  0.1478933700894487   F   F   F
  0.2403428415427602  0.1289657274706622  0.3058625418588676   T   T   T
  0.1583206079198245  0.2352378687439367  0.3861411952086647   T   T   T
  0.0055312205415018 -0.0010317260620400  0.2287300028239020   T   T   T
  0.2219936678482313  0.1106543356966938  0.0694963526586960   F   F   F
  0.3342442934252451  0.0000887954708956  0.9905024437423042   T   T   T
  0.4440492112783971  0.2228300022509444  0.1478933700895055   F   F   F
  0.5505714769201235  0.1054828731632465  0.3068182690164634   T   T   T
  0.4534197785372769  0.1713258330865758  0.4194397300302392   T   T   T
  0.3296714609064069  0.9978896043889729  0.2276839354041505   T   T   T
  0.5571822043598331  0.1126184314365943  0.0725439888586337   F   F   F
  0.6665689596893547  0.9996997282952641  0.9912764408824966   T   T   T
  0.7788243393461585  0.2243146786919894  0.1511689504412033   F   F   F
  0.8983503479268100  0.1083454417572313  0.3072594730161908   T   T   T
  0.7761433739083001  0.2068448051533884  0.3935795750687576   T   T   T
  0.6696636177488534  0.0014697778165793  0.2314800255211929   T   T   T
  0.8887702270767051  0.1126184314367080  0.0725439888586479   F   F   F
  0.0002823048042475  0.3339116775624900  0.9905833075209793   T   T   T
  0.1114248924736501  0.5547546185317316  0.1487980142579630   F   F   F
  0.2494113563186132  0.4421416155115316  0.3109816739723031   T   T   T
  0.1220569530196111  0.5685927596846233  0.3897923803497455   T   T   T
  0.0080126279708698  0.3359525005534204  0.2312479029871618   T   T   T
  0.2230706875306154  0.4444310601979780  0.0728003596851394   F   F   F
  0.3340774524891557  0.3345059703930801  0.9904751735169600   T   T   T
  0.4426480474654682  0.5519640949311508  0.1524743264575150   F   F   F
  0.4598965078194089  0.3945226209309310  0.3520972288675052   T   T   T
  0.3296832892581341  0.3272498070052947  0.2333670382682940   T   T   T
  0.5546943726674485  0.4444310601980135  0.0728003596851678   F   F   F
  0.6669745611147170  0.3341442180560077  0.9905832467951684   T   T   T
  0.7766627260579995  0.5547546185317032  0.1487980142579701   F   F   F
  0.8931032272164998  0.4465578261325193  0.3066005837160445   T   T   T
  0.7874554691066633  0.5590280121779301  0.3919833966939960   T   T   T
  0.6568040680516013  0.3399217462366412  0.2357991061590535   T   T   T
  0.8886546634521366  0.4439753269045355  0.0721636559182670   F   F   F
  0.0002412958399195  0.6672924438347335  0.9909023938654001   T   T   T
  0.1104221439186901  0.8875112878375475  0.1454840502494150   F   F   F
  0.2226243712614069  0.7796889566471318  0.3052318327324646   T   T   T
  0.1145533559648902  0.8935472881671772  0.3868493390948780   T   T   T
 -0.0003775517287846  0.6675072609336029  0.2285043973630370   T   T   T
  0.2235364588179038  0.7778003731571346  0.0714212042571063   F   F   F
  0.3341679253398884  0.6671564477534327  0.9908616215087691   T   T   T
  0.4476276081810937  0.8909109377497515  0.1495015856630602   F   F   F
  0.5544160080331787  0.7796069187171099  0.3084958312564672   T   T   T
  0.4422022173800980  0.8874396211904765  0.3900026418142366   T   T   T
  0.3315682416677709  0.6649266778460726  0.2314900271146966   T   T   T
  0.5542757431619805  0.7752174863239460  0.0738585602330417   F   F   F
  0.6662895679585714  0.6670462844542224  0.9910885943927584   T   T   T
  0.7766163295686042  0.8909109377500499  0.1495015856630673   F   F   F
  0.8931049644998943  0.7826134292758404  0.3059309642733308   T   T   T
  0.7918118716254753  0.9016487665587983  0.3933348216802335   T   T   T
  0.6595129948229280  0.6518297434188949  0.2362170815898564   T   T   T
  0.8875969143394826  0.7778003731573335  0.0714212042571418   F   F   F
  0.2939852826430595  0.3101154364007978  0.3280511425839784   T   T   T
  0.0021405734198335  0.9954502020472007  0.3462845749345461   T   T   T
  0.2195636013004005  0.1057942026014516  0.1836454889282493   F   F   F
  0.1113386079380660  0.2242719888134701  0.0308039296374361   F   F   F
  0.3340100048831233  0.9942493329256757  0.3478846537594122   T   T   T
  0.5549196510038783  0.1118537102549340  0.1907396348514538   F   F   F
  0.4462663808754996  0.2242719888135767  0.0308039296374432   F   F   F
  0.6716100688975597  0.0016385552700267  0.3500680459505238   T   T   T
  0.8902680592501397  0.1118537102541879  0.1907396348514538   F   F   F
  0.7784862692704735  0.2236385385410102  0.0322855840839864   F   F   F
  0.0044050908463603  0.3358413987766605  0.3530446497074617   T   T   T
  0.2246479592897686  0.4438891084499872  0.1933718442250481   F   F   F
  0.1124118366145410  0.5558529137371764  0.0319218164967907   F   F   F
  0.5525751491618962  0.4438891084507048  0.1933718442251191   F   F   F
  0.4445386570381373  0.5557453140761766  0.0324093185861614   F   F   F
  0.6687105557021269  0.3267894238953925  0.3593161531674878   T   T   T
  0.8896985602117908  0.4460631204232328  0.1901247008613183   F   F   F
  0.7767740771226741  0.5558529137373540  0.0319218164968191   F   F   F
  0.9963027122502687  0.6624790012464373  0.3470079774321895   T   T   T
  0.2219206558934346  0.7765269396196928  0.1882152013157565   F   F   F
  0.1109008817626176  0.8884687635255233  0.0288966219337965   F   F   F
  0.3347712037555985  0.6775743044773146  0.3501954505514186   T   T   T
  0.5560085170518505  0.7786830341036648  0.1928540827320191   F   F   F
  0.4456970532191278  0.8893135441387798  0.0319946742105444   F   F   F
  0.6717289476559454  0.6742438039399132  0.3598140668907793   T   T   T
  0.8879392837256432  0.7765269396191812  0.1882152013157565   F   F   F
  0.7769494909197050  0.8893135441387798  0.0319946742105657   F   F   F
  0.4657316422918863  0.6309778586702972  0.4154302535818103   T   T   T
  0.4090400665252529  0.2114954553875671  0.4439726359774461   T   T   T
 
  0.00000000E+00  0.00000000E+00  0.00000000E+00
  0.00000000E+00  0.00000000E+00  0.00000000E+00
  0.00000000E+00  0.00000000E+00  0.00000000E+00
  0.00000000E+00  0.00000000E+00  0.00000000E+00
  0.00000000E+00  0.00000000E+00  0.00000000E+00
  0.00000000E+00  0.00000000E+00  0.00000000E+00
  0.00000000E+00  0.00000000E+00  0.00000000E+00
  0.00000000E+00  0.00000000E+00  0.00000000E+00
  0.00000000E+00  0.00000000E+00  0.00000000E+00
  0.00000000E+00  0.00000000E+00  0.00000000E+00
  0.00000000E+00  0.00000000E+00  0.00000000E+00
  0.00000000E+00  0.00000000E+00  0.00000000E+00
  0.00000000E+00  0.00000000E+00  0.00000000E+00
  0.00000000E+00  0.00000000E+00  0.00000000E+00
  0.00000000E+00  0.00000000E+00  0.00000000E+00
  0.00000000E+00  0.00000000E+00  0.00000000E+00
  0.00000000E+00  0.00000000E+00  0.00000000E+00
  0.00000000E+00  0.00000000E+00  0.00000000E+00
  0.00000000E+00  0.00000000E+00  0.00000000E+00
  0.00000000E+00  0.00000000E+00  0.00000000E+00
  0.00000000E+00  0.00000000E+00  0.00000000E+00
  0.00000000E+00  0.00000000E+00  0.00000000E+00
  0.00000000E+00  0.00000000E+00  0.00000000E+00
  0.00000000E+00  0.00000000E+00  0.00000000E+00
  0.00000000E+00  0.00000000E+00  0.00000000E+00
  0.00000000E+00  0.00000000E+00  0.00000000E+00
  0.00000000E+00  0.00000000E+00  0.00000000E+00
  0.00000000E+00  0.00000000E+00  0.00000000E+00
  0.00000000E+00  0.00000000E+00  0.00000000E+00
  0.00000000E+00  0.00000000E+00  0.00000000E+00
  0.00000000E+00  0.00000000E+00  0.00000000E+00
  0.00000000E+00  0.00000000E+00  0.00000000E+00
  0.00000000E+00  0.00000000E+00  0.00000000E+00
  0.00000000E+00  0.00000000E+00  0.00000000E+00
  0.00000000E+00  0.00000000E+00  0.00000000E+00
  0.00000000E+00  0.00000000E+00  0.00000000E+00
  0.00000000E+00  0.00000000E+00  0.00000000E+00
  0.00000000E+00  0.00000000E+00  0.00000000E+00
  0.00000000E+00  0.00000000E+00  0.00000000E+00
  0.00000000E+00  0.00000000E+00  0.00000000E+00
  0.00000000E+00  0.00000000E+00  0.00000000E+00
  0.00000000E+00  0.00000000E+00  0.00000000E+00
  0.00000000E+00  0.00000000E+00  0.00000000E+00
  0.00000000E+00  0.00000000E+00  0.00000000E+00
  0.00000000E+00  0.00000000E+00  0.00000000E+00
  0.00000000E+00  0.00000000E+00  0.00000000E+00
  0.00000000E+00  0.00000000E+00  0.00000000E+00
  0.00000000E+00  0.00000000E+00  0.00000000E+00
  0.00000000E+00  0.00000000E+00  0.00000000E+00
  0.00000000E+00  0.00000000E+00  0.00000000E+00
  0.00000000E+00  0.00000000E+00  0.00000000E+00
  0.00000000E+00  0.00000000E+00  0.00000000E+00
  0.00000000E+00  0.00000000E+00  0.00000000E+00
  0.00000000E+00  0.00000000E+00  0.00000000E+00
  0.00000000E+00  0.00000000E+00  0.00000000E+00
  0.00000000E+00  0.00000000E+00  0.00000000E+00
  0.00000000E+00  0.00000000E+00  0.00000000E+00
  0.00000000E+00  0.00000000E+00  0.00000000E+00
  0.00000000E+00  0.00000000E+00  0.00000000E+00
  0.00000000E+00  0.00000000E+00  0.00000000E+00
  0.00000000E+00  0.00000000E+00  0.00000000E+00
  0.00000000E+00  0.00000000E+00  0.00000000E+00
  0.00000000E+00  0.00000000E+00  0.00000000E+00
  0.00000000E+00  0.00000000E+00  0.00000000E+00
  0.00000000E+00  0.00000000E+00  0.00000000E+00
  0.00000000E+00  0.00000000E+00  0.00000000E+00
  0.00000000E+00  0.00000000E+00  0.00000000E+00
  0.00000000E+00  0.00000000E+00  0.00000000E+00
  0.00000000E+00  0.00000000E+00  0.00000000E+00
  0.00000000E+00  0.00000000E+00  0.00000000E+00
  0.00000000E+00  0.00000000E+00  0.00000000E+00
  0.00000000E+00  0.00000000E+00  0.00000000E+00
  0.00000000E+00  0.00000000E+00  0.00000000E+00
  0.00000000E+00  0.00000000E+00  0.00000000E+00
  0.00000000E+00  0.00000000E+00  0.00000000E+00
  0.00000000E+00  0.00000000E+00  0.00000000E+00
  0.00000000E+00  0.00000000E+00  0.00000000E+00
  0.00000000E+00  0.00000000E+00  0.00000000E+00
  0.00000000E+00  0.00000000E+00  0.00000000E+00
  0.00000000E+00  0.00000000E+00  0.00000000E+00
  0.00000000E+00  0.00000000E+00  0.00000000E+00
  0.00000000E+00  0.00000000E+00  0.00000000E+00
