CeO2-you-111-you-Ag                     
   1.00000000000000     
     9.8366048191090680   -5.6991367560319057    0.0058021261797699
    -0.0172944745444246   11.3683165995838547   -0.0058021251926906
     0.0064679586031458   -0.0112028322931616   21.1918380538180706
   O    Ag   Ce   H 
    53     1    26     2
Selective dynamics
Direct
  0.9998291976626985  0.9998085769227213  0.9958849432059835   T   T   T
  0.1046414365545161  0.2186979551806374  0.1459618807026217   F   F   F
  0.2250791822212887  0.1066170685180020  0.3050872682147462   T   T   T
  0.0925362120700537  0.2214434932618287  0.3794858997630241   T   T   T
  0.0020826087775860  0.0025530310119675  0.2297402213050846   T   T   T
  0.2216397043529952  0.1109618347787702  0.0758506181330176   F   F   F
  0.3347588542599403  0.0018222729378997  0.9974232836742140   T   T   T
  0.4450725795786497  0.2215934204205539  0.1503353462983910   F   F   F
  0.5517380415094636  0.1142645374993550  0.3042432294877737   T   T   T
  0.4714329203382883  0.1951447722359071  0.4078141594510367   T   T   T
  0.3329624682773762 -0.0007574196808853  0.2284698378638841   T   T   T
  0.5577425879664020  0.1089244120336446  0.0779788395966321   F   F   F
  0.6658192509758684  0.0004687460171237  0.9953822635195357   T   T   T
  0.7843954888512457  0.2258255005800081  0.1529606404510204   F   F   F
  0.8817013780380819  0.1074956969393167  0.3016223756490565   T   T   T
  0.7756084238314204  0.2214626614331776  0.3838669916540062   T   T   T
  0.6654131006966167  0.0020690335775681  0.2284238539742641   T   T   T
  0.8850015718249793  0.1088983284197198  0.0748462231234654   F   F   F
  0.9982208059941324  0.3318172064312924  0.9957230040515587   T   T   T
  0.1103591540415749  0.5563078459567166  0.1478393892965855   F   F   F
  0.1195565128339576  0.5466404841067327  0.3757655124685572   T   T   T
  0.0195250608838287  0.3430740742821606  0.2351506791614184   T   T   T
  0.2222126941727467  0.4444533058289224  0.0718002109222908   F   F   F
  0.3342275409184164  0.3320680785552888  0.9959624519242624   T   T   T
  0.4479680448224954  0.5620255634466176  0.1459618807023020   F   F   F
  0.5593727201640625  0.4412909548550378  0.3049146864556340   T   T   T
  0.4458998829780912  0.5749734990696770  0.3798719514445006   T   T   T
  0.3269299594874900  0.3396600852505471  0.2238336719914707   T   T   T
  0.5557051652204308  0.4450262956462439  0.0758506181330461   F   F   F
  0.6654918571015472  0.3318828356576265  0.9973668079061518   T   T   T
  0.7794208689427933  0.5562719000898753  0.1510144398943964   F   F   F
  0.8858102783123822  0.4440162832146826  0.3042812533154836   T   T   T
  0.7810628615514282  0.5585132230813525  0.3841052757377036   T   T   T
  0.6675418748911526  0.3332599569090082  0.2283228853986027   T   T   T
  0.8882677663648977  0.4442337278701487  0.0756143199430070   F   F   F
  0.9998387955503097  0.6670697439808813  0.9963832417913983   T   T   T
  0.1103950999085654  0.8872461310551003  0.1510144398943893   F   F   F
  0.2228837641022084  0.7806525824826253  0.3042774728547213   T   T   T
  0.1077878187332949  0.8848230913097079  0.3843686828272596   T   T   T
  0.0010813212085956  0.6659042094749213  0.2303856591961061   T   T   T
  0.2224322721297369  0.7783992336346728  0.0756143199429573   F   F   F
  0.3342897561400986  0.6685802352712276  0.9957694290034707   T   T   T
  0.4408404994214763  0.8822715111484527  0.1529606404512620   F   F   F
  0.5586552749479782  0.7852639808808821  0.3014223982402264   T   T   T
  0.4454081467936297  0.8907122263981481  0.3837853094952359   T   T   T
  0.3233332112165431  0.6467634968098189  0.2352733029380873   T   T   T
  0.5577686715812220  0.7816654281762467  0.0748462231233589   F   F   F
  0.6671069023897779  0.6666484525481575  0.9958923980240606   T   T   T
  0.7787492471264628  0.8879177528735127  0.1513298230380684   F   F   F
  0.8894513987308860  0.7774865119312683  0.3030017941040989   T   T   T
  0.7775222413372408  0.8890705809297479  0.3815739080002876   T   T   T
  0.6637491718152743  0.6644348027417691  0.2298045016236962   T   T   T
  0.8886504289655477  0.7780165710334899  0.0757473839034049   F   F   F
  0.3249836782526080  0.3416921589467266  0.3616681493889747   T   T   T
  0.0018599304579630  0.0026013625633176  0.3424259978085848   T   T   T
  0.2242053877966086  0.1147896944037043  0.1909095861842687   F   F   F
  0.1096240291642516  0.2197366828093053  0.0337946586782678   F   F   F
  0.3282267796538758 -0.0003541602647103  0.3434032985711659   T   T   T
  0.5558281573712662  0.1108388426309261  0.1909747907807429   F   F   F
  0.4446047140790625  0.2220612859209155  0.0371588790895245   F   F   F
  0.6656607022946115  0.0009951104896441  0.3432059325075705   T   T   T
  0.8900925987405870  0.1112654131305675  0.1901904070533007   F   F   F
  0.7776153996728254  0.2216411412651453  0.0363872178350348   F   F   F
  0.9875120027903089  0.3247405181462532  0.3459205744337083   T   T   T
  0.2229038557681946  0.4437621442240669  0.1801952641032258   F   F   F
  0.1098122602138503  0.5568547397851091  0.0345707230907166   F   F   F
  0.5518773055958732  0.4424606122021046  0.1909095861842047   F   F   F
  0.4469293171898201  0.5570429708353259  0.0337946586782465   F   F   F
  0.6664832445844640  0.3381122209415444  0.3433063091697438   T   T   T
  0.8890126373343818  0.4445369477584364  0.1912683276289400   F   F   F
  0.7774776455312633  0.5549389051281111  0.0374227274445573   F   F   F
  0.9990927439643792  0.6674266562257689  0.3429665123822254   T   T   T
  0.2221290522447816  0.7776543626727488  0.1912683276290181   F   F   F
  0.1117280948731789  0.8891893544701972  0.0374227274445289   F   F   F
  0.3418738713042538  0.6789091436909057  0.3459973905917590   T   T   T
  0.5554015868645195  0.7765744012580171  0.1901904070533789   F   F   F
  0.4450248587338663  0.8890516003274485  0.0363872178350633   F   F   F
  0.6639546549307063  0.6648441798425263  0.3423973387690035   T   T   T
  0.8889673715449788  0.7776996284573841  0.1898514910045179   F   F   F
  0.7773944452386914  0.8892725547608151  0.0357720088477578   F   F   F
  0.3370283975724509  0.3293084028398179  0.4400411189597769   T   T   T
  0.4345387891400788  0.2318466808810646  0.4388999720889006   T   T   T
 
  0.00000000E+00  0.00000000E+00  0.00000000E+00
  0.00000000E+00  0.00000000E+00  0.00000000E+00
  0.00000000E+00  0.00000000E+00  0.00000000E+00
  0.00000000E+00  0.00000000E+00  0.00000000E+00
  0.00000000E+00  0.00000000E+00  0.00000000E+00
  0.00000000E+00  0.00000000E+00  0.00000000E+00
  0.00000000E+00  0.00000000E+00  0.00000000E+00
  0.00000000E+00  0.00000000E+00  0.00000000E+00
  0.00000000E+00  0.00000000E+00  0.00000000E+00
  0.00000000E+00  0.00000000E+00  0.00000000E+00
  0.00000000E+00  0.00000000E+00  0.00000000E+00
  0.00000000E+00  0.00000000E+00  0.00000000E+00
  0.00000000E+00  0.00000000E+00  0.00000000E+00
  0.00000000E+00  0.00000000E+00  0.00000000E+00
  0.00000000E+00  0.00000000E+00  0.00000000E+00
  0.00000000E+00  0.00000000E+00  0.00000000E+00
  0.00000000E+00  0.00000000E+00  0.00000000E+00
  0.00000000E+00  0.00000000E+00  0.00000000E+00
  0.00000000E+00  0.00000000E+00  0.00000000E+00
  0.00000000E+00  0.00000000E+00  0.00000000E+00
  0.00000000E+00  0.00000000E+00  0.00000000E+00
  0.00000000E+00  0.00000000E+00  0.00000000E+00
  0.00000000E+00  0.00000000E+00  0.00000000E+00
  0.00000000E+00  0.00000000E+00  0.00000000E+00
  0.00000000E+00  0.00000000E+00  0.00000000E+00
  0.00000000E+00  0.00000000E+00  0.00000000E+00
  0.00000000E+00  0.00000000E+00  0.00000000E+00
  0.00000000E+00  0.00000000E+00  0.00000000E+00
  0.00000000E+00  0.00000000E+00  0.00000000E+00
  0.00000000E+00  0.00000000E+00  0.00000000E+00
  0.00000000E+00  0.00000000E+00  0.00000000E+00
  0.00000000E+00  0.00000000E+00  0.00000000E+00
  0.00000000E+00  0.00000000E+00  0.00000000E+00
  0.00000000E+00  0.00000000E+00  0.00000000E+00
  0.00000000E+00  0.00000000E+00  0.00000000E+00
  0.00000000E+00  0.00000000E+00  0.00000000E+00
  0.00000000E+00  0.00000000E+00  0.00000000E+00
  0.00000000E+00  0.00000000E+00  0.00000000E+00
  0.00000000E+00  0.00000000E+00  0.00000000E+00
  0.00000000E+00  0.00000000E+00  0.00000000E+00
  0.00000000E+00  0.00000000E+00  0.00000000E+00
  0.00000000E+00  0.00000000E+00  0.00000000E+00
  0.00000000E+00  0.00000000E+00  0.00000000E+00
  0.00000000E+00  0.00000000E+00  0.00000000E+00
  0.00000000E+00  0.00000000E+00  0.00000000E+00
  0.00000000E+00  0.00000000E+00  0.00000000E+00
  0.00000000E+00  0.00000000E+00  0.00000000E+00
  0.00000000E+00  0.00000000E+00  0.00000000E+00
  0.00000000E+00  0.00000000E+00  0.00000000E+00
  0.00000000E+00  0.00000000E+00  0.00000000E+00
  0.00000000E+00  0.00000000E+00  0.00000000E+00
  0.00000000E+00  0.00000000E+00  0.00000000E+00
  0.00000000E+00  0.00000000E+00  0.00000000E+00
  0.00000000E+00  0.00000000E+00  0.00000000E+00
  0.00000000E+00  0.00000000E+00  0.00000000E+00
  0.00000000E+00  0.00000000E+00  0.00000000E+00
  0.00000000E+00  0.00000000E+00  0.00000000E+00
  0.00000000E+00  0.00000000E+00  0.00000000E+00
  0.00000000E+00  0.00000000E+00  0.00000000E+00
  0.00000000E+00  0.00000000E+00  0.00000000E+00
  0.00000000E+00  0.00000000E+00  0.00000000E+00
  0.00000000E+00  0.00000000E+00  0.00000000E+00
  0.00000000E+00  0.00000000E+00  0.00000000E+00
  0.00000000E+00  0.00000000E+00  0.00000000E+00
  0.00000000E+00  0.00000000E+00  0.00000000E+00
  0.00000000E+00  0.00000000E+00  0.00000000E+00
  0.00000000E+00  0.00000000E+00  0.00000000E+00
  0.00000000E+00  0.00000000E+00  0.00000000E+00
  0.00000000E+00  0.00000000E+00  0.00000000E+00
  0.00000000E+00  0.00000000E+00  0.00000000E+00
  0.00000000E+00  0.00000000E+00  0.00000000E+00
  0.00000000E+00  0.00000000E+00  0.00000000E+00
  0.00000000E+00  0.00000000E+00  0.00000000E+00
  0.00000000E+00  0.00000000E+00  0.00000000E+00
  0.00000000E+00  0.00000000E+00  0.00000000E+00
  0.00000000E+00  0.00000000E+00  0.00000000E+00
  0.00000000E+00  0.00000000E+00  0.00000000E+00
  0.00000000E+00  0.00000000E+00  0.00000000E+00
  0.00000000E+00  0.00000000E+00  0.00000000E+00
  0.00000000E+00  0.00000000E+00  0.00000000E+00
  0.00000000E+00  0.00000000E+00  0.00000000E+00
  0.00000000E+00  0.00000000E+00  0.00000000E+00
