CeO2-you-111-you-Hf                     
   1.00000000000000     
     9.8147577887802679   -5.6665534228435650    0.0000000000000000
     0.0000000033542455   11.3331048571107811    0.0000000000000000
     0.0000000000000000    0.0000000000000000   21.1959671819540567
   O    Hf   Ce   H 
    54     1    26     2
Selective dynamics
Direct
  0.0001892994799364 -0.0001405502049383  0.9952361084099181   T   T   T
  0.1108127611594740  0.2205553506813326  0.1492632980180557   T   T   T
  0.2403086789045955  0.1270225772129842  0.3067548710047417   T   T   T
  0.1275957689301595  0.2329525518828038  0.3791250844709550   T   T   T
  0.0062980983594338  0.0027001584722840  0.2323360855513375   T   T   T
  0.2229371443449097  0.1112079610617494  0.0749238862796154   T   T   T
  0.3336319335360567  0.0001521026980193  0.9949221387824884   T   T   T
  0.4437297022487300  0.2220193356846011  0.1505661611837793   T   T   T
  0.5511777557246310  0.1153460885147088  0.3063067040734893   T   T   T
  0.4460658957959319  0.2216271661863177  0.3981830572514999   T   T   T
  0.3315682144117106  0.9982527802638286  0.2297399405755286   T   T   T
  0.5565078933956770  0.1132144199252316  0.0745596537807026   T   T   T
  0.6676070082066335  0.0012444900204361  0.9949783114547049   T   T   T
  0.7781677291697879  0.2216594734382435  0.1489568232047083   T   T   T
  0.8931609789761454  0.1122650323597166  0.3054997891350907   T   T   T
  0.7793892982177435  0.2229504191178520  0.3827091939167804   T   T   T
  0.6700580399215950  0.0080623154656894  0.2327551968777872   T   T   T
  0.8893298556828271  0.1122452597783632  0.0744656037818512   T   T   T
  0.9996458917385193  0.3324520647371119  0.9934547863374131   T   T   T
  0.1092754840704083  0.5550276736906516  0.1472346573293544   T   T   T
  0.2244736743902740  0.4398022717648402  0.3016892967905566   T   T   T
  0.1124158763551658  0.5539069834448909  0.3819968761453384   T   T   T
  0.0000913597086110  0.3337895557420200  0.2291142666079069   T   T   T
  0.2201618922022075  0.4431788536429657  0.0732685783501684   T   T   T
  0.3333111222801818  0.3328193508900975  0.9949552246331449   T   T   T
  0.4404286089945170  0.5470475319940209  0.1474986892838229   T   T   T
  0.5388388027921606  0.4247800666797510  0.3064772255012911   T   T   T
  0.4333750153758970  0.5377064526045189  0.3783903335981913   T   T   T
  0.3306560936488049  0.3347780498027005  0.2311727479125203   T   T   T
  0.5568928715771712  0.4429725887507952  0.0743215262370434   T   T   T
  0.6662408981986417  0.3327695950901698  0.9936076580434234   T   T   T
  0.7782053110953262  0.5555864874631065  0.1488785749924755   T   T   T
  0.8906607497162439  0.4453212708572790  0.3036107173694848   T   T   T
  0.7754638554096381  0.5531814920562207  0.3817789458311350   T   T   T
  0.6687845610278607  0.3342341503176792  0.2291905022175896   T   T   T
  0.8882534447926639  0.4438565987641928  0.0735366407602027   T   T   T
  0.0002963845666423  0.6668982623634305  0.9933891938107950   T   T   T
  0.1102362425692481  0.8894349462953233  0.1495341482576848   T   T   T
  0.2206940413125285  0.7773833532456704  0.3042768377668312   T   T   T
  0.1135109788090215  0.8911681551189329  0.3826747380377933   T   T   T
  0.0002403067699450  0.6660567481554701  0.2290853200082299   T   T   T
  0.2204121522118213  0.7768492042844858  0.0738796187001174   T   T   T
  0.3328222906288261  0.6665003988748804  0.9948305349454896   T   T   T
  0.4415844305400417  0.8927378369099528  0.1478641748991397   T   T   T
  0.5547783438406375  0.7740773468545933  0.3080755564562718   T   T   T
  0.4435703156651643  0.8884752644389732  0.3827135685854653   T   T   T
  0.3243811158731523  0.6622458520858729  0.2302688666856158   T   T   T
  0.5570979255187484  0.7780638655250711  0.0721355657666024   T   T   T
  0.6675572927164516  0.6657662178487624  0.9946476299539466   T   T   T
  0.7874270066146163  0.8928164062462062  0.1499763913301834   T   T   T
  0.8909127099188076  0.7787743256458879  0.3048006154565220   T   T   T
  0.7805327790492949  0.8897318667923252  0.3832179950077821   T   T   T
  0.6681945461271105  0.6574147033008937  0.2328865628945234   T   T   T
  0.8893921625919440  0.7761172462912269  0.0742338908457353   T   T   T
  0.3249976824312004  0.3411351832044751  0.3321795302057699   T   T   T
  0.0048917903030608  0.0031636615047624  0.3434950219860496   T   T   T
  0.2231946335618447  0.1112702258506388  0.1896530218315087   T   T   T
  0.1107995411210501  0.2216726395751112  0.0345227879112133   T   T   T
  0.3311668817959540 -0.0044904065372679  0.3423935726422432   T   T   T
  0.5556753013298843  0.1105824651810598  0.1889377112536209   T   T   T
  0.4448129060851654  0.2221769843615869  0.0344483631714746   T   T   T
  0.6679855127339662 -0.0006416379989652  0.3439391664700071   T   T   T
  0.8895202876830712  0.1111909487822748  0.1893749495339663   T   T   T
  0.7778063652419297  0.2220092854851911  0.0338935009427963   T   T   T
  0.0021725409440566  0.3335021373063597  0.3424289566141024   T   T   T
  0.2213941869302353  0.4451193298652867  0.1865334013490595   T   T   T
  0.1105430785410786  0.5553401951542278  0.0329211257363416   T   T   T
  0.5550726937906971  0.4431224853020551  0.1891062049775543   T   T   T
  0.4449859204658869  0.5552048375743514  0.0346800239249662   T   T   T
  0.6712426022911134  0.3354514910290863  0.3416733024884991   T   T   T
  0.8889690695188632  0.4442164504403743  0.1873962185945093   T   T   T
  0.7777380528623424  0.5551493366365909  0.0339240758679036   T   T   T
  0.0004796254307272  0.6668405574680387  0.3418986253668942   T   T   T
  0.2221322014349231  0.7774118288283932  0.1877894793365616   T   T   T
  0.1110148852767498  0.8886206222638282  0.0347732670859221   T   T   T
  0.3325324198646295  0.6642482302615400  0.3421969312569011   T   T   T
  0.5554839016402833  0.7769362233127513  0.1894562539505446   T   T   T
  0.4448182235750590  0.8890974574118951  0.0349188126566322   T   T   T
  0.6639823141716550  0.6619375549952665  0.3428523622123175   T   T   T
  0.8894740988997921  0.7772223395972716  0.1895356527599466   T   T   T
  0.7783231827293887  0.8887217061373694  0.0353622784438602   T   T   T
  0.3244938425528721  0.3441338420707681  0.4394472938088769   T   T   T
  0.4348746616282590  0.2319470538054809  0.4430267425172745   T   T   T
 
  0.00000000E+00  0.00000000E+00  0.00000000E+00
  0.00000000E+00  0.00000000E+00  0.00000000E+00
  0.00000000E+00  0.00000000E+00  0.00000000E+00
  0.00000000E+00  0.00000000E+00  0.00000000E+00
  0.00000000E+00  0.00000000E+00  0.00000000E+00
  0.00000000E+00  0.00000000E+00  0.00000000E+00
  0.00000000E+00  0.00000000E+00  0.00000000E+00
  0.00000000E+00  0.00000000E+00  0.00000000E+00
  0.00000000E+00  0.00000000E+00  0.00000000E+00
  0.00000000E+00  0.00000000E+00  0.00000000E+00
  0.00000000E+00  0.00000000E+00  0.00000000E+00
  0.00000000E+00  0.00000000E+00  0.00000000E+00
  0.00000000E+00  0.00000000E+00  0.00000000E+00
  0.00000000E+00  0.00000000E+00  0.00000000E+00
  0.00000000E+00  0.00000000E+00  0.00000000E+00
  0.00000000E+00  0.00000000E+00  0.00000000E+00
  0.00000000E+00  0.00000000E+00  0.00000000E+00
  0.00000000E+00  0.00000000E+00  0.00000000E+00
  0.00000000E+00  0.00000000E+00  0.00000000E+00
  0.00000000E+00  0.00000000E+00  0.00000000E+00
  0.00000000E+00  0.00000000E+00  0.00000000E+00
  0.00000000E+00  0.00000000E+00  0.00000000E+00
  0.00000000E+00  0.00000000E+00  0.00000000E+00
  0.00000000E+00  0.00000000E+00  0.00000000E+00
  0.00000000E+00  0.00000000E+00  0.00000000E+00
  0.00000000E+00  0.00000000E+00  0.00000000E+00
  0.00000000E+00  0.00000000E+00  0.00000000E+00
  0.00000000E+00  0.00000000E+00  0.00000000E+00
  0.00000000E+00  0.00000000E+00  0.00000000E+00
  0.00000000E+00  0.00000000E+00  0.00000000E+00
  0.00000000E+00  0.00000000E+00  0.00000000E+00
  0.00000000E+00  0.00000000E+00  0.00000000E+00
  0.00000000E+00  0.00000000E+00  0.00000000E+00
  0.00000000E+00  0.00000000E+00  0.00000000E+00
  0.00000000E+00  0.00000000E+00  0.00000000E+00
  0.00000000E+00  0.00000000E+00  0.00000000E+00
  0.00000000E+00  0.00000000E+00  0.00000000E+00
  0.00000000E+00  0.00000000E+00  0.00000000E+00
  0.00000000E+00  0.00000000E+00  0.00000000E+00
  0.00000000E+00  0.00000000E+00  0.00000000E+00
  0.00000000E+00  0.00000000E+00  0.00000000E+00
  0.00000000E+00  0.00000000E+00  0.00000000E+00
  0.00000000E+00  0.00000000E+00  0.00000000E+00
  0.00000000E+00  0.00000000E+00  0.00000000E+00
  0.00000000E+00  0.00000000E+00  0.00000000E+00
  0.00000000E+00  0.00000000E+00  0.00000000E+00
  0.00000000E+00  0.00000000E+00  0.00000000E+00
  0.00000000E+00  0.00000000E+00  0.00000000E+00
  0.00000000E+00  0.00000000E+00  0.00000000E+00
  0.00000000E+00  0.00000000E+00  0.00000000E+00
  0.00000000E+00  0.00000000E+00  0.00000000E+00
  0.00000000E+00  0.00000000E+00  0.00000000E+00
  0.00000000E+00  0.00000000E+00  0.00000000E+00
  0.00000000E+00  0.00000000E+00  0.00000000E+00
  0.00000000E+00  0.00000000E+00  0.00000000E+00
  0.00000000E+00  0.00000000E+00  0.00000000E+00
  0.00000000E+00  0.00000000E+00  0.00000000E+00
  0.00000000E+00  0.00000000E+00  0.00000000E+00
  0.00000000E+00  0.00000000E+00  0.00000000E+00
  0.00000000E+00  0.00000000E+00  0.00000000E+00
  0.00000000E+00  0.00000000E+00  0.00000000E+00
  0.00000000E+00  0.00000000E+00  0.00000000E+00
  0.00000000E+00  0.00000000E+00  0.00000000E+00
  0.00000000E+00  0.00000000E+00  0.00000000E+00
  0.00000000E+00  0.00000000E+00  0.00000000E+00
  0.00000000E+00  0.00000000E+00  0.00000000E+00
  0.00000000E+00  0.00000000E+00  0.00000000E+00
  0.00000000E+00  0.00000000E+00  0.00000000E+00
  0.00000000E+00  0.00000000E+00  0.00000000E+00
  0.00000000E+00  0.00000000E+00  0.00000000E+00
  0.00000000E+00  0.00000000E+00  0.00000000E+00
  0.00000000E+00  0.00000000E+00  0.00000000E+00
  0.00000000E+00  0.00000000E+00  0.00000000E+00
  0.00000000E+00  0.00000000E+00  0.00000000E+00
  0.00000000E+00  0.00000000E+00  0.00000000E+00
  0.00000000E+00  0.00000000E+00  0.00000000E+00
  0.00000000E+00  0.00000000E+00  0.00000000E+00
  0.00000000E+00  0.00000000E+00  0.00000000E+00
  0.00000000E+00  0.00000000E+00  0.00000000E+00
  0.00000000E+00  0.00000000E+00  0.00000000E+00
  0.00000000E+00  0.00000000E+00  0.00000000E+00
  0.00000000E+00  0.00000000E+00  0.00000000E+00
  0.00000000E+00  0.00000000E+00  0.00000000E+00
