CeO2-you-111-you-Al                     
   1.00000000000000     
     9.8829253117396068   -5.7059099636841282   -0.0000000014905152
    -0.0372195020341468   11.3473518548364485   -0.0291991679703432
    -0.0317910316764666   -0.0550636728468761   20.9385108264259046
   O    Al   Ce
    53     1    26
Selective dynamics
Direct
 -0.0001248413779915 -0.0003173538967104  0.9943230907149995   T   T   T
  0.1089694714568195  0.2214909526695265  0.1474867095156604   T   T   T
  0.2436391023062518  0.1539452046243933  0.3127899719078368   T   T   T
  0.0567842353321747  0.1988046350481222  0.3980044860283133   T   T   T
  0.0092977088126277  0.0045242508167361  0.2302105578035678   T   T   T
  0.2218285268621055  0.1103240537236192  0.0738737153451526   T   T   T
  0.3331404874813463 -0.0003173538963989  0.9943230907151701   T   T   T
  0.4458544812166196  0.2214909526702441  0.1474867095160614   T   T   T
  0.5576429531527209  0.1105385231362893  0.3003913220419002   T   T   T
  0.4753533997269083  0.1988046350593882  0.3980044860332729   T   T   T
  0.3285595420053958  0.0045242508145773  0.2302105578028054   T   T   T
  0.5568353440035769  0.1103793174137110  0.0742593815197050   T   T   T
  0.6660753491821693 -0.0011833016366751  0.9940425262107698   T   T   T
  0.7775292375264932  0.2217244750545208  0.1530270065023525   T   T   T
  0.8862295699868976  0.1105385231354857  0.3003913220411789   T   T   T
  0.7760751546207372  0.2188163092420606  0.3847619692978770   T   T   T
  0.6623625870013384 -0.0086088259977132  0.2301727561965397   T   T   T
  0.8868779734087452  0.1103793174114986  0.0742593815187915   T   T   T
 -0.0006644400947146  0.3318944326325912  0.9941959511244890   T   T   T
  0.1092097173329533  0.5563782977508768  0.1483299559917071   T   T   T
  0.2502527801585964  0.4326420049828949  0.3184047535308487   T   T   T
  0.1072521323526570  0.5554156480693473  0.3836761706893016   T   T   T
  0.0115133292266555  0.3405237196632606  0.2311867446727760   T   T   T
  0.2216378129997215  0.4450568857708436  0.0736281581786605   T   T   T
  0.3329108678377490  0.3324887356761418  0.9946316998096919   T   T   T
  0.4458544407344303  0.5583768814740349  0.1472366964876012   T   T   T
  0.5157232248209688  0.4326420049817992  0.3184047535304144   T   T   T
  0.3353839162579313  0.3374348325209234  0.2213517002933923   T   T   T
  0.5567530727703717  0.4450568857706322  0.0736281581786096   T   T   T
  0.6658928727264749  0.3318944326322951  0.9941959511242991   T   T   T
  0.7805015804183378  0.5563782977512240  0.1483299559918937   T   T   T
  0.8876907066742539  0.4420474133484253  0.3042857508437829   T   T   T
  0.7814965157166953  0.5554156480689149  0.3836761706885802   T   T   T
  0.6623443904327129  0.3405237196604890  0.2311867446718314   T   T   T
  0.8877436909708450  0.4421533819412292  0.0740624064328051   T   T   T
 -0.0011929750970792  0.6642810498055466  0.9935189680211879   T   T   T
  0.1103904670495487  0.8874479340961758  0.1478373725418041   T   T   T
  0.2217256032983200  0.7812388243454639  0.3036766166473239   T   T   T
  0.1157910417548684  0.8982490835097103  0.3829348581515065   T   T   T
  0.0004069508368908  0.6674809016746421  0.2295154320636165   T   T   T
  0.2218537324571441  0.7776070814616247  0.0732748778837173   T   T   T
  0.3345404132891422  0.6666721350517429  0.9942248489648970   T   T   T
  0.4421184921543516  0.8883353294906431  0.1505675416611889   T   T   T
  0.5475188075535525  0.7617036151097902  0.3097005058331370   T   T   T
  0.4479808702534516  0.8942847072149560  0.3848979655728028   T   T   T
  0.3284166379526235  0.6625077739376939  0.2291037975618924   T   T   T
  0.5566180420641752  0.7799020841295283  0.0749791831917477   T   T   T
  0.6654647217625403  0.6666721350513970  0.9942248489647867   T   T   T
  0.7795498373371909  0.8883353294898660  0.1505675416608647   T   T   T
  0.8928462210514243  0.7812388243488499  0.3036766166474565   T   T   T
  0.7796368369643871  0.8942847072164559  0.3848979655731756   T   T   T
  0.6674241359851754  0.6625077739379303  0.2291037975618135   T   T   T
  0.8890863490043530  0.7776070814607537  0.0732748778834511   T   T   T
  0.3352383105208639  0.3371436210526326  0.3085604908218555   T   T   T
  0.0048163710939694  0.0114293939726856  0.3485665392725924   T   T   T
  0.2221749089388825  0.1110168178781548  0.1873575725847059   T   T   T
  0.1097812649733737  0.2207972100749118  0.0336543597628491   T   T   T
  0.3399460228809744  0.0114293939769367  0.3485665392730861   T   T   T
  0.5545203486597065  0.1109865047541693  0.1907541629210660   T   T   T
  0.4443489451019839  0.2207972100755796  0.0336543597630540   T   T   T
  0.6656955516200990 -0.0019428967572040  0.3458181526104034   T   T   T
  0.8898001560938403  0.1109865047527061  0.1907541629209010   T   T   T
  0.7770918713157987  0.2208497426318429  0.0347629493908538   T   T   T
 -0.0013627266654498  0.3282717575408546  0.3486890714232626   T   T   T
  0.2209418125207303  0.4460131040004087  0.1857780034855116   T   T   T
  0.1093833903292496  0.5544974065805567  0.0338855606978769   T   T   T
  0.5584052914802063  0.4460131040022597  0.1857780034858869   T   T   T
  0.4448365350989095  0.5563410701987636  0.0332173327752795   T   T   T
  0.6629684842094197  0.3282717575411453  0.3486890714236200   T   T   T
  0.8887856201531412  0.4442372403056761  0.1920173701292645   T   T   T
  0.7784470162523004  0.5544974065807426  0.0338855606979023   T   T   T
  0.0009083472531429  0.6684836945072608  0.3440319723955003   T   T   T
  0.2215615488000287  0.7795505050081133  0.1894762251196969   T   T   T
  0.1105011176865798  0.8876692353720488  0.0335396628684078   T   T   T
  0.3248137497568264  0.6711420331029364  0.3428594797706411   T   T   T
  0.5547471932518160  0.7761603865047393  0.1904133710653722   T   T   T
  0.4444707567615925  0.8882855494094403  0.0346114705561572   T   T   T
  0.6796612833422768  0.6711420330954125  0.3428594797699706   T   T   T
  0.8913219562084305  0.7795505050074262  0.1894762251196480   T   T   T
  0.7771477926476714  0.8882855494084261  0.0346114705557329   T   T   T
 
  0.00000000E+00  0.00000000E+00  0.00000000E+00
  0.00000000E+00  0.00000000E+00  0.00000000E+00
  0.00000000E+00  0.00000000E+00  0.00000000E+00
  0.00000000E+00  0.00000000E+00  0.00000000E+00
  0.00000000E+00  0.00000000E+00  0.00000000E+00
  0.00000000E+00  0.00000000E+00  0.00000000E+00
  0.00000000E+00  0.00000000E+00  0.00000000E+00
  0.00000000E+00  0.00000000E+00  0.00000000E+00
  0.00000000E+00  0.00000000E+00  0.00000000E+00
  0.00000000E+00  0.00000000E+00  0.00000000E+00
  0.00000000E+00  0.00000000E+00  0.00000000E+00
  0.00000000E+00  0.00000000E+00  0.00000000E+00
  0.00000000E+00  0.00000000E+00  0.00000000E+00
  0.00000000E+00  0.00000000E+00  0.00000000E+00
  0.00000000E+00  0.00000000E+00  0.00000000E+00
  0.00000000E+00  0.00000000E+00  0.00000000E+00
  0.00000000E+00  0.00000000E+00  0.00000000E+00
  0.00000000E+00  0.00000000E+00  0.00000000E+00
  0.00000000E+00  0.00000000E+00  0.00000000E+00
  0.00000000E+00  0.00000000E+00  0.00000000E+00
  0.00000000E+00  0.00000000E+00  0.00000000E+00
  0.00000000E+00  0.00000000E+00  0.00000000E+00
  0.00000000E+00  0.00000000E+00  0.00000000E+00
  0.00000000E+00  0.00000000E+00  0.00000000E+00
  0.00000000E+00  0.00000000E+00  0.00000000E+00
  0.00000000E+00  0.00000000E+00  0.00000000E+00
  0.00000000E+00  0.00000000E+00  0.00000000E+00
  0.00000000E+00  0.00000000E+00  0.00000000E+00
  0.00000000E+00  0.00000000E+00  0.00000000E+00
  0.00000000E+00  0.00000000E+00  0.00000000E+00
  0.00000000E+00  0.00000000E+00  0.00000000E+00
  0.00000000E+00  0.00000000E+00  0.00000000E+00
  0.00000000E+00  0.00000000E+00  0.00000000E+00
  0.00000000E+00  0.00000000E+00  0.00000000E+00
  0.00000000E+00  0.00000000E+00  0.00000000E+00
  0.00000000E+00  0.00000000E+00  0.00000000E+00
  0.00000000E+00  0.00000000E+00  0.00000000E+00
  0.00000000E+00  0.00000000E+00  0.00000000E+00
  0.00000000E+00  0.00000000E+00  0.00000000E+00
  0.00000000E+00  0.00000000E+00  0.00000000E+00
  0.00000000E+00  0.00000000E+00  0.00000000E+00
  0.00000000E+00  0.00000000E+00  0.00000000E+00
  0.00000000E+00  0.00000000E+00  0.00000000E+00
  0.00000000E+00  0.00000000E+00  0.00000000E+00
  0.00000000E+00  0.00000000E+00  0.00000000E+00
  0.00000000E+00  0.00000000E+00  0.00000000E+00
  0.00000000E+00  0.00000000E+00  0.00000000E+00
  0.00000000E+00  0.00000000E+00  0.00000000E+00
  0.00000000E+00  0.00000000E+00  0.00000000E+00
  0.00000000E+00  0.00000000E+00  0.00000000E+00
  0.00000000E+00  0.00000000E+00  0.00000000E+00
  0.00000000E+00  0.00000000E+00  0.00000000E+00
  0.00000000E+00  0.00000000E+00  0.00000000E+00
  0.00000000E+00  0.00000000E+00  0.00000000E+00
  0.00000000E+00  0.00000000E+00  0.00000000E+00
  0.00000000E+00  0.00000000E+00  0.00000000E+00
  0.00000000E+00  0.00000000E+00  0.00000000E+00
  0.00000000E+00  0.00000000E+00  0.00000000E+00
  0.00000000E+00  0.00000000E+00  0.00000000E+00
  0.00000000E+00  0.00000000E+00  0.00000000E+00
  0.00000000E+00  0.00000000E+00  0.00000000E+00
  0.00000000E+00  0.00000000E+00  0.00000000E+00
  0.00000000E+00  0.00000000E+00  0.00000000E+00
  0.00000000E+00  0.00000000E+00  0.00000000E+00
  0.00000000E+00  0.00000000E+00  0.00000000E+00
  0.00000000E+00  0.00000000E+00  0.00000000E+00
  0.00000000E+00  0.00000000E+00  0.00000000E+00
  0.00000000E+00  0.00000000E+00  0.00000000E+00
  0.00000000E+00  0.00000000E+00  0.00000000E+00
  0.00000000E+00  0.00000000E+00  0.00000000E+00
  0.00000000E+00  0.00000000E+00  0.00000000E+00
  0.00000000E+00  0.00000000E+00  0.00000000E+00
  0.00000000E+00  0.00000000E+00  0.00000000E+00
  0.00000000E+00  0.00000000E+00  0.00000000E+00
  0.00000000E+00  0.00000000E+00  0.00000000E+00
  0.00000000E+00  0.00000000E+00  0.00000000E+00
  0.00000000E+00  0.00000000E+00  0.00000000E+00
  0.00000000E+00  0.00000000E+00  0.00000000E+00
  0.00000000E+00  0.00000000E+00  0.00000000E+00
  0.00000000E+00  0.00000000E+00  0.00000000E+00
