CeO2-you-111-you-Sc                     
   1.00000000000000     
     9.8456839725210017   -5.6666061947230313    0.0018224271461910
    -0.0000000001112122   11.3332103948777032   -0.0000000002076349
     0.0042224252820378   -0.0000000004354520   21.0403494394251993
   O    Sc   Ce   H 
    53     1    26     2
Selective dynamics
Direct
  0.9994958239309092  0.0006121164413829  0.9957530430578403   T   T   T
  0.1167896062310945  0.2250613031151190  0.1513972715800662   F   F   F
  0.2226434199702840  0.1123102569500849  0.3042712619524619   T   T   T
  0.1166567032051280  0.2263908807848746  0.3829613164618370   T   T   T
  0.0004112012966166  0.0018662009537124  0.2285535675402261   T   T   T
  0.2214500981737189  0.1100180990078883  0.0747788218499323   F   F   F
  0.3333930623757040 -0.0002560133047745  0.9949650704700900   T   T   T
  0.4436422799006934  0.2210539131682410  0.1476509124802732   F   F   F
  0.5482832207013343  0.1054505965508061  0.3070671585268934   T   T   T
  0.4356283452222319  0.2478702475300540  0.3865882416661254   T   T   T
  0.3327708252497416 -0.0000685663877776  0.2295588345409544   T   T   T
  0.5548416270660113  0.1098691365194995  0.0749859979339789   F   F   F
  0.6694166704229807  0.0011864068715446  0.9959551436337162   T   T   T
  0.7736955501692080  0.2250259517398590  0.1515795267937818   F   F   F
  0.8899519052042444  0.1108277092326233  0.3038643216211707   T   T   T
  0.7829231376440584  0.2160003437590947  0.3882609925112073   T   T   T
  0.6668795766262166  0.0013946728406731  0.2296343270059776   T   T   T
  0.8892839506888137  0.1113084753442735  0.0781566369492239   F   F   F
  0.9988584480186429  0.3307714610011183  0.9957731831559609   T   T   T
  0.1111586977446066  0.5554010338469553  0.1510895363960145   F   F   F
  0.2134142686287034  0.4368835857755388  0.3013507192329341   T   T   T
  0.1158450524966380  0.5550398633480305  0.3851032540695820   T   T   T
  0.9974833944047297  0.3302996177878931  0.2276331216919487   T   T   T
  0.2214500981737189  0.4447649991658409  0.0747788218499466   F   F   F
  0.3320768986787599  0.3325221233076982  0.9949925354065540   T   T   T
  0.4436422798995778  0.5559223667332986  0.1476509124803300   F   F   F
  0.4337191103633511  0.5248041497351654  0.3708931317126496   T   T   T
  0.3502805782986264  0.3416658952073073  0.2367442239881129   T   T   T
  0.5559280664255652  0.4446300332129098  0.0726034903836279   F   F   F
  0.6681082171474024  0.3329565368705537  0.9952023771861238   T   T   T
  0.7788422594202515  0.5560881297095932  0.1474478836412842   F   F   F
  0.8965850987149117  0.4445434688379221  0.3040276924774440   T   T   T
  0.7893256229228558  0.5601129684563200  0.3861142062309856   T   T   T
  0.6579270698725976  0.3419520534888503  0.2349644262006945   T   T   T
  0.8905771077755347  0.4448915935111657  0.0751178723672510   F   F   F
  0.0007591728026711  0.6671423807535388  0.9950517709828585   T   T   T
  0.1111586977441306  0.8890916638970765  0.1510895363960216   F   F   F
  0.2222756668776087  0.7755111418207814  0.3036081009001450   T   T   T
  0.1177965758304353  0.8900913438721786  0.3861881517819820   T   T   T
  0.9990050096373927  0.6662499167016666  0.2294588774511915   T   T   T
  0.2223130548311545  0.7778235274155350  0.0755923917677990   F   F   F
  0.3331801475530299  0.6674303452136913  0.9948184297752173   T   T   T
  0.4449071500497155  0.8891205750250037  0.1510578105922420   F   F   F
  0.5535251152802887  0.7815455857559777  0.3050242022762355   T   T   T
  0.4393509114618787  0.8835777272438862  0.3862517852820057   T   T   T
  0.3336315002079061  0.6643517800240769  0.2300283216998370   T   T   T
  0.5548416270659189  0.7783054905465363  0.0749859979340144   F   F   F
  0.6679613014430432  0.6687759170272951  0.9951335047432807   T   T   T
  0.7736955501691867  0.8820025984293167  0.1515795267936824   F   F   F
  0.8986611367327627  0.7856558839590011  0.3044193679099166   T   T   T
  0.7848287702989043  0.9018805137607223  0.3880322835112054   T   T   T
  0.6596349937277749  0.6497668098172238  0.2340950936578256   T   T   T
  0.8905771077754352  0.7790185142641519  0.0751178723672581   F   F   F
  0.3028629101790847  0.3281240526156801  0.3372957496444148   T   T   T
  0.0036962426876433  0.0027299119021542  0.3443568906096773   T   T   T
  0.2227392260316137  0.1121741666783791  0.1910793615886490   F   F   F
  0.1111169263777967  0.2222249631888857  0.0360232129291802   F   F   F
  0.3283047462751166 -0.0078925828121353  0.3429211246007656   T   T   T
  0.5553555772334491  0.1119656897405150  0.1912354494247310   F   F   F
  0.4435064003978297  0.2202678113393972  0.0337927480179800   F   F   F
  0.6656844839730145 -0.0014707224396659  0.3459957371414514   T   T   T
  0.8878434163012869  0.1105882081511140  0.1910870104031659   F   F   F
  0.7780059484547479  0.2224330097391203  0.0361418140993450   F   F   F
  0.0002094680254704  0.3315755858747472  0.3449508815707847   T   T   T
  0.2227392260322532  0.4438980593522786  0.1910793615886490   F   F   F
  0.1110329883160617  0.5551005237034516  0.0359565841966401   F   F   F
  0.5548147233572038  0.4440733616775745  0.1828363205046486   F   F   F
  0.4435064003977232  0.5565725890585327  0.0337927480179516   F   F   F
  0.6776548504085841  0.3321242903898196  0.3511896799658673   T   T   T
  0.8881935161998058  0.4448402627024777  0.1912962639322870   F   F   F
  0.7802960662452989  0.5568150331225326  0.0340842763621794   F   F   F
  0.0007936700635408  0.6659727892539085  0.3452113623504358   T   T   T
  0.2221822598973162  0.7777581299489427  0.1899357464131555   F   F   F
  0.1110329883158414  0.8892664646126747  0.0359565841966472   F   F   F
  0.3332897631361533  0.6592352991932563  0.3435786054686157   T   T   T
  0.5553555772357939  0.7767228874929231  0.1912354494246813   F   F   F
  0.4448193386594212  0.8890766693295973  0.0359223471221526   F   F   F
  0.6728860247743843  0.6753836927127761  0.3519828528028944   T   T   T
  0.8881935162011914  0.7766862535004933  0.1912962639323013   F   F   F
  0.7780059484549753  0.8889059387158298  0.0361418140993308   F   F   F
  0.2951110909260599  0.3379646373569709  0.4575842451008040   T   T   T
  0.4207107646649633  0.2643512916704266  0.4306570813639076   T   T   T
 
  0.00000000E+00  0.00000000E+00  0.00000000E+00
  0.00000000E+00  0.00000000E+00  0.00000000E+00
  0.00000000E+00  0.00000000E+00  0.00000000E+00
  0.00000000E+00  0.00000000E+00  0.00000000E+00
  0.00000000E+00  0.00000000E+00  0.00000000E+00
  0.00000000E+00  0.00000000E+00  0.00000000E+00
  0.00000000E+00  0.00000000E+00  0.00000000E+00
  0.00000000E+00  0.00000000E+00  0.00000000E+00
  0.00000000E+00  0.00000000E+00  0.00000000E+00
  0.00000000E+00  0.00000000E+00  0.00000000E+00
  0.00000000E+00  0.00000000E+00  0.00000000E+00
  0.00000000E+00  0.00000000E+00  0.00000000E+00
  0.00000000E+00  0.00000000E+00  0.00000000E+00
  0.00000000E+00  0.00000000E+00  0.00000000E+00
  0.00000000E+00  0.00000000E+00  0.00000000E+00
  0.00000000E+00  0.00000000E+00  0.00000000E+00
  0.00000000E+00  0.00000000E+00  0.00000000E+00
  0.00000000E+00  0.00000000E+00  0.00000000E+00
  0.00000000E+00  0.00000000E+00  0.00000000E+00
  0.00000000E+00  0.00000000E+00  0.00000000E+00
  0.00000000E+00  0.00000000E+00  0.00000000E+00
  0.00000000E+00  0.00000000E+00  0.00000000E+00
  0.00000000E+00  0.00000000E+00  0.00000000E+00
  0.00000000E+00  0.00000000E+00  0.00000000E+00
  0.00000000E+00  0.00000000E+00  0.00000000E+00
  0.00000000E+00  0.00000000E+00  0.00000000E+00
  0.00000000E+00  0.00000000E+00  0.00000000E+00
  0.00000000E+00  0.00000000E+00  0.00000000E+00
  0.00000000E+00  0.00000000E+00  0.00000000E+00
  0.00000000E+00  0.00000000E+00  0.00000000E+00
  0.00000000E+00  0.00000000E+00  0.00000000E+00
  0.00000000E+00  0.00000000E+00  0.00000000E+00
  0.00000000E+00  0.00000000E+00  0.00000000E+00
  0.00000000E+00  0.00000000E+00  0.00000000E+00
  0.00000000E+00  0.00000000E+00  0.00000000E+00
  0.00000000E+00  0.00000000E+00  0.00000000E+00
  0.00000000E+00  0.00000000E+00  0.00000000E+00
  0.00000000E+00  0.00000000E+00  0.00000000E+00
  0.00000000E+00  0.00000000E+00  0.00000000E+00
  0.00000000E+00  0.00000000E+00  0.00000000E+00
  0.00000000E+00  0.00000000E+00  0.00000000E+00
  0.00000000E+00  0.00000000E+00  0.00000000E+00
  0.00000000E+00  0.00000000E+00  0.00000000E+00
  0.00000000E+00  0.00000000E+00  0.00000000E+00
  0.00000000E+00  0.00000000E+00  0.00000000E+00
  0.00000000E+00  0.00000000E+00  0.00000000E+00
  0.00000000E+00  0.00000000E+00  0.00000000E+00
  0.00000000E+00  0.00000000E+00  0.00000000E+00
  0.00000000E+00  0.00000000E+00  0.00000000E+00
  0.00000000E+00  0.00000000E+00  0.00000000E+00
  0.00000000E+00  0.00000000E+00  0.00000000E+00
  0.00000000E+00  0.00000000E+00  0.00000000E+00
  0.00000000E+00  0.00000000E+00  0.00000000E+00
  0.00000000E+00  0.00000000E+00  0.00000000E+00
  0.00000000E+00  0.00000000E+00  0.00000000E+00
  0.00000000E+00  0.00000000E+00  0.00000000E+00
  0.00000000E+00  0.00000000E+00  0.00000000E+00
  0.00000000E+00  0.00000000E+00  0.00000000E+00
  0.00000000E+00  0.00000000E+00  0.00000000E+00
  0.00000000E+00  0.00000000E+00  0.00000000E+00
  0.00000000E+00  0.00000000E+00  0.00000000E+00
  0.00000000E+00  0.00000000E+00  0.00000000E+00
  0.00000000E+00  0.00000000E+00  0.00000000E+00
  0.00000000E+00  0.00000000E+00  0.00000000E+00
  0.00000000E+00  0.00000000E+00  0.00000000E+00
  0.00000000E+00  0.00000000E+00  0.00000000E+00
  0.00000000E+00  0.00000000E+00  0.00000000E+00
  0.00000000E+00  0.00000000E+00  0.00000000E+00
  0.00000000E+00  0.00000000E+00  0.00000000E+00
  0.00000000E+00  0.00000000E+00  0.00000000E+00
  0.00000000E+00  0.00000000E+00  0.00000000E+00
  0.00000000E+00  0.00000000E+00  0.00000000E+00
  0.00000000E+00  0.00000000E+00  0.00000000E+00
  0.00000000E+00  0.00000000E+00  0.00000000E+00
  0.00000000E+00  0.00000000E+00  0.00000000E+00
  0.00000000E+00  0.00000000E+00  0.00000000E+00
  0.00000000E+00  0.00000000E+00  0.00000000E+00
  0.00000000E+00  0.00000000E+00  0.00000000E+00
  0.00000000E+00  0.00000000E+00  0.00000000E+00
  0.00000000E+00  0.00000000E+00  0.00000000E+00
  0.00000000E+00  0.00000000E+00  0.00000000E+00
  0.00000000E+00  0.00000000E+00  0.00000000E+00
