CeO2-you-111-you-Cu                     
   1.00000000000000     
     9.8360088682195066   -5.6788227390755974    0.0000000001973158
    -0.0017100702509544   11.3546815510786985    0.0037587411625093
     0.0039700673338288    0.0068763571650267   21.1804275110266431
   O    Cu   Ce   H 
    53     1    26     1
Selective dynamics
Direct
  0.0002552665116066  0.0003653118815308  0.9954507569504270   T   T   T
  0.1108606974971857  0.2232261573379216  0.1484615434224577   T   T   T
  0.2316591024237200  0.1159761572970461  0.3050263984328040   T   T   T
  0.1076013436476792  0.2204223049334659  0.3797896905128880   T   T   T
  0.0048979677189381  0.0024001381509163  0.2288158615525692   T   T   T
  0.2238743345458184  0.1126983428729860  0.0741890200469222   T   T   T
  0.3353294857995738  0.0016964152695511  0.9955622069241095   T   T   T
  0.4456830730165745  0.2242016108317453  0.1507010008589901   T   T   T
  0.5506339190628212  0.1067174076235865  0.3046872507848957   T   T   T
  0.4563981379931931  0.1859653487626310  0.4102478995229669   T   T   T
  0.3308255546168523  0.9982229038394461  0.2277471238703881   T   T   T
  0.5571668716179714  0.1133500164050709  0.0757707430364210   T   T   T
  0.6673083535795553  0.0008999646836123  0.9957980733709675   T   T   T
  0.7780839023583763  0.2207796562193255  0.1519908621280772   T   T   T
  0.8877855105927182  0.1090098081145797  0.3013034815010666   T   T   T
  0.7856017834667405  0.2121990552064870  0.3849639813288610   T   T   T
  0.6623138396769044  0.9924374608288146  0.2317891211944431   T   T   T
  0.8896752797801118  0.1129658786761905  0.0744572504365872   T   T   T
  0.0009050977600044  0.3349918683902071  0.9957147389389761   T   T   T
  0.1114737027625479  0.5557995112278548  0.1485130746529851   T   T   T
  0.2352244925488175  0.4528273028843640  0.3083582689513598   T   T   T
  0.1129205962640381  0.5586707590643979  0.3843680409484335   T   T   T
  0.0052983571964054  0.3363366688906217  0.2301656326417623   T   T   T
  0.2238321609608553  0.4460201589209415  0.0750045255453669   T   T   T
  0.3342585544074931  0.3347776250477186  0.9956754970052754   T   T   T
  0.4458991214881315  0.5564092039706361  0.1508208692093407   T   T   T
  0.5622157036932544  0.4615344321678284  0.3082903461914881   T   T   T
  0.3303933648201188  0.3327586543299597  0.2282382380611927   T   T   T
  0.5561175555290309  0.4456468837047393  0.0756626095518118   T   T   T
  0.6678544241783619  0.3351754834035884  0.9958428057565197   T   T   T
  0.7775111678823999  0.5559148452034757  0.1503991643193127   T   T   T
  0.8940376796289289  0.4475185839922252  0.3044308377974251   T   T   T
  0.7933289582279137  0.5743133976796484  0.3879688409208935   T   T   T
  0.6660574634459157  0.3342596446409907  0.2297280440574662   T   T   T
  0.8885129199139510  0.4441158073945115  0.0756988383635845   T   T   T
  0.0007953397848222  0.6671096972967447  0.9956012385844463   T   T   T
  0.1114092500365523  0.8899163019182494  0.1468207463404217   T   T   T
  0.2205629395488404  0.7776193710728814  0.3018099838123280   T   T   T
  0.1139678583752325  0.8905143414278227  0.3827887443993340   T   T   T
  0.0017886902505936  0.6679651506780975  0.2272395849680462   T   T   T
  0.2233507153217376  0.7790408674114395  0.0738792312172674   T   T   T
  0.3354159001657374  0.6682440410532668  0.9959418287510581   T   T   T
  0.4458619570847883  0.8902423624162228  0.1490728715376498   T   T   T
  0.5459364354664329  0.7578658092309046  0.3120144971298755   T   T   T
  0.4396246249649938  0.8829850656790620  0.3828096847881225   T   T   T
  0.3329524733028928  0.6694299607328907  0.2280049125162076   T   T   T
  0.5568799358784068  0.7784436429672852  0.0758565337691390   T   T   T
  0.6670412304927694  0.6678863643545924  0.9957042790581858   T   T   T
  0.7802567481624363  0.8920245951993633  0.1488731578001275   T   T   T
  0.8957564058240886  0.7808839452614821  0.3008496787681065   T   T   T
  0.7838017438587117  0.8911586232907189  0.3816686488582512   T   T   T
  0.6724602774466830  0.6736558003192017  0.2279696413479993   T   T   T
  0.8891248062935849  0.7780183244235689  0.0739864532168353   T   T   T
  0.2485525727557220  0.2916608454812016  0.3137028668339701   T   T   T
  0.0035920254906449  0.0024367338344532  0.3422994569223758   T   T   T
  0.2240830552389529  0.1118117339605242  0.1877488129555715   T   T   T
  0.1120402063079563  0.2235799072362024  0.0351368098703590   T   T   T
  0.3324487013047994 -0.0022020344011745  0.3436040667297691   T   T   T
  0.5553316971137178  0.1118936716514231  0.1913537574256076   T   T   T
  0.4464232271123023  0.2246722518771721  0.0362179879922124   T   T   T
  0.6672976654538654 -0.0009427599880577  0.3442626450242422   T   T   T
  0.8902894228122741  0.1116177637395337  0.1897854779935172   T   T   T
  0.7783776793487741  0.2234041862033761  0.0363529219427237   T   T   T
 -0.0022120243666703  0.3318643236144874  0.3437150104243782   T   T   T
  0.2232096710530611  0.4462024009421683  0.1880237934479513   T   T   T
  0.1115899084643046  0.5562043395261758  0.0350057314182333   T   T   T
  0.5561480409781780  0.4454011437840942  0.1946361449342081   T   T   T
  0.4461988714533228  0.5564300104114777  0.0357388395890699   T   T   T
  0.6665033432706187  0.3364001815870704  0.3493278041197155   T   T   T
  0.8884881356623018  0.4450295700415181  0.1908283015553045   T   T   T
  0.7772411319716812  0.5553527135124215  0.0362272071930198   T   T   T
  0.0012605978337015  0.6668683631178050  0.3440823540863585   T   T   T
  0.2218751470917678  0.7788835984641821  0.1865927758727390   T   T   T
  0.1122697733686258  0.8900234416402334  0.0336810428455145   T   T   T
  0.3238250878529877  0.6707265545100097  0.3392548424972802   T   T   T
  0.5559575500378681  0.7777731508747748  0.1888154020524415   T   T   T
  0.4460844883165130  0.8906211141705682  0.0354034647894593   T   T   T
  0.6846899303168678  0.6715330893690222  0.3392134543900138   T   T   T
  0.8917892436950389  0.7793939240803670  0.1868248674355518   T   T   T
  0.7784647776597804  0.8901096624277893  0.0351361751254048   T   T   T
  0.4115509955272557  0.2101050837487466  0.4425906288807137   T   T   T
 
  0.00000000E+00  0.00000000E+00  0.00000000E+00
  0.00000000E+00  0.00000000E+00  0.00000000E+00
  0.00000000E+00  0.00000000E+00  0.00000000E+00
  0.00000000E+00  0.00000000E+00  0.00000000E+00
  0.00000000E+00  0.00000000E+00  0.00000000E+00
  0.00000000E+00  0.00000000E+00  0.00000000E+00
  0.00000000E+00  0.00000000E+00  0.00000000E+00
  0.00000000E+00  0.00000000E+00  0.00000000E+00
  0.00000000E+00  0.00000000E+00  0.00000000E+00
  0.00000000E+00  0.00000000E+00  0.00000000E+00
  0.00000000E+00  0.00000000E+00  0.00000000E+00
  0.00000000E+00  0.00000000E+00  0.00000000E+00
  0.00000000E+00  0.00000000E+00  0.00000000E+00
  0.00000000E+00  0.00000000E+00  0.00000000E+00
  0.00000000E+00  0.00000000E+00  0.00000000E+00
  0.00000000E+00  0.00000000E+00  0.00000000E+00
  0.00000000E+00  0.00000000E+00  0.00000000E+00
  0.00000000E+00  0.00000000E+00  0.00000000E+00
  0.00000000E+00  0.00000000E+00  0.00000000E+00
  0.00000000E+00  0.00000000E+00  0.00000000E+00
  0.00000000E+00  0.00000000E+00  0.00000000E+00
  0.00000000E+00  0.00000000E+00  0.00000000E+00
  0.00000000E+00  0.00000000E+00  0.00000000E+00
  0.00000000E+00  0.00000000E+00  0.00000000E+00
  0.00000000E+00  0.00000000E+00  0.00000000E+00
  0.00000000E+00  0.00000000E+00  0.00000000E+00
  0.00000000E+00  0.00000000E+00  0.00000000E+00
  0.00000000E+00  0.00000000E+00  0.00000000E+00
  0.00000000E+00  0.00000000E+00  0.00000000E+00
  0.00000000E+00  0.00000000E+00  0.00000000E+00
  0.00000000E+00  0.00000000E+00  0.00000000E+00
  0.00000000E+00  0.00000000E+00  0.00000000E+00
  0.00000000E+00  0.00000000E+00  0.00000000E+00
  0.00000000E+00  0.00000000E+00  0.00000000E+00
  0.00000000E+00  0.00000000E+00  0.00000000E+00
  0.00000000E+00  0.00000000E+00  0.00000000E+00
  0.00000000E+00  0.00000000E+00  0.00000000E+00
  0.00000000E+00  0.00000000E+00  0.00000000E+00
  0.00000000E+00  0.00000000E+00  0.00000000E+00
  0.00000000E+00  0.00000000E+00  0.00000000E+00
  0.00000000E+00  0.00000000E+00  0.00000000E+00
  0.00000000E+00  0.00000000E+00  0.00000000E+00
  0.00000000E+00  0.00000000E+00  0.00000000E+00
  0.00000000E+00  0.00000000E+00  0.00000000E+00
  0.00000000E+00  0.00000000E+00  0.00000000E+00
  0.00000000E+00  0.00000000E+00  0.00000000E+00
  0.00000000E+00  0.00000000E+00  0.00000000E+00
  0.00000000E+00  0.00000000E+00  0.00000000E+00
  0.00000000E+00  0.00000000E+00  0.00000000E+00
  0.00000000E+00  0.00000000E+00  0.00000000E+00
  0.00000000E+00  0.00000000E+00  0.00000000E+00
  0.00000000E+00  0.00000000E+00  0.00000000E+00
  0.00000000E+00  0.00000000E+00  0.00000000E+00
  0.00000000E+00  0.00000000E+00  0.00000000E+00
  0.00000000E+00  0.00000000E+00  0.00000000E+00
  0.00000000E+00  0.00000000E+00  0.00000000E+00
  0.00000000E+00  0.00000000E+00  0.00000000E+00
  0.00000000E+00  0.00000000E+00  0.00000000E+00
  0.00000000E+00  0.00000000E+00  0.00000000E+00
  0.00000000E+00  0.00000000E+00  0.00000000E+00
  0.00000000E+00  0.00000000E+00  0.00000000E+00
  0.00000000E+00  0.00000000E+00  0.00000000E+00
  0.00000000E+00  0.00000000E+00  0.00000000E+00
  0.00000000E+00  0.00000000E+00  0.00000000E+00
  0.00000000E+00  0.00000000E+00  0.00000000E+00
  0.00000000E+00  0.00000000E+00  0.00000000E+00
  0.00000000E+00  0.00000000E+00  0.00000000E+00
  0.00000000E+00  0.00000000E+00  0.00000000E+00
  0.00000000E+00  0.00000000E+00  0.00000000E+00
  0.00000000E+00  0.00000000E+00  0.00000000E+00
  0.00000000E+00  0.00000000E+00  0.00000000E+00
  0.00000000E+00  0.00000000E+00  0.00000000E+00
  0.00000000E+00  0.00000000E+00  0.00000000E+00
  0.00000000E+00  0.00000000E+00  0.00000000E+00
  0.00000000E+00  0.00000000E+00  0.00000000E+00
  0.00000000E+00  0.00000000E+00  0.00000000E+00
  0.00000000E+00  0.00000000E+00  0.00000000E+00
  0.00000000E+00  0.00000000E+00  0.00000000E+00
  0.00000000E+00  0.00000000E+00  0.00000000E+00
  0.00000000E+00  0.00000000E+00  0.00000000E+00
  0.00000000E+00  0.00000000E+00  0.00000000E+00
