CeO2-you-111-you-Hg                     
   1.00000000000000     
     9.8870981045714288   -5.7083191246888063   -0.0000000010907595
    -0.0212771082965533   11.3797832100701672   -0.0208275181647438
    -0.0229696929559311   -0.0397846684894554   20.5827210216179708
   O    Hg   Ce H
    53     1    26 2
Selective dynamics
Direct
 -0.0006672657009622 -0.0004204673218749  0.9910875468553094   T   T   T
  0.1062951411785097  0.2202355948070851  0.1480587743342228   F   F   F
  0.2166697802385601  0.1000065604768667  0.3028726856779295   T   T   T
  0.0978141444848772  0.2179183016061753  0.3900631797757760   T   T   T
 -0.0021671855737115 -0.0001689148586602  0.2289566907319056   T   T   T
  0.2222583509280108  0.1111837018559655  0.0715585145540840   F   F   F
  0.3335797983791494 -0.0004204673218066  0.9910875468553066   T   T   T
  0.4472734536283172  0.2202355948069362  0.1480587743342517   F   F   F
  0.5581797608795624  0.1112690696567481  0.3059142189614479   T   T   T
  0.4534371571217932  0.2179183016072875  0.3900631797759952   T   T   T
  0.3353312707153592 -0.0001689148588035  0.2289566907319390   T   T   T
  0.5577714244656328  0.1110533709078262  0.0721918426565751   F   F   F
  0.6661468350116615 -0.0010403299766196  0.9901116081550816   T   T   T
  0.7771470999507463  0.2209601999015706  0.1522006611897720   F   F   F
  0.8864233087776285  0.1112690696572918  0.3059142189614387   T   T   T
  0.7770567263237882  0.2207794526471993  0.3886276771614679   T   T   T
  0.6617555846579626 -0.0098228306843718  0.2332491082420544   T   T   T
  0.8866159464421728  0.1110533709078502  0.0721918426565986   F   F   F
  0.0001955162540715  0.3332153320837392  0.9917518076250130   T   T   T
  0.1103830898083940  0.5546809091076474  0.1488358510980894   F   F   F
  0.2377815967376535  0.4559179513934887  0.3127183421668852   T   T   T
  0.1108068287230707  0.5606463033386146  0.3880132206314948   T   T   T
  0.0062689820146943  0.3373149191864280  0.2330112238643028   T   T   T
  0.2227357033493507  0.4440075022160826  0.0733205070186909   F   F   F
  0.3332312973807357  0.3331295947615698  0.9916190506173761   T   T   T
  0.4461439737307857  0.5589559474619981  0.1489940853108266   F   F   F
  0.5514703546547610  0.4559179513932828  0.3127183421667739   T   T   T
  0.3329974056895394  0.3326618113794071  0.2212597482199850   T   T   T
  0.5546057988666149  0.4440075022159576  0.0733205070186767   F   F   F
  0.6663538158295697  0.3332153320836722  0.9917518076250277   T   T   T
  0.7776308192991368  0.5546809091075806  0.1488358510981031   F   F   F
  0.8889881773298393  0.4446423546598867  0.3076144164939086   T   T   T
  0.7831724746153534  0.5606463033393806  0.3880132206315356   T   T   T
  0.6643799371715280  0.3373149191860861  0.2330112238642551   T   T   T
  0.8875900579770399  0.4418461159541344  0.0735459149477458   F   F   F
 -0.0013269034819978  0.6640131930360044  0.9921026181560431   T   T   T
  0.1110754292581114  0.8888178585158815  0.1469137479187468   F   F   F
  0.2204146639100725  0.7801503971768100  0.3045942960904661   T   T   T
  0.1114785564426861  0.8896241128850464  0.3881401389179920   T   T   T
  0.0007235505250917  0.6681141010500782  0.2292310363541263   T   T   T
  0.2222643538275920  0.7777637491777220  0.0714811821022037   F   F   F
  0.3327723787899146  0.6651260988201378  0.9915288292931584   T   T   T
  0.4456435692841720  0.8890842751859878  0.1475351717184537   F   F   F
  0.5452842637947566  0.7572345275894092  0.3159839097642451   T   T   T
  0.4424637589625348  0.8902883679363497  0.3873219586404399   T   T   T
  0.3328415933377200  0.6705888095727686  0.2293761975752420   T   T   T
  0.5556903912639289  0.7780467825277552  0.0720200127451715   F   F   F
  0.6656867200302821  0.6651260988202099  0.9915288292931462   T   T   T
  0.7767737059021278  0.8890842751863157  0.1475351717184658   F   F   F
  0.8930687332679044  0.7801503971779581  0.3045942960905407   T   T   T
  0.7811576089750030  0.8902883679366300  0.3873219586404212   T   T   T
  0.6710802162350248  0.6705888095730150  0.2293761975752468   T   T   T
  0.8888323953501445  0.7777637491776354  0.0714811821022027   F   F   F
  0.3274750025839708  0.3216170051675201  0.3549968272217932   T   T   T
  0.0049268734291903  0.0055512091390570  0.3465815170226684   T   T   T
  0.2228012980832886  0.1122695961675167  0.1891069365609906   F   F   F
  0.1105870804514294  0.2218874800784820  0.0323607291447183   F   F   F
  0.3339573357089462  0.0055512091401852  0.3465815170225940   T   T   T
  0.5549500958755307  0.1104095203191060  0.1901624277120832   F   F   F
  0.4446333996270778  0.2218874800785499  0.0323607291446968   F   F   F
  0.6666532142672200 -0.0000275714633033  0.3484606175358010   T   T   T
  0.8887934244428350  0.1104095203183696  0.1901624277121034   F   F   F
  0.7772852743360361  0.2212365486720563  0.0323796389744510   F   F   F
  0.0008692879565048  0.3329804376997350  0.3482831273183407   T   T   T
  0.2239255115412233  0.4434101300232375  0.1906842596108979   F   F   F
  0.1104009380157058  0.5538146591961527  0.0326291141167659   F   F   F
  0.5528186184833698  0.4434101300236604  0.1906842596108685   F   F   F
  0.4438091812065129  0.5542863624128583  0.0318861742189323   F   F   F
  0.6654451497440731  0.3329804377000825  0.3482831273183557   T   T   T
  0.8894105622859956  0.4454871245715573  0.1909560235736934   F   F   F
  0.7767467211805658  0.5538146591963043  0.0326291141167669   F   F   F
  0.0013272176406221  0.6693214352815279  0.3473339015186350   T   T   T
  0.2220095017543343  0.7789934135963911  0.1868670092016557   F   F   F
  0.1109480752285155  0.8885631504571895  0.0307124531421288   F   F   F
  0.3231327490973598  0.6737213622059869  0.3428356890228311   T   T   T
  0.5550704457910469  0.7768068915821011  0.1882903702022962   F   F   F
  0.4448203275488530  0.8884253693010119  0.0310898470225765   F   F   F
  0.6839216131101132  0.6737213622063832  0.3428356890230929   T   T   T
  0.8903169118413835  0.7789934135959876  0.1868670092016504   F   F   F
  0.7769380417520306  0.8884253693009544  0.0310898470225614   F   F   F
0.43274750025839708 0.53216170051675201 0.4154997 T T T
0.446598 0.216020 0.433410 T T T 
 
  0.00000000E+00  0.00000000E+00  0.00000000E+00
  0.00000000E+00  0.00000000E+00  0.00000000E+00
  0.00000000E+00  0.00000000E+00  0.00000000E+00
  0.00000000E+00  0.00000000E+00  0.00000000E+00
  0.00000000E+00  0.00000000E+00  0.00000000E+00
  0.00000000E+00  0.00000000E+00  0.00000000E+00
  0.00000000E+00  0.00000000E+00  0.00000000E+00
  0.00000000E+00  0.00000000E+00  0.00000000E+00
  0.00000000E+00  0.00000000E+00  0.00000000E+00
  0.00000000E+00  0.00000000E+00  0.00000000E+00
  0.00000000E+00  0.00000000E+00  0.00000000E+00
  0.00000000E+00  0.00000000E+00  0.00000000E+00
  0.00000000E+00  0.00000000E+00  0.00000000E+00
  0.00000000E+00  0.00000000E+00  0.00000000E+00
  0.00000000E+00  0.00000000E+00  0.00000000E+00
  0.00000000E+00  0.00000000E+00  0.00000000E+00
  0.00000000E+00  0.00000000E+00  0.00000000E+00
  0.00000000E+00  0.00000000E+00  0.00000000E+00
  0.00000000E+00  0.00000000E+00  0.00000000E+00
  0.00000000E+00  0.00000000E+00  0.00000000E+00
  0.00000000E+00  0.00000000E+00  0.00000000E+00
  0.00000000E+00  0.00000000E+00  0.00000000E+00
  0.00000000E+00  0.00000000E+00  0.00000000E+00
  0.00000000E+00  0.00000000E+00  0.00000000E+00
  0.00000000E+00  0.00000000E+00  0.00000000E+00
  0.00000000E+00  0.00000000E+00  0.00000000E+00
  0.00000000E+00  0.00000000E+00  0.00000000E+00
  0.00000000E+00  0.00000000E+00  0.00000000E+00
  0.00000000E+00  0.00000000E+00  0.00000000E+00
  0.00000000E+00  0.00000000E+00  0.00000000E+00
  0.00000000E+00  0.00000000E+00  0.00000000E+00
  0.00000000E+00  0.00000000E+00  0.00000000E+00
  0.00000000E+00  0.00000000E+00  0.00000000E+00
  0.00000000E+00  0.00000000E+00  0.00000000E+00
  0.00000000E+00  0.00000000E+00  0.00000000E+00
  0.00000000E+00  0.00000000E+00  0.00000000E+00
  0.00000000E+00  0.00000000E+00  0.00000000E+00
  0.00000000E+00  0.00000000E+00  0.00000000E+00
  0.00000000E+00  0.00000000E+00  0.00000000E+00
  0.00000000E+00  0.00000000E+00  0.00000000E+00
  0.00000000E+00  0.00000000E+00  0.00000000E+00
  0.00000000E+00  0.00000000E+00  0.00000000E+00
  0.00000000E+00  0.00000000E+00  0.00000000E+00
  0.00000000E+00  0.00000000E+00  0.00000000E+00
  0.00000000E+00  0.00000000E+00  0.00000000E+00
  0.00000000E+00  0.00000000E+00  0.00000000E+00
  0.00000000E+00  0.00000000E+00  0.00000000E+00
  0.00000000E+00  0.00000000E+00  0.00000000E+00
  0.00000000E+00  0.00000000E+00  0.00000000E+00
  0.00000000E+00  0.00000000E+00  0.00000000E+00
  0.00000000E+00  0.00000000E+00  0.00000000E+00
  0.00000000E+00  0.00000000E+00  0.00000000E+00
  0.00000000E+00  0.00000000E+00  0.00000000E+00
  0.00000000E+00  0.00000000E+00  0.00000000E+00
  0.00000000E+00  0.00000000E+00  0.00000000E+00
  0.00000000E+00  0.00000000E+00  0.00000000E+00
  0.00000000E+00  0.00000000E+00  0.00000000E+00
  0.00000000E+00  0.00000000E+00  0.00000000E+00
  0.00000000E+00  0.00000000E+00  0.00000000E+00
  0.00000000E+00  0.00000000E+00  0.00000000E+00
  0.00000000E+00  0.00000000E+00  0.00000000E+00
  0.00000000E+00  0.00000000E+00  0.00000000E+00
  0.00000000E+00  0.00000000E+00  0.00000000E+00
  0.00000000E+00  0.00000000E+00  0.00000000E+00
  0.00000000E+00  0.00000000E+00  0.00000000E+00
  0.00000000E+00  0.00000000E+00  0.00000000E+00
  0.00000000E+00  0.00000000E+00  0.00000000E+00
  0.00000000E+00  0.00000000E+00  0.00000000E+00
  0.00000000E+00  0.00000000E+00  0.00000000E+00
  0.00000000E+00  0.00000000E+00  0.00000000E+00
  0.00000000E+00  0.00000000E+00  0.00000000E+00
  0.00000000E+00  0.00000000E+00  0.00000000E+00
  0.00000000E+00  0.00000000E+00  0.00000000E+00
  0.00000000E+00  0.00000000E+00  0.00000000E+00
  0.00000000E+00  0.00000000E+00  0.00000000E+00
  0.00000000E+00  0.00000000E+00  0.00000000E+00
  0.00000000E+00  0.00000000E+00  0.00000000E+00
  0.00000000E+00  0.00000000E+00  0.00000000E+00
  0.00000000E+00  0.00000000E+00  0.00000000E+00
  0.00000000E+00  0.00000000E+00  0.00000000E+00
