CeO2-you-111-you-Y                      
   1.00000000000000     
     9.8634396836856819   -5.6946599257103383    0.0000000002539930
     0.0104594922566310   11.4074342179786150    0.0048333759215423
     0.0052045299893471    0.0090145088382767   21.2075270147286830
   O    Y    Ce   H 
    53     1    26     2
Selective dynamics
Direct
  0.0000127482258987  0.0000619722170876  0.9975408571287131   T   T   T
  0.1096611221446508  0.2224344129313138  0.1496062678376617   F   F   F
  0.2278009386608208  0.1108159630049352  0.3033506756039744   T   T   T
  0.1069837213230305  0.2179262120801839  0.3809631640925904   T   T   T
  0.0010555192712192  0.0006308114927467  0.2288037648251754   T   T   T
  0.2221255155896671  0.1109180311793168  0.0757228265304661   F   F   F
  0.3336533072649787  0.0004128348425524  0.9971709741395766   T   T   T
  0.4461062907864530  0.2224344129310722  0.1496062678376617   F   F   F
  0.5508996788129760  0.1190117842243257  0.3040239319458179   T   T   T
  0.4401349996124018  0.2252327398708041  0.3959599363909284   T   T   T
  0.3324603059971792  0.9980971832542089  0.2274940567681157   T   T   T
  0.5563869685036451  0.1113536357568492  0.0760784845389324   F   F   F
  0.6665420387510671  0.9992436772464184  0.9974131693610889   T   T   T
  0.7780313192139516  0.2227286384279239  0.1520616578488472   F   F   F
  0.8870435815534432  0.1102243137560659  0.3032403181887100   T   T   T
  0.7760512549816092  0.2242981419126867  0.3809008147802176   T   T   T
  0.6634759999604110 -0.0008481446513831  0.2306195525130251   T   T   T
  0.8883006672532332  0.1113536357569131  0.0760784845389324   F   F   F
  0.0002805321864356  0.3328689142997197  0.9977455485770045   T   T   T
  0.1100926325163201  0.5544754826840972  0.1498678368289177   F   F   F
  0.2247536702483651  0.4423000086841985  0.3042209208017598   T   T   T
  0.0962710365660729  0.5489830223874942  0.3837112442129073   T   T   T
  0.0009788714353990  0.3331525108584358  0.2298336205219464   T   T   T
  0.2229344412572090  0.4448475904246010  0.0767135237125487   F   F   F
  0.3328934474884224  0.3327971076375237  0.9978986292092765   T   T   T
  0.4445214939482511  0.5557109878967381  0.1512957537923469   F   F   F
  0.5512554047073183  0.4437655158183972  0.3060038618177884   T   T   T
  0.3316108738379170  0.3299317778730057  0.2272402377681663   T   T   T
  0.5552471491673288  0.4448475904245583  0.0767135237125558   F   F   F
  0.6663606750163379  0.3335184408196603  0.9976877677137238   T   T   T
  0.7777158501677377  0.5544754826840332  0.1498678368289177   F   F   F
  0.8879825442994220  0.4452077089336912  0.3019407345890788   T   T   T
  0.7792240393388910  0.5570761283464121  0.3815425784820951   T   T   T
  0.6666705004525298  0.3357761481403269  0.2295828166655633   T   T   T
  0.8885472683695568  0.4437605367391129  0.0760850706608096   F   F   F
  0.0001316180276622  0.6669476985702216  0.9974554973331489   T   T   T
  0.1108895744993106  0.8884461489983480  0.1484809635645945   F   F   F
  0.2181277197536589  0.7798112922725534  0.3026884831922629   T   T   T
  0.1119983823966627  0.8896008772821712  0.3836897561769377   T   T   T
 -0.0006592590620443  0.6676587703999838  0.2281384617454766   T   T   T
  0.2224406265651737  0.7777728783814695  0.0756605825359102   F   F   F
  0.3337313943426958  0.6665183582906475  0.9977236221969219   T   T   T
  0.4456573755849220  0.8899505462123614  0.1495167388100427   F   F   F
  0.5598793878859466  0.7742363868065174  0.3053342351140095   T   T   T
  0.4509372126228096  0.9036048758897439  0.3826281743574994   T   T   T
  0.3338270487157121  0.6690350053433399  0.2271773840392584   T   T   T
  0.5551176158714242  0.7769012317428121  0.0767294568559365   F   F   F
  0.6669216575922271  0.6672780022383217  0.9977675997545468   T   T   T
  0.7776261706276273  0.8899505462125461  0.1495167388100427   F   F   F
  0.8914094546775906  0.7800633723003889  0.3028759417036081   T   T   T
  0.7804748849891630  0.8897357176818815  0.3825933582136189   T   T   T
  0.6696144043183304  0.6668852422284604  0.2286242195057078   T   T   T
  0.8886652518163629  0.7777728783814979  0.0756605825359102   F   F   F
  0.3235509366778190  0.3264052035449809  0.3351715028112749   T   T   T
  0.0022868827118797  0.0030395357523368  0.3433271069097872   T   T   T
  0.2212403903266207  0.1091477806535792  0.1878466238326126   F   F   F
  0.1109603010538791  0.2226119112882685  0.0371083761790416   F   F   F
  0.3283183125875563 -0.0064329425619114  0.3411263659864913   T   T   T
  0.5549354896616876  0.1108295131753820  0.1900630931424558   F   F   F
  0.4449846102344353  0.2226119112883467  0.0371083761790416   F   F   F
  0.6661236087780528  0.0010285307861770  0.3429088872326875   T   T   T
  0.8892280235133185  0.1108295131748704  0.1900630931424558   F   F   F
  0.7778427748267092  0.2223515496533963  0.0373061686664471   F   F   F
  0.0021395070228747  0.3333612538779121  0.3427164275443308   T   T   T
  0.2232756318502425  0.4446190110936357  0.1905078187213149   F   F   F
  0.1110629371159888  0.5551628335631520  0.0372803787085374   F   F   F
  0.5546773792442252  0.4446190110940336  0.1905078187213149   F   F   F
  0.4444341936850194  0.5555363873700045  0.0371844237623620   F   F   F
  0.6730621560335750  0.3391769092549272  0.3406883374155161   T   T   T
  0.8892871767754471  0.4452403535508154  0.1904923624997679   F   F   F
  0.7774328964471877  0.5551628335632230  0.0372803787085374   F   F   F
  0.0009089931271968  0.6669505287168555  0.3428839958138460   T   T   T
  0.2217315601539767  0.7785152274749620  0.1878836124429810   F   F   F
  0.1111768396959363  0.8890206793919404  0.0356039706421853   F   F   F
  0.3293543104896577  0.6676620853827820  0.3442946774911117   T   T   T
  0.5553931882425971  0.7774523764852788  0.1896971344165479   F   F   F
  0.4449475476771596  0.8891825650425886  0.0369271513798850   F   F   F
  0.6757466524945505  0.6716968494451776  0.3400189094480651   T   T   T
  0.8901166673205196  0.7785152274746352  0.1878836124429739   F   F   F
  0.7775680173654180  0.8891825650425815  0.0369271513798850   F   F   F
  0.4498851677442292  0.5482292734072964  0.3873668737104531   T   T   T
  0.4373647121477285  0.2273401080513654  0.4417516863597536   T   T   T
 
  0.00000000E+00  0.00000000E+00  0.00000000E+00
  0.00000000E+00  0.00000000E+00  0.00000000E+00
  0.00000000E+00  0.00000000E+00  0.00000000E+00
  0.00000000E+00  0.00000000E+00  0.00000000E+00
  0.00000000E+00  0.00000000E+00  0.00000000E+00
  0.00000000E+00  0.00000000E+00  0.00000000E+00
  0.00000000E+00  0.00000000E+00  0.00000000E+00
  0.00000000E+00  0.00000000E+00  0.00000000E+00
  0.00000000E+00  0.00000000E+00  0.00000000E+00
  0.00000000E+00  0.00000000E+00  0.00000000E+00
  0.00000000E+00  0.00000000E+00  0.00000000E+00
  0.00000000E+00  0.00000000E+00  0.00000000E+00
  0.00000000E+00  0.00000000E+00  0.00000000E+00
  0.00000000E+00  0.00000000E+00  0.00000000E+00
  0.00000000E+00  0.00000000E+00  0.00000000E+00
  0.00000000E+00  0.00000000E+00  0.00000000E+00
  0.00000000E+00  0.00000000E+00  0.00000000E+00
  0.00000000E+00  0.00000000E+00  0.00000000E+00
  0.00000000E+00  0.00000000E+00  0.00000000E+00
  0.00000000E+00  0.00000000E+00  0.00000000E+00
  0.00000000E+00  0.00000000E+00  0.00000000E+00
  0.00000000E+00  0.00000000E+00  0.00000000E+00
  0.00000000E+00  0.00000000E+00  0.00000000E+00
  0.00000000E+00  0.00000000E+00  0.00000000E+00
  0.00000000E+00  0.00000000E+00  0.00000000E+00
  0.00000000E+00  0.00000000E+00  0.00000000E+00
  0.00000000E+00  0.00000000E+00  0.00000000E+00
  0.00000000E+00  0.00000000E+00  0.00000000E+00
  0.00000000E+00  0.00000000E+00  0.00000000E+00
  0.00000000E+00  0.00000000E+00  0.00000000E+00
  0.00000000E+00  0.00000000E+00  0.00000000E+00
  0.00000000E+00  0.00000000E+00  0.00000000E+00
  0.00000000E+00  0.00000000E+00  0.00000000E+00
  0.00000000E+00  0.00000000E+00  0.00000000E+00
  0.00000000E+00  0.00000000E+00  0.00000000E+00
  0.00000000E+00  0.00000000E+00  0.00000000E+00
  0.00000000E+00  0.00000000E+00  0.00000000E+00
  0.00000000E+00  0.00000000E+00  0.00000000E+00
  0.00000000E+00  0.00000000E+00  0.00000000E+00
  0.00000000E+00  0.00000000E+00  0.00000000E+00
  0.00000000E+00  0.00000000E+00  0.00000000E+00
  0.00000000E+00  0.00000000E+00  0.00000000E+00
  0.00000000E+00  0.00000000E+00  0.00000000E+00
  0.00000000E+00  0.00000000E+00  0.00000000E+00
  0.00000000E+00  0.00000000E+00  0.00000000E+00
  0.00000000E+00  0.00000000E+00  0.00000000E+00
  0.00000000E+00  0.00000000E+00  0.00000000E+00
  0.00000000E+00  0.00000000E+00  0.00000000E+00
  0.00000000E+00  0.00000000E+00  0.00000000E+00
  0.00000000E+00  0.00000000E+00  0.00000000E+00
  0.00000000E+00  0.00000000E+00  0.00000000E+00
  0.00000000E+00  0.00000000E+00  0.00000000E+00
  0.00000000E+00  0.00000000E+00  0.00000000E+00
  0.00000000E+00  0.00000000E+00  0.00000000E+00
  0.00000000E+00  0.00000000E+00  0.00000000E+00
  0.00000000E+00  0.00000000E+00  0.00000000E+00
  0.00000000E+00  0.00000000E+00  0.00000000E+00
  0.00000000E+00  0.00000000E+00  0.00000000E+00
  0.00000000E+00  0.00000000E+00  0.00000000E+00
  0.00000000E+00  0.00000000E+00  0.00000000E+00
  0.00000000E+00  0.00000000E+00  0.00000000E+00
  0.00000000E+00  0.00000000E+00  0.00000000E+00
  0.00000000E+00  0.00000000E+00  0.00000000E+00
  0.00000000E+00  0.00000000E+00  0.00000000E+00
  0.00000000E+00  0.00000000E+00  0.00000000E+00
  0.00000000E+00  0.00000000E+00  0.00000000E+00
  0.00000000E+00  0.00000000E+00  0.00000000E+00
  0.00000000E+00  0.00000000E+00  0.00000000E+00
  0.00000000E+00  0.00000000E+00  0.00000000E+00
  0.00000000E+00  0.00000000E+00  0.00000000E+00
  0.00000000E+00  0.00000000E+00  0.00000000E+00
  0.00000000E+00  0.00000000E+00  0.00000000E+00
  0.00000000E+00  0.00000000E+00  0.00000000E+00
  0.00000000E+00  0.00000000E+00  0.00000000E+00
  0.00000000E+00  0.00000000E+00  0.00000000E+00
  0.00000000E+00  0.00000000E+00  0.00000000E+00
  0.00000000E+00  0.00000000E+00  0.00000000E+00
  0.00000000E+00  0.00000000E+00  0.00000000E+00
  0.00000000E+00  0.00000000E+00  0.00000000E+00
  0.00000000E+00  0.00000000E+00  0.00000000E+00
  0.00000000E+00  0.00000000E+00  0.00000000E+00
  0.00000000E+00  0.00000000E+00  0.00000000E+00
