CeO2-you-111-you-Pt                     
   1.00000000000000     
     9.7957258110299890   -5.6555653059089943    0.0000000000000000
     0.0000000058123272   11.3111286313665111    0.0000000000000000
     0.0000000000000000    0.0000000000000000   21.3668917145341055
   O    Pt   Ce   H 
    54     1    26     2
Selective dynamics
Direct
 -0.0012308368344600  0.0015331123075643  0.9964834667913446   T   T   T
  0.1024417832367028  0.2201411651998407  0.1484087869131469   T   T   T
  0.2484970275736138  0.1411542820028786  0.3116161217941440   T   T   T
  0.1269232307042844  0.2398776312162631  0.3807217719557035   T   T   T
  0.0085261257450378  0.0050223943238924  0.2330768540987662   T   T   T
  0.2214583916914968  0.1142737900018348  0.0761297187803097   T   T   T
  0.3306268889767991  0.0017963421448489  0.9960341255708378   T   T   T
  0.4464847789747966  0.2203527329236552  0.1487310285810496   T   T   T
  0.5516752584187815  0.1147208034336531  0.3035146784531111   T   T   T
  0.4788041132350873  0.1899839738449642  0.4140177883633377   T   T   T
  0.3281065968358856  0.0011653947698731  0.2306421612216518   T   T   T
  0.5544760766107053  0.1116297165875237  0.0743785483195582   T   T   T
  0.6646174070725182  0.0009214965522948  0.9947815975944654   T   T   T
  0.7736147504038158  0.2219697753576832  0.1501200325250999   T   T   T
  0.8921697593327214  0.1124556865666598  0.3047736409080038   T   T   T
  0.7784770785727232  0.2233115148371228  0.3810794620775957   T   T   T
  0.6655621482496639  0.0016637436349591  0.2316766432080227   T   T   T
  0.8831800163512830  0.1095668613815242  0.0754209369074929   T   T   T
 -0.0029125747942844  0.3336987332002124  0.9963216845344507   T   T   T
  0.1077727984297692  0.5580620160002855  0.1490501485781347   T   T   T
  0.2161136695674417  0.4509149768018061  0.2959763452668426   T   T   T
  0.1088246894014376  0.5570665331523269  0.3823990005226642   T   T   T
 -0.0064595681672593  0.3321866915840236  0.2277237247443550   T   T   T
  0.2197158328335457  0.4457830562582857  0.0749602381937991   T   T   T
  0.3317022910875628  0.3354649698366706  0.9960670221824224   T   T   T
  0.4466477524473354  0.5642698993461343  0.1483277915933090   T   T   T
  0.5255843928375006  0.4186941883569741  0.3117542265618083   T   T   T
  0.4264554024442291  0.5399465626014908  0.3807079029998049   T   T   T
  0.3310027812324058  0.3358104363907481  0.2157472748300519   T   T   T
  0.5528672213464619  0.4453999561546941  0.0758692586376436   T   T   T
  0.6644086720641940  0.3352393686022282  0.9959298644256370   T   T   T
  0.7764127484683355  0.5579614556190979  0.1494880736239507   T   T   T
  0.8888859154070817  0.4473527272783370  0.3031491910869586   T   T   T
  0.7722567135431594  0.5540148191339441  0.3805949220070030   T   T   T
  0.6653520830127462  0.3387742315813695  0.2305356821550844   T   T   T
  0.8859350724855914  0.4447658937178851  0.0752993590248797   T   T   T
 -0.0013952572383272  0.6689653817414548  0.9968344914262971   T   T   T
  0.1088322882661706  0.8903064870600169  0.1494178758216869   T   T   T
  0.2195721221418065  0.7781746403029612  0.3034727088916236   T   T   T
  0.1123329259736460  0.8939034641090583  0.3807375522052203   T   T   T
 -0.0016619063514412  0.6685971125505120  0.2294545238504567   T   T   T
  0.2220722251405279  0.7800692556442362  0.0756060928629416   T   T   T
  0.3318694507730852  0.6681718881178921  0.9960877284458692   T   T   T
  0.4450254329947573  0.8931414093609474  0.1502428596750678   T   T   T
  0.5537271557762279  0.7745657192895091  0.3046432103478715   T   T   T
  0.4433769957558163  0.8880207573435918  0.3812977868846256   T   T   T
  0.3343861672507119  0.6734943424119528  0.2276238222531215   T   T   T
  0.5565272101288710  0.7829064471330783  0.0755121397062323   T   T   T
  0.6643550320673512  0.6678357630826944  0.9960977371639884   T   T   T
  0.7779019843360541  0.8890301062880910  0.1531888668199790   T   T   T
  0.8869622637032849  0.7796879182754728  0.3045039217082523   T   T   T
  0.7761794341168675  0.8897648708769275  0.3825767561567308   T   T   T
  0.6620534519692542  0.6585039747450726  0.2329353086198047   T   T   T
  0.8862047297568393  0.7795136245394173  0.0760548219743110   T   T   T
  0.3301132497269649  0.3366413748664365  0.3497495523005275   T   T   T
  0.0052780308822741  0.0075605392666569  0.3432250701816397   T   T   T
  0.2237861212780661  0.1168399910055213  0.1887612855587485   T   T   T
  0.1084189544868526  0.2232844988900196  0.0360759148394568   T   T   T
  0.3328825742540136 -0.0031805443789184  0.3432784157915634   T   T   T
  0.5539823815814932  0.1126589100772656  0.1901017387851392   T   T   T
  0.4428284074115585  0.2236687515355568  0.0353639197016677   T   T   T
  0.6668434651490639 -0.0002790145633904  0.3436366399370456   T   T   T
  0.8876812748558106  0.1126023665781599  0.1901241354346266   T   T   T
  0.7748857034249038  0.2224938460849384  0.0355743659867910   T   T   T
  0.0053549887511692  0.3384405993635301  0.3407090464373528   T   T   T
  0.2201190570465740  0.4464892107333263  0.1880345300840591   T   T   T
  0.1089643061719926  0.5571697126716131  0.0359605572471834   T   T   T
  0.5499911792277949  0.4431422669916425  0.1886179918977424   T   T   T
  0.4428763079403728  0.5577592631198203  0.0359394767092114   T   T   T
  0.6700226614637338  0.3339465447937208  0.3430240084599462   T   T   T
  0.8859157877762196  0.4454488496003139  0.1887293381702119   T   T   T
  0.7756945264178831  0.5571894927523278  0.0365023019329892   T   T   T
 -0.0017491440845731  0.6682504428983136  0.3415930637439440   T   T   T
  0.2212263985642931  0.7806962029639567  0.1887787614888455   T   T   T
  0.1093193425871316  0.8907086164423997  0.0367120320319014   T   T   T
  0.3280133091816869  0.6614037136054980  0.3407509564755064   T   T   T
  0.5541422153106980  0.7791021915282287  0.1901424993727311   T   T   T
  0.4436727456272735  0.8911570081058829  0.0355869739682136   T   T   T
  0.6587679993720165  0.6612140291989356  0.3431882314862723   T   T   T
  0.8880956380212705  0.7786257311892748  0.1911409498302507   T   T   T
  0.7758808086871740  0.8901670885326121  0.0359109963351833   T   T   T
  0.3866171755416873  0.2808830963296145  0.4005269897600359   T   T   T
  0.4870073379844110  0.1836681242402667  0.4590209762048603   T   T   T
 
  0.00000000E+00  0.00000000E+00  0.00000000E+00
  0.00000000E+00  0.00000000E+00  0.00000000E+00
  0.00000000E+00  0.00000000E+00  0.00000000E+00
  0.00000000E+00  0.00000000E+00  0.00000000E+00
  0.00000000E+00  0.00000000E+00  0.00000000E+00
  0.00000000E+00  0.00000000E+00  0.00000000E+00
  0.00000000E+00  0.00000000E+00  0.00000000E+00
  0.00000000E+00  0.00000000E+00  0.00000000E+00
  0.00000000E+00  0.00000000E+00  0.00000000E+00
  0.00000000E+00  0.00000000E+00  0.00000000E+00
  0.00000000E+00  0.00000000E+00  0.00000000E+00
  0.00000000E+00  0.00000000E+00  0.00000000E+00
  0.00000000E+00  0.00000000E+00  0.00000000E+00
  0.00000000E+00  0.00000000E+00  0.00000000E+00
  0.00000000E+00  0.00000000E+00  0.00000000E+00
  0.00000000E+00  0.00000000E+00  0.00000000E+00
  0.00000000E+00  0.00000000E+00  0.00000000E+00
  0.00000000E+00  0.00000000E+00  0.00000000E+00
  0.00000000E+00  0.00000000E+00  0.00000000E+00
  0.00000000E+00  0.00000000E+00  0.00000000E+00
  0.00000000E+00  0.00000000E+00  0.00000000E+00
  0.00000000E+00  0.00000000E+00  0.00000000E+00
  0.00000000E+00  0.00000000E+00  0.00000000E+00
  0.00000000E+00  0.00000000E+00  0.00000000E+00
  0.00000000E+00  0.00000000E+00  0.00000000E+00
  0.00000000E+00  0.00000000E+00  0.00000000E+00
  0.00000000E+00  0.00000000E+00  0.00000000E+00
  0.00000000E+00  0.00000000E+00  0.00000000E+00
  0.00000000E+00  0.00000000E+00  0.00000000E+00
  0.00000000E+00  0.00000000E+00  0.00000000E+00
  0.00000000E+00  0.00000000E+00  0.00000000E+00
  0.00000000E+00  0.00000000E+00  0.00000000E+00
  0.00000000E+00  0.00000000E+00  0.00000000E+00
  0.00000000E+00  0.00000000E+00  0.00000000E+00
  0.00000000E+00  0.00000000E+00  0.00000000E+00
  0.00000000E+00  0.00000000E+00  0.00000000E+00
  0.00000000E+00  0.00000000E+00  0.00000000E+00
  0.00000000E+00  0.00000000E+00  0.00000000E+00
  0.00000000E+00  0.00000000E+00  0.00000000E+00
  0.00000000E+00  0.00000000E+00  0.00000000E+00
  0.00000000E+00  0.00000000E+00  0.00000000E+00
  0.00000000E+00  0.00000000E+00  0.00000000E+00
  0.00000000E+00  0.00000000E+00  0.00000000E+00
  0.00000000E+00  0.00000000E+00  0.00000000E+00
  0.00000000E+00  0.00000000E+00  0.00000000E+00
  0.00000000E+00  0.00000000E+00  0.00000000E+00
  0.00000000E+00  0.00000000E+00  0.00000000E+00
  0.00000000E+00  0.00000000E+00  0.00000000E+00
  0.00000000E+00  0.00000000E+00  0.00000000E+00
  0.00000000E+00  0.00000000E+00  0.00000000E+00
  0.00000000E+00  0.00000000E+00  0.00000000E+00
  0.00000000E+00  0.00000000E+00  0.00000000E+00
  0.00000000E+00  0.00000000E+00  0.00000000E+00
  0.00000000E+00  0.00000000E+00  0.00000000E+00
  0.00000000E+00  0.00000000E+00  0.00000000E+00
  0.00000000E+00  0.00000000E+00  0.00000000E+00
  0.00000000E+00  0.00000000E+00  0.00000000E+00
  0.00000000E+00  0.00000000E+00  0.00000000E+00
  0.00000000E+00  0.00000000E+00  0.00000000E+00
  0.00000000E+00  0.00000000E+00  0.00000000E+00
  0.00000000E+00  0.00000000E+00  0.00000000E+00
  0.00000000E+00  0.00000000E+00  0.00000000E+00
  0.00000000E+00  0.00000000E+00  0.00000000E+00
  0.00000000E+00  0.00000000E+00  0.00000000E+00
  0.00000000E+00  0.00000000E+00  0.00000000E+00
  0.00000000E+00  0.00000000E+00  0.00000000E+00
  0.00000000E+00  0.00000000E+00  0.00000000E+00
  0.00000000E+00  0.00000000E+00  0.00000000E+00
  0.00000000E+00  0.00000000E+00  0.00000000E+00
  0.00000000E+00  0.00000000E+00  0.00000000E+00
  0.00000000E+00  0.00000000E+00  0.00000000E+00
  0.00000000E+00  0.00000000E+00  0.00000000E+00
  0.00000000E+00  0.00000000E+00  0.00000000E+00
  0.00000000E+00  0.00000000E+00  0.00000000E+00
  0.00000000E+00  0.00000000E+00  0.00000000E+00
  0.00000000E+00  0.00000000E+00  0.00000000E+00
  0.00000000E+00  0.00000000E+00  0.00000000E+00
  0.00000000E+00  0.00000000E+00  0.00000000E+00
  0.00000000E+00  0.00000000E+00  0.00000000E+00
  0.00000000E+00  0.00000000E+00  0.00000000E+00
  0.00000000E+00  0.00000000E+00  0.00000000E+00
  0.00000000E+00  0.00000000E+00  0.00000000E+00
  0.00000000E+00  0.00000000E+00  0.00000000E+00
