CeO2-you-111-you-Ag                     
   1.00000000000000     
     9.8366048191090680   -5.6991367560319057    0.0058021261797699
    -0.0172944745444246   11.3683165995838547   -0.0058021251926906
     0.0064679586031458   -0.0112028322931616   21.1918380538180706
   O    Ag   Ce H
    53     1    26 2
Selective dynamics
Direct
 -0.0002293006486955 -0.0002431154828756  0.9958153604362011   T   T   T
  0.1046414365545194  0.2186979551806370  0.1459618807026215   F   F   F
  0.2312142988160657  0.1220247893296837  0.3053573388570954   T   T   T
  0.1121883432597651  0.2379623178657118  0.3758622321241294   T   T   T
  0.0037042700009594  0.0030503637416736  0.2302354571532317   T   T   T
  0.2216397043529974  0.1109618347787737  0.0758506181330206   F   F   F
  0.3351069917912750  0.0016287830154776  0.9976745511728420   T   T   T
  0.4450725795786531  0.2215934204205567  0.1503353462983924   F   F   F
  0.5578256913396766  0.1088413086612603  0.3015713567910143   T   T   T
  0.4663259654879024  0.2003400345238367  0.3939584276942300   T   T   T
  0.3323590254376343  0.0013479460975705  0.2291360698885874   T   T   T
  0.5577425879663999  0.1089244120336437  0.0779788395966339   F   F   F
  0.6660975682324788  0.0005694317685917  0.9953114220835190   T   T   T
  0.7843954888512424  0.2258255005800107  0.1529606404510228   F   F   F
  0.8854730433962866  0.1088468364647426  0.3029273541962800   T   T   T
  0.7775473203168085  0.2187917885918891  0.3852787175460234   T   T   T
  0.6678019206206481 -0.0011349206202254  0.2279912329664525   T   T   T
  0.8850015718249793  0.1088983284197172  0.0748462231234625   F   F   F
 -0.0018616102435476  0.3323947106420215  0.9958453412344047   T   T   T
  0.1103591540415776  0.5563078459567157  0.1478393892965841   F   F   F
  0.1170998866381177  0.5495671133693453  0.3754888523772056   T   T   T
  0.0188611518182001  0.3428369439450034  0.2351077687922040   T   T   T
  0.2222126941727448  0.4444533058289240  0.0718002109222907   F   F   F
  0.3343558476167423  0.3323101523824169  0.9960131262100266   T   T   T
  0.4479680448224987  0.5620255634466150  0.1459618807023038   F   F   F
  0.5446422106712229  0.4354517011815001  0.3053573388574519   T   T   T
  0.4287036821302629  0.5544786567364275  0.3758622321243873   T   T   T
  0.3269151947184376  0.3397508052790532  0.2203605232127682   T   T   T
  0.5557051652204332  0.4450262956462410  0.0758506181330477   F   F   F
  0.6650382169839989  0.3315590082082847  0.9976745511728511   T   T   T
  0.7794208689427901  0.5562719000898748  0.1510144398943947   F   F   F
  0.8840163895554272  0.4420368031043218  0.3043368414063991   T   T   T
  0.7770104405314118  0.5591729107214631  0.3813890608509994   T   T   T
  0.6653190539002101  0.3343069745616254  0.2291360698886409   T   T   T
  0.8882677663648971  0.4442337278701459  0.0756143199430098   F   F   F
 -0.0004283478711624  0.6670953478701512  0.9964577031043299   T   T   T
  0.1103950999085645  0.8872461310551023  0.1510144398943922   F   F   F
  0.2246291968935989  0.7826506104414215  0.3043368414062058   T   T   T
  0.1074940892776052  0.8896565594662373  0.3813890608509928   T   T   T
  0.0010971127004981  0.6655698872976024  0.2304631512400155   T   T   T
  0.2224322721297395  0.7783992336346738  0.0756143199429569   F   F   F
  0.3342712893589521  0.6685286102447349  0.9958453412343392   T   T   T
  0.4408404994214777  0.8822715111484557  0.1529606404512589   F   F   F
  0.5578201635377316  0.7811939566046503  0.3029273541960706   T   T   T
  0.4478742114089387  0.8891196796837578  0.3852787175456313   T   T   T
  0.3238290560593641  0.6478058481883127  0.2351077687924153   T   T   T
  0.5577686715812236  0.7816654281762483  0.0748462231233585   F   F   F
  0.6669101154828251  0.6668963006482229  0.9958153604361660   T   T   T
  0.7787492471264659  0.8879177528735145  0.1513298230380664   F   F   F
  0.8884680122811117  0.7781989877175585  0.3020088159227439   T   T   T
  0.7789323856011057  0.8877346143984676  0.3816103404488727   T   T   T
  0.6636166362577661  0.6629627299988685  0.2302354571532419   T   T   T
  0.8886504289655441  0.7780165710334892  0.0757473839034075   F   F   F
  0.3293566517180324  0.3373093482775785  0.3463506729159643   T   T   T
  0.0046313687038666  0.0045361859823612  0.3419268299958368   T   T   T
  0.2242053877966119  0.1147896944037020  0.1909095861842658   F   F   F
  0.1096240291642481  0.2197366828093063  0.0337946586782693   F   F   F
  0.3376349808524908  0.0080127792324161  0.3456070440608585   T   T   T
  0.5558281573712697  0.1108388426309282  0.1909747907807454   F   F   F
  0.4446047140790605  0.2220612859209155  0.0371588790895227   F   F   F
  0.6676323761604045 -0.0009653761584968  0.3437536679798848   T   T   T
  0.8900925987405838  0.1112654131305686  0.1901904070532983   F   F   F
  0.7776153996728263  0.2216411412651437  0.0363872178350325   F   F   F
 -0.0119123903634223  0.3272702076944699  0.3454887715798536   T   T   T
  0.2229038557681916  0.4437621442240688  0.1801952641032276   F   F   F
  0.1098122602138508  0.5568547397851100  0.0345707230907179   F   F   F
  0.5518773055958721  0.4424606122021029  0.1909095861842038   F   F   F
  0.4469293171898210  0.5570429708353252  0.0337946586782486   F   F   F
  0.6586542207701646  0.3290310191493210  0.3456070440606495   T   T   T
  0.8890126373343801  0.4445369477584368  0.1912683276289426   F   F   F
  0.7774776455312619  0.5549389051281132  0.0374227274445564   F   F   F
 -0.0016673373018951  0.6683343373094973  0.3416109843476224   T   T   T
  0.2221290522447841  0.7776543626727492  0.1912683276290154   F   F   F
  0.1117280948731770  0.8891893544701946  0.0374227274445310   F   F   F
  0.3393957922994706  0.6785793903555428  0.3454887715802858   T   T   T
  0.5554015868645200  0.7765744012580192  0.1901904070533806   F   F   F
  0.4450248587338697  0.8890516003274483  0.0363872178350613   F   F   F
  0.6621308140165152  0.6620356312948510  0.3419268299956697   T   T   T
  0.8889673715449813  0.7776996284573873  0.1898514910045163   F   F   F
  0.7773944452386887  0.8892725547608166  0.0357720088477560   F   F   F
0.3293566517180324 0.3373093482775785 0.446351 T T T
0.446598 0.216020 0.433410 T T T 
 
  0.00000000E+00  0.00000000E+00  0.00000000E+00
  0.00000000E+00  0.00000000E+00  0.00000000E+00
  0.00000000E+00  0.00000000E+00  0.00000000E+00
  0.00000000E+00  0.00000000E+00  0.00000000E+00
  0.00000000E+00  0.00000000E+00  0.00000000E+00
  0.00000000E+00  0.00000000E+00  0.00000000E+00
  0.00000000E+00  0.00000000E+00  0.00000000E+00
  0.00000000E+00  0.00000000E+00  0.00000000E+00
  0.00000000E+00  0.00000000E+00  0.00000000E+00
  0.00000000E+00  0.00000000E+00  0.00000000E+00
  0.00000000E+00  0.00000000E+00  0.00000000E+00
  0.00000000E+00  0.00000000E+00  0.00000000E+00
  0.00000000E+00  0.00000000E+00  0.00000000E+00
  0.00000000E+00  0.00000000E+00  0.00000000E+00
  0.00000000E+00  0.00000000E+00  0.00000000E+00
  0.00000000E+00  0.00000000E+00  0.00000000E+00
  0.00000000E+00  0.00000000E+00  0.00000000E+00
  0.00000000E+00  0.00000000E+00  0.00000000E+00
  0.00000000E+00  0.00000000E+00  0.00000000E+00
  0.00000000E+00  0.00000000E+00  0.00000000E+00
  0.00000000E+00  0.00000000E+00  0.00000000E+00
  0.00000000E+00  0.00000000E+00  0.00000000E+00
  0.00000000E+00  0.00000000E+00  0.00000000E+00
  0.00000000E+00  0.00000000E+00  0.00000000E+00
  0.00000000E+00  0.00000000E+00  0.00000000E+00
  0.00000000E+00  0.00000000E+00  0.00000000E+00
  0.00000000E+00  0.00000000E+00  0.00000000E+00
  0.00000000E+00  0.00000000E+00  0.00000000E+00
  0.00000000E+00  0.00000000E+00  0.00000000E+00
  0.00000000E+00  0.00000000E+00  0.00000000E+00
  0.00000000E+00  0.00000000E+00  0.00000000E+00
  0.00000000E+00  0.00000000E+00  0.00000000E+00
  0.00000000E+00  0.00000000E+00  0.00000000E+00
  0.00000000E+00  0.00000000E+00  0.00000000E+00
  0.00000000E+00  0.00000000E+00  0.00000000E+00
  0.00000000E+00  0.00000000E+00  0.00000000E+00
  0.00000000E+00  0.00000000E+00  0.00000000E+00
  0.00000000E+00  0.00000000E+00  0.00000000E+00
  0.00000000E+00  0.00000000E+00  0.00000000E+00
  0.00000000E+00  0.00000000E+00  0.00000000E+00
  0.00000000E+00  0.00000000E+00  0.00000000E+00
  0.00000000E+00  0.00000000E+00  0.00000000E+00
  0.00000000E+00  0.00000000E+00  0.00000000E+00
  0.00000000E+00  0.00000000E+00  0.00000000E+00
  0.00000000E+00  0.00000000E+00  0.00000000E+00
  0.00000000E+00  0.00000000E+00  0.00000000E+00
  0.00000000E+00  0.00000000E+00  0.00000000E+00
  0.00000000E+00  0.00000000E+00  0.00000000E+00
  0.00000000E+00  0.00000000E+00  0.00000000E+00
  0.00000000E+00  0.00000000E+00  0.00000000E+00
  0.00000000E+00  0.00000000E+00  0.00000000E+00
  0.00000000E+00  0.00000000E+00  0.00000000E+00
  0.00000000E+00  0.00000000E+00  0.00000000E+00
  0.00000000E+00  0.00000000E+00  0.00000000E+00
  0.00000000E+00  0.00000000E+00  0.00000000E+00
  0.00000000E+00  0.00000000E+00  0.00000000E+00
  0.00000000E+00  0.00000000E+00  0.00000000E+00
  0.00000000E+00  0.00000000E+00  0.00000000E+00
  0.00000000E+00  0.00000000E+00  0.00000000E+00
  0.00000000E+00  0.00000000E+00  0.00000000E+00
  0.00000000E+00  0.00000000E+00  0.00000000E+00
  0.00000000E+00  0.00000000E+00  0.00000000E+00
  0.00000000E+00  0.00000000E+00  0.00000000E+00
  0.00000000E+00  0.00000000E+00  0.00000000E+00
  0.00000000E+00  0.00000000E+00  0.00000000E+00
  0.00000000E+00  0.00000000E+00  0.00000000E+00
  0.00000000E+00  0.00000000E+00  0.00000000E+00
  0.00000000E+00  0.00000000E+00  0.00000000E+00
  0.00000000E+00  0.00000000E+00  0.00000000E+00
  0.00000000E+00  0.00000000E+00  0.00000000E+00
  0.00000000E+00  0.00000000E+00  0.00000000E+00
  0.00000000E+00  0.00000000E+00  0.00000000E+00
  0.00000000E+00  0.00000000E+00  0.00000000E+00
  0.00000000E+00  0.00000000E+00  0.00000000E+00
  0.00000000E+00  0.00000000E+00  0.00000000E+00
  0.00000000E+00  0.00000000E+00  0.00000000E+00
  0.00000000E+00  0.00000000E+00  0.00000000E+00
  0.00000000E+00  0.00000000E+00  0.00000000E+00
  0.00000000E+00  0.00000000E+00  0.00000000E+00
  0.00000000E+00  0.00000000E+00  0.00000000E+00
