CeO2-you-111-you-Ba                     
   1.00000000000000     
     9.8962393604856267   -5.7135968289044463    0.0000000000000000
    -0.0000000051665033   11.4271916379168932    0.0000000000000000
    -0.0000000000000000    0.0000000000000000   21.1782510806590736
   O    Ba   Ce H
    54     1    26 1
Selective dynamics
Direct
  0.0004745263893037 -0.0002996616353562  0.9973444727171583   T   T   T
  0.1115215399731053  0.2224272699865341  0.1502706581156993   F   F   F
  0.2188311610619807  0.1043293221232134  0.3050585768942540   T   T   T
  0.0706350696039957  0.2019840348026385  0.3884515575892374   T   T   T
 -0.0006954458585039 -0.0004102193401271  0.2283305037552143   T   T   T
  0.2224140578082239  0.1114951156163181  0.0763973186403644   F   F   F
  0.3325588119753413 -0.0002996616353015  0.9973444727171583   T   T   T
  0.4442387300134247  0.2224272699865162  0.1502706581156993   F   F   F
  0.5579420060445280  0.1087249939553555  0.2985154647121286   T   T   T
  0.4646819651986390  0.2019840348032058  0.3884515575892374   T   T   T
  0.3336182265184866 -0.0004102193402548  0.2283305037552143   T   T   T
  0.5553410209177535  0.1113259790819122  0.0746998418830276   F   F   F
  0.6666669999999968  0.0000000000000000  0.9963402526264018   T   T   T
  0.7786037831566915  0.2238735663132556  0.1480766529676483   F   F   F
  0.8841169879108655  0.1087249939553926  0.2985154647121286   T   T   T
  0.7766751964515241  0.2200163929030945  0.3797230265500547   T   T   T
  0.6666669999999968  0.0000000000000000  0.2244668446098763   T   T   T
  0.8893189581642631  0.1113259790820161  0.0746998418830276   F   F   F
  0.0004745263892990  0.3341071880247862  0.9973444727171583   T   T   T
  0.1110837598675859  0.5555832401326917  0.1501232513202020   F   F   F
  0.2188311610636592  0.4478348389387634  0.3050585768942540   T   T   T
  0.1102974717639585  0.5563695282356867  0.3814278109177474   T   T   T
 -0.0006954458582635  0.3330477734813387  0.2283305037552143   T   T   T
  0.2224140578085088  0.4442519421919019  0.0763973186403644   F   F   F
  0.3333330000000032  0.3333330000000032  0.9976911262292827   T   T   T
  0.4442387300134652  0.5551454600269569  0.1502706581156993   F   F   F
  0.5623376778743672  0.4478348389380185  0.3050585768942540   T   T   T
  0.4646819651973608  0.5960319303941626  0.3884515575892374   T   T   T
  0.3333330000000032  0.3333330000000032  0.2280046326362965   T   T   T
  0.5551718843832744  0.4442519421917755  0.0763973186403644   F   F   F
  0.6669666616354828  0.3341071880248431  0.9973444727171583   T   T   T
  0.7778324802650175  0.5555832401326074  0.1501232513202020   F   F   F
  0.8892297450170291  0.4451254900339779  0.3023568116888328   T   T   T
  0.7794050564718344  0.5563695282357970  0.3814278109177474   T   T   T
  0.6670772193394892  0.3330477734811044  0.2283305037552143   T   T   T
  0.8891253900314227  0.4449167800628484  0.0754269529566855   F   F   F
 -0.0000000000000000  0.6666669999999968  0.9979756834394408   T   T   T
  0.1110837598673965  0.8888345197347057  0.1501232513202020   F   F   F
  0.2215405099657629  0.7774372549829677  0.3023568116888328   T   T   T
  0.1102974717642069  0.8872619435285207  0.3814278109177474   T   T   T
  0.0000000000000000  0.6666669999999968  0.2286341784883957   T   T   T
  0.2217492199371626  0.7775416099685741  0.0754269529566855   F   F   F
  0.3325588119752135  0.6661924736105134  0.9973444727171583   T   T   T
  0.4427924336863073  0.8880632168433052  0.1480766529676483   F   F   F
  0.5579420060446114  0.7825500120892522  0.2985154647121286   T   T   T
  0.4466496070970333  0.8899918035484727  0.3797230265500547   T   T   T
  0.3336182265190146  0.6673624458590227  0.2283305037552143   T   T   T
  0.5553410209179876  0.7773480418360720  0.0746998418830276   F   F   F
  0.6669666616353597  0.6661924736105154  0.9973444727171583   T   T   T
  0.7786037831569942  0.8880632168434395  0.1480766529676483   F   F   F
  0.8892297450172079  0.7774372549830473  0.3023568116888328   T   T   T
  0.7766751964514356  0.8899918035484328  0.3797230265500547   T   T   T
  0.6670772193397768  0.6673624458589159  0.2283305037552143   T   T   T
  0.8891253900314149  0.7775416099685704  0.0754269529566855   F   F   F
  0.3333330000000032  0.3333330000000032  0.3760525767102144   T   T   T
 -0.0041761205311090 -0.0003364377571839  0.3415008153139520   T   T   T
  0.2225042857370026  0.1116755714744890  0.1915633499608476   F   F   F
  0.1121072215954549  0.2227201107977025  0.0371570963741401   F   F   F
  0.3371726827739778 -0.0003364377566570  0.3415008153139520   T   T   T
  0.5556817835662498  0.1109852164340533  0.1873567335122742   F   F   F
  0.4439458892022436  0.2227201107976790  0.0371570963741401   F   F   F
  0.6666669999999968  0.0000000000000000  0.3388756275130909   T   T   T
  0.8886374328677122  0.1109852164339613  0.1873567335122742   F   F   F
  0.7781124232188140  0.2228908464375855  0.0354710925018417   F   F   F
 -0.0041761205309977  0.3294933172272654  0.3415008153139520   T   T   T
  0.2225042857359055  0.4441617142625097  0.1915633499608476   F   F   F
  0.1112762741071384  0.5553907258929234  0.0368351813428228   F   F   F
  0.5549914285270988  0.4441617142629968  0.1915633499608476   F   F   F
  0.4439458892022967  0.5545597784046256  0.0371570963741401   F   F   F
  0.6670034377582073  0.3294933172277430  0.3415008153139520   T   T   T
  0.8889472887040296  0.4445605774079596  0.1887060217023484   F   F   F
  0.7774474517857632  0.5553907258929056  0.0368351813428228   F   F   F
 -0.0000000000000000  0.6666669999999968  0.3414381281386917   T   T   T
  0.2221054225917191  0.7777197112959672  0.1887060217023484   F   F   F
  0.1112762741070979  0.8892195482141747  0.0368351813428228   F   F   F
  0.3371726827729019  0.6708431205294410  0.3415008153139520   T   T   T
  0.5556817835660424  0.7780295671319853  0.1873567335122742   F   F   F
  0.4437751535622544  0.8885545767811828  0.0354710925018417   F   F   F
  0.6670034377570198  0.6708431205293918  0.3415008153139520   T   T   T
  0.8889472887042515  0.7777197112960658  0.1887060217023484   F   F   F
  0.7781124232189244  0.8885545767812316  0.0354710925018417   F   F   F
0.446598 0.216020 0.433410 T T T 
 
  0.00000000E+00  0.00000000E+00  0.00000000E+00
  0.00000000E+00  0.00000000E+00  0.00000000E+00
  0.00000000E+00  0.00000000E+00  0.00000000E+00
  0.00000000E+00  0.00000000E+00  0.00000000E+00
  0.00000000E+00  0.00000000E+00  0.00000000E+00
  0.00000000E+00  0.00000000E+00  0.00000000E+00
  0.00000000E+00  0.00000000E+00  0.00000000E+00
  0.00000000E+00  0.00000000E+00  0.00000000E+00
  0.00000000E+00  0.00000000E+00  0.00000000E+00
  0.00000000E+00  0.00000000E+00  0.00000000E+00
  0.00000000E+00  0.00000000E+00  0.00000000E+00
  0.00000000E+00  0.00000000E+00  0.00000000E+00
  0.00000000E+00  0.00000000E+00  0.00000000E+00
  0.00000000E+00  0.00000000E+00  0.00000000E+00
  0.00000000E+00  0.00000000E+00  0.00000000E+00
  0.00000000E+00  0.00000000E+00  0.00000000E+00
  0.00000000E+00  0.00000000E+00  0.00000000E+00
  0.00000000E+00  0.00000000E+00  0.00000000E+00
  0.00000000E+00  0.00000000E+00  0.00000000E+00
  0.00000000E+00  0.00000000E+00  0.00000000E+00
  0.00000000E+00  0.00000000E+00  0.00000000E+00
  0.00000000E+00  0.00000000E+00  0.00000000E+00
  0.00000000E+00  0.00000000E+00  0.00000000E+00
  0.00000000E+00  0.00000000E+00  0.00000000E+00
  0.00000000E+00  0.00000000E+00  0.00000000E+00
  0.00000000E+00  0.00000000E+00  0.00000000E+00
  0.00000000E+00  0.00000000E+00  0.00000000E+00
  0.00000000E+00  0.00000000E+00  0.00000000E+00
  0.00000000E+00  0.00000000E+00  0.00000000E+00
  0.00000000E+00  0.00000000E+00  0.00000000E+00
  0.00000000E+00  0.00000000E+00  0.00000000E+00
  0.00000000E+00  0.00000000E+00  0.00000000E+00
  0.00000000E+00  0.00000000E+00  0.00000000E+00
  0.00000000E+00  0.00000000E+00  0.00000000E+00
  0.00000000E+00  0.00000000E+00  0.00000000E+00
  0.00000000E+00  0.00000000E+00  0.00000000E+00
  0.00000000E+00  0.00000000E+00  0.00000000E+00
  0.00000000E+00  0.00000000E+00  0.00000000E+00
  0.00000000E+00  0.00000000E+00  0.00000000E+00
  0.00000000E+00  0.00000000E+00  0.00000000E+00
  0.00000000E+00  0.00000000E+00  0.00000000E+00
  0.00000000E+00  0.00000000E+00  0.00000000E+00
  0.00000000E+00  0.00000000E+00  0.00000000E+00
  0.00000000E+00  0.00000000E+00  0.00000000E+00
  0.00000000E+00  0.00000000E+00  0.00000000E+00
  0.00000000E+00  0.00000000E+00  0.00000000E+00
  0.00000000E+00  0.00000000E+00  0.00000000E+00
  0.00000000E+00  0.00000000E+00  0.00000000E+00
  0.00000000E+00  0.00000000E+00  0.00000000E+00
  0.00000000E+00  0.00000000E+00  0.00000000E+00
  0.00000000E+00  0.00000000E+00  0.00000000E+00
  0.00000000E+00  0.00000000E+00  0.00000000E+00
  0.00000000E+00  0.00000000E+00  0.00000000E+00
  0.00000000E+00  0.00000000E+00  0.00000000E+00
  0.00000000E+00  0.00000000E+00  0.00000000E+00
  0.00000000E+00  0.00000000E+00  0.00000000E+00
  0.00000000E+00  0.00000000E+00  0.00000000E+00
  0.00000000E+00  0.00000000E+00  0.00000000E+00
  0.00000000E+00  0.00000000E+00  0.00000000E+00
  0.00000000E+00  0.00000000E+00  0.00000000E+00
  0.00000000E+00  0.00000000E+00  0.00000000E+00
  0.00000000E+00  0.00000000E+00  0.00000000E+00
  0.00000000E+00  0.00000000E+00  0.00000000E+00
  0.00000000E+00  0.00000000E+00  0.00000000E+00
  0.00000000E+00  0.00000000E+00  0.00000000E+00
  0.00000000E+00  0.00000000E+00  0.00000000E+00
  0.00000000E+00  0.00000000E+00  0.00000000E+00
  0.00000000E+00  0.00000000E+00  0.00000000E+00
  0.00000000E+00  0.00000000E+00  0.00000000E+00
  0.00000000E+00  0.00000000E+00  0.00000000E+00
  0.00000000E+00  0.00000000E+00  0.00000000E+00
  0.00000000E+00  0.00000000E+00  0.00000000E+00
  0.00000000E+00  0.00000000E+00  0.00000000E+00
  0.00000000E+00  0.00000000E+00  0.00000000E+00
  0.00000000E+00  0.00000000E+00  0.00000000E+00
  0.00000000E+00  0.00000000E+00  0.00000000E+00
  0.00000000E+00  0.00000000E+00  0.00000000E+00
  0.00000000E+00  0.00000000E+00  0.00000000E+00
  0.00000000E+00  0.00000000E+00  0.00000000E+00
  0.00000000E+00  0.00000000E+00  0.00000000E+00
  0.00000000E+00  0.00000000E+00  0.00000000E+00
