CeO2-you-111-you-Ru                     
   1.00000000000000     
     9.8462090043868056   -5.7235719201610609    0.0076116499343250
    -0.0336538518888803   11.3888516483097515   -0.0076116485201547
     0.0077820871633258   -0.0134789692441140   21.0215276798713511
   O    Ru   Ce   H 
    53     1    26     2
Selective dynamics
Direct
  0.9998399922266916 -0.0001401490418503  0.9950536001000528   T   T   T
  0.1078133912274950  0.2190970235301819  0.1467045865642689   F   F   F
  0.2585373023379457  0.1375535203619696  0.3080189993113778   T   T   T
  0.1510205125881257  0.2582667415200987  0.3666671720874912   T   T   T
  0.0110892422941324  0.0052935785477352  0.2319154877642114   T   T   T
  0.2220723349982237  0.1108385640099954  0.0742513730207577   F   F   F
  0.3349690829961186  0.0008849732544529  0.9956377382378796   T   T   T
  0.4432664001693212  0.2233995998301808  0.1495174579731042   F   F   F
  0.5512084508090507  0.1054996454961699  0.3024705883828296   T   T   T
  0.4636583703365871  0.1744147880440752  0.4195116129691849   T   T   T
  0.3307712839966190  0.0001977671508161  0.2277155662384097   T   T   T
  0.5565822356608763  0.1100847643387723  0.0770224541272526   F   F   F
  0.6664807788164618  0.0002021629130771  0.9953053072364686   T   T   T
  0.7835958910540768  0.2236069559234863  0.1526956998546254   F   F   F
  0.8905097173394253  0.1050971921666465  0.3050373142257164   T   T   T
  0.7713776794981423  0.2049793590399954  0.3902537959784151   T   T   T
  0.6677319413865120  0.9985443975915611  0.2298551868164354   T   T   T
  0.8867819883699539  0.1092737758142235  0.0752769731416052   F   F   F
  0.9980934410146738  0.3316168061631408  0.9949606898802039   T   T   T
  0.1097841542394491  0.5568828457616846  0.1469965261345010   F   F   F
  0.1026635689696527  0.5652180604855997  0.3874254171609923   T   T   T
  0.0163159025924777  0.3428239986115392  0.2332258816506242   T   T   T
  0.2221342327540441  0.4445317672481934  0.0719568537918178   F   F   F
  0.3337315417248873  0.3323912634284090  0.9945584685201980   T   T   T
  0.4475689764743791  0.5588536087740152  0.1467045865647236   F   F   F
  0.5293015395873283  0.4205846280508215  0.3079375671293728   T   T   T
  0.3983716903176719  0.5113419257192838  0.3704552325655338   T   T   T
  0.3228977153958733  0.3420606189744675  0.2282663718942808   T   T   T
  0.5558284359886514  0.4445936650002125  0.0742513730206724   F   F   F
  0.6655325807667117  0.3316778215654599  0.9955130854936380   T   T   T
  0.7781865194871429  0.5555057207475045  0.1497675761196433   F   F   F
  0.8856106250342632  0.4485486817366124  0.3039601242340117   T   T   T
  0.7762517579682613  0.5703820708809084  0.3853416623439393   T   T   T
  0.6643251674641029  0.3337013622968091  0.2268080724002730   T   T   T
  0.8872961116666431  0.4432392346887397  0.0746941992911729   F   F   F
  0.0002664830959887  0.6671157783117269  0.9952323950266251   T   T   T
  0.1111612792496146  0.8884804805092372  0.1497675761196788   F   F   F
  0.2206109115409103  0.7836091208685987  0.3036578978068392   T   T   T
  0.1101085554351389  0.8970242574141316  0.3820389347980210   T   T   T
  0.0003350311902710  0.6679754193648593  0.2290274846413836   T   T   T
  0.2234267653100375  0.7793708883318757  0.0746941992912014   F   F   F
  0.3344250588191083  0.6681495027503487  0.9948593213196567   T   T   T
  0.4430590440777777  0.8830711089448684  0.1526956998542701   F   F   F
  0.5617403600129015  0.7762432254254470  0.3072439439517305   T   T   T
  0.4493323641460196  0.8966786855953016  0.3884428494029565   T   T   T
  0.3248666861906982  0.6504377047963782  0.2338037011825939   T   T   T
  0.5573932241879760  0.7798850116323948  0.0752769731416834   F   F   F
  0.6667535455313398  0.6672299884758394  0.9949309020449191   T   T   T
  0.7786998741084972  0.8879671258927644  0.1526565704116720   F   F   F
  0.8883004731675304  0.7813718287681828  0.3021277719072862   T   T   T
  0.7853937605767601  0.8874610323552401  0.3859810529996925   T   T   T
  0.6632605572003730  0.6583129416430623  0.2313660186610158   T   T   T
  0.8885180572443119  0.7781489427545409  0.0749510734807473   F   F   F
  0.3340611402317565  0.3350812804110569  0.3369061484030224   T   T   T
  0.0031862710599556  0.0012803396827783  0.3426827690148616   T   T   T
  0.2245709525291701  0.1141677901561309  0.1894804860184678   F   F   F
  0.1096324938374593  0.2199111380470171  0.0333835121467772   F   F   F
  0.3362885307769975 -0.0019720812771356  0.3447963067736820   T   T   T
  0.5562489828107218  0.1104180171939859  0.1906393276420246   F   F   F
  0.4445932969997557  0.2220727030016931  0.0348106939770290   F   F   F
  0.6684427091225422 -0.0005492151247722  0.3462573038919484   T   T   T
  0.8913377025382729  0.1122074421450563  0.1921099936193116   F   F   F
  0.7779835940924684  0.2215308752321405  0.0360647664879394   F   F   F
  0.9895301819470963  0.3345788322813322  0.3509050260879960   T   T   T
  0.2217294778894470  0.4449365221038448  0.1814206210581943   F   F   F
  0.1100369244956596  0.5566300755022908  0.0339239971571459   F   F   F
  0.5524992098392261  0.4420950474661964  0.1894804860187236   F   F   F
  0.4467548619522574  0.5570345061620543  0.0333835121465071   F   F   F
  0.6633578263755144  0.3298120166697223  0.3498048908311070   T   T   T
  0.8892368345613519  0.4443036088084469  0.1913696230549107   F   F   F
  0.7773543654071347  0.5545273312839356  0.0356492407465936   F   F   F
  0.9975688817568914  0.6670357408958080  0.3438430095467737   T   T   T
  0.2223623911984234  0.7774301654519107  0.1913696230556212   F   F   F
  0.1121396687174894  0.8893126345944466  0.0356492407466931   F   F   F
  0.3308134634876971  0.6757383796626354  0.3511878215389270   T   T   T
  0.5544595578463785  0.7753292974606936  0.1921099936195745   F   F   F
  0.4451351247667787  0.8886834059076918  0.0360647664878968   F   F   F
  0.6694921895417610  0.6669429825947267  0.3430243459341863   T   T   T
  0.8897071548177209  0.7769598451863473  0.1888873656378394   F   F   F
  0.7773682502204338  0.8892987497792220  0.0359619702748830   F   F   F
  0.3724460649967819  0.2935865275298564  0.4025180225956213   T   T   T
  0.4814314080549973  0.1486741407248910  0.4609523897619697   T   T   T
 
  0.00000000E+00  0.00000000E+00  0.00000000E+00
  0.00000000E+00  0.00000000E+00  0.00000000E+00
  0.00000000E+00  0.00000000E+00  0.00000000E+00
  0.00000000E+00  0.00000000E+00  0.00000000E+00
  0.00000000E+00  0.00000000E+00  0.00000000E+00
  0.00000000E+00  0.00000000E+00  0.00000000E+00
  0.00000000E+00  0.00000000E+00  0.00000000E+00
  0.00000000E+00  0.00000000E+00  0.00000000E+00
  0.00000000E+00  0.00000000E+00  0.00000000E+00
  0.00000000E+00  0.00000000E+00  0.00000000E+00
  0.00000000E+00  0.00000000E+00  0.00000000E+00
  0.00000000E+00  0.00000000E+00  0.00000000E+00
  0.00000000E+00  0.00000000E+00  0.00000000E+00
  0.00000000E+00  0.00000000E+00  0.00000000E+00
  0.00000000E+00  0.00000000E+00  0.00000000E+00
  0.00000000E+00  0.00000000E+00  0.00000000E+00
  0.00000000E+00  0.00000000E+00  0.00000000E+00
  0.00000000E+00  0.00000000E+00  0.00000000E+00
  0.00000000E+00  0.00000000E+00  0.00000000E+00
  0.00000000E+00  0.00000000E+00  0.00000000E+00
  0.00000000E+00  0.00000000E+00  0.00000000E+00
  0.00000000E+00  0.00000000E+00  0.00000000E+00
  0.00000000E+00  0.00000000E+00  0.00000000E+00
  0.00000000E+00  0.00000000E+00  0.00000000E+00
  0.00000000E+00  0.00000000E+00  0.00000000E+00
  0.00000000E+00  0.00000000E+00  0.00000000E+00
  0.00000000E+00  0.00000000E+00  0.00000000E+00
  0.00000000E+00  0.00000000E+00  0.00000000E+00
  0.00000000E+00  0.00000000E+00  0.00000000E+00
  0.00000000E+00  0.00000000E+00  0.00000000E+00
  0.00000000E+00  0.00000000E+00  0.00000000E+00
  0.00000000E+00  0.00000000E+00  0.00000000E+00
  0.00000000E+00  0.00000000E+00  0.00000000E+00
  0.00000000E+00  0.00000000E+00  0.00000000E+00
  0.00000000E+00  0.00000000E+00  0.00000000E+00
  0.00000000E+00  0.00000000E+00  0.00000000E+00
  0.00000000E+00  0.00000000E+00  0.00000000E+00
  0.00000000E+00  0.00000000E+00  0.00000000E+00
  0.00000000E+00  0.00000000E+00  0.00000000E+00
  0.00000000E+00  0.00000000E+00  0.00000000E+00
  0.00000000E+00  0.00000000E+00  0.00000000E+00
  0.00000000E+00  0.00000000E+00  0.00000000E+00
  0.00000000E+00  0.00000000E+00  0.00000000E+00
  0.00000000E+00  0.00000000E+00  0.00000000E+00
  0.00000000E+00  0.00000000E+00  0.00000000E+00
  0.00000000E+00  0.00000000E+00  0.00000000E+00
  0.00000000E+00  0.00000000E+00  0.00000000E+00
  0.00000000E+00  0.00000000E+00  0.00000000E+00
  0.00000000E+00  0.00000000E+00  0.00000000E+00
  0.00000000E+00  0.00000000E+00  0.00000000E+00
  0.00000000E+00  0.00000000E+00  0.00000000E+00
  0.00000000E+00  0.00000000E+00  0.00000000E+00
  0.00000000E+00  0.00000000E+00  0.00000000E+00
  0.00000000E+00  0.00000000E+00  0.00000000E+00
  0.00000000E+00  0.00000000E+00  0.00000000E+00
  0.00000000E+00  0.00000000E+00  0.00000000E+00
  0.00000000E+00  0.00000000E+00  0.00000000E+00
  0.00000000E+00  0.00000000E+00  0.00000000E+00
  0.00000000E+00  0.00000000E+00  0.00000000E+00
  0.00000000E+00  0.00000000E+00  0.00000000E+00
  0.00000000E+00  0.00000000E+00  0.00000000E+00
  0.00000000E+00  0.00000000E+00  0.00000000E+00
  0.00000000E+00  0.00000000E+00  0.00000000E+00
  0.00000000E+00  0.00000000E+00  0.00000000E+00
  0.00000000E+00  0.00000000E+00  0.00000000E+00
  0.00000000E+00  0.00000000E+00  0.00000000E+00
  0.00000000E+00  0.00000000E+00  0.00000000E+00
  0.00000000E+00  0.00000000E+00  0.00000000E+00
  0.00000000E+00  0.00000000E+00  0.00000000E+00
  0.00000000E+00  0.00000000E+00  0.00000000E+00
  0.00000000E+00  0.00000000E+00  0.00000000E+00
  0.00000000E+00  0.00000000E+00  0.00000000E+00
  0.00000000E+00  0.00000000E+00  0.00000000E+00
  0.00000000E+00  0.00000000E+00  0.00000000E+00
  0.00000000E+00  0.00000000E+00  0.00000000E+00
  0.00000000E+00  0.00000000E+00  0.00000000E+00
  0.00000000E+00  0.00000000E+00  0.00000000E+00
  0.00000000E+00  0.00000000E+00  0.00000000E+00
  0.00000000E+00  0.00000000E+00  0.00000000E+00
  0.00000000E+00  0.00000000E+00  0.00000000E+00
  0.00000000E+00  0.00000000E+00  0.00000000E+00
  0.00000000E+00  0.00000000E+00  0.00000000E+00
