CeO2-you-111-you-Sr                     
   1.00000000000000     
     9.8775274047593928   -5.7027934763052466    0.0000000000000000
    -0.0000000036419268   11.4055849391614590    0.0000000000000000
     0.0000000000000000    0.0000000000000000   21.2143641731939105
   O    Sr   Ce   H 
    54     1    26     2
Selective dynamics
Direct
 -0.0000949821592782 -0.0000098114096006  0.9959456508742577   T   T   T
  0.1096637966129407  0.2209113564207320  0.1489786766996962   T   T   T
  0.2237613302751914  0.1047555881946286  0.3048100818545241   T   T   T
  0.0837937762035871  0.2075809513235662  0.3851693948430454   T   T   T
  0.0002594776408112  0.0002682526563526  0.2287965727594782   T   T   T
  0.2221037275678037  0.1116299116124020  0.0751967595253039   T   T   T
  0.3326404171803145  0.0003350597351882  0.9962010925071052   T   T   T
  0.4441238685261918  0.2223336927746627  0.1497321322461967   T   T   T
  0.5510387034202595  0.1147746336842668  0.3031616232074100   T   T   T
  0.4566039047167276  0.2121470787654784  0.4017816157168718   T   T   T
  0.3330159888888251 -0.0024179987700661  0.2273740816434771   T   T   T
  0.5547197133753768  0.1110161814290674  0.0746324010643217   T   T   T
  0.6663969237744553  0.0002175844134923  0.9958842585232608   T   T   T
  0.7778925049071524  0.2223254258036610  0.1476377901763823   T   T   T
  0.8846879221113867  0.1090685472431868  0.2995610258813484   T   T   T
  0.7775798543138970  0.2226107456410862  0.3795086728864842   T   T   T
  0.6645590099962947  0.0025956060050692  0.2272138378584984   T   T   T
  0.8883723896502193  0.1107286702407476  0.0740812447320496   T   T   T
 -0.0000402236531904  0.3333039909730416  0.9961475762894125   T   T   T
  0.1117744454833980  0.5556348823358060  0.1484958649088439   T   T   T
  0.2185893715523269  0.4478291034180595  0.3032635707505333   T   T   T
  0.1113169375838920  0.5556415673328620  0.3814218677581178   T   T   T
  0.9993091711998400  0.3324858306454085  0.2273990023109302   T   T   T
  0.2226756511259212  0.4443025034365191  0.0748785528029234   T   T   T
  0.3332649739310334  0.3333854718639319  0.9961565330128277   T   T   T
  0.4453813796301884  0.5566363507497907  0.1491733506782627   T   T   T
  0.5620856942779947  0.4428655058810454  0.3043705836236173   T   T   T
  0.4581683306307339  0.5814122088876451  0.3850000734611369   T   T   T
  0.3324000684459671  0.3340223305722406  0.2259632252052350   T   T   T
  0.5551330007984328  0.4443170909789733  0.0751776881056507   T   T   T
  0.6664431272192037  0.3336226168132496  0.9966526985188920   T   T   T
  0.7773951776999947  0.5561134542054519  0.1491920534572599   T   T   T
  0.8914201502692695  0.4461027164576463  0.3012982944416504   T   T   T
  0.7818304946250988  0.5556671608567354  0.3821719862333858   T   T   T
  0.6691993735720669  0.3334983352971543  0.2272095784902120   T   T   T
  0.8894776587696355  0.4452603351683607  0.0746762487182215   T   T   T
 -0.0007386468823200  0.6669051117342609  0.9963962011874012   T   T   T
  0.1105224712032800  0.8898341993934364  0.1492823023340066   T   T   T
  0.2210519035648700  0.7759860193424106  0.3016623615440253   T   T   T
  0.1106138698316582  0.8844560022621670  0.3824820499234401   T   T   T
  0.0003845206784285  0.6674553255833188  0.2273215329256829   T   T   T
  0.2211210595168352  0.7777437510660133  0.0744612614806698   T   T   T
  0.3329679167958960  0.6666528943605028  0.9965559917219844   T   T   T
  0.4439925160745586  0.8882565857745650  0.1477462079859879   T   T   T
  0.5572512357897752  0.7815955010334787  0.2996206904754747   T   T   T
  0.4435167095700687  0.8891628566920079  0.3797812109517775   T   T   T
  0.3338190211009002  0.6672825145799103  0.2275534675043138   T   T   T
  0.5557954287831139  0.7779612337811165  0.0741841846894961   T   T   T
  0.6667177073698000  0.6664043701878679  0.9962128571822692   T   T   T
  0.7773460828748343  0.8892489421581827  0.1489779538313128   T   T   T
  0.8891175907844319  0.7774177682187765  0.3025823645548059   T   T   T
  0.7761721023502974  0.8899687799035126  0.3799462008803459   T   T   T
  0.6662433965849387  0.6663202476136811  0.2285959602385864   T   T   T
  0.8888932161508590  0.7786881585357088  0.0750191412307718   T   T   T
  0.3321859101272263  0.3339002866587761  0.3544690259860346   T   T   T
  0.9984261005258832 -0.0002182276086205  0.3416557660468718   T   T   T
  0.2223050809984889  0.1120112780594224  0.1905225251626656   T   T   T
  0.1114913939145813  0.2224779513751739  0.0358141420872225   T   T   T
  0.3277340868160971 -0.0083248526696006  0.3401053298198103   T   T   T
  0.5549070379420104  0.1115161042410134  0.1878318464105390   T   T   T
  0.4436990845825837  0.2225898854579231  0.0360488672482356   T   T   T
  0.6658155090704504  0.0006902256053573  0.3394873682192218   T   T   T
  0.8885444594298523  0.1113813048597655  0.1875922953616671   T   T   T
  0.7775780337355549  0.2223928192135686  0.0351235000618420   T   T   T
 -0.0007627148907136  0.3301784617178785  0.3412809118644881   T   T   T
  0.2226533792008480  0.4439273895057391  0.1893300514376777   T   T   T
  0.1110957411513879  0.5555072957164526  0.0352341680720708   T   T   T
  0.5546219625381253  0.4440937148680360  0.1904804729308660   T   T   T
  0.4442989892526875  0.5550080981579688  0.0360234237503662   T   T   T
  0.6751555309300065  0.3389425592597141  0.3398553491317473   T   T   T
  0.8897273280490761  0.4449326130336419  0.1874520311584730   T   T   T
  0.7773540923068379  0.5558115835520635  0.0359209124339513   T   T   T
  0.0003123047157690  0.6666862995308620  0.3417990336580803   T   T   T
  0.2217697503874626  0.7772197000595221  0.1875388014222981   T   T   T
  0.1109086053652284  0.8897349975382849  0.0357853746586922   T   T   T
  0.3362686689081484  0.6673151757783168  0.3414302753954270   T   T   T
  0.5551326646285422  0.7779328458883844  0.1876829974786080   T   T   T
  0.4438924744510360  0.8889818515873499  0.0351784157028324   T   T   T
  0.6664974452124008  0.6677637958917044  0.3415502061650302   T   T   T
  0.8889305764843818  0.7778953608029739  0.1887124827634253   T   T   T
  0.7776713435952174  0.8890011589845004  0.0352348926529219   T   T   T
  0.3282259337633155  0.3386622098230138  0.4958806847805526   T   T   T
  0.4617590145013344  0.2070279192520645  0.4473662457293426   T   T   T
 
  0.00000000E+00  0.00000000E+00  0.00000000E+00
  0.00000000E+00  0.00000000E+00  0.00000000E+00
  0.00000000E+00  0.00000000E+00  0.00000000E+00
  0.00000000E+00  0.00000000E+00  0.00000000E+00
  0.00000000E+00  0.00000000E+00  0.00000000E+00
  0.00000000E+00  0.00000000E+00  0.00000000E+00
  0.00000000E+00  0.00000000E+00  0.00000000E+00
  0.00000000E+00  0.00000000E+00  0.00000000E+00
  0.00000000E+00  0.00000000E+00  0.00000000E+00
  0.00000000E+00  0.00000000E+00  0.00000000E+00
  0.00000000E+00  0.00000000E+00  0.00000000E+00
  0.00000000E+00  0.00000000E+00  0.00000000E+00
  0.00000000E+00  0.00000000E+00  0.00000000E+00
  0.00000000E+00  0.00000000E+00  0.00000000E+00
  0.00000000E+00  0.00000000E+00  0.00000000E+00
  0.00000000E+00  0.00000000E+00  0.00000000E+00
  0.00000000E+00  0.00000000E+00  0.00000000E+00
  0.00000000E+00  0.00000000E+00  0.00000000E+00
  0.00000000E+00  0.00000000E+00  0.00000000E+00
  0.00000000E+00  0.00000000E+00  0.00000000E+00
  0.00000000E+00  0.00000000E+00  0.00000000E+00
  0.00000000E+00  0.00000000E+00  0.00000000E+00
  0.00000000E+00  0.00000000E+00  0.00000000E+00
  0.00000000E+00  0.00000000E+00  0.00000000E+00
  0.00000000E+00  0.00000000E+00  0.00000000E+00
  0.00000000E+00  0.00000000E+00  0.00000000E+00
  0.00000000E+00  0.00000000E+00  0.00000000E+00
  0.00000000E+00  0.00000000E+00  0.00000000E+00
  0.00000000E+00  0.00000000E+00  0.00000000E+00
  0.00000000E+00  0.00000000E+00  0.00000000E+00
  0.00000000E+00  0.00000000E+00  0.00000000E+00
  0.00000000E+00  0.00000000E+00  0.00000000E+00
  0.00000000E+00  0.00000000E+00  0.00000000E+00
  0.00000000E+00  0.00000000E+00  0.00000000E+00
  0.00000000E+00  0.00000000E+00  0.00000000E+00
  0.00000000E+00  0.00000000E+00  0.00000000E+00
  0.00000000E+00  0.00000000E+00  0.00000000E+00
  0.00000000E+00  0.00000000E+00  0.00000000E+00
  0.00000000E+00  0.00000000E+00  0.00000000E+00
  0.00000000E+00  0.00000000E+00  0.00000000E+00
  0.00000000E+00  0.00000000E+00  0.00000000E+00
  0.00000000E+00  0.00000000E+00  0.00000000E+00
  0.00000000E+00  0.00000000E+00  0.00000000E+00
  0.00000000E+00  0.00000000E+00  0.00000000E+00
  0.00000000E+00  0.00000000E+00  0.00000000E+00
  0.00000000E+00  0.00000000E+00  0.00000000E+00
  0.00000000E+00  0.00000000E+00  0.00000000E+00
  0.00000000E+00  0.00000000E+00  0.00000000E+00
  0.00000000E+00  0.00000000E+00  0.00000000E+00
  0.00000000E+00  0.00000000E+00  0.00000000E+00
  0.00000000E+00  0.00000000E+00  0.00000000E+00
  0.00000000E+00  0.00000000E+00  0.00000000E+00
  0.00000000E+00  0.00000000E+00  0.00000000E+00
  0.00000000E+00  0.00000000E+00  0.00000000E+00
  0.00000000E+00  0.00000000E+00  0.00000000E+00
  0.00000000E+00  0.00000000E+00  0.00000000E+00
  0.00000000E+00  0.00000000E+00  0.00000000E+00
  0.00000000E+00  0.00000000E+00  0.00000000E+00
  0.00000000E+00  0.00000000E+00  0.00000000E+00
  0.00000000E+00  0.00000000E+00  0.00000000E+00
  0.00000000E+00  0.00000000E+00  0.00000000E+00
  0.00000000E+00  0.00000000E+00  0.00000000E+00
  0.00000000E+00  0.00000000E+00  0.00000000E+00
  0.00000000E+00  0.00000000E+00  0.00000000E+00
  0.00000000E+00  0.00000000E+00  0.00000000E+00
  0.00000000E+00  0.00000000E+00  0.00000000E+00
  0.00000000E+00  0.00000000E+00  0.00000000E+00
  0.00000000E+00  0.00000000E+00  0.00000000E+00
  0.00000000E+00  0.00000000E+00  0.00000000E+00
  0.00000000E+00  0.00000000E+00  0.00000000E+00
  0.00000000E+00  0.00000000E+00  0.00000000E+00
  0.00000000E+00  0.00000000E+00  0.00000000E+00
  0.00000000E+00  0.00000000E+00  0.00000000E+00
  0.00000000E+00  0.00000000E+00  0.00000000E+00
  0.00000000E+00  0.00000000E+00  0.00000000E+00
  0.00000000E+00  0.00000000E+00  0.00000000E+00
  0.00000000E+00  0.00000000E+00  0.00000000E+00
  0.00000000E+00  0.00000000E+00  0.00000000E+00
  0.00000000E+00  0.00000000E+00  0.00000000E+00
  0.00000000E+00  0.00000000E+00  0.00000000E+00
  0.00000000E+00  0.00000000E+00  0.00000000E+00
  0.00000000E+00  0.00000000E+00  0.00000000E+00
  0.00000000E+00  0.00000000E+00  0.00000000E+00
