CeO2-you-111-you-Os                     
   1.00000000000000     
     9.8001823334342202   -5.6581382802178579    0.0000000000000000
     0.0000000052879148   11.3162745781703453    0.0000000000000000
     0.0000000000000000    0.0000000000000000   21.2059951529222772
   O    Os   Ce   H 
    54     1    26     1
Selective dynamics
Direct
  0.0002344804516937  0.0003282860757655  0.9955354048943806   T   T   T
  0.1016077711783723  0.2174703855886051  0.1480609399889943   F   F   F
  0.2436224814639689  0.1547316375008370  0.3072481835562775   T   T   T
  0.1420327692123576  0.2446812899100114  0.3908581587135450   T   T   T
  0.0066329634159921  0.0011336616079169  0.2318517126545226   T   T   T
  0.2226561366037600  0.1119792732073961  0.0752024991652505   F   F   F
  0.3331529054821892  0.0002512805465092  0.9955961912561091   T   T   T
  0.4491956144102289  0.2174703855880864  0.1480609399889943   F   F   F
  0.5576691881657342  0.1094698552642216  0.3065743596840431   T   T   T
  0.4191967669208138  0.2479833217310276  0.4043809297856994   T   T   T
  0.3283220758924510 -0.0003098603369275  0.2301563899580925   T   T   T
  0.5575289566795760  0.1091380433197955  0.0750365433742815   F   F   F
  0.6665531788920100  0.0000183944375964  0.9936913228207057   T   T   T
  0.7774614025582309  0.2215888051165606  0.1519670832084188   F   F   F
  0.8988152360453942  0.1135610304064611  0.3065190838764630   T   T   T
  0.7888147027136825  0.2170211798523640  0.3870850301190409   T   T   T
  0.6686803810972404 -0.0019591600331983  0.2326566406515672   T   T   T
  0.8849430866404120  0.1091380433199873  0.0750365433742815   F   F   F
  0.0003856807879911  0.3331911852876032  0.9955708455890212   T   T   T
  0.1101953672378002  0.5564716327628076  0.1490918115461852   F   F   F
  0.2390541183710036  0.4269130603391406  0.3030895854202739   T   T   T
  0.1167917223384128  0.5499797512011845  0.3831828803682647   T   T   T
  0.0046518619931026  0.3366598508315396  0.2317647560826348   T   T   T
  0.2226561366040301  0.4440098633963601  0.0752024991652505   F   F   F
  0.3331255357731759  0.3331887156505039  0.9955597184975243   T   T   T
  0.4491956144113942  0.5650592288233156  0.1480609399889943   F   F   F
  0.5118944402389728  0.4232686299066908  0.3073182194411109   T   T   T
  0.4213409502335268  0.5242562307394324  0.3909494608926989   T   T   T
  0.3329073445405086  0.3336126656806155  0.2097842967171651   T   T   T
  0.5546877267922170  0.4440098633962393  0.0752024991652505   F   F   F
  0.6659510181765000  0.3334513769111297  0.9952176477724283   T   T   T
  0.7796092655248188  0.5564716327626229  0.1490918115461852   F   F   F
  0.8948280946731215  0.4469595200506560  0.3060447189558121   T   T   T
  0.7782713384641741  0.5667349933182916  0.3836813628351169   T   T   T
  0.6670579126967617  0.3387191860294780  0.2300844167129166   T   T   T
  0.8879215093670609  0.4425090187341851  0.0752448760025644   F   F   F
  0.0000828928090037  0.6668274314603082  0.9961171115946525   T   T   T
  0.1101953672373810  0.8870577344745740  0.1490918115461852   F   F   F
  0.2203307647538465  0.7720632311281237  0.3058485346268826   T   T   T
  0.1006513044480513  0.8889823052379640  0.3837700867061138   T   T   T
 -0.0003563589346172  0.6669415500251665  0.2297820485521543   T   T   T
  0.2241569812660131  0.7787454906329359  0.0752448760025644   F   F   F
  0.3332494523474707  0.6656671931166491  0.9952506615647774   T   T   T
  0.4450771948837300  0.8892055974417659  0.1519670832084188   F   F   F
  0.5532313774662579  0.7679494675996595  0.3064689991492096   T   T   T
  0.4496941566618352  0.8777774145577840  0.3869550134044649   T   T   T
  0.3303388939148115  0.6620609723638016  0.2316830604587045   T   T   T
  0.5575289566800166  0.7817239133602101  0.0750365433742815   F   F   F
  0.6667136343680354  0.6667532321561688  0.9955927047242712   T   T   T
  0.7774614025580320  0.8892055974416735  0.1519670832084188   F   F   F
  0.8888136826578098  0.7788236187163172  0.3031066651130053   T   T   T
  0.7797413440767373  0.8864142508536791  0.3834880240971507   T   T   T
  0.6658016942379941  0.6600531002691215  0.2319322926281546   T   T   T
  0.8879215093669259  0.7787454906328719  0.0752448760025644   F   F   F
  0.3256691295708435  0.3409430105033289  0.3506702852532880   T   T   T
  0.0039420527745627  0.0010688785381896  0.3438445341820529   T   T   T
  0.2234250716296344  0.1135171432591235  0.1880894883955051   F   F   F
  0.1103132173132551  0.2218231086567855  0.0352175000679225   F   F   F
  0.3322983017841697 -0.0022783054031260  0.3458918579337654   T   T   T
  0.5553183066477985  0.1113486933532073  0.1907360620103020   F   F   F
  0.4448428913435265  0.2218231086569276  0.0352175000679225   F   F   F
  0.6679867925555101 -0.0012759775439335  0.3460979087936016   T   T   T
  0.8893643867051111  0.1113486933529018  0.1907360620103020   F   F   F
  0.7773043819319199  0.2212747638636969  0.0353621917337108   F   F   F
  0.0022832899321675  0.3328029817033921  0.3454031886113754   T   T   T
  0.2234250716299684  0.4432409283705070  0.1880894883955051   F   F   F
  0.1111159112595814  0.5555510887395769  0.0358671245328779   F   F   F
  0.5531498567403972  0.4432409283703649  0.1880894883955051   F   F   F
  0.4448428913432139  0.5563537826862941  0.0352175000679225   F   F   F
  0.6690306190783394  0.3347004779409533  0.3459497759976591   T   T   T
  0.8888113689033474  0.4442887378066729  0.1896166255127056   F   F   F
  0.7777681774802474  0.5555510887398327  0.0358671245328779   F   F   F
 -0.0003357201352943  0.6673429470264579  0.3424654483768874   T   T   T
  0.2223772621932696  0.7778556310966493  0.1896166255127056   F   F   F
  0.1111159112601712  0.8888988225205949  0.0358671245328779   F   F   F
  0.3338904234433669  0.6642643962343576  0.3453622251616296   T   T   T
  0.5553183066471021  0.7773026132938838  0.1907360620103020   F   F   F
  0.4453912361358334  0.8893626180680769  0.0353621917337108   F   F   F
  0.6660544035682024  0.6632577815564952  0.3438004071247726   T   T   T
  0.8888113689033830  0.7778556310966707  0.1896166255127056   F   F   F
  0.7773043819322396  0.8893626180682261  0.0353621917337108   F   F   F
  0.4077629055077373  0.2571596100867274  0.4493123454541278   T   T   T
 
  0.00000000E+00  0.00000000E+00  0.00000000E+00
  0.00000000E+00  0.00000000E+00  0.00000000E+00
  0.00000000E+00  0.00000000E+00  0.00000000E+00
  0.00000000E+00  0.00000000E+00  0.00000000E+00
  0.00000000E+00  0.00000000E+00  0.00000000E+00
  0.00000000E+00  0.00000000E+00  0.00000000E+00
  0.00000000E+00  0.00000000E+00  0.00000000E+00
  0.00000000E+00  0.00000000E+00  0.00000000E+00
  0.00000000E+00  0.00000000E+00  0.00000000E+00
  0.00000000E+00  0.00000000E+00  0.00000000E+00
  0.00000000E+00  0.00000000E+00  0.00000000E+00
  0.00000000E+00  0.00000000E+00  0.00000000E+00
  0.00000000E+00  0.00000000E+00  0.00000000E+00
  0.00000000E+00  0.00000000E+00  0.00000000E+00
  0.00000000E+00  0.00000000E+00  0.00000000E+00
  0.00000000E+00  0.00000000E+00  0.00000000E+00
  0.00000000E+00  0.00000000E+00  0.00000000E+00
  0.00000000E+00  0.00000000E+00  0.00000000E+00
  0.00000000E+00  0.00000000E+00  0.00000000E+00
  0.00000000E+00  0.00000000E+00  0.00000000E+00
  0.00000000E+00  0.00000000E+00  0.00000000E+00
  0.00000000E+00  0.00000000E+00  0.00000000E+00
  0.00000000E+00  0.00000000E+00  0.00000000E+00
  0.00000000E+00  0.00000000E+00  0.00000000E+00
  0.00000000E+00  0.00000000E+00  0.00000000E+00
  0.00000000E+00  0.00000000E+00  0.00000000E+00
  0.00000000E+00  0.00000000E+00  0.00000000E+00
  0.00000000E+00  0.00000000E+00  0.00000000E+00
  0.00000000E+00  0.00000000E+00  0.00000000E+00
  0.00000000E+00  0.00000000E+00  0.00000000E+00
  0.00000000E+00  0.00000000E+00  0.00000000E+00
  0.00000000E+00  0.00000000E+00  0.00000000E+00
  0.00000000E+00  0.00000000E+00  0.00000000E+00
  0.00000000E+00  0.00000000E+00  0.00000000E+00
  0.00000000E+00  0.00000000E+00  0.00000000E+00
  0.00000000E+00  0.00000000E+00  0.00000000E+00
  0.00000000E+00  0.00000000E+00  0.00000000E+00
  0.00000000E+00  0.00000000E+00  0.00000000E+00
  0.00000000E+00  0.00000000E+00  0.00000000E+00
  0.00000000E+00  0.00000000E+00  0.00000000E+00
  0.00000000E+00  0.00000000E+00  0.00000000E+00
  0.00000000E+00  0.00000000E+00  0.00000000E+00
  0.00000000E+00  0.00000000E+00  0.00000000E+00
  0.00000000E+00  0.00000000E+00  0.00000000E+00
  0.00000000E+00  0.00000000E+00  0.00000000E+00
  0.00000000E+00  0.00000000E+00  0.00000000E+00
  0.00000000E+00  0.00000000E+00  0.00000000E+00
  0.00000000E+00  0.00000000E+00  0.00000000E+00
  0.00000000E+00  0.00000000E+00  0.00000000E+00
  0.00000000E+00  0.00000000E+00  0.00000000E+00
  0.00000000E+00  0.00000000E+00  0.00000000E+00
  0.00000000E+00  0.00000000E+00  0.00000000E+00
  0.00000000E+00  0.00000000E+00  0.00000000E+00
  0.00000000E+00  0.00000000E+00  0.00000000E+00
  0.00000000E+00  0.00000000E+00  0.00000000E+00
  0.00000000E+00  0.00000000E+00  0.00000000E+00
  0.00000000E+00  0.00000000E+00  0.00000000E+00
  0.00000000E+00  0.00000000E+00  0.00000000E+00
  0.00000000E+00  0.00000000E+00  0.00000000E+00
  0.00000000E+00  0.00000000E+00  0.00000000E+00
  0.00000000E+00  0.00000000E+00  0.00000000E+00
  0.00000000E+00  0.00000000E+00  0.00000000E+00
  0.00000000E+00  0.00000000E+00  0.00000000E+00
  0.00000000E+00  0.00000000E+00  0.00000000E+00
  0.00000000E+00  0.00000000E+00  0.00000000E+00
  0.00000000E+00  0.00000000E+00  0.00000000E+00
  0.00000000E+00  0.00000000E+00  0.00000000E+00
  0.00000000E+00  0.00000000E+00  0.00000000E+00
  0.00000000E+00  0.00000000E+00  0.00000000E+00
  0.00000000E+00  0.00000000E+00  0.00000000E+00
  0.00000000E+00  0.00000000E+00  0.00000000E+00
  0.00000000E+00  0.00000000E+00  0.00000000E+00
  0.00000000E+00  0.00000000E+00  0.00000000E+00
  0.00000000E+00  0.00000000E+00  0.00000000E+00
  0.00000000E+00  0.00000000E+00  0.00000000E+00
  0.00000000E+00  0.00000000E+00  0.00000000E+00
  0.00000000E+00  0.00000000E+00  0.00000000E+00
  0.00000000E+00  0.00000000E+00  0.00000000E+00
  0.00000000E+00  0.00000000E+00  0.00000000E+00
  0.00000000E+00  0.00000000E+00  0.00000000E+00
  0.00000000E+00  0.00000000E+00  0.00000000E+00
  0.00000000E+00  0.00000000E+00  0.00000000E+00
