CeO2-you-111-you-Ga                     
   1.00000000000000     
     9.8876431343028308   -5.7086337991742777   -0.0000000010916693
    -0.0311152723953399   11.3633723600030585   -0.0213616081628288
    -0.0230628615661555   -0.0399460412993359   20.7297998887013506
   O    Ga   Ce H
    53     1    26 1
Selective dynamics
Direct
 -0.0003205120780535  0.0001305502892134  0.9919862315244156   T   T   T
  0.1087364731061712  0.2210898015815010  0.1467998888258497   T   T   T
  0.2376816507792237  0.1420303015670565  0.3131173437740470   T   T   T
  0.0602385477230467  0.1997622842098350  0.3985663767366739   T   T   T
  0.0083069638914313  0.0042454342074712  0.2302315414458048   T   T   T
  0.2219074983286742  0.1104819966567948  0.0719820120504189   T   T   T
  0.3337840623670587  0.0001305502895072  0.9919862315246912   T   T   T
  0.4456863284773498  0.2210898015821550  0.1467998888259562   T   T   T
  0.5584437530306748  0.1104540834761369  0.3018076495353496   T   T   T
  0.4728567364957719  0.1997622842155697  0.3985663767407729   T   T   T
  0.3292714703157785  0.0042454342066791  0.2302315414449130   T   T   T
  0.5569551561047089  0.1104113692945155  0.0730828501939594   T   T   T
  0.6661711304833077 -0.0009917390341823  0.9923083318092956   T   T   T
  0.7777738687412171  0.2222137374836092  0.1529499659868875   T   T   T
  0.8853443304485480  0.1104540834758178  0.3018076495348556   T   T   T
  0.7758179305400476  0.2183018610787467  0.3871071962417360   T   T   T
  0.6623548315116765 -0.0086243369767162  0.2302988904023497   T   T   T
  0.8867902131893064  0.1104113692933541  0.0730828501933422   T   T   T
 -0.0004186030244959  0.3322893263225660  0.9922743147069389   T   T   T
  0.1088956618199590  0.5563109350026949  0.1477472388929086   T   T   T
  0.2460855679808090  0.4371072967654806  0.3213093123245184   T   T   T
  0.1064826544416261  0.5569165678722264  0.3860149405854635   T   T   T
  0.0118463715449768  0.3402340527356997  0.2316911946412860   T   T   T
  0.2218792793379347  0.4452992116375272  0.0725872884485746   T   T   T
  0.3335402191414298  0.3337474382828420  0.9928432640714838   T   T   T
  0.4460723527874871  0.5588127055784289  0.1470197713624920   T   T   T
  0.5243557287840319  0.4371072967644478  0.3213093123249340   T   T   T
  0.3350314490132035  0.3367298980303265  0.2209798330046729   T   T   T
  0.5567539322997402  0.4452992116375970  0.0725872884486029   T   T   T
  0.6660419293466456  0.3322893263225563  0.9922743147067649   T   T   T
  0.7807482731824210  0.5563109350030141  0.1477472388929893   T   T   T
  0.8873759591344484  0.4414179182685579  0.3052597972436804   T   T   T
  0.7837669134291069  0.5569165678733439  0.3860149405853558   T   T   T
  0.6617216811900654  0.3402340527345733  0.2316911946407371   T   T   T
  0.8877462204070147  0.4421584408133618  0.0727264348696636   T   T   T
 -0.0008866363367490  0.6648937273251659  0.9915605578571735   T   T   T
  0.1106552090176954  0.8879774180347039  0.1470458006937395   T   T   T
  0.2220500273414496  0.7822304704549921  0.3043103220220073   T   T   T
  0.1142366568117645  0.8951403136244285  0.3856680745866899   T   T   T
  0.0004484559309703  0.6675639118621164  0.2295441970938346   T   T   T
  0.2219912719579298  0.7780391032724117  0.0718366730382394   T   T   T
  0.3337035097614343  0.6664750402168848  0.9924451610654689   T   T   T
  0.4422089814093056  0.8877905642471755  0.1502614837154020   T   T   T
  0.5478068643820482  0.7622797287668681  0.3108905483424808   T   T   T
  0.4473774850520378  0.8940813274541596  0.3871857071965911   T   T   T
  0.3277427254911963  0.6617816272417570  0.2295254820578510   T   T   T
  0.5566068803573461  0.7798797607160420  0.0736130228319878   T   T   T
  0.6661045304564317  0.6664750402167658  0.9924451610654207   T   T   T
  0.7789145828383152  0.8877905642470661  0.1502614837155235   T   T   T
  0.8935134431155319  0.7822304704559278  0.3043103220217588   T   T   T
  0.7800368424047343  0.8940813274545198  0.3871857071969653   T   T   T
  0.6673719017511504  0.6617816272413304  0.2295254820575495   T   T   T
  0.8893808313148044  0.7780391032719842  0.0718366730380859   T   T   T
  0.3337738143553790  0.3342146287258222  0.3157836553802122   T   T   T
  0.0033151681241134  0.0094617257818136  0.3501812324842335   T   T   T
  0.2220372884361202  0.1107415768737419  0.1869818866675002   T   T   T
  0.1098626995668703  0.2211877832099662  0.0320157114025086   T   T   T
  0.3394795576568166  0.0094617257832481  0.3501812324847703   T   T   T
  0.5543282812204490  0.1107538678337592  0.1906721970144141   T   T   T
  0.4446580836436166  0.2211877832098919  0.0320157114025695   T   T   T
  0.6659706018023511 -0.0013927963945838  0.3470646089803404   T   T   T
  0.8897595866128475  0.1107538678332579  0.1906721970143556   T   T   T
  0.7772126267278916  0.2210912534556243  0.0333491089783914   T   T   T
 -0.0018095256016011  0.3286014995297829  0.3502194674458659   T   T   T
  0.2210128454688940  0.4457094464037853  0.1856602308678714   T   T   T
  0.1095940726400806  0.5548824859388514  0.0322576570109285   T   T   T
  0.5580306009345982  0.4457094464043779  0.1856602308681037   T   T   T
  0.4450075551902921  0.5566831103810923  0.0318366870409594   T   T   T
  0.6637450251334126  0.3286014995298306  0.3502194674462535   T   T   T
  0.8888211949546965  0.4443083899077389  0.1918917757675218   T   T   T
  0.7786214132991149  0.5548824859389510  0.0322576570109371   T   T   T
  0.0009500934196614  0.6685671868395137  0.3458152077810565   T   T   T
  0.2215099386122583  0.7793902727183717  0.1890998836592253   T   T   T
  0.1107947787150030  0.8882565574290648  0.0314998097130673   T   T   T
  0.3246335756371201  0.6729756694097925  0.3445643896277029   T   T   T
  0.5545362331841495  0.7757384663694274  0.1906715263460624   T   T   T
  0.4445879543104543  0.8884994750558098  0.0330994190897663   T   T   T
  0.6816750937743949  0.6729756694104159  0.3445643896275865   T   T   T
  0.8912133341059338  0.7793902727184332  0.1890998836592289   T   T   T
  0.7772445207453418  0.8884994750556080  0.0330994190895180   T   T   T
0.446598 0.216020 0.433410 T T T 
 
  0.00000000E+00  0.00000000E+00  0.00000000E+00
  0.00000000E+00  0.00000000E+00  0.00000000E+00
  0.00000000E+00  0.00000000E+00  0.00000000E+00
  0.00000000E+00  0.00000000E+00  0.00000000E+00
  0.00000000E+00  0.00000000E+00  0.00000000E+00
  0.00000000E+00  0.00000000E+00  0.00000000E+00
  0.00000000E+00  0.00000000E+00  0.00000000E+00
  0.00000000E+00  0.00000000E+00  0.00000000E+00
  0.00000000E+00  0.00000000E+00  0.00000000E+00
  0.00000000E+00  0.00000000E+00  0.00000000E+00
  0.00000000E+00  0.00000000E+00  0.00000000E+00
  0.00000000E+00  0.00000000E+00  0.00000000E+00
  0.00000000E+00  0.00000000E+00  0.00000000E+00
  0.00000000E+00  0.00000000E+00  0.00000000E+00
  0.00000000E+00  0.00000000E+00  0.00000000E+00
  0.00000000E+00  0.00000000E+00  0.00000000E+00
  0.00000000E+00  0.00000000E+00  0.00000000E+00
  0.00000000E+00  0.00000000E+00  0.00000000E+00
  0.00000000E+00  0.00000000E+00  0.00000000E+00
  0.00000000E+00  0.00000000E+00  0.00000000E+00
  0.00000000E+00  0.00000000E+00  0.00000000E+00
  0.00000000E+00  0.00000000E+00  0.00000000E+00
  0.00000000E+00  0.00000000E+00  0.00000000E+00
  0.00000000E+00  0.00000000E+00  0.00000000E+00
  0.00000000E+00  0.00000000E+00  0.00000000E+00
  0.00000000E+00  0.00000000E+00  0.00000000E+00
  0.00000000E+00  0.00000000E+00  0.00000000E+00
  0.00000000E+00  0.00000000E+00  0.00000000E+00
  0.00000000E+00  0.00000000E+00  0.00000000E+00
  0.00000000E+00  0.00000000E+00  0.00000000E+00
  0.00000000E+00  0.00000000E+00  0.00000000E+00
  0.00000000E+00  0.00000000E+00  0.00000000E+00
  0.00000000E+00  0.00000000E+00  0.00000000E+00
  0.00000000E+00  0.00000000E+00  0.00000000E+00
  0.00000000E+00  0.00000000E+00  0.00000000E+00
  0.00000000E+00  0.00000000E+00  0.00000000E+00
  0.00000000E+00  0.00000000E+00  0.00000000E+00
  0.00000000E+00  0.00000000E+00  0.00000000E+00
  0.00000000E+00  0.00000000E+00  0.00000000E+00
  0.00000000E+00  0.00000000E+00  0.00000000E+00
  0.00000000E+00  0.00000000E+00  0.00000000E+00
  0.00000000E+00  0.00000000E+00  0.00000000E+00
  0.00000000E+00  0.00000000E+00  0.00000000E+00
  0.00000000E+00  0.00000000E+00  0.00000000E+00
  0.00000000E+00  0.00000000E+00  0.00000000E+00
  0.00000000E+00  0.00000000E+00  0.00000000E+00
  0.00000000E+00  0.00000000E+00  0.00000000E+00
  0.00000000E+00  0.00000000E+00  0.00000000E+00
  0.00000000E+00  0.00000000E+00  0.00000000E+00
  0.00000000E+00  0.00000000E+00  0.00000000E+00
  0.00000000E+00  0.00000000E+00  0.00000000E+00
  0.00000000E+00  0.00000000E+00  0.00000000E+00
  0.00000000E+00  0.00000000E+00  0.00000000E+00
  0.00000000E+00  0.00000000E+00  0.00000000E+00
  0.00000000E+00  0.00000000E+00  0.00000000E+00
  0.00000000E+00  0.00000000E+00  0.00000000E+00
  0.00000000E+00  0.00000000E+00  0.00000000E+00
  0.00000000E+00  0.00000000E+00  0.00000000E+00
  0.00000000E+00  0.00000000E+00  0.00000000E+00
  0.00000000E+00  0.00000000E+00  0.00000000E+00
  0.00000000E+00  0.00000000E+00  0.00000000E+00
  0.00000000E+00  0.00000000E+00  0.00000000E+00
  0.00000000E+00  0.00000000E+00  0.00000000E+00
  0.00000000E+00  0.00000000E+00  0.00000000E+00
  0.00000000E+00  0.00000000E+00  0.00000000E+00
  0.00000000E+00  0.00000000E+00  0.00000000E+00
  0.00000000E+00  0.00000000E+00  0.00000000E+00
  0.00000000E+00  0.00000000E+00  0.00000000E+00
  0.00000000E+00  0.00000000E+00  0.00000000E+00
  0.00000000E+00  0.00000000E+00  0.00000000E+00
  0.00000000E+00  0.00000000E+00  0.00000000E+00
  0.00000000E+00  0.00000000E+00  0.00000000E+00
  0.00000000E+00  0.00000000E+00  0.00000000E+00
  0.00000000E+00  0.00000000E+00  0.00000000E+00
  0.00000000E+00  0.00000000E+00  0.00000000E+00
  0.00000000E+00  0.00000000E+00  0.00000000E+00
  0.00000000E+00  0.00000000E+00  0.00000000E+00
  0.00000000E+00  0.00000000E+00  0.00000000E+00
  0.00000000E+00  0.00000000E+00  0.00000000E+00
  0.00000000E+00  0.00000000E+00  0.00000000E+00
