CeO2-you-111-you-Pb                     
   1.00000000000000     
     9.8384165263087944   -5.7164072728305086    0.0037081973281239
     0.0000000012027571   11.4328125356694574   -0.0000000004257709
     0.0075790041653975   -0.0000000007135320   20.8696912856661605
   O    Pb   Ce H
    53     1    26 2
Selective dynamics
Direct
 -0.0011262810345368  0.0007779239426943  0.9947046558156508   T   T   T
  0.1152593748265423  0.2242961874133011  0.1510518443178677   F   F   F
  0.2208806095664672  0.1070128463532678  0.3054075960321244   T   T   T
  0.0907370997534189  0.2120350498780600  0.3905070987897245   T   T   T
  0.0000440878829865  0.0002926716841157  0.2288561514666250   T   T   T
  0.2209691433166918  0.1100781849505366  0.0740074088947783   F   F   F
  0.3322790423668497 -0.0006349776919396  0.9937645066602628   T   T   T
  0.4450289285441064  0.2200491184064611  0.1460223427567325   F   F   F
  0.5613527569178393  0.1078711369292280  0.3016079899925665   T   T   T
  0.4636697280059636  0.2100814951033168  0.3865721728167894   T   T   T
  0.3349974644808550  0.0009741594923268  0.2291778405701583   T   T   T
  0.5555950436984768  0.1097210538446369  0.0728887201126329   F   F   F
  0.6687277877623548  0.0010303938816145  0.9943037953666271   T   T   T
  0.7754817519375653  0.2270402543064196  0.1511067975383697   F   F   F
  0.8883302566932908  0.1108316283464576  0.3035064394328155   T   T   T
  0.7798709529843912  0.2200751916892429  0.3871342415387002   T   T   T
  0.6689088723946515  0.0011209361970738  0.2260525803717271   T   T   T
  0.8876473548215400  0.1104901774104763  0.0765200696842329   F   F   F
 -0.0011262810343169  0.3314287950224244  0.9947046558156627   T   T   T
  0.1102443136257078  0.5556342259922100  0.1504009530441520   F   F   F
  0.2208806095662005  0.4472007632124451  0.3054075960326045   T   T   T
  0.1098657691663796  0.5592799270129121  0.3853922613563214   T   T   T
  0.0000440878842657  0.3330844161984142  0.2288561514666760   T   T   T
  0.2209691433165851  0.4442239583664904  0.0740074088947868   F   F   F
  0.3309680458730755  0.3321505229367498  0.9941614586840547   T   T   T
  0.4450289285409642  0.5583138101394004  0.1460223427566585   F   F   F
  0.4636697280038256  0.5869222329054441  0.3865721728164100   T   T   T
  0.3480224569257575  0.3406777284678704  0.2289169662850800   T   T   T
  0.5548183291263008  0.4440751645634166  0.0707662590148406   F   F   F
  0.6669661398957460  0.3324175289561642  0.9936630597852794   T   T   T
  0.7790214412279395  0.5561777206121638  0.1470185859679065   F   F   F
  0.8902274239321271  0.4418463806326676  0.3053346994488161   T   T   T
  0.7527225901880960  0.5430282950909040  0.3755426040008056   T   T   T
  0.6562247483289715  0.3424656355496735  0.2355045683877628   T   T   T
  0.8891880588757309  0.4441590548960557  0.0738138597844089   F   F   F
 -0.0009960069010981  0.6661689965493133  0.9942163720384671   T   T   T
  0.1102443136256477  0.8879440876321837  0.1504009530441025   F   F   F
  0.2205191771052575  0.7769265885522310  0.3035797777052902   T   T   T
  0.1098657691653835  0.8839198421525740  0.3853922613564422   T   T   T
 -0.0027567088688764  0.6652886455643899  0.2303066198570078   T   T   T
  0.2215585031422227  0.7774462515710838  0.0739711001578415   F   F   F
  0.3322790423666124  0.6662480200588682  0.9937645066602802   T   T   T
  0.4443446057540005  0.8888393028770819  0.1489286959405872   F   F   F
  0.5613527569166299  0.7868146199887623  0.3016079899923501   T   T   T
  0.4458481515251474  0.8895910757629741  0.3836765629536577   T   T   T
  0.3349974644810552  0.6673573049897483  0.2291778405701060   T   T   T
  0.5555950436980578  0.7792069898536790  0.0728887201125290   F   F   F
  0.6669661398958238  0.6678816109398394  0.9936630597850449   T   T   T
  0.7754817519363546  0.8817744976301092  0.1511067975385235   F   F   F
  0.8902274239304009  0.7817140432974473  0.3053346994486626   T   T   T
  0.7798709529808899  0.8931287612900596  0.3871342415382282   T   T   T
  0.6562247483221513  0.6470921127716069  0.2355045683874644   T   T   T
  0.8891880588755694  0.7783620039787250  0.0738138597843137   F   F   F
  0.3212057776698551  0.3272693888311904  0.3580471074409803   T   T   T
  0.0033380792487588  0.0026188784000212  0.3453091794579673   T   T   T
  0.2245942643115728  0.1135328357894024  0.1916438233350058   F   F   F
  0.1112268232392047  0.2222799116195695  0.0351542808073412   F   F   F
  0.3350566472654038 -0.0001322134627505  0.3446329492523583   T   T   T
  0.5552111808760629  0.1111997730175602  0.1890011935397840   F   F   F
  0.4429989481187742  0.2198246970073797  0.0321862666287413   F   F   F
  0.6682546803925334  0.0007938401967410  0.3440204612717530   T   T   T
  0.8897781552223156  0.1115555776121653  0.1900654363005772   F   F   F
  0.7778227964804914  0.2223742026306378  0.0342924745098532   F   F   F
  0.0033380792472416  0.3340522008517516  0.3453091794577959   T   T   T
  0.2245942643128163  0.4443944285205430  0.1916438233349780   F   F   F
  0.1104069612523778  0.5544290870918511  0.0349459459334976   F   F   F
  0.5534452357235429  0.4433886178581293  0.1811537040636695   F   F   F
  0.4429989481194118  0.5565082511106322  0.0321862666287777   F   F   F
  0.6703901444403705  0.3215377088691035  0.3482889412450387   T   T   T
  0.8882304099035772  0.4449584936178869  0.1904874775523460   F   F   F
  0.7795897670220787  0.5564618835113876  0.0324005433128175   F   F   F
  0.0005344958688766  0.6669342479369962  0.3438660852508814   T   T   T
  0.2223212602782284  0.7778276301397717  0.1890596578145775   F   F   F
  0.1104069612523523  0.8893118741615277  0.0349459459334625   F   F   F
  0.3350566472662350  0.6685228607254872  0.3446329492519473   T   T   T
  0.5552111808815149  0.7773444078582029  0.1890011935398629   F   F   F
  0.4447882444534564  0.8890611222263408  0.0338337382563261   F   F   F
  0.6703901444508489  0.6821854355811068  0.3482889412459748   T   T   T
  0.8882304099067934  0.7766049162936051  0.1904874775524083   F   F   F
  0.7778227964812590  0.8887815938503902  0.0342924745098749   F   F   F
0.3212057776698551 0.3272693888311904 0.458047 T T T
0.446598 0.216020 0.433410 T T T 
 
  0.00000000E+00  0.00000000E+00  0.00000000E+00
  0.00000000E+00  0.00000000E+00  0.00000000E+00
  0.00000000E+00  0.00000000E+00  0.00000000E+00
  0.00000000E+00  0.00000000E+00  0.00000000E+00
  0.00000000E+00  0.00000000E+00  0.00000000E+00
  0.00000000E+00  0.00000000E+00  0.00000000E+00
  0.00000000E+00  0.00000000E+00  0.00000000E+00
  0.00000000E+00  0.00000000E+00  0.00000000E+00
  0.00000000E+00  0.00000000E+00  0.00000000E+00
  0.00000000E+00  0.00000000E+00  0.00000000E+00
  0.00000000E+00  0.00000000E+00  0.00000000E+00
  0.00000000E+00  0.00000000E+00  0.00000000E+00
  0.00000000E+00  0.00000000E+00  0.00000000E+00
  0.00000000E+00  0.00000000E+00  0.00000000E+00
  0.00000000E+00  0.00000000E+00  0.00000000E+00
  0.00000000E+00  0.00000000E+00  0.00000000E+00
  0.00000000E+00  0.00000000E+00  0.00000000E+00
  0.00000000E+00  0.00000000E+00  0.00000000E+00
  0.00000000E+00  0.00000000E+00  0.00000000E+00
  0.00000000E+00  0.00000000E+00  0.00000000E+00
  0.00000000E+00  0.00000000E+00  0.00000000E+00
  0.00000000E+00  0.00000000E+00  0.00000000E+00
  0.00000000E+00  0.00000000E+00  0.00000000E+00
  0.00000000E+00  0.00000000E+00  0.00000000E+00
  0.00000000E+00  0.00000000E+00  0.00000000E+00
  0.00000000E+00  0.00000000E+00  0.00000000E+00
  0.00000000E+00  0.00000000E+00  0.00000000E+00
  0.00000000E+00  0.00000000E+00  0.00000000E+00
  0.00000000E+00  0.00000000E+00  0.00000000E+00
  0.00000000E+00  0.00000000E+00  0.00000000E+00
  0.00000000E+00  0.00000000E+00  0.00000000E+00
  0.00000000E+00  0.00000000E+00  0.00000000E+00
  0.00000000E+00  0.00000000E+00  0.00000000E+00
  0.00000000E+00  0.00000000E+00  0.00000000E+00
  0.00000000E+00  0.00000000E+00  0.00000000E+00
  0.00000000E+00  0.00000000E+00  0.00000000E+00
  0.00000000E+00  0.00000000E+00  0.00000000E+00
  0.00000000E+00  0.00000000E+00  0.00000000E+00
  0.00000000E+00  0.00000000E+00  0.00000000E+00
  0.00000000E+00  0.00000000E+00  0.00000000E+00
  0.00000000E+00  0.00000000E+00  0.00000000E+00
  0.00000000E+00  0.00000000E+00  0.00000000E+00
  0.00000000E+00  0.00000000E+00  0.00000000E+00
  0.00000000E+00  0.00000000E+00  0.00000000E+00
  0.00000000E+00  0.00000000E+00  0.00000000E+00
  0.00000000E+00  0.00000000E+00  0.00000000E+00
  0.00000000E+00  0.00000000E+00  0.00000000E+00
  0.00000000E+00  0.00000000E+00  0.00000000E+00
  0.00000000E+00  0.00000000E+00  0.00000000E+00
  0.00000000E+00  0.00000000E+00  0.00000000E+00
  0.00000000E+00  0.00000000E+00  0.00000000E+00
  0.00000000E+00  0.00000000E+00  0.00000000E+00
  0.00000000E+00  0.00000000E+00  0.00000000E+00
  0.00000000E+00  0.00000000E+00  0.00000000E+00
  0.00000000E+00  0.00000000E+00  0.00000000E+00
  0.00000000E+00  0.00000000E+00  0.00000000E+00
  0.00000000E+00  0.00000000E+00  0.00000000E+00
  0.00000000E+00  0.00000000E+00  0.00000000E+00
  0.00000000E+00  0.00000000E+00  0.00000000E+00
  0.00000000E+00  0.00000000E+00  0.00000000E+00
  0.00000000E+00  0.00000000E+00  0.00000000E+00
  0.00000000E+00  0.00000000E+00  0.00000000E+00
  0.00000000E+00  0.00000000E+00  0.00000000E+00
  0.00000000E+00  0.00000000E+00  0.00000000E+00
  0.00000000E+00  0.00000000E+00  0.00000000E+00
  0.00000000E+00  0.00000000E+00  0.00000000E+00
  0.00000000E+00  0.00000000E+00  0.00000000E+00
  0.00000000E+00  0.00000000E+00  0.00000000E+00
  0.00000000E+00  0.00000000E+00  0.00000000E+00
  0.00000000E+00  0.00000000E+00  0.00000000E+00
  0.00000000E+00  0.00000000E+00  0.00000000E+00
  0.00000000E+00  0.00000000E+00  0.00000000E+00
  0.00000000E+00  0.00000000E+00  0.00000000E+00
  0.00000000E+00  0.00000000E+00  0.00000000E+00
  0.00000000E+00  0.00000000E+00  0.00000000E+00
  0.00000000E+00  0.00000000E+00  0.00000000E+00
  0.00000000E+00  0.00000000E+00  0.00000000E+00
  0.00000000E+00  0.00000000E+00  0.00000000E+00
  0.00000000E+00  0.00000000E+00  0.00000000E+00
  0.00000000E+00  0.00000000E+00  0.00000000E+00
