CeO2-you-111-you-Sc                     
   1.00000000000000     
     9.8456839725210017   -5.6666061947230313    0.0018224271461910
    -0.0000000001112122   11.3332103948777032   -0.0000000002076349
     0.0042224252820378   -0.0000000004354520   21.0403494394251993
   O    Sc   Ce
    53     1    26
Selective dynamics
Direct
 -0.0009147353576765  0.0013197774287979  0.9959858157149053   T   T   T
  0.1167896062310975  0.2250613031151165  0.1513972715800631   T   T   T
  0.2156242727482744  0.1087193219496115  0.3017218935440144   T   T   T
  0.1195170952601775  0.2264250476291114  0.3809302905371078   T   T   T
 -0.0024041597980331  0.0003564586598571  0.2284547866750903   T   T   T
  0.2214500981737159  0.1100180990078904  0.0747788218499300   T   T   T
  0.3329343529763311 -0.0008462305159770  0.9948549152315891   T   T   T
  0.4436422799006928  0.2210539131682384  0.1476509124802730   T   T   T
  0.5561352224640266  0.1079600710477227  0.3048547170542366   T   T   T
  0.4415047208438340  0.2454237769576139  0.3680244096440103   T   T   T
  0.3346127711885129  0.0020275731552431  0.2297911336348331   T   T   T
  0.5548416270660098  0.1098691365195022  0.0749859979339765   T   T   T
  0.6694123298824970  0.0013726649412545  0.9960760713903802   T   T   T
  0.7736955501692108  0.2250259517398581  0.1515795267937853   T   T   T
  0.8886765067118060  0.1110047533553259  0.3051748747419575   T   T   T
  0.7795009256182863  0.2191781040780187  0.3880073154675899   T   T   T
  0.6674208567258476  0.0003769283626968  0.2292443545688655   T   T   T
  0.8892839506888122  0.1113084753442734  0.0781566369492249   T   T   T
 -0.0009147353575725  0.3310984872134342  0.9959858157148419   T   T   T
  0.1111586977446100  0.5554010338469545  0.1510895363960176   T   T   T
  0.2156242727476030  0.4402379507994260  0.3017218935443587   T   T   T
  0.1155733653148497  0.5577691562357970  0.3846305129048077   T   T   T
 -0.0024041597974178  0.3305723815413877  0.2284547866750791   T   T   T
  0.2214500981737174  0.4447649991658434  0.0747788218499477   T   T   T
  0.3324373409779293  0.3328851704889290  0.9952110966578307   T   T   T
  0.4436422798995793  0.5559223667333010  0.1476509124803321   T   T   T
  0.4415047208418697  0.5294149438871045  0.3680244096443692   T   T   T
  0.3490282282831332  0.3411806141408401  0.2358521491035186   T   T   T
  0.5559280664255681  0.4446300332129125  0.0726034903836276   T   T   T
  0.6681355728327745  0.3327732199382874  0.9953165800146362   T   T   T
  0.7788422594202485  0.5560881297095920  0.1474478836412851   T   T   T
  0.8947069354102247  0.4452956140662412  0.3045067512723565   T   T   T
  0.7732224979278883  0.5532782489641066  0.3804981457703822   T   T   T
  0.6594440824090797  0.3429031308498096  0.2345919514480709   T   T   T
  0.8905771077755312  0.4448915935111660  0.0751178723672527   T   T   T
  0.0008113219529373  0.6670726609764315  0.9950617971444429   T   T   T
  0.1111586977441329  0.8890916638970732  0.1510895363960242   T   T   T
  0.2226727692201673  0.7780033846099333  0.3030778132224892   T   T   T
  0.1155733653134529  0.8911382090777290  0.3846305129048297   T   T   T
 -0.0014279486186055  0.6659530256903033  0.2297926249933701   T   T   T
  0.2223130548311523  0.7778235274155366  0.0755923917677970   T   T   T
  0.3329343529763352  0.6671145834923781  0.9948549152316178   T   T   T
  0.4449071500497176  0.8891205750250026  0.1510578105922428   T   T   T
  0.5561352224623396  0.7815081514165958  0.3048547170541837   T   T   T
  0.4416505154216904  0.8874922577108482  0.3844146275963218   T   T   T
  0.3346127711894790  0.6659191980344628  0.2297911336347246   T   T   T
  0.5548416270659198  0.7783054905465385  0.0749859979340172   T   T   T
  0.6681355728328819  0.6686953528946907  0.9953165800147008   T   T   T
  0.7736955501691852  0.8820025984293168  0.1515795267936834   T   T   T
  0.8947069354089480  0.7827443213407579  0.3045067512724254   T   T   T
  0.7795009256148518  0.8936558215367616  0.3880073154676511   T   T   T
  0.6594440824080566  0.6498739515600298  0.2345919514483505   T   T   T
  0.8905771077754386  0.7790185142641554  0.0751178723672603   T   T   T
  0.3122680329396905  0.3228005164714255  0.3374926088717212   T   T   T
  0.0028527841282189  0.0032739094611596  0.3447182646951528   T   T   T
  0.2227392260316158  0.1121741666783784  0.1910793615886512   T   T   T
  0.1111169263777937  0.2222249631888833  0.0360232129291809   T   T   T
  0.3332474890905124  0.0054930427989056  0.3425693064807196   T   T   T
  0.5553555772334491  0.1119656897405157  0.1912354494247314   T   T   T
  0.4435064003978281  0.2202678113393969  0.0337927480179783   T   T   T
  0.6655880865314564 -0.0005394567337667  0.3466142780325987   T   T   T
  0.8878434163012895  0.1105882081511105  0.1910870104031675   T   T   T
  0.7780059484547514  0.2224330097391185  0.0361418140993469   T   T   T
  0.0028527841258296  0.3329118746670304  0.3447182646951756   T   T   T
  0.2227392260322560  0.4438980593522809  0.1910793615886491   T   T   T
  0.1110329883160635  0.5551005237034519  0.0359565841966386   T   T   T
  0.5548147233572028  0.4440733616775762  0.1828363205046496   T   T   T
  0.4435064003977237  0.5565725890585360  0.0337927480179520   T   T   T
  0.6702607873918215  0.3292206668393998  0.3491231769150827   T   T   T
  0.8881935161998037  0.4448402627024783  0.1912962639322886   T   T   T
  0.7802960662452985  0.5568150331225301  0.0340842763621816   T   T   T
  0.0032027388536215  0.6682683694281499  0.3436260291638313   T   T   T
  0.2221822598973195  0.7777581299489408  0.1899357464131545   T   T   T
  0.1110329883158414  0.8892664646126769  0.0359565841966461   T   T   T
  0.3332474890905117  0.6610884462896373  0.3425693064809299   T   T   T
  0.5553555772357928  0.7767228874929203  0.1912354494246792   T   T   T
  0.4448193386594182  0.8890766693295987  0.0359223471221524   T   T   T
  0.6702607873976041  0.6743731205555131  0.3491231769145369   T   T   T
  0.8881935162011911  0.7766862535004928  0.1912962639322994   T   T   T
  0.7780059484549730  0.8889059387158286  0.0361418140993342   T   T   T
 
  0.00000000E+00  0.00000000E+00  0.00000000E+00
  0.00000000E+00  0.00000000E+00  0.00000000E+00
  0.00000000E+00  0.00000000E+00  0.00000000E+00
  0.00000000E+00  0.00000000E+00  0.00000000E+00
  0.00000000E+00  0.00000000E+00  0.00000000E+00
  0.00000000E+00  0.00000000E+00  0.00000000E+00
  0.00000000E+00  0.00000000E+00  0.00000000E+00
  0.00000000E+00  0.00000000E+00  0.00000000E+00
  0.00000000E+00  0.00000000E+00  0.00000000E+00
  0.00000000E+00  0.00000000E+00  0.00000000E+00
  0.00000000E+00  0.00000000E+00  0.00000000E+00
  0.00000000E+00  0.00000000E+00  0.00000000E+00
  0.00000000E+00  0.00000000E+00  0.00000000E+00
  0.00000000E+00  0.00000000E+00  0.00000000E+00
  0.00000000E+00  0.00000000E+00  0.00000000E+00
  0.00000000E+00  0.00000000E+00  0.00000000E+00
  0.00000000E+00  0.00000000E+00  0.00000000E+00
  0.00000000E+00  0.00000000E+00  0.00000000E+00
  0.00000000E+00  0.00000000E+00  0.00000000E+00
  0.00000000E+00  0.00000000E+00  0.00000000E+00
  0.00000000E+00  0.00000000E+00  0.00000000E+00
  0.00000000E+00  0.00000000E+00  0.00000000E+00
  0.00000000E+00  0.00000000E+00  0.00000000E+00
  0.00000000E+00  0.00000000E+00  0.00000000E+00
  0.00000000E+00  0.00000000E+00  0.00000000E+00
  0.00000000E+00  0.00000000E+00  0.00000000E+00
  0.00000000E+00  0.00000000E+00  0.00000000E+00
  0.00000000E+00  0.00000000E+00  0.00000000E+00
  0.00000000E+00  0.00000000E+00  0.00000000E+00
  0.00000000E+00  0.00000000E+00  0.00000000E+00
  0.00000000E+00  0.00000000E+00  0.00000000E+00
  0.00000000E+00  0.00000000E+00  0.00000000E+00
  0.00000000E+00  0.00000000E+00  0.00000000E+00
  0.00000000E+00  0.00000000E+00  0.00000000E+00
  0.00000000E+00  0.00000000E+00  0.00000000E+00
  0.00000000E+00  0.00000000E+00  0.00000000E+00
  0.00000000E+00  0.00000000E+00  0.00000000E+00
  0.00000000E+00  0.00000000E+00  0.00000000E+00
  0.00000000E+00  0.00000000E+00  0.00000000E+00
  0.00000000E+00  0.00000000E+00  0.00000000E+00
  0.00000000E+00  0.00000000E+00  0.00000000E+00
  0.00000000E+00  0.00000000E+00  0.00000000E+00
  0.00000000E+00  0.00000000E+00  0.00000000E+00
  0.00000000E+00  0.00000000E+00  0.00000000E+00
  0.00000000E+00  0.00000000E+00  0.00000000E+00
  0.00000000E+00  0.00000000E+00  0.00000000E+00
  0.00000000E+00  0.00000000E+00  0.00000000E+00
  0.00000000E+00  0.00000000E+00  0.00000000E+00
  0.00000000E+00  0.00000000E+00  0.00000000E+00
  0.00000000E+00  0.00000000E+00  0.00000000E+00
  0.00000000E+00  0.00000000E+00  0.00000000E+00
  0.00000000E+00  0.00000000E+00  0.00000000E+00
  0.00000000E+00  0.00000000E+00  0.00000000E+00
  0.00000000E+00  0.00000000E+00  0.00000000E+00
  0.00000000E+00  0.00000000E+00  0.00000000E+00
  0.00000000E+00  0.00000000E+00  0.00000000E+00
  0.00000000E+00  0.00000000E+00  0.00000000E+00
  0.00000000E+00  0.00000000E+00  0.00000000E+00
  0.00000000E+00  0.00000000E+00  0.00000000E+00
  0.00000000E+00  0.00000000E+00  0.00000000E+00
  0.00000000E+00  0.00000000E+00  0.00000000E+00
  0.00000000E+00  0.00000000E+00  0.00000000E+00
  0.00000000E+00  0.00000000E+00  0.00000000E+00
  0.00000000E+00  0.00000000E+00  0.00000000E+00
  0.00000000E+00  0.00000000E+00  0.00000000E+00
  0.00000000E+00  0.00000000E+00  0.00000000E+00
  0.00000000E+00  0.00000000E+00  0.00000000E+00
  0.00000000E+00  0.00000000E+00  0.00000000E+00
  0.00000000E+00  0.00000000E+00  0.00000000E+00
  0.00000000E+00  0.00000000E+00  0.00000000E+00
  0.00000000E+00  0.00000000E+00  0.00000000E+00
  0.00000000E+00  0.00000000E+00  0.00000000E+00
  0.00000000E+00  0.00000000E+00  0.00000000E+00
  0.00000000E+00  0.00000000E+00  0.00000000E+00
  0.00000000E+00  0.00000000E+00  0.00000000E+00
  0.00000000E+00  0.00000000E+00  0.00000000E+00
  0.00000000E+00  0.00000000E+00  0.00000000E+00
  0.00000000E+00  0.00000000E+00  0.00000000E+00
  0.00000000E+00  0.00000000E+00  0.00000000E+00
  0.00000000E+00  0.00000000E+00  0.00000000E+00
