CeO2-you-111-you-Hf                     
   1.00000000000000     
     9.8147577887802679   -5.6665534228435650    0.0000000000000000
     0.0000000033542455   11.3331048571107811    0.0000000000000000
     0.0000000000000000    0.0000000000000000   21.1959671819540567
   O    Hf   Ce   H 
    54     1    26     1
Selective dynamics
Direct
 -0.0001318444833563 -0.0000425562210872  0.9962079843499924   T   T   T
  0.1121689001721933  0.2227509500860734  0.1504157057984870   F   F   F
  0.2364164712360635  0.1230184201391508  0.3035606446289145   T   T   T
  0.1299896620339402  0.2316505356103515  0.3783750992543495   T   T   T
  0.0027623650344595  0.0011886799280070  0.2301539204729718   T   T   T
  0.2220963140643661  0.1108596281287220  0.0754534509536740   F   F   F
  0.3333491568312760 -0.0002320094787657  0.9962419905546278   T   T   T
  0.4439150499138762  0.2227509500860450  0.1504157057984870   F   F   F
  0.5473435317204108  0.1074213202337293  0.3071951829459016   T   T   T
  0.4214901133249543  0.2365360916788351  0.3954624139460884   T   T   T
  0.3316143715704432  0.9976447896100418  0.2293443824623689   T   T   T
  0.5554588751102898  0.1112081248896146  0.0762455506485793   F   F   F
  0.6668506626920780 -0.0001142457960827  0.9964026874801869   T   T   T
  0.7774342635992184  0.2215345271984077  0.1505078429588238   F   F   F
  0.8926378807580095  0.1105902606582306  0.3042546956279973   T   T   T
  0.7860559535078590  0.2145020096868802  0.3860585465748479   T   T   T
  0.6665927007149264  0.0003226848924262  0.2312519173446921   T   T   T
  0.8890832497793539  0.1112081248896430  0.0762455506485793   F   F   F
  0.9995354585589621  0.3327664150265797  0.9961915311083490   T   T   T
  0.1110595814849376  0.5556074185149811  0.1502845905630039   F   F   F
  0.2257945514650210  0.4417395438746307  0.3021867372235682   T   T   T
  0.1148421177947081  0.5547863648577342  0.3838905729245963   T   T   T
 -0.0001029499890193  0.3325407381180938  0.2298121572589340   T   T   T
  0.2220963140643946  0.4445696859356474  0.0754534509536740   F   F   F
  0.3330859359049890  0.3332277117542318  0.9960522718973589   T   T   T
  0.4439150499139259  0.5544980998278888  0.1504157057984870   F   F   F
  0.5412630011600092  0.4358996829687719  0.3036558085674173   T   T   T
  0.4320405895948698  0.5369337945180582  0.3799788271503901   T   T   T
  0.3305375926208476  0.3341003248882408  0.2316025198490005   T   T   T
  0.5558073718712464  0.4445696859356332  0.0754534509536740   F   F   F
  0.6663594663791760  0.3325317776562915  0.9965345890037972   T   T   T
  0.7778808370300681  0.5556074185150095  0.1502845905630039   F   F   F
  0.8950727160776768  0.4479248654568345  0.3049726504105278   T   T   T
  0.7831683741489265  0.5696667051474851  0.3853633760789690   T   T   T
  0.6680025856853560  0.3333983074249969  0.2284901872741354   T   T   T
  0.8888443979887199  0.4443547959774392  0.0759118314312559   F   F   F
 -0.0002301178897606  0.6668416371949796  0.9962160720145448   T   T   T
  0.1110595814849944  0.8887861629700211  0.1502845905630039   F   F   F
  0.2221705479438245  0.7766226572125884  0.3042736388868850   T   T   T
  0.1151160115089452  0.8930295839635459  0.3826738755665883   T   T   T
  0.0002775292071709  0.6673226939883903  0.2295685978990119   T   T   T
  0.2223112040225601  0.7778226020112768  0.0759118314312559   F   F   F
  0.3338679020536188  0.6674947966737794  0.9965159900828845   T   T   T
  0.4451314728014708  0.8892327364007784  0.1505078429588238   F   F   F
  0.5549073846880462  0.7753791843047289  0.3059262591669349   T   T   T
  0.4421344083931797  0.8855865455946780  0.3852626801284045   T   T   T
  0.3341246598583660  0.6669957032506868  0.2300394730163961   T   T   T
  0.5554588751103609  0.7775837502207352  0.0762455506485793   F   F   F
  0.6668760341131590  0.6673076341358622  0.9961850801350097   T   T   T
  0.7774342635993037  0.8892327364008139  0.1505078429588238   F   F   F
  0.8913105203228244  0.7803975312689986  0.3033286193508020   T   T   T
  0.7803706594103654  0.8896638098781403  0.3833626595940928   T   T   T
  0.6666105186774788  0.6656018557403183  0.2303121055494375   T   T   T
  0.8888443979887199  0.7778226020112768  0.0759118314312559   F   F   F
  0.3290516502031441  0.3414556555837264  0.3323807471179027   T   T   T
  0.0058677981603413  0.0046012793551833  0.3429861763422771   T   T   T
  0.2218753072108299  0.1104176144215785  0.1898782851289980   F   F   F
  0.1110315577535488  0.2221822788767938  0.0360697244264898   F   F   F
  0.3305441304500966 -0.0059477873675302  0.3420769493283341   T   T   T
  0.5555618577052499  0.1111051422947185  0.1902919436503652   F   F   F
  0.4444837211232411  0.2221822788768080  0.0360697244264898   F   F   F
  0.6686916492709967 -0.0002673878028535  0.3456598865619187   T   T   T
  0.8888772845894763  0.1111051422947256  0.1902919436503652   F   F   F
  0.7777548663062532  0.2221757326124987  0.0364578972551328   F   F   F
  0.0025741706679426  0.3322756364922168  0.3443172249110437   T   T   T
  0.2218753072110076  0.4447906927892475  0.1898782851289980   F   F   F
  0.1110738825062043  0.5555931174936859  0.0362085539052117   F   F   F
  0.5562493855781696  0.4447906927891694  0.1898782851289980   F   F   F
  0.4444837211232056  0.5556354422464054  0.0360697244264898   F   F   F
  0.6702840036713511  0.3369097509674020  0.3467610061141883   T   T   T
  0.8888659866661612  0.4443979733324284  0.1902681479389372   F   F   F
  0.7778522349875132  0.5555931174937214  0.0362085539052117   F   F   F
 -0.0004313615973901  0.6666661702284876  0.3435106461224944   T   T   T
  0.2222680266679475  0.7778010133338356  0.1902681479389372   F   F   F
  0.1110738825062825  0.8888147650125973  0.0362085539052117   F   F   F
  0.3337091465208529  0.6633357168353660  0.3449791196651520   T   T   T
  0.5555618577052783  0.7777897154105560  0.1902919436503652   F   F   F
  0.4444902673874509  0.8889121336937436  0.0364578972551328   F   F   F
  0.6649395125528105  0.6635188611919484  0.3436398010509584   T   T   T
  0.8888659866658983  0.7778010133337219  0.1902681479389372   F   F   F
  0.7777548663062888  0.8889121336937578  0.0364578972551328   F   F   F
  0.4089522052840406  0.2391112640323717  0.4407548905793863   T   T   T
 
  0.00000000E+00  0.00000000E+00  0.00000000E+00
  0.00000000E+00  0.00000000E+00  0.00000000E+00
  0.00000000E+00  0.00000000E+00  0.00000000E+00
  0.00000000E+00  0.00000000E+00  0.00000000E+00
  0.00000000E+00  0.00000000E+00  0.00000000E+00
  0.00000000E+00  0.00000000E+00  0.00000000E+00
  0.00000000E+00  0.00000000E+00  0.00000000E+00
  0.00000000E+00  0.00000000E+00  0.00000000E+00
  0.00000000E+00  0.00000000E+00  0.00000000E+00
  0.00000000E+00  0.00000000E+00  0.00000000E+00
  0.00000000E+00  0.00000000E+00  0.00000000E+00
  0.00000000E+00  0.00000000E+00  0.00000000E+00
  0.00000000E+00  0.00000000E+00  0.00000000E+00
  0.00000000E+00  0.00000000E+00  0.00000000E+00
  0.00000000E+00  0.00000000E+00  0.00000000E+00
  0.00000000E+00  0.00000000E+00  0.00000000E+00
  0.00000000E+00  0.00000000E+00  0.00000000E+00
  0.00000000E+00  0.00000000E+00  0.00000000E+00
  0.00000000E+00  0.00000000E+00  0.00000000E+00
  0.00000000E+00  0.00000000E+00  0.00000000E+00
  0.00000000E+00  0.00000000E+00  0.00000000E+00
  0.00000000E+00  0.00000000E+00  0.00000000E+00
  0.00000000E+00  0.00000000E+00  0.00000000E+00
  0.00000000E+00  0.00000000E+00  0.00000000E+00
  0.00000000E+00  0.00000000E+00  0.00000000E+00
  0.00000000E+00  0.00000000E+00  0.00000000E+00
  0.00000000E+00  0.00000000E+00  0.00000000E+00
  0.00000000E+00  0.00000000E+00  0.00000000E+00
  0.00000000E+00  0.00000000E+00  0.00000000E+00
  0.00000000E+00  0.00000000E+00  0.00000000E+00
  0.00000000E+00  0.00000000E+00  0.00000000E+00
  0.00000000E+00  0.00000000E+00  0.00000000E+00
  0.00000000E+00  0.00000000E+00  0.00000000E+00
  0.00000000E+00  0.00000000E+00  0.00000000E+00
  0.00000000E+00  0.00000000E+00  0.00000000E+00
  0.00000000E+00  0.00000000E+00  0.00000000E+00
  0.00000000E+00  0.00000000E+00  0.00000000E+00
  0.00000000E+00  0.00000000E+00  0.00000000E+00
  0.00000000E+00  0.00000000E+00  0.00000000E+00
  0.00000000E+00  0.00000000E+00  0.00000000E+00
  0.00000000E+00  0.00000000E+00  0.00000000E+00
  0.00000000E+00  0.00000000E+00  0.00000000E+00
  0.00000000E+00  0.00000000E+00  0.00000000E+00
  0.00000000E+00  0.00000000E+00  0.00000000E+00
  0.00000000E+00  0.00000000E+00  0.00000000E+00
  0.00000000E+00  0.00000000E+00  0.00000000E+00
  0.00000000E+00  0.00000000E+00  0.00000000E+00
  0.00000000E+00  0.00000000E+00  0.00000000E+00
  0.00000000E+00  0.00000000E+00  0.00000000E+00
  0.00000000E+00  0.00000000E+00  0.00000000E+00
  0.00000000E+00  0.00000000E+00  0.00000000E+00
  0.00000000E+00  0.00000000E+00  0.00000000E+00
  0.00000000E+00  0.00000000E+00  0.00000000E+00
  0.00000000E+00  0.00000000E+00  0.00000000E+00
  0.00000000E+00  0.00000000E+00  0.00000000E+00
  0.00000000E+00  0.00000000E+00  0.00000000E+00
  0.00000000E+00  0.00000000E+00  0.00000000E+00
  0.00000000E+00  0.00000000E+00  0.00000000E+00
  0.00000000E+00  0.00000000E+00  0.00000000E+00
  0.00000000E+00  0.00000000E+00  0.00000000E+00
  0.00000000E+00  0.00000000E+00  0.00000000E+00
  0.00000000E+00  0.00000000E+00  0.00000000E+00
  0.00000000E+00  0.00000000E+00  0.00000000E+00
  0.00000000E+00  0.00000000E+00  0.00000000E+00
  0.00000000E+00  0.00000000E+00  0.00000000E+00
  0.00000000E+00  0.00000000E+00  0.00000000E+00
  0.00000000E+00  0.00000000E+00  0.00000000E+00
  0.00000000E+00  0.00000000E+00  0.00000000E+00
  0.00000000E+00  0.00000000E+00  0.00000000E+00
  0.00000000E+00  0.00000000E+00  0.00000000E+00
  0.00000000E+00  0.00000000E+00  0.00000000E+00
  0.00000000E+00  0.00000000E+00  0.00000000E+00
  0.00000000E+00  0.00000000E+00  0.00000000E+00
  0.00000000E+00  0.00000000E+00  0.00000000E+00
  0.00000000E+00  0.00000000E+00  0.00000000E+00
  0.00000000E+00  0.00000000E+00  0.00000000E+00
  0.00000000E+00  0.00000000E+00  0.00000000E+00
  0.00000000E+00  0.00000000E+00  0.00000000E+00
  0.00000000E+00  0.00000000E+00  0.00000000E+00
  0.00000000E+00  0.00000000E+00  0.00000000E+00
  0.00000000E+00  0.00000000E+00  0.00000000E+00
  0.00000000E+00  0.00000000E+00  0.00000000E+00
