CeO2-you-111-you-Hf                     
   1.00000000000000     
     9.8467198335468229   -5.7016609576500095   -0.0064601066225050
    -0.0144229917593643   11.3783385555638059    0.0064601055161990
    -0.0073271995853966    0.0126910811685622   21.0113785254497110
   O    Hf   Ce   H 
    53     1    26     2
Selective dynamics
Direct
  0.9997286468751260  0.9998672999757710  0.9950973833600353   T   T   T
  0.1123834699536346  0.2212185686732298  0.1478934058576442   F   F   F
  0.2348794903670816  0.1193866658254538  0.3031226779318936   T   T   T
  0.1493581871087952  0.2548238750505860  0.3731950150929023   T   T   T
  0.0032049841528131  0.0013348027936940  0.2299036842221685   T   T   T
  0.2219331764617039  0.1100570984885678  0.0741405873083494   F   F   F
  0.3348239227251413  0.0008485606457554  0.9956186943249600   T   T   T
  0.4406343471938712  0.2260316528073645  0.1513551893448053   F   F   F
  0.5591706676272078  0.1191848477843382  0.3049426991555028   T   T   T
  0.4364722794061715  0.2392699603171915  0.3982516691744228   T   T   T
  0.3352749502609607  0.9994947257021494  0.2256258505283535   T   T   T
  0.5550899384735857  0.1115770615264609  0.0775568837672012   F   F   F
  0.6658280966655783  0.0005686749404355  0.9962423189133403   T   T   T
  0.7844547820882894  0.2239806551587051  0.1516030911815278   F   F   F
  0.8883387318193289  0.1044175678926609  0.3067013249506955   T   T   T
  0.7675861356112108  0.2181736479366324  0.3891490660153844   T   T   T
  0.6669250213004027  0.0011358636682139  0.2298253102157188   T   T   T
  0.8891036326139670  0.1100889947620232  0.0753383069118172   F   F   F
  0.9977659500728809  0.3318284313435264  0.9949782300512885   T   T   T
  0.1104339479081915  0.5562330520908390  0.1471312056072165   F   F   F
  0.1054850140019105  0.5612772212899760  0.3870868701540775   T   T   T
  0.0169300683920473  0.3413657090947148  0.2338378802935259   T   T   T
  0.2219810716490684  0.4446849283505472  0.0722749702707688   F   F   F
  0.3336213987113701  0.3324649638732228  0.9947185260476744   T   T   T
  0.4454474313280201  0.5542835300468525  0.1478934058576868   F   F   F
  0.5496034951918987  0.4243199053582080  0.3029414403176336   T   T   T
  0.4217932501029268  0.5222600505322985  0.3701851791650037   T   T   T
  0.3223729627840010  0.3480747337875603  0.2401838832323481   T   T   T
  0.5566099015114432  0.4447328235377057  0.0741405873083636   F   F   F
  0.6655464002590717  0.3313912706951707  0.9955663169957849   T   T   T
  0.7779676268344105  0.5554167268217256  0.1501827249453243   F   F   F
  0.8848901431039172  0.4446356130940684  0.3036274348736807   T   T   T
  0.7730974603891776  0.5548890299041578  0.3835563194149393   T   T   T
  0.6690531391696984  0.3331642982690328  0.2265663652305208   T   T   T
  0.8882373279457454  0.4444497330318029  0.0745641239286314   F   F   F
  0.9995186513870417  0.6672914274813043  0.9949028308037430   T   T   T
  0.1112502731779657  0.8886993731663893  0.1501827249453314   F   F   F
  0.2176762094679968  0.7779756326959131  0.3034935146687653   T   T   T
  0.0968832687240855  0.8872895624847937  0.3867554252424470   T   T   T
 -0.0007523377978371  0.6656744403552410  0.2289038098415306   T   T   T
  0.2222162669677772  0.7784296720540880  0.0745641239286883   F   F   F
  0.3344587083202895  0.6683961589407019  0.9948943846779895   T   T   T
  0.4426853448405055  0.8822122179114089  0.1516030911812294   F   F   F
  0.5634831598558968  0.7788392574512594  0.3042508184871792   T   T   T
  0.4619387028611303  0.8947994596297788  0.3902851909070789   T   T   T
  0.3254646390787493  0.6496463115772187  0.2333690454999241   T   T   T
  0.5565780052382863  0.7775633673860654  0.0753383069118243   F   F   F
  0.6671904896065725  0.6674738214806898  0.9949645961209014   T   T   T
  0.7776453471921059  0.8890216528086938  0.1516734844365999   F   F   F
  0.8871166165208108  0.7775333009663348  0.3025613819687952   T   T   T
  0.7791091546069943  0.8819117819242791  0.3857175812759437   T   T   T
  0.6636941410981240  0.6604062366849029  0.2303223256935450   T   T   T
  0.8887156358546378  0.7779513641454088  0.0752167706665716   F   F   F
  0.3396759762009288  0.3253962938267434  0.3380086312985373   T   T   T
  0.0020497348270019 -0.0016980289994045  0.3430619132398978   T   T   T
  0.2219995558608474  0.1102732038690064  0.1897719292689715   F   F   F
  0.1098928028477388  0.2201254644293300  0.0337031105637919   F   F   F
  0.3318364865694254 -0.0050482152047542  0.3472027586316019   T   T   T
  0.5561207995529855  0.1105462004469118  0.1903987974145309   F   F   F
  0.4443048719466844  0.2223611280537412  0.0351278730601834   F   F   F
  0.6675916658870686  0.9978058870017827  0.3466097470792455   T   T   T
  0.8907941382504490  0.1123157500189507  0.1920089810423491   F   F   F
  0.7782156226877177  0.2222648633106985  0.0362314101008039   F   F   F
  0.9930388322287313  0.3319750372835434  0.3531727334090868   T   T   T
  0.2218721718480765  0.4447938281549355  0.1824895564535964   F   F   F
  0.1100009261969035  0.5566660738026457  0.0338780257660432   F   F   F
  0.5563937961241123  0.4446664441390382  0.1897719292685878   F   F   F
  0.4465405355714083  0.5567741971526416  0.0337031105637280   F   F   F
  0.6741246182440029  0.3346306014497586  0.3423744379134451   T   T   T
  0.8906727920862565  0.4445796837433491  0.1913741627517567   F   F   F
  0.7775210018793004  0.5549490094828613  0.0354034863601171   F   F   F
  0.0005728180660879  0.6674284587656850  0.3449096850997463   T   T   T
  0.2220863162598832  0.7759942079160638  0.1913741627518206   F   F   F
  0.1117179905176542  0.8891459981202630  0.0354034863601811   F   F   F
  0.3365105874578463  0.6742576039520115  0.3520713042040288   T   T   T
  0.5543512499789784  0.7758728617513952  0.1920089810420293   F   F   F
  0.4444011366897271  0.8884513773120588  0.0362314101007257   F   F   F
  0.6650303374430990  0.6625706773377638  0.3426886571900278   T   T   T
  0.8891783436466483  0.7774886563519203  0.1896084275402075   F   F   F
  0.7774834160992512  0.8891835839001985  0.0363645292327277   F   F   F
  0.3064977562487554  0.3475018934736906  0.4518704574511974   T   T   T
  0.4291086741658286  0.2542331771927877  0.4433261837942638   T   T   T
 
  0.00000000E+00  0.00000000E+00  0.00000000E+00
  0.00000000E+00  0.00000000E+00  0.00000000E+00
  0.00000000E+00  0.00000000E+00  0.00000000E+00
  0.00000000E+00  0.00000000E+00  0.00000000E+00
  0.00000000E+00  0.00000000E+00  0.00000000E+00
  0.00000000E+00  0.00000000E+00  0.00000000E+00
  0.00000000E+00  0.00000000E+00  0.00000000E+00
  0.00000000E+00  0.00000000E+00  0.00000000E+00
  0.00000000E+00  0.00000000E+00  0.00000000E+00
  0.00000000E+00  0.00000000E+00  0.00000000E+00
  0.00000000E+00  0.00000000E+00  0.00000000E+00
  0.00000000E+00  0.00000000E+00  0.00000000E+00
  0.00000000E+00  0.00000000E+00  0.00000000E+00
  0.00000000E+00  0.00000000E+00  0.00000000E+00
  0.00000000E+00  0.00000000E+00  0.00000000E+00
  0.00000000E+00  0.00000000E+00  0.00000000E+00
  0.00000000E+00  0.00000000E+00  0.00000000E+00
  0.00000000E+00  0.00000000E+00  0.00000000E+00
  0.00000000E+00  0.00000000E+00  0.00000000E+00
  0.00000000E+00  0.00000000E+00  0.00000000E+00
  0.00000000E+00  0.00000000E+00  0.00000000E+00
  0.00000000E+00  0.00000000E+00  0.00000000E+00
  0.00000000E+00  0.00000000E+00  0.00000000E+00
  0.00000000E+00  0.00000000E+00  0.00000000E+00
  0.00000000E+00  0.00000000E+00  0.00000000E+00
  0.00000000E+00  0.00000000E+00  0.00000000E+00
  0.00000000E+00  0.00000000E+00  0.00000000E+00
  0.00000000E+00  0.00000000E+00  0.00000000E+00
  0.00000000E+00  0.00000000E+00  0.00000000E+00
  0.00000000E+00  0.00000000E+00  0.00000000E+00
  0.00000000E+00  0.00000000E+00  0.00000000E+00
  0.00000000E+00  0.00000000E+00  0.00000000E+00
  0.00000000E+00  0.00000000E+00  0.00000000E+00
  0.00000000E+00  0.00000000E+00  0.00000000E+00
  0.00000000E+00  0.00000000E+00  0.00000000E+00
  0.00000000E+00  0.00000000E+00  0.00000000E+00
  0.00000000E+00  0.00000000E+00  0.00000000E+00
  0.00000000E+00  0.00000000E+00  0.00000000E+00
  0.00000000E+00  0.00000000E+00  0.00000000E+00
  0.00000000E+00  0.00000000E+00  0.00000000E+00
  0.00000000E+00  0.00000000E+00  0.00000000E+00
  0.00000000E+00  0.00000000E+00  0.00000000E+00
  0.00000000E+00  0.00000000E+00  0.00000000E+00
  0.00000000E+00  0.00000000E+00  0.00000000E+00
  0.00000000E+00  0.00000000E+00  0.00000000E+00
  0.00000000E+00  0.00000000E+00  0.00000000E+00
  0.00000000E+00  0.00000000E+00  0.00000000E+00
  0.00000000E+00  0.00000000E+00  0.00000000E+00
  0.00000000E+00  0.00000000E+00  0.00000000E+00
  0.00000000E+00  0.00000000E+00  0.00000000E+00
  0.00000000E+00  0.00000000E+00  0.00000000E+00
  0.00000000E+00  0.00000000E+00  0.00000000E+00
  0.00000000E+00  0.00000000E+00  0.00000000E+00
  0.00000000E+00  0.00000000E+00  0.00000000E+00
  0.00000000E+00  0.00000000E+00  0.00000000E+00
  0.00000000E+00  0.00000000E+00  0.00000000E+00
  0.00000000E+00  0.00000000E+00  0.00000000E+00
  0.00000000E+00  0.00000000E+00  0.00000000E+00
  0.00000000E+00  0.00000000E+00  0.00000000E+00
  0.00000000E+00  0.00000000E+00  0.00000000E+00
  0.00000000E+00  0.00000000E+00  0.00000000E+00
  0.00000000E+00  0.00000000E+00  0.00000000E+00
  0.00000000E+00  0.00000000E+00  0.00000000E+00
  0.00000000E+00  0.00000000E+00  0.00000000E+00
  0.00000000E+00  0.00000000E+00  0.00000000E+00
  0.00000000E+00  0.00000000E+00  0.00000000E+00
  0.00000000E+00  0.00000000E+00  0.00000000E+00
  0.00000000E+00  0.00000000E+00  0.00000000E+00
  0.00000000E+00  0.00000000E+00  0.00000000E+00
  0.00000000E+00  0.00000000E+00  0.00000000E+00
  0.00000000E+00  0.00000000E+00  0.00000000E+00
  0.00000000E+00  0.00000000E+00  0.00000000E+00
  0.00000000E+00  0.00000000E+00  0.00000000E+00
  0.00000000E+00  0.00000000E+00  0.00000000E+00
  0.00000000E+00  0.00000000E+00  0.00000000E+00
  0.00000000E+00  0.00000000E+00  0.00000000E+00
  0.00000000E+00  0.00000000E+00  0.00000000E+00
  0.00000000E+00  0.00000000E+00  0.00000000E+00
  0.00000000E+00  0.00000000E+00  0.00000000E+00
  0.00000000E+00  0.00000000E+00  0.00000000E+00
  0.00000000E+00  0.00000000E+00  0.00000000E+00
  0.00000000E+00  0.00000000E+00  0.00000000E+00
