CeO2-you-111-you-V                      
   1.00000000000000     
     9.8603410570148711   -5.6928709342280950    0.0000000000000000
    -0.0000000015599667   11.3857398621055275    0.0000000000000000
     0.0000000000000000    0.0000000000000000   20.7699082431055615
   O    V    Ce   H 
    54     1    26     1
Selective dynamics
Direct
  0.9989007016282095  0.0003904306373296  0.9915162563887646   T   T   T
  0.1085620652920696  0.2209475326450487  0.1457571896444634   F   F   F
  0.2513995499514176  0.1600349409074034  0.3201387867871951   T   T   T
  0.0562795765720411  0.1918025734588356  0.3983820760084550   T   T   T
  0.0005967178172057  0.0006334274114477  0.2338779238440320   T   T   T
  0.2203129781430277  0.1072929562862299  0.0710816467313720   F   F   F
  0.3359133466006222  0.0002208571338473  0.9915618512258828   T   T   T
  0.4457184673529824  0.2209475326441748  0.1457571896444634   F   F   F
  0.5520450423881611  0.1074108515153454  0.3059099926393892   T   T   T
  0.4598851986906819  0.1781772912060555  0.4164252864548145   T   T   T
  0.3302541894845946 -0.0034173319224425  0.2343231982687787   T   T   T
  0.5569821930224208  0.1096848069755438  0.0731220685830820   F   F   F
  0.6666764862333383  0.0001202444108566  0.9920445021144362   T   T   T
  0.7801753661449879  0.2270167322914247  0.1511961872162289   F   F   F
  0.8826462066837951  0.1110828090636124  0.3016144718115794   T   T   T
  0.7805556556176465  0.2138527449255184  0.3901472674667492   T   T   T
  0.6651673234124738  0.0010094925009102  0.2263981605055590   T   T   T
  0.8860366139537490  0.1096848069761691  0.0731220685830820   F   F   F
  0.9989817757620812  0.3325522696819504  0.9918028131708456   T   T   T
  0.1075781928055761  0.5590888071979805  0.1480068432458026   F   F   F
  0.2465259570936708  0.4202525563098041  0.3214919001870000   T   T   T
  0.1158946652322860  0.5507638272574404  0.3860746877621707   T   T   T
  0.0143461616174637  0.3416292871515839  0.2319986478229786   T   T   T
  0.2203129781426227  0.4463530218567939  0.0710816467313720   F   F   F
  0.3339855459055445  0.3347651892565058  0.9932434754156725   T   T   T
  0.4457184673549506  0.5581049347107836  0.1457571896444634   F   F   F
  0.5052574307783174  0.4183088124520601  0.3252858316822159   T   T   T
  0.4776982804328723  0.6171120505534468  0.4016855438283377   T   T   T
  0.3383654427552799  0.3409151093454584  0.2244670580714496   T   T   T
  0.5593740437143637  0.4463530218569716  0.0710816467313720   F   F   F
  0.6663397587042271  0.3325106365339870  0.9917254401104256   T   T   T
  0.7848436143913062  0.5590888071968863  0.1480068432458026   F   F   F
  0.8925694037497759  0.4433404394701611  0.3072725364846236   T   T   T
  0.7822310511210248  0.5666512563281795  0.3873064113678563   T   T   T
  0.6618359526279021  0.3407214376974243  0.2312401233109002   T   T   T
  0.8888674167058994  0.4444008334119474  0.0715957632638720   F   F   F
 -0.0005479434174819  0.6660445169230897  0.9899808120908363   T   T   T
  0.1075781928031105  0.8818233856051307  0.1480068432458026   F   F   F
  0.2248645976480808  0.7728975526817508  0.3079642582099159   T   T   T
  0.1176386829852047  0.8955381977282115  0.3816867734459850   T   T   T
 -0.0003380944370805  0.6665643727341044  0.2329395993421624   T   T   T
  0.2222651665885493  0.7777995832940974  0.0715957632638720   F   F   F
  0.3340514113222451  0.6668943676588653  0.9916864610448310   T   T   T
  0.4396492677132926  0.8864916338550088  0.1511961872162289   F   F   F
  0.5587092458960609  0.7829600216834063  0.3018378311032037   T   T   T
  0.4457514175431271  0.8873585893075254  0.3883295828483667   T   T   T
  0.3270520337357516  0.6525669955472768  0.2319961461985062   T   T   T
  0.5569821930238348  0.7806303860482871  0.0731220685830820   F   F   F
  0.6657400894784119  0.6672440726544633  0.9916903698230249   T   T   T
  0.7801753661417195  0.8864916338535593  0.1511961872162289   F   F   F
  0.8865635285499541  0.7796510129278654  0.3070580560545166   T   T   T
  0.7776110327180396  0.8930528383984204  0.3880953208532011   T   T   T
  0.6595279210173836  0.6515356945712598  0.2327549886513363   T   T   T
  0.8888674167055512  0.7777995832939482  0.0715957632638720   F   F   F
  0.3340253968593349  0.3340828267164925  0.3090739468831256   T   T   T
  0.9939414752796540  0.0032212480777352  0.3491678145124701   T   T   T
  0.2183085492478227  0.1032840984944059  0.1828533258835705   F   F   F
  0.1091255609799262  0.2212292804901992  0.0315130311661207   F   F   F
  0.3353251483787935 -0.0086084671739321  0.3482431611278031   T   T   T
  0.5549171898973100  0.1117498101051169  0.1896212937648798   F   F   F
  0.4454367195102691  0.2212292804904123  0.0315130311661207   F   F   F
  0.6666282462324863  0.0021704128220160  0.3455402579143395   T   T   T
  0.8901666202070686  0.1117498101043708  0.1896212937648798   F   F   F
  0.7778289800885005  0.2223239601770004  0.0327490502286949   F   F   F
  0.9950527804606941  0.3250529405878927  0.3523429264211216   T   T   T
  0.2183085492506081  0.4483574507534129  0.1828533258835705   F   F   F
  0.1100187333743676  0.5566482666257002  0.0313619703921191   F   F   F
  0.5633829015015763  0.4483574507521766  0.1828533258835705   F   F   F
  0.4454367195098001  0.5575414390193956  0.0315130311661207   F   F   F
  0.6687502468978842  0.3319581734275844  0.3546557407721105   T   T   T
  0.8886524561361426  0.4439709122719151  0.1924979880385536   F   F   F
  0.7799625332513145  0.5566482666256860  0.0313619703921191   F   F   F
 -0.0008424816511362  0.6645329926486403  0.3463142846997648   T   T   T
  0.2226950877268621  0.7780145438638542  0.1924979880385536   F   F   F
  0.1100187333743250  0.8867044667486184  0.0313619703921191   F   F   F
  0.3419743442952708  0.6689069409046248  0.3527592212449129   T   T   T
  0.5549171898956331  0.7765003797905052  0.1896212937648798   F   F   F
  0.4443420398229563  0.8888380199114962  0.0327490502286949   F   F   F
  0.6676454430216832  0.6755754409244343  0.3525105423825084   T   T   T
  0.8886524561369882  0.7780145438642236  0.1924979880385536   F   F   F
  0.7778289800885290  0.8888380199115034  0.0327490502286949   F   F   F
  0.4187973503609781  0.2071144436697903  0.4491526191345491   T   T   T
 
  0.00000000E+00  0.00000000E+00  0.00000000E+00
  0.00000000E+00  0.00000000E+00  0.00000000E+00
  0.00000000E+00  0.00000000E+00  0.00000000E+00
  0.00000000E+00  0.00000000E+00  0.00000000E+00
  0.00000000E+00  0.00000000E+00  0.00000000E+00
  0.00000000E+00  0.00000000E+00  0.00000000E+00
  0.00000000E+00  0.00000000E+00  0.00000000E+00
  0.00000000E+00  0.00000000E+00  0.00000000E+00
  0.00000000E+00  0.00000000E+00  0.00000000E+00
  0.00000000E+00  0.00000000E+00  0.00000000E+00
  0.00000000E+00  0.00000000E+00  0.00000000E+00
  0.00000000E+00  0.00000000E+00  0.00000000E+00
  0.00000000E+00  0.00000000E+00  0.00000000E+00
  0.00000000E+00  0.00000000E+00  0.00000000E+00
  0.00000000E+00  0.00000000E+00  0.00000000E+00
  0.00000000E+00  0.00000000E+00  0.00000000E+00
  0.00000000E+00  0.00000000E+00  0.00000000E+00
  0.00000000E+00  0.00000000E+00  0.00000000E+00
  0.00000000E+00  0.00000000E+00  0.00000000E+00
  0.00000000E+00  0.00000000E+00  0.00000000E+00
  0.00000000E+00  0.00000000E+00  0.00000000E+00
  0.00000000E+00  0.00000000E+00  0.00000000E+00
  0.00000000E+00  0.00000000E+00  0.00000000E+00
  0.00000000E+00  0.00000000E+00  0.00000000E+00
  0.00000000E+00  0.00000000E+00  0.00000000E+00
  0.00000000E+00  0.00000000E+00  0.00000000E+00
  0.00000000E+00  0.00000000E+00  0.00000000E+00
  0.00000000E+00  0.00000000E+00  0.00000000E+00
  0.00000000E+00  0.00000000E+00  0.00000000E+00
  0.00000000E+00  0.00000000E+00  0.00000000E+00
  0.00000000E+00  0.00000000E+00  0.00000000E+00
  0.00000000E+00  0.00000000E+00  0.00000000E+00
  0.00000000E+00  0.00000000E+00  0.00000000E+00
  0.00000000E+00  0.00000000E+00  0.00000000E+00
  0.00000000E+00  0.00000000E+00  0.00000000E+00
  0.00000000E+00  0.00000000E+00  0.00000000E+00
  0.00000000E+00  0.00000000E+00  0.00000000E+00
  0.00000000E+00  0.00000000E+00  0.00000000E+00
  0.00000000E+00  0.00000000E+00  0.00000000E+00
  0.00000000E+00  0.00000000E+00  0.00000000E+00
  0.00000000E+00  0.00000000E+00  0.00000000E+00
  0.00000000E+00  0.00000000E+00  0.00000000E+00
  0.00000000E+00  0.00000000E+00  0.00000000E+00
  0.00000000E+00  0.00000000E+00  0.00000000E+00
  0.00000000E+00  0.00000000E+00  0.00000000E+00
  0.00000000E+00  0.00000000E+00  0.00000000E+00
  0.00000000E+00  0.00000000E+00  0.00000000E+00
  0.00000000E+00  0.00000000E+00  0.00000000E+00
  0.00000000E+00  0.00000000E+00  0.00000000E+00
  0.00000000E+00  0.00000000E+00  0.00000000E+00
  0.00000000E+00  0.00000000E+00  0.00000000E+00
  0.00000000E+00  0.00000000E+00  0.00000000E+00
  0.00000000E+00  0.00000000E+00  0.00000000E+00
  0.00000000E+00  0.00000000E+00  0.00000000E+00
  0.00000000E+00  0.00000000E+00  0.00000000E+00
  0.00000000E+00  0.00000000E+00  0.00000000E+00
  0.00000000E+00  0.00000000E+00  0.00000000E+00
  0.00000000E+00  0.00000000E+00  0.00000000E+00
  0.00000000E+00  0.00000000E+00  0.00000000E+00
  0.00000000E+00  0.00000000E+00  0.00000000E+00
  0.00000000E+00  0.00000000E+00  0.00000000E+00
  0.00000000E+00  0.00000000E+00  0.00000000E+00
  0.00000000E+00  0.00000000E+00  0.00000000E+00
  0.00000000E+00  0.00000000E+00  0.00000000E+00
  0.00000000E+00  0.00000000E+00  0.00000000E+00
  0.00000000E+00  0.00000000E+00  0.00000000E+00
  0.00000000E+00  0.00000000E+00  0.00000000E+00
  0.00000000E+00  0.00000000E+00  0.00000000E+00
  0.00000000E+00  0.00000000E+00  0.00000000E+00
  0.00000000E+00  0.00000000E+00  0.00000000E+00
  0.00000000E+00  0.00000000E+00  0.00000000E+00
  0.00000000E+00  0.00000000E+00  0.00000000E+00
  0.00000000E+00  0.00000000E+00  0.00000000E+00
  0.00000000E+00  0.00000000E+00  0.00000000E+00
  0.00000000E+00  0.00000000E+00  0.00000000E+00
  0.00000000E+00  0.00000000E+00  0.00000000E+00
  0.00000000E+00  0.00000000E+00  0.00000000E+00
  0.00000000E+00  0.00000000E+00  0.00000000E+00
  0.00000000E+00  0.00000000E+00  0.00000000E+00
  0.00000000E+00  0.00000000E+00  0.00000000E+00
  0.00000000E+00  0.00000000E+00  0.00000000E+00
  0.00000000E+00  0.00000000E+00  0.00000000E+00
