CeO2-you-111-you-Zr                     
   1.00000000000000     
     9.8343272895089822   -5.6778518748011262    0.0000000007797193
     0.0358503602915950   11.4177963927247941    0.0149206925471127
     0.0161792043387333    0.0280231992128634   20.7576393233337235
   O    Zr   Ce   H 
    53     1    26     2
Selective dynamics
Direct
  0.9990261953125263 -0.0003194256823392  0.9938087918220548   T   T   T
  0.1111836433040310  0.2224447423159290  0.1479715033386242   F   F   F
  0.2333045911554735  0.1199882001011078  0.3037206339772862   T   T   T
  0.1231220689506630  0.2247102834297497  0.3815079639355791   T   T   T
  0.0028068596099079  0.0005278714221129  0.2291658896832000   T   T   T
  0.2214770089804503  0.1096210179610821  0.0716661334264330   F   F   F
  0.3341878942987917  0.9995658277803888  0.9933568011955124   T   T   T
  0.4445940990118586  0.2224447423160285  0.1479715033387023   F   F   F
  0.5469665416554705  0.1097576887279234  0.3068349426076769   T   T   T
  0.4191590668303613  0.2301032316027660  0.3986403054414950   T   T   T
  0.3302689659309380  0.9972882461255348  0.2280311191199057   T   T   T
  0.5571820572542592  0.1114950117798799  0.0742265817689542   F   F   F
  0.6664952589383478 -0.0007850390133744  0.9938475042190277   T   T   T
  0.7794036631091430  0.2254733262182640  0.1521018060421184   F   F   F
  0.8910054297600375  0.1097816441800772  0.3050898589413799   T   T   T
  0.7836892075272999  0.2159297454409464  0.3871045692856017   T   T   T
  0.6651831000069569 -0.0008865591025114  0.2320130300890171   T   T   T
  0.8876469545256143  0.1114950117799580  0.0742265817689400   F   F   F
  0.0005252052830774  0.3328699287691764  0.9936039690244232   T   T   T
  0.1102651462220052  0.5542397301940269  0.1488282094851812   F   F   F
  0.2344201709649567  0.4407014912185228  0.3067079963309708   T   T   T
  0.0967960219556874  0.5461396366926232  0.3878110689137266   T   T   T
  0.0043242056347923  0.3342738629361982  0.2312993210311644   T   T   T
  0.2231658061141815  0.4451630203264330  0.0743603035860616   F   F   F
  0.3333529631265175  0.3334253151355692  0.9936001474092767   T   T   T
  0.4442818991342889  0.5552317982686290  0.1508219486987983   F   F   F
  0.5338238082041730  0.4427789610783489  0.3088298058809575   T   T   T
  0.3287737151947869  0.3279089376568624  0.2290022603722688   T   T   T
  0.5553312142122024  0.4451630203264472  0.0743603035860616   F   F   F
  0.6660612240666068  0.3331543999463277  0.9934842020340374   T   T   T
  0.7773075839723376  0.5542397301941193  0.1488282094851812   F   F   F
  0.8914856363224073  0.4465841228587991  0.3043494638938278   T   T   T
  0.7821942075667200  0.5689039661140466  0.3870945259922637   T   T   T
  0.6632292036513847  0.3357639842749809  0.2296735588820537   T   T   T
  0.8884635991113967  0.4435931982227928  0.0732941429289937   F   F   F
  0.0002451865820002  0.6670303351973365  0.9932483714136500   T   T   T
  0.1105015996533112  0.8876701993063278  0.1468042924541137   F   F   F
  0.2186166490709262  0.7794559582841407  0.3054048881926990   T   T   T
  0.1124954409812163  0.8924570071279692  0.3862422081333075   T   T   T
 -0.0003926137531497  0.6684519264676373  0.2288830943341295   T   T   T
  0.2228298089419241  0.7769151166437354  0.0732557701025058   F   F   F
  0.3339905034489045  0.6665473659797292  0.9933991177058265   T   T   T
  0.4462706661303102  0.8901607913542335  0.1496451079478049   F   F   F
  0.5585333264011045  0.7724349742967088  0.3097111297927445   T   T   T
  0.4482122882427070  0.9007399203944919  0.3888857465843120   T   T   T
  0.3330857442652109  0.6677392342525871  0.2291410864381395   T   T   T
  0.5549852398103141  0.7766364796204996  0.0744861405341268   F   F   F
  0.6659114966007516  0.6666251254084250  0.9934443696366343   T   T   T
  0.7772231252239479  0.8901607913544041  0.1496451079477765   F   F   F
  0.8908299761602352  0.7809713634971457  0.3044098751137114   T   T   T
  0.7822306658194977  0.8908504015237848  0.3871385464745728   T   T   T
  0.6691166857704229  0.6661532351379426  0.2301482522322217   T   T   T
  0.8874183077018785  0.7769151166438206  0.0732557701024632   F   F   F
  0.3203422878250238  0.3244469862666551  0.3316719437302832   T   T   T
  0.0034501423321727  0.0027546614584861  0.3455363594875637   T   T   T
  0.2198575027083791  0.1063820054160374  0.1852817759569874   F   F   F
  0.1107280530565475  0.2225816634336510  0.0333006348491196   F   F   F
  0.3295041729070710  0.9927859988266009  0.3442294416392430   T   T   T
  0.5548514769346653  0.1116554556092595  0.1903903908688491   F   F   F
  0.4451866103770996  0.2225816634337008  0.0333006348491338   F   F   F
  0.6671810460172893  0.0010191951745188  0.3476364948549196   T   T   T
  0.8901379786748933  0.1116554556092169  0.1903903908688847   F   F   F
  0.7779880052320038  0.2226420104639146  0.0344998242775674   F   F   F
  0.0003223357059472  0.3322591343148933  0.3462899346465919   T   T   T
  0.2243161508719496  0.4457123346240337  0.1902005297370337   F   F   F
  0.1116341800766349  0.5553772836539750  0.0339021433880546   F   F   F
  0.5547301837516940  0.4457123346236429  0.1902005297370195   F   F   F
  0.4447454090541001  0.5561588181081802  0.0338112514737858   F   F   F
  0.6681030127540885  0.3369011649403145  0.3483125666538227   T   T   T
  0.8895949159792735  0.4458558319589443  0.1904641370120359   F   F   F
  0.7770761035773006  0.5553772836540247  0.0339021433880475   F   F   F
 -0.0013002378894275  0.6649878622883789  0.3454368479389784   T   T   T
  0.2223766209217146  0.7776042693107001  0.1886367865544969   F   F   F
  0.1105636044744926  0.8877942089489750  0.0319581113971665   F   F   F
  0.3289615162283634  0.6663679571506305  0.3497911088326556   T   T   T
  0.5560030947241899  0.7786721894485140  0.1920042697485016   F   F   F
  0.4452777824736600  0.8888632139344352  0.0341499444097551   F   F   F
  0.6747520621748516  0.6706562092103974  0.3446616896092882   T   T   T
  0.8885606483887543  0.7776042693105154  0.1886367865545253   F   F   F
  0.7769184314608495  0.8888632139344281  0.0341499444097622   F   F   F
  0.4341931753226818  0.5271968745570470  0.3930331926548457   T   T   T
  0.4054153559888014  0.2361898242708736  0.4444822817811591   T   T   T
 
  0.00000000E+00  0.00000000E+00  0.00000000E+00
  0.00000000E+00  0.00000000E+00  0.00000000E+00
  0.00000000E+00  0.00000000E+00  0.00000000E+00
  0.00000000E+00  0.00000000E+00  0.00000000E+00
  0.00000000E+00  0.00000000E+00  0.00000000E+00
  0.00000000E+00  0.00000000E+00  0.00000000E+00
  0.00000000E+00  0.00000000E+00  0.00000000E+00
  0.00000000E+00  0.00000000E+00  0.00000000E+00
  0.00000000E+00  0.00000000E+00  0.00000000E+00
  0.00000000E+00  0.00000000E+00  0.00000000E+00
  0.00000000E+00  0.00000000E+00  0.00000000E+00
  0.00000000E+00  0.00000000E+00  0.00000000E+00
  0.00000000E+00  0.00000000E+00  0.00000000E+00
  0.00000000E+00  0.00000000E+00  0.00000000E+00
  0.00000000E+00  0.00000000E+00  0.00000000E+00
  0.00000000E+00  0.00000000E+00  0.00000000E+00
  0.00000000E+00  0.00000000E+00  0.00000000E+00
  0.00000000E+00  0.00000000E+00  0.00000000E+00
  0.00000000E+00  0.00000000E+00  0.00000000E+00
  0.00000000E+00  0.00000000E+00  0.00000000E+00
  0.00000000E+00  0.00000000E+00  0.00000000E+00
  0.00000000E+00  0.00000000E+00  0.00000000E+00
  0.00000000E+00  0.00000000E+00  0.00000000E+00
  0.00000000E+00  0.00000000E+00  0.00000000E+00
  0.00000000E+00  0.00000000E+00  0.00000000E+00
  0.00000000E+00  0.00000000E+00  0.00000000E+00
  0.00000000E+00  0.00000000E+00  0.00000000E+00
  0.00000000E+00  0.00000000E+00  0.00000000E+00
  0.00000000E+00  0.00000000E+00  0.00000000E+00
  0.00000000E+00  0.00000000E+00  0.00000000E+00
  0.00000000E+00  0.00000000E+00  0.00000000E+00
  0.00000000E+00  0.00000000E+00  0.00000000E+00
  0.00000000E+00  0.00000000E+00  0.00000000E+00
  0.00000000E+00  0.00000000E+00  0.00000000E+00
  0.00000000E+00  0.00000000E+00  0.00000000E+00
  0.00000000E+00  0.00000000E+00  0.00000000E+00
  0.00000000E+00  0.00000000E+00  0.00000000E+00
  0.00000000E+00  0.00000000E+00  0.00000000E+00
  0.00000000E+00  0.00000000E+00  0.00000000E+00
  0.00000000E+00  0.00000000E+00  0.00000000E+00
  0.00000000E+00  0.00000000E+00  0.00000000E+00
  0.00000000E+00  0.00000000E+00  0.00000000E+00
  0.00000000E+00  0.00000000E+00  0.00000000E+00
  0.00000000E+00  0.00000000E+00  0.00000000E+00
  0.00000000E+00  0.00000000E+00  0.00000000E+00
  0.00000000E+00  0.00000000E+00  0.00000000E+00
  0.00000000E+00  0.00000000E+00  0.00000000E+00
  0.00000000E+00  0.00000000E+00  0.00000000E+00
  0.00000000E+00  0.00000000E+00  0.00000000E+00
  0.00000000E+00  0.00000000E+00  0.00000000E+00
  0.00000000E+00  0.00000000E+00  0.00000000E+00
  0.00000000E+00  0.00000000E+00  0.00000000E+00
  0.00000000E+00  0.00000000E+00  0.00000000E+00
  0.00000000E+00  0.00000000E+00  0.00000000E+00
  0.00000000E+00  0.00000000E+00  0.00000000E+00
  0.00000000E+00  0.00000000E+00  0.00000000E+00
  0.00000000E+00  0.00000000E+00  0.00000000E+00
  0.00000000E+00  0.00000000E+00  0.00000000E+00
  0.00000000E+00  0.00000000E+00  0.00000000E+00
  0.00000000E+00  0.00000000E+00  0.00000000E+00
  0.00000000E+00  0.00000000E+00  0.00000000E+00
  0.00000000E+00  0.00000000E+00  0.00000000E+00
  0.00000000E+00  0.00000000E+00  0.00000000E+00
  0.00000000E+00  0.00000000E+00  0.00000000E+00
  0.00000000E+00  0.00000000E+00  0.00000000E+00
  0.00000000E+00  0.00000000E+00  0.00000000E+00
  0.00000000E+00  0.00000000E+00  0.00000000E+00
  0.00000000E+00  0.00000000E+00  0.00000000E+00
  0.00000000E+00  0.00000000E+00  0.00000000E+00
  0.00000000E+00  0.00000000E+00  0.00000000E+00
  0.00000000E+00  0.00000000E+00  0.00000000E+00
  0.00000000E+00  0.00000000E+00  0.00000000E+00
  0.00000000E+00  0.00000000E+00  0.00000000E+00
  0.00000000E+00  0.00000000E+00  0.00000000E+00
  0.00000000E+00  0.00000000E+00  0.00000000E+00
  0.00000000E+00  0.00000000E+00  0.00000000E+00
  0.00000000E+00  0.00000000E+00  0.00000000E+00
  0.00000000E+00  0.00000000E+00  0.00000000E+00
  0.00000000E+00  0.00000000E+00  0.00000000E+00
  0.00000000E+00  0.00000000E+00  0.00000000E+00
  0.00000000E+00  0.00000000E+00  0.00000000E+00
  0.00000000E+00  0.00000000E+00  0.00000000E+00
