CeO2-you-111-you-Pd                     
   1.00000000000000     
     9.8556808833579908   -5.6704643548632623   -0.0007336707167015
    -0.0000000011912849   11.3409267118817887    0.0000000000791284
    -0.0019354782822686    0.0000000001845824   20.9444231492412669
   O    Pd   Ce   H 
    53     1    26     1
Selective dynamics
Direct
  0.0002622664970305  0.0006578886409579  0.9949208078899296   T   T   T
  0.1087124862291811  0.2201301034372396  0.1491104278804702   T   T   T
  0.2313223848313978  0.1218360579161843  0.3089929661145243   T   T   T
  0.0640125612346385  0.1965885978559200  0.3969022413032048   T   T   T
  0.0032268470134265  0.0016719097923265  0.2301206329197855   T   T   T
  0.2232317746292215  0.1111917169761489  0.0743853706081622   T   T   T
  0.3329435489285745 -0.0000109152790712  0.9930952711580795   T   T   T
  0.4482741225159769  0.2180743246972506  0.1463034325367055   T   T   T
  0.5529606766130578  0.1139799355107732  0.3057666399453057   T   T   T
  0.4583676368663686  0.2322816592095877  0.3973537427443678   T   T   T
  0.3312602540836823 -0.0012994827805364  0.2299676766137692   T   T   T
  0.5567452405748975  0.1090938003160238  0.0726363945041259   T   T   T
  0.6679131512753417  0.0009060436167553  0.9923286359670718   T   T   T
  0.7743209901514577  0.2252660047643921  0.1514717219040221   T   T   T
  0.8845312185386038  0.1085683469826402  0.3023843629846573   T   T   T
  0.7748992203191419  0.2208411648467421  0.3866910776398607   T   T   T
  0.6630303896990336  0.0004874482408490  0.2291552833749566   T   T   T
  0.8851020243708696  0.1093038751723709  0.0756287334104212   T   T   T
  0.0000652753714640  0.3319126851147565  0.9946435231984353   T   T   T
  0.1093685297484406  0.5552606737584869  0.1495498126555458   T   T   T
  0.2241830650665201  0.4371570094531341  0.3051136730340234   T   T   T
  0.1149580163924672  0.5568905157909078  0.3846036920499030   T   T   T
  0.0014083864082938  0.3329209029558693  0.2287541537836179   T   T   T
  0.2226945404277848  0.4450023711240227  0.0736984365003378   T   T   T
  0.3318785106235299  0.3324294880185887  0.9935293914096465   T   T   T
  0.4481932198578917  0.5624317939651871  0.1455995794556574   T   T   T
  0.4592950621062494  0.5559060413596278  0.3795665560548656   T   T   T
  0.3422954489447089  0.3372880796625016  0.2184391152420197   T   T   T
  0.5550633224023290  0.4437044915446779  0.0711300255687381   T   T   T
  0.6676428957729438  0.3333627273823284  0.9932946170556209   T   T   T
  0.7792395176708115  0.5566901468077441  0.1470403131394549   T   T   T
  0.8929760138595926  0.4417474481870323  0.3050917416821524   T   T   T
  0.7651030892974836  0.5454827864410406  0.3785767553220573   T   T   T
  0.6597768660641735  0.3442424858287543  0.2356783100919298   T   T   T
  0.8891213523469781  0.4439047505332596  0.0737748591882896   T   T   T
  0.0001527477765371  0.6670282327740176  0.9938998861375543   T   T   T
  0.1096654562136393  0.8865239415960231  0.1500890015968405   T   T   T
  0.2202060822657836  0.7740478579699106  0.3031621507473394   T   T   T
  0.1143783198147259  0.8858235042786657  0.3850971241907898   T   T   T
  0.9974812115211320  0.6648266630615711  0.2304828635510397   T   T   T
  0.2230342845890107  0.7776834312643295  0.0736056332051575   T   T   T
  0.3330492715424253  0.6661845183373444  0.9927812216904718   T   T   T
  0.4436106260043823  0.8884005855245941  0.1494609411201039   T   T   T
  0.5565241726079616  0.7807196357413196  0.3036744520049899   T   T   T
  0.4418916050001352  0.8873280475708663  0.3830192314605497   T   T   T
  0.3326582169534273  0.6637185284366574  0.2296709837084689   T   T   T
  0.5571476000394516  0.7812166927624093  0.0726050858474096   T   T   T
  0.6682101531988325  0.6681587316183980  0.9936602190128745   T   T   T
  0.7749805532855002  0.8832275151229628  0.1524399053890167   T   T   T
  0.8910518959955986  0.7808809947643053  0.3062004974326821   T   T   T
  0.7740205524524391  0.8898909129850260  0.3867649953837181   T   T   T
  0.6586838042496933  0.6488323644843810  0.2352453497536889   T   T   T
  0.8896392383861599  0.7798280687675433  0.0744805291655583   T   T   T
  0.3545263756123737  0.3471980306898099  0.3460295515918653   T   T   T
  0.0052547629615155  0.0080885019700290  0.3471550735176565   T   T   T
  0.2237393816771650  0.1138820023996733  0.1913841075745475   T   T   T
  0.1112594759653599  0.2219937501206209  0.0349321950145143   T   T   T
  0.3270794968461045 -0.0056639380840624  0.3429064999474608   T   T   T
  0.5538591292305730  0.1106977084515417  0.1896493045659705   T   T   T
  0.4436291296531774  0.2200819904774663  0.0321331311978634   T   T   T
  0.6645870952384643  0.9988238206258607  0.3448808416574384   T   T   T
  0.8884290713076612  0.1110723804368757  0.1904818764298812   T   T   T
  0.7772551702962033  0.2217478497649734  0.0337589490394926   T   T   T
  0.0073843083656728  0.3291526013836201  0.3468823659374288   T   T   T
  0.2231167550856266  0.4419259966262719  0.1902229432936975   T   T   T
  0.1108735315660823  0.5547252446198156  0.0343602160136636   T   T   T
  0.5532151711536243  0.4437046116122513  0.1811822970073296   T   T   T
  0.4436365056694875  0.5567873931740591  0.0320186110185016   T   T   T
  0.6784818430727577  0.3298859955104016  0.3459267875525009   T   T   T
  0.8890333613311757  0.4445027386344520  0.1900234082546356   T   T   T
  0.7800312237273549  0.5570481215151512  0.0328584518305752   T   T   T
  0.0023080189790104  0.6659111867189234  0.3435457719571470   T   T   T
  0.2214436524254338  0.7763319651520477  0.1885299858037487   T   T   T
  0.1109426455451450  0.8894934701285969  0.0351679658257569   T   T   T
  0.3327899319694984  0.6582095257391024  0.3433291145642873   T   T   T
  0.5541648623045143  0.7766827461681641  0.1896793947593737   T   T   T
  0.4454536499172061  0.8894373546525961  0.0330161627735923   T   T   T
  0.6702071960365100  0.6768739417440390  0.3474498828317499   T   T   T
  0.8886364364001944  0.7772877547429392  0.1914658828864029   T   T   T
  0.7777278854453589  0.8891825196495083  0.0342476175718915   T   T   T
  0.4412102335863549  0.2462876304704981  0.4414755632511637   T   T   T
 
  0.00000000E+00  0.00000000E+00  0.00000000E+00
  0.00000000E+00  0.00000000E+00  0.00000000E+00
  0.00000000E+00  0.00000000E+00  0.00000000E+00
  0.00000000E+00  0.00000000E+00  0.00000000E+00
  0.00000000E+00  0.00000000E+00  0.00000000E+00
  0.00000000E+00  0.00000000E+00  0.00000000E+00
  0.00000000E+00  0.00000000E+00  0.00000000E+00
  0.00000000E+00  0.00000000E+00  0.00000000E+00
  0.00000000E+00  0.00000000E+00  0.00000000E+00
  0.00000000E+00  0.00000000E+00  0.00000000E+00
  0.00000000E+00  0.00000000E+00  0.00000000E+00
  0.00000000E+00  0.00000000E+00  0.00000000E+00
  0.00000000E+00  0.00000000E+00  0.00000000E+00
  0.00000000E+00  0.00000000E+00  0.00000000E+00
  0.00000000E+00  0.00000000E+00  0.00000000E+00
  0.00000000E+00  0.00000000E+00  0.00000000E+00
  0.00000000E+00  0.00000000E+00  0.00000000E+00
  0.00000000E+00  0.00000000E+00  0.00000000E+00
  0.00000000E+00  0.00000000E+00  0.00000000E+00
  0.00000000E+00  0.00000000E+00  0.00000000E+00
  0.00000000E+00  0.00000000E+00  0.00000000E+00
  0.00000000E+00  0.00000000E+00  0.00000000E+00
  0.00000000E+00  0.00000000E+00  0.00000000E+00
  0.00000000E+00  0.00000000E+00  0.00000000E+00
  0.00000000E+00  0.00000000E+00  0.00000000E+00
  0.00000000E+00  0.00000000E+00  0.00000000E+00
  0.00000000E+00  0.00000000E+00  0.00000000E+00
  0.00000000E+00  0.00000000E+00  0.00000000E+00
  0.00000000E+00  0.00000000E+00  0.00000000E+00
  0.00000000E+00  0.00000000E+00  0.00000000E+00
  0.00000000E+00  0.00000000E+00  0.00000000E+00
  0.00000000E+00  0.00000000E+00  0.00000000E+00
  0.00000000E+00  0.00000000E+00  0.00000000E+00
  0.00000000E+00  0.00000000E+00  0.00000000E+00
  0.00000000E+00  0.00000000E+00  0.00000000E+00
  0.00000000E+00  0.00000000E+00  0.00000000E+00
  0.00000000E+00  0.00000000E+00  0.00000000E+00
  0.00000000E+00  0.00000000E+00  0.00000000E+00
  0.00000000E+00  0.00000000E+00  0.00000000E+00
  0.00000000E+00  0.00000000E+00  0.00000000E+00
  0.00000000E+00  0.00000000E+00  0.00000000E+00
  0.00000000E+00  0.00000000E+00  0.00000000E+00
  0.00000000E+00  0.00000000E+00  0.00000000E+00
  0.00000000E+00  0.00000000E+00  0.00000000E+00
  0.00000000E+00  0.00000000E+00  0.00000000E+00
  0.00000000E+00  0.00000000E+00  0.00000000E+00
  0.00000000E+00  0.00000000E+00  0.00000000E+00
  0.00000000E+00  0.00000000E+00  0.00000000E+00
  0.00000000E+00  0.00000000E+00  0.00000000E+00
  0.00000000E+00  0.00000000E+00  0.00000000E+00
  0.00000000E+00  0.00000000E+00  0.00000000E+00
  0.00000000E+00  0.00000000E+00  0.00000000E+00
  0.00000000E+00  0.00000000E+00  0.00000000E+00
  0.00000000E+00  0.00000000E+00  0.00000000E+00
  0.00000000E+00  0.00000000E+00  0.00000000E+00
  0.00000000E+00  0.00000000E+00  0.00000000E+00
  0.00000000E+00  0.00000000E+00  0.00000000E+00
  0.00000000E+00  0.00000000E+00  0.00000000E+00
  0.00000000E+00  0.00000000E+00  0.00000000E+00
  0.00000000E+00  0.00000000E+00  0.00000000E+00
  0.00000000E+00  0.00000000E+00  0.00000000E+00
  0.00000000E+00  0.00000000E+00  0.00000000E+00
  0.00000000E+00  0.00000000E+00  0.00000000E+00
  0.00000000E+00  0.00000000E+00  0.00000000E+00
  0.00000000E+00  0.00000000E+00  0.00000000E+00
  0.00000000E+00  0.00000000E+00  0.00000000E+00
  0.00000000E+00  0.00000000E+00  0.00000000E+00
  0.00000000E+00  0.00000000E+00  0.00000000E+00
  0.00000000E+00  0.00000000E+00  0.00000000E+00
  0.00000000E+00  0.00000000E+00  0.00000000E+00
  0.00000000E+00  0.00000000E+00  0.00000000E+00
  0.00000000E+00  0.00000000E+00  0.00000000E+00
  0.00000000E+00  0.00000000E+00  0.00000000E+00
  0.00000000E+00  0.00000000E+00  0.00000000E+00
  0.00000000E+00  0.00000000E+00  0.00000000E+00
  0.00000000E+00  0.00000000E+00  0.00000000E+00
  0.00000000E+00  0.00000000E+00  0.00000000E+00
  0.00000000E+00  0.00000000E+00  0.00000000E+00
  0.00000000E+00  0.00000000E+00  0.00000000E+00
  0.00000000E+00  0.00000000E+00  0.00000000E+00
  0.00000000E+00  0.00000000E+00  0.00000000E+00
