CeO2-you-111-you-Ru                     
   1.00000000000000     
     9.8077497205313904   -5.6625073079619348    0.0000000009139535
     0.0432451271018966   11.3999153754152047    0.0171910279970044
     0.0183156279305837    0.0317235927439419   21.1593050469403288
   O    Ru   Ce   H 
    53     1    26     2
Selective dynamics
Direct
  0.0000392582518304 -0.0002041577902048  0.9962102576136257   T   T   T
  0.1047609758760903  0.2171511603098710  0.1480934132489135   T   T   T
  0.2288432966084639  0.1144113716426460  0.3014017505282456   T   T   T
  0.1293631254918296  0.2220862330669715  0.3867146057776106   T   T   T
  0.0004362797434034  0.9985705594698701  0.2290073682467125   T   T   T
  0.2232889468034141  0.1094501860848735  0.0748910549969345   T   T   T
  0.3337257333180888 -0.0016541491060450  0.9956080317668805   T   T   T
  0.4501702966864118  0.2173228028415117  0.1471617683541926   T   T   T
  0.5518653350947860  0.1203768443565218  0.3064189055239244   T   T   T
  0.4109164996621377  0.2135036510355395  0.4009042253448958   T   T   T
  0.3339130514771402  0.9955766546747546  0.2283826484435795   T   T   T
  0.5581161117873885  0.1076599754271950  0.0741943006975840   T   T   T
  0.6682491809924342 -0.0009724738734636  0.9941194818986613   T   T   T
  0.7771339955901539  0.2232296031570319  0.1523512102485840   T   T   T
  0.8971198312839037  0.1159727396179276  0.3046594895571189   T   T   T
  0.7787672340620203  0.2232985722400788  0.3827394697896937   T   T   T
  0.6664256202990924  0.0011514444222560  0.2328210814426353   T   T   T
  0.8849145225005799  0.1088300933886550  0.0757022903317159   T   T   T
  0.0014115455342902  0.3318579410985489  0.9958078892509665   T   T   T
  0.1107530572457330  0.5542954155177543  0.1482076276955854   T   T   T
  0.2400221769530128  0.4295498587305843  0.3086129825497443   T   T   T
  0.0989944553618867  0.5431313170017281  0.3828325557576228   T   T   T
  0.0078707143483103  0.3370398876952729  0.2303156122995734   T   T   T
  0.2241118848175171  0.4429391646170917  0.0749764761024874   T   T   T
  0.3327582435290419  0.3308171523367208  0.9956149472042172   T   T   T
  0.4502001296996449  0.5632572120316250  0.1473810536871155   T   T   T
  0.5043748142163784  0.4237248299235740  0.3223268997132528   T   T   T
  0.3357907014447790  0.3312319557710229  0.2131290006148915   T   T   T
  0.5548935125258047  0.4424628668966730  0.0739847805937716   T   T   T
  0.6669110437312781  0.3317689566300863  0.9953026912306763   T   T   T
  0.7792953746680172  0.5546368733611533  0.1471601118983399   T   T   T
  0.8880850843027274  0.4383694536196197  0.3016701623928654   T   T   T
  0.7801445078963514  0.5421833194102630  0.3824583438802833   T   T   T
  0.6628053454745960  0.3416245739422596  0.2327408974280637   T   T   T
  0.8885126291855371  0.4413261268614490  0.0742132466910975   T   T   T
  0.0007848370197590  0.6663081672968745  0.9962207256986826   T   T   T
  0.1105156099049265  0.8856445203675141  0.1493640304430334   T   T   T
  0.2183387574171343  0.7755062256521912  0.3032680231879323   T   T   T
  0.1118847838388087  0.8865444954300120  0.3834093847456818   T   T   T
  0.9984694163969139  0.6622514070844475  0.2284859369209929   T   T   T
  0.2244592608650233  0.7767939127741859  0.0748499373468832   T   T   T
  0.3331929111545577  0.6643617582913158  0.9952873369113576   T   T   T
  0.4476238415686449  0.8881371365778242  0.1509625376853634   T   T   T
  0.5565505901517022  0.7765333922494511  0.3069597346318795   T   T   T
  0.4480815348309216  0.9010868844888097  0.3841541209463670   T   T   T
  0.3301146257659901  0.6605587838878332  0.2288257511684664   T   T   T
  0.5570982540331757  0.7791882131562510  0.0740930425239662   T   T   T
  0.6677384572423988  0.6659057901880507  0.9955359632327465   T   T   T
  0.7759456716477067  0.8873074382412421  0.1521945066118562   T   T   T
  0.8948161567254408  0.7780886391725177  0.3037635956812155   T   T   T
  0.7879994406314843  0.9021348031936643  0.3847932959637121   T   T   T
  0.6654608544096338  0.6564471452976181  0.2300732340346148   T   T   T
  0.8887639434210396  0.7781061402325680  0.0751035830883525   T   T   T
  0.3191590381482223  0.3250583038695009  0.3551865462381805   T   T   T
  0.0064352867636894  0.0010832687711658  0.3425069312995613   T   T   T
  0.2236011605138169  0.1104058427474172  0.1890325190237320   T   T   T
  0.1111575631616709  0.2207032843958478  0.0356477410907167   T   T   T
  0.3268727643710880  0.9933322628690299  0.3417404237911845   T   T   T
  0.5552757466724508  0.1102593683720875  0.1902499765241072   T   T   T
  0.4448243253153638  0.2196960703859810  0.0345641793908698   T   T   T
  0.6678422036630273  0.0000439852861839  0.3452178125312524   T   T   T
  0.8900192682226162  0.1106865934897891  0.1903851164368040   T   T   T
  0.7779514939432719  0.2206874222444963  0.0350779678077864   T   T   T
  0.0064777852642250  0.3323023066467485  0.3425131038928395   T   T   T
  0.2257257857385073  0.4412877800781667  0.1882350466305340   T   T   T
  0.1118744416093069  0.5540083806906756  0.0355218295887125   T   T   T
  0.5525361775910411  0.4425070668966438  0.1848798824321982   T   T   T
  0.4452112637581270  0.5557072879622470  0.0343920353157499   T   T   T
  0.6718275925612638  0.3342372298481585  0.3429013949258960   T   T   T
  0.8897624203555904  0.4441215193195978  0.1888207943046750   T   T   T
  0.7789002446497798  0.5550580170698862  0.0347886516163548   T   T   T
 -0.0008474533338171  0.6608760718165784  0.3420794641368746   T   T   T
  0.2226821251209649  0.7748612597112037  0.1881599956667006   T   T   T
  0.1116920947763219  0.8881659625585040  0.0358461979287497   T   T   T
  0.3285805685169766  0.6655314227829638  0.3431066005900729   T   T   T
  0.5558097704250704  0.7762114189009172  0.1920474330601963   T   T   T
  0.4466001808961509  0.8881696812169604  0.0353200499608323   T   T   T
  0.6763624830470762  0.6703904906882785  0.3439166704448687   T   T   T
  0.8887226426315319  0.7756459621220380  0.1891217928468773   T   T   T
  0.7775352439466563  0.8886662507711506  0.0356902992207523   T   T   T
  0.3619835843074020  0.4366512235460169  0.4098132263165749   T   T   T
  0.4076506316302869  0.2196841904686994  0.4466919433613139   T   T   T
 
  0.00000000E+00  0.00000000E+00  0.00000000E+00
  0.00000000E+00  0.00000000E+00  0.00000000E+00
  0.00000000E+00  0.00000000E+00  0.00000000E+00
  0.00000000E+00  0.00000000E+00  0.00000000E+00
  0.00000000E+00  0.00000000E+00  0.00000000E+00
  0.00000000E+00  0.00000000E+00  0.00000000E+00
  0.00000000E+00  0.00000000E+00  0.00000000E+00
  0.00000000E+00  0.00000000E+00  0.00000000E+00
  0.00000000E+00  0.00000000E+00  0.00000000E+00
  0.00000000E+00  0.00000000E+00  0.00000000E+00
  0.00000000E+00  0.00000000E+00  0.00000000E+00
  0.00000000E+00  0.00000000E+00  0.00000000E+00
  0.00000000E+00  0.00000000E+00  0.00000000E+00
  0.00000000E+00  0.00000000E+00  0.00000000E+00
  0.00000000E+00  0.00000000E+00  0.00000000E+00
  0.00000000E+00  0.00000000E+00  0.00000000E+00
  0.00000000E+00  0.00000000E+00  0.00000000E+00
  0.00000000E+00  0.00000000E+00  0.00000000E+00
  0.00000000E+00  0.00000000E+00  0.00000000E+00
  0.00000000E+00  0.00000000E+00  0.00000000E+00
  0.00000000E+00  0.00000000E+00  0.00000000E+00
  0.00000000E+00  0.00000000E+00  0.00000000E+00
  0.00000000E+00  0.00000000E+00  0.00000000E+00
  0.00000000E+00  0.00000000E+00  0.00000000E+00
  0.00000000E+00  0.00000000E+00  0.00000000E+00
  0.00000000E+00  0.00000000E+00  0.00000000E+00
  0.00000000E+00  0.00000000E+00  0.00000000E+00
  0.00000000E+00  0.00000000E+00  0.00000000E+00
  0.00000000E+00  0.00000000E+00  0.00000000E+00
  0.00000000E+00  0.00000000E+00  0.00000000E+00
  0.00000000E+00  0.00000000E+00  0.00000000E+00
  0.00000000E+00  0.00000000E+00  0.00000000E+00
  0.00000000E+00  0.00000000E+00  0.00000000E+00
  0.00000000E+00  0.00000000E+00  0.00000000E+00
  0.00000000E+00  0.00000000E+00  0.00000000E+00
  0.00000000E+00  0.00000000E+00  0.00000000E+00
  0.00000000E+00  0.00000000E+00  0.00000000E+00
  0.00000000E+00  0.00000000E+00  0.00000000E+00
  0.00000000E+00  0.00000000E+00  0.00000000E+00
  0.00000000E+00  0.00000000E+00  0.00000000E+00
  0.00000000E+00  0.00000000E+00  0.00000000E+00
  0.00000000E+00  0.00000000E+00  0.00000000E+00
  0.00000000E+00  0.00000000E+00  0.00000000E+00
  0.00000000E+00  0.00000000E+00  0.00000000E+00
  0.00000000E+00  0.00000000E+00  0.00000000E+00
  0.00000000E+00  0.00000000E+00  0.00000000E+00
  0.00000000E+00  0.00000000E+00  0.00000000E+00
  0.00000000E+00  0.00000000E+00  0.00000000E+00
  0.00000000E+00  0.00000000E+00  0.00000000E+00
  0.00000000E+00  0.00000000E+00  0.00000000E+00
  0.00000000E+00  0.00000000E+00  0.00000000E+00
  0.00000000E+00  0.00000000E+00  0.00000000E+00
  0.00000000E+00  0.00000000E+00  0.00000000E+00
  0.00000000E+00  0.00000000E+00  0.00000000E+00
  0.00000000E+00  0.00000000E+00  0.00000000E+00
  0.00000000E+00  0.00000000E+00  0.00000000E+00
  0.00000000E+00  0.00000000E+00  0.00000000E+00
  0.00000000E+00  0.00000000E+00  0.00000000E+00
  0.00000000E+00  0.00000000E+00  0.00000000E+00
  0.00000000E+00  0.00000000E+00  0.00000000E+00
  0.00000000E+00  0.00000000E+00  0.00000000E+00
  0.00000000E+00  0.00000000E+00  0.00000000E+00
  0.00000000E+00  0.00000000E+00  0.00000000E+00
  0.00000000E+00  0.00000000E+00  0.00000000E+00
  0.00000000E+00  0.00000000E+00  0.00000000E+00
  0.00000000E+00  0.00000000E+00  0.00000000E+00
  0.00000000E+00  0.00000000E+00  0.00000000E+00
  0.00000000E+00  0.00000000E+00  0.00000000E+00
  0.00000000E+00  0.00000000E+00  0.00000000E+00
  0.00000000E+00  0.00000000E+00  0.00000000E+00
  0.00000000E+00  0.00000000E+00  0.00000000E+00
  0.00000000E+00  0.00000000E+00  0.00000000E+00
  0.00000000E+00  0.00000000E+00  0.00000000E+00
  0.00000000E+00  0.00000000E+00  0.00000000E+00
  0.00000000E+00  0.00000000E+00  0.00000000E+00
  0.00000000E+00  0.00000000E+00  0.00000000E+00
  0.00000000E+00  0.00000000E+00  0.00000000E+00
  0.00000000E+00  0.00000000E+00  0.00000000E+00
  0.00000000E+00  0.00000000E+00  0.00000000E+00
  0.00000000E+00  0.00000000E+00  0.00000000E+00
  0.00000000E+00  0.00000000E+00  0.00000000E+00
  0.00000000E+00  0.00000000E+00  0.00000000E+00
