CeO2-you-111-you-W                      
   1.00000000000000     
     9.8569955155784985   -5.6909393813943518    0.0000000005368914
     0.0313157546001655   11.4361172343986421    0.0099395578231943
     0.0107297235775559    0.0185844232291978   20.7922285279205781
   O    W    Ce
    53     1    26
Selective dynamics
Direct
 -0.0018935863867799 -0.0005974077368037  0.9943302322166979   T   T   T
  0.1121281387365850  0.2234822412348222  0.1475986100164494   T   T   T
  0.2261113076264613  0.1188896152523175  0.2979901105379910   T   T   T
  0.1643369868539825  0.2419225659922585  0.3837513820123124   T   T   T
  0.0000163147421638 -0.0004771256588755  0.2268618688615233   T   T   T
  0.2212833258664911  0.1092336517329699  0.0714028005088604   T   T   T
  0.3346291786501367 -0.0005974077369565  0.9943302322166713   T   T   T
  0.4446871024983458  0.2234822412341557  0.1475986100165775   T   T   T
  0.5604439386401329  0.1232193473560699  0.3077587804780628   T   T   T
  0.4109185791407495  0.2419225659881521  0.3837513820124740   T   T   T
  0.3328395595996056 -0.0004771256597050  0.2268618688617016   T   T   T
  0.5577253802773757  0.1120202596622602  0.0751985553427346   T   T   T
  0.6666627789722354 -0.0000084420554961  0.9949727970142316   T   T   T
  0.7803067472036613  0.2272794944069866  0.1534381775216015   T   T   T
  0.8961094087167929  0.1232193473555947  0.3077587804780179   T   T   T
  0.7830128407516382  0.2326916815027530  0.3880458403537979   T   T   T
  0.6681650454140449  0.0029960908277576  0.2308964308291400   T   T   T
  0.8876288793850691  0.1120202596625483  0.0751985553427434   T   T   T
 -0.0002877018653093  0.3321267954887316  0.9937367767409936   T   T   T
  0.1093512726861617  0.5534713693048625  0.1478852986231927   T   T   T
  0.2668781275108374  0.4431270796052430  0.3134788228396841   T   T   T
  0.0991928754457645  0.5417093446110137  0.3848676798577221   T   T   T
  0.0147041995120769  0.3421479058317734  0.2332344794163755   T   T   T
  0.2224502361738890  0.4447421485542892  0.0734712491917709   T   T   T
  0.3332014692456119  0.3330699384913768  0.9939085982682303   T   T   T
  0.4430419976837099  0.5527519953689876  0.1495884157463706   T   T   T
  0.5095829520868683  0.4431270796020581  0.3134788228401190   T   T   T
  0.3273017921430317  0.3212705842861279  0.2303951541708864   T   T   T
  0.5556259123801673  0.4447421485542408  0.0734712491917680   T   T   T
  0.6657484973540287  0.3321267954886313  0.9937367767409909   T   T   T
  0.7774530966181744  0.5534713693045754  0.1478852986232435   T   T   T
  0.8865750128189076  0.4398160256377046  0.3025990733587903   T   T   T
  0.7758494691641823  0.5417093446119531  0.3848676798575534   T   T   T
  0.6607777063192689  0.3421479058309589  0.2332344794162861   T   T   T
  0.8884382132239046  0.4435424264476874  0.0727657542859129   T   T   T
  0.0003511062495440  0.6673692124992890  0.9935926309532147   T   T   T
  0.1095654020210453  0.8857978040405788  0.1463624515960974   T   T   T
  0.2186609141632867  0.7752894058477456  0.3037779918197736   T   T   T
  0.1017365156369533  0.8701400312739144  0.3901829630183254   T   T   T
 -0.0005584770753112  0.6655500458492692  0.2280523615292812   T   T   T
  0.2231648267012589  0.7766736354915218  0.0732031928110463   T   T   T
  0.3339881231009018  0.6663517792340322  0.9938246292933536   T   T   T
  0.4468935911188749  0.8902787712500322  0.1502646252603934   T   T   T
  0.5553474756856348  0.7773609513713307  0.3039434752262899   T   T   T
  0.4582112497028651  0.8966526353563005  0.3899994207427713   T   T   T
  0.3287614628756242  0.6619559892914244  0.2272136899551502   T   T   T
  0.5549052764848517  0.7764765529697805  0.0745228340908706   T   T   T
  0.6656966561329183  0.6663517792339813  0.9938246292933270   T   T   T
  0.7767181801314053  0.8902787712502109  0.1502646252603494   T   T   T
  0.8899614916841815  0.7752894058486818  0.3037779918197095   T   T   T
  0.7717743856546195  0.8966526353553588  0.3899994207424931   T   T   T
  0.6665275264148766  0.6619559892917926  0.2272136899551645   T   T   T
  0.8868418087902862  0.7766736354914549  0.0732031928110533   T   T   T
  0.3160767765261004  0.2988205530534362  0.3288945772950549   T   T   T
 -0.0021270031470531 -0.0051373273209204  0.3507988398387535   T   T   T
  0.2187794433532581  0.1042258867103363  0.1835090731490248   T   T   T
  0.1099824703960752  0.2223163165107495  0.0331681069520894   T   T   T
  0.3303226758254479 -0.0051373273196374  0.3507988398384197   T   T   T
  0.5543787010245392  0.1120407056035463  0.1916989117725822   T   T   T
  0.4456668461143796  0.2223163165109605  0.0331681069520935   T   T   T
  0.6668227132325283  0.0003114264670974  0.3480227989583638   T   T   T
  0.8909960045780799  0.1120407056028943  0.1916989117727876   T   T   T
  0.7777608755556851  0.2221877511113171  0.0350803161016066   T   T   T
 -0.0011147637112102  0.3360656889839627  0.3459354501277959   T   T   T
  0.2246033996368516  0.4456501143752888  0.1883952479112848   T   T   T
  0.1116239993562813  0.5554134677103272  0.0335312236157580   T   T   T
  0.5543807147410791  0.4456501143764238  0.1883952479108799   T   T   T
  0.4445718263624776  0.5558116527245430  0.0331500090777517   T   T   T
  0.6705144526940835  0.3360656889847062  0.3459354501278980   T   T   T
  0.8902127287600736  0.4470914575203843  0.1892264318742088   T   T   T
  0.7771224683543284  0.5554134677105670  0.0335312236157492   T   T   T
 -0.0002590904142875  0.6661488191693351  0.3448106080563867   T   T   T
  0.2226897397644510  0.7774220584579813  0.1891012048068782   T   T   T
  0.1101492594727161  0.8869655189455122  0.0322609789593730   T   T   T
  0.3313194704918777  0.6731047311318223  0.3447270188831805   T   T   T
  0.5559082880829019  0.7784825761648350  0.1914507358170688   T   T   T
  0.4454103918752698  0.8891128529489712  0.0349925114626543   T   T   T
  0.6751182606427790  0.6731047311307995  0.3447270188826566   T   T   T
  0.8880653186936706  0.7774220584579767  0.1891012048069871   T   T   T
  0.7770354610738357  0.8891128529490576  0.0349925114626748   T   T   T
 
  0.00000000E+00  0.00000000E+00  0.00000000E+00
  0.00000000E+00  0.00000000E+00  0.00000000E+00
  0.00000000E+00  0.00000000E+00  0.00000000E+00
  0.00000000E+00  0.00000000E+00  0.00000000E+00
  0.00000000E+00  0.00000000E+00  0.00000000E+00
  0.00000000E+00  0.00000000E+00  0.00000000E+00
  0.00000000E+00  0.00000000E+00  0.00000000E+00
  0.00000000E+00  0.00000000E+00  0.00000000E+00
  0.00000000E+00  0.00000000E+00  0.00000000E+00
  0.00000000E+00  0.00000000E+00  0.00000000E+00
  0.00000000E+00  0.00000000E+00  0.00000000E+00
  0.00000000E+00  0.00000000E+00  0.00000000E+00
  0.00000000E+00  0.00000000E+00  0.00000000E+00
  0.00000000E+00  0.00000000E+00  0.00000000E+00
  0.00000000E+00  0.00000000E+00  0.00000000E+00
  0.00000000E+00  0.00000000E+00  0.00000000E+00
  0.00000000E+00  0.00000000E+00  0.00000000E+00
  0.00000000E+00  0.00000000E+00  0.00000000E+00
  0.00000000E+00  0.00000000E+00  0.00000000E+00
  0.00000000E+00  0.00000000E+00  0.00000000E+00
  0.00000000E+00  0.00000000E+00  0.00000000E+00
  0.00000000E+00  0.00000000E+00  0.00000000E+00
  0.00000000E+00  0.00000000E+00  0.00000000E+00
  0.00000000E+00  0.00000000E+00  0.00000000E+00
  0.00000000E+00  0.00000000E+00  0.00000000E+00
  0.00000000E+00  0.00000000E+00  0.00000000E+00
  0.00000000E+00  0.00000000E+00  0.00000000E+00
  0.00000000E+00  0.00000000E+00  0.00000000E+00
  0.00000000E+00  0.00000000E+00  0.00000000E+00
  0.00000000E+00  0.00000000E+00  0.00000000E+00
  0.00000000E+00  0.00000000E+00  0.00000000E+00
  0.00000000E+00  0.00000000E+00  0.00000000E+00
  0.00000000E+00  0.00000000E+00  0.00000000E+00
  0.00000000E+00  0.00000000E+00  0.00000000E+00
  0.00000000E+00  0.00000000E+00  0.00000000E+00
  0.00000000E+00  0.00000000E+00  0.00000000E+00
  0.00000000E+00  0.00000000E+00  0.00000000E+00
  0.00000000E+00  0.00000000E+00  0.00000000E+00
  0.00000000E+00  0.00000000E+00  0.00000000E+00
  0.00000000E+00  0.00000000E+00  0.00000000E+00
  0.00000000E+00  0.00000000E+00  0.00000000E+00
  0.00000000E+00  0.00000000E+00  0.00000000E+00
  0.00000000E+00  0.00000000E+00  0.00000000E+00
  0.00000000E+00  0.00000000E+00  0.00000000E+00
  0.00000000E+00  0.00000000E+00  0.00000000E+00
  0.00000000E+00  0.00000000E+00  0.00000000E+00
  0.00000000E+00  0.00000000E+00  0.00000000E+00
  0.00000000E+00  0.00000000E+00  0.00000000E+00
  0.00000000E+00  0.00000000E+00  0.00000000E+00
  0.00000000E+00  0.00000000E+00  0.00000000E+00
  0.00000000E+00  0.00000000E+00  0.00000000E+00
  0.00000000E+00  0.00000000E+00  0.00000000E+00
  0.00000000E+00  0.00000000E+00  0.00000000E+00
  0.00000000E+00  0.00000000E+00  0.00000000E+00
  0.00000000E+00  0.00000000E+00  0.00000000E+00
  0.00000000E+00  0.00000000E+00  0.00000000E+00
  0.00000000E+00  0.00000000E+00  0.00000000E+00
  0.00000000E+00  0.00000000E+00  0.00000000E+00
  0.00000000E+00  0.00000000E+00  0.00000000E+00
  0.00000000E+00  0.00000000E+00  0.00000000E+00
  0.00000000E+00  0.00000000E+00  0.00000000E+00
  0.00000000E+00  0.00000000E+00  0.00000000E+00
  0.00000000E+00  0.00000000E+00  0.00000000E+00
  0.00000000E+00  0.00000000E+00  0.00000000E+00
  0.00000000E+00  0.00000000E+00  0.00000000E+00
  0.00000000E+00  0.00000000E+00  0.00000000E+00
  0.00000000E+00  0.00000000E+00  0.00000000E+00
  0.00000000E+00  0.00000000E+00  0.00000000E+00
  0.00000000E+00  0.00000000E+00  0.00000000E+00
  0.00000000E+00  0.00000000E+00  0.00000000E+00
  0.00000000E+00  0.00000000E+00  0.00000000E+00
  0.00000000E+00  0.00000000E+00  0.00000000E+00
  0.00000000E+00  0.00000000E+00  0.00000000E+00
  0.00000000E+00  0.00000000E+00  0.00000000E+00
  0.00000000E+00  0.00000000E+00  0.00000000E+00
  0.00000000E+00  0.00000000E+00  0.00000000E+00
  0.00000000E+00  0.00000000E+00  0.00000000E+00
  0.00000000E+00  0.00000000E+00  0.00000000E+00
  0.00000000E+00  0.00000000E+00  0.00000000E+00
  0.00000000E+00  0.00000000E+00  0.00000000E+00
