CeO2-you-111-you-Sc                     
   1.00000000000000     
     9.8326612454525169   -5.6768899859489554    0.0000000004031465
     0.0178040868460068   11.3846155548790637    0.0077267615615353
     0.0086789877598365    0.0150324452169290   20.3092517152260790
   O    Sc   Ce H
    53     1    26 2
Selective dynamics
Direct
 -0.0004513884202745  0.0001928832684501  0.9883838449406733   T   T   T
  0.1098711678834191  0.2223242135855311  0.1478115716474807   F   F   F
  0.2214647904092006  0.1095965808187447  0.3040635944744948   T   T   T
  0.1179496487507474  0.2207756191577462  0.3860980865698540   T   T   T
 -0.0012751687739632 -0.0008725343650718  0.2294846007878971   T   T   T
  0.2221645121738971  0.1109960243478685  0.0700494637871542   F   F   F
  0.3339772716888125  0.0001928832683765  0.9883838449406408   T   T   T
  0.4457860457019852  0.2223242135853162  0.1478115716475058   F   F   F
  0.5569589884223657  0.1136815710285832  0.3080193371608148   T   T   T
  0.4361589704066753  0.2207756191588044  0.3860980865699409   T   T   T
  0.3337356344090296 -0.0008725343651890  0.2294846007879257   T   T   T
  0.5571786586173179  0.1116887202117908  0.0713361595898222   F   F   F
  0.6662264572847576 -0.0008810854303182  0.9888039053240147   T   T   T
  0.7780660716390606  0.2227981432782197  0.1520454781805507   F   F   F
  0.8900565826065250  0.1136815710289491  0.3080193371608071   T   T   T
  0.7780700811685144  0.2228061623371773  0.3907940463307767   T   T   T
  0.6642126866249258 -0.0049086267504909  0.2331764486923334   T   T   T
  0.8878440615946090  0.1116887202120480  0.0713361595898723   F   F   F
  0.0003042112834066  0.3337851270635341  0.9889515841324480   T   T   T
  0.1104409966178111  0.5547083036766861  0.1486407638122611   F   F   F
  0.2467660235889561  0.4476022361540872  0.3153704092844176   T   T   T
  0.1061607979047860  0.5524019534580372  0.3909192630997413   T   T   T
  0.0086028519531434  0.3374890867536377  0.2341457375983270   T   T   T
  0.2231648752640551  0.4445969505196899  0.0719916273710565   F   F   F
  0.3333581368631158  0.3333832737265152  0.9890063067333231   T   T   T
  0.4444665958162915  0.5556011916328558  0.1505985521970048   F   F   F
  0.5341702125660551  0.4476022361568809  0.3153704092847175   T   T   T
  0.3298452693773844  0.3263575387555349  0.2294094027396606   T   T   T
  0.5547660752554791  0.4445969505196295  0.0719916273710520   F   F   F
  0.6668149157802251  0.3337851270635340  0.9889515841324608   T   T   T
  0.7776003070589345  0.5547083036765663  0.1486407638122506   F   F   F
  0.8882506439637288  0.4431672879273834  0.3077659259620006   T   T   T
  0.7795741555533465  0.5524019534587066  0.3909192630996975   T   T   T
  0.6622202348002564  0.3374890867535560  0.2341457375984062   T   T   T
  0.8880283379645695  0.4427226759291867  0.0720246507418607   F   F   F
 -0.0006590287919438  0.6653489424162947  0.9889104095509319   T   T   T
  0.1108877844760784  0.8884425689517352  0.1462814760764900   F   F   F
  0.2193141575068232  0.7797051764042978  0.3072624160595001   T   T   T
  0.1117706409311907  0.8902082818618415  0.3909916262501783   T   T   T
  0.0001404546023263  0.6669479092046743  0.2302167532653087   T   T   T
  0.2225292042327123  0.7779815450838025  0.0702905666625776   F   F   F
  0.3331697933102313  0.6661560099327614  0.9888632511498338   T   T   T
  0.4459200939080323  0.8895326201168631  0.1480313944472455   F   F   F
  0.5500951952694050  0.7668563905381042  0.3137605980651101   T   T   T
  0.4471754919633781  0.8972441384107267  0.3919059012761199   T   T   T
  0.3315215233213977  0.6681577507430254  0.2300336369217905   T   T   T
  0.5548742864091182  0.7764145728181643  0.0716421617881777   F   F   F
  0.6663192166224392  0.6661560099327252  0.9888632511498215   T   T   T
  0.7769455262091551  0.8895326201171332  0.1480313944472571   F   F   F
  0.8937240188989607  0.7797051764057518  0.3072624160594362   T   T   T
  0.7834016464484767  0.8972441384111818  0.3919059012760739   T   T   T
  0.6699692274215095  0.6681577507434145  0.2300336369217690   T   T   T
  0.8887853408512092  0.7779815450838122  0.0702905666625801   F   F   F
  0.3201010135614238  0.3068690271211773  0.3330591852391966   T   T   T
  0.0037360158119376  0.0040058534331368  0.3500831980639278   T   T   T
  0.2210725826252855  0.1088121652511290  0.1872026654716253   F   F   F
  0.1110515829071537  0.2229383875821345  0.0300861678857242   F   F   F
  0.3336028376213189  0.0040058534342692  0.3500831980639613   T   T   T
  0.5546911604982657  0.1107587013213032  0.1907654218643100   F   F   F
  0.4452198046751965  0.2229383875822938  0.0300861678857344   F   F   F
  0.6680691798948691  0.0028043597907612  0.3514942247050307   T   T   T
  0.8894015408226119  0.1107587013208926  0.1907654218642695   F   F   F
  0.7779199275125144  0.2225058550248611  0.0308268889646745   F   F   F
  0.0057857516332817  0.3328036428862325  0.3505177893812447   T   T   T
  0.2241125147136727  0.4444201899755332  0.1917148165372345   F   F   F
  0.1110316396582980  0.5549596782117601  0.0305871676041739   F   F   F
  0.5536416752627319  0.4444201899762646  0.1917148165372555   F   F   F
  0.4443654747567707  0.5553989495135154  0.0302203008863007   F   F   F
  0.6603518912537022  0.3328036428867970  0.3505177893813202   T   T   T
  0.8894427490004312  0.4455514980007368  0.1916363691154833   F   F   F
  0.7772610385534194  0.5549596782117953  0.0305871676041704   F   F   F
 -0.0009582006212194  0.6647505987578067  0.3494698082714136   T   T   T
  0.2218366575885420  0.7781822681604529  0.1880551372008890   F   F   F
  0.1110517467375953  0.8887704934752284  0.0280958734312928   F   F   F
  0.3264507101492988  0.6736496179213690  0.3469477303303012   T   T   T
  0.5554907019261894  0.7776474038522976  0.1906850893910298   F   F   F
  0.4450322777611503  0.8888681977261809  0.0299253158025541   F   F   F
  0.6805319077692514  0.6736496179168894  0.3469477303301262   T   T   T
  0.8896786105716409  0.7781822681601730  0.1880551372008485   F   F   F
  0.7771689199650157  0.8888681977261418  0.0299253158025657   F   F   F
0.352101010135614238 0.35128690271211773 0.403059 T T T
0.446598 0.216020 0.433410 T T T 
 
  0.00000000E+00  0.00000000E+00  0.00000000E+00
  0.00000000E+00  0.00000000E+00  0.00000000E+00
  0.00000000E+00  0.00000000E+00  0.00000000E+00
  0.00000000E+00  0.00000000E+00  0.00000000E+00
  0.00000000E+00  0.00000000E+00  0.00000000E+00
  0.00000000E+00  0.00000000E+00  0.00000000E+00
  0.00000000E+00  0.00000000E+00  0.00000000E+00
  0.00000000E+00  0.00000000E+00  0.00000000E+00
  0.00000000E+00  0.00000000E+00  0.00000000E+00
  0.00000000E+00  0.00000000E+00  0.00000000E+00
  0.00000000E+00  0.00000000E+00  0.00000000E+00
  0.00000000E+00  0.00000000E+00  0.00000000E+00
  0.00000000E+00  0.00000000E+00  0.00000000E+00
  0.00000000E+00  0.00000000E+00  0.00000000E+00
  0.00000000E+00  0.00000000E+00  0.00000000E+00
  0.00000000E+00  0.00000000E+00  0.00000000E+00
  0.00000000E+00  0.00000000E+00  0.00000000E+00
  0.00000000E+00  0.00000000E+00  0.00000000E+00
  0.00000000E+00  0.00000000E+00  0.00000000E+00
  0.00000000E+00  0.00000000E+00  0.00000000E+00
  0.00000000E+00  0.00000000E+00  0.00000000E+00
  0.00000000E+00  0.00000000E+00  0.00000000E+00
  0.00000000E+00  0.00000000E+00  0.00000000E+00
  0.00000000E+00  0.00000000E+00  0.00000000E+00
  0.00000000E+00  0.00000000E+00  0.00000000E+00
  0.00000000E+00  0.00000000E+00  0.00000000E+00
  0.00000000E+00  0.00000000E+00  0.00000000E+00
  0.00000000E+00  0.00000000E+00  0.00000000E+00
  0.00000000E+00  0.00000000E+00  0.00000000E+00
  0.00000000E+00  0.00000000E+00  0.00000000E+00
  0.00000000E+00  0.00000000E+00  0.00000000E+00
  0.00000000E+00  0.00000000E+00  0.00000000E+00
  0.00000000E+00  0.00000000E+00  0.00000000E+00
  0.00000000E+00  0.00000000E+00  0.00000000E+00
  0.00000000E+00  0.00000000E+00  0.00000000E+00
  0.00000000E+00  0.00000000E+00  0.00000000E+00
  0.00000000E+00  0.00000000E+00  0.00000000E+00
  0.00000000E+00  0.00000000E+00  0.00000000E+00
  0.00000000E+00  0.00000000E+00  0.00000000E+00
  0.00000000E+00  0.00000000E+00  0.00000000E+00
  0.00000000E+00  0.00000000E+00  0.00000000E+00
  0.00000000E+00  0.00000000E+00  0.00000000E+00
  0.00000000E+00  0.00000000E+00  0.00000000E+00
  0.00000000E+00  0.00000000E+00  0.00000000E+00
  0.00000000E+00  0.00000000E+00  0.00000000E+00
  0.00000000E+00  0.00000000E+00  0.00000000E+00
  0.00000000E+00  0.00000000E+00  0.00000000E+00
  0.00000000E+00  0.00000000E+00  0.00000000E+00
  0.00000000E+00  0.00000000E+00  0.00000000E+00
  0.00000000E+00  0.00000000E+00  0.00000000E+00
  0.00000000E+00  0.00000000E+00  0.00000000E+00
  0.00000000E+00  0.00000000E+00  0.00000000E+00
  0.00000000E+00  0.00000000E+00  0.00000000E+00
  0.00000000E+00  0.00000000E+00  0.00000000E+00
  0.00000000E+00  0.00000000E+00  0.00000000E+00
  0.00000000E+00  0.00000000E+00  0.00000000E+00
  0.00000000E+00  0.00000000E+00  0.00000000E+00
  0.00000000E+00  0.00000000E+00  0.00000000E+00
  0.00000000E+00  0.00000000E+00  0.00000000E+00
  0.00000000E+00  0.00000000E+00  0.00000000E+00
  0.00000000E+00  0.00000000E+00  0.00000000E+00
  0.00000000E+00  0.00000000E+00  0.00000000E+00
  0.00000000E+00  0.00000000E+00  0.00000000E+00
  0.00000000E+00  0.00000000E+00  0.00000000E+00
  0.00000000E+00  0.00000000E+00  0.00000000E+00
  0.00000000E+00  0.00000000E+00  0.00000000E+00
  0.00000000E+00  0.00000000E+00  0.00000000E+00
  0.00000000E+00  0.00000000E+00  0.00000000E+00
  0.00000000E+00  0.00000000E+00  0.00000000E+00
  0.00000000E+00  0.00000000E+00  0.00000000E+00
  0.00000000E+00  0.00000000E+00  0.00000000E+00
  0.00000000E+00  0.00000000E+00  0.00000000E+00
  0.00000000E+00  0.00000000E+00  0.00000000E+00
  0.00000000E+00  0.00000000E+00  0.00000000E+00
  0.00000000E+00  0.00000000E+00  0.00000000E+00
  0.00000000E+00  0.00000000E+00  0.00000000E+00
  0.00000000E+00  0.00000000E+00  0.00000000E+00
  0.00000000E+00  0.00000000E+00  0.00000000E+00
  0.00000000E+00  0.00000000E+00  0.00000000E+00
  0.00000000E+00  0.00000000E+00  0.00000000E+00
