CeO2-you-111-you-Ga                     
   1.00000000000000     
     9.8323671652880389   -5.6859258280819702    0.0167539287382873
     0.0000000015928553   11.3718496577703281   -0.0000000019275607
     0.0368993222373947   -0.0000000037104964   20.9837402888364970
   O    Ga   Ce H
    53     1    26 2
Selective dynamics
Direct
 -0.0003549019744918  0.0011618147558488  0.9960024432684562   T   T   T
  0.1187604648648633  0.2260467324327071  0.1519784922019823   F   F   F
  0.2092424833766510  0.0848122042200219  0.2986266250654342   T   T   T
  0.1411185475687705  0.2372257737841076  0.3715288779213270   T   T   T
 -0.0055324963812477 -0.0006470432896485  0.2280452868870838   T   T   T
  0.2219945529820924  0.1099919816135753  0.0745660187146903   F   F   F
  0.3337787529244243 -0.0002808171506756  0.9948005503177471   T   T   T
  0.4427561568092047  0.2227359410804488  0.1488850165370471   F   F   F
  0.5554088565878970  0.1075571236210268  0.3064414409802294   T   T   T
  0.4379714707667182  0.2500112267535052  0.3641373150565143   T   T   T
  0.3381577661783615 -0.0005342545503643  0.2283072939927184   T   T   T
  0.5545195049963820  0.1113005311375785  0.0749875396500172   F   F   F
  0.6693732074087444  0.0013531037050344  0.9962263232502921   T   T   T
  0.7730877504503411  0.2246100477646831  0.1514927302362436   F   F   F
  0.8911428909846362  0.1122379454913858  0.3073092065028586   T   T   T
  0.7799891890782087  0.2192819168792134  0.3882615193243394   T   T   T
  0.6681657019069922  0.0007493509524407  0.2302097471069896   T   T   T
  0.8895457789015313  0.1114393894506213  0.0781475043478054   F   F   F
 -0.0003549019742560  0.3318162832691305  0.9960024432681898   T   T   T
  0.1106779567714459  0.5550493055644629  0.1509397867449076   F   F   F
  0.2092424833760567  0.4577632791521400  0.2986266250679478   T   T   T
  0.1123751331664695  0.5590009616644370  0.3872773340350990   T   T   T
 -0.0055324963803712  0.3284475469039875  0.2280452868870347   T   T   T
  0.2219945529818248  0.4453355713680830  0.0745660187147484   F   F   F
  0.3328059289710987  0.3330694644851445  0.9950295609487171   T   T   T
  0.4427561568067059  0.5533542157313988  0.1488850165369102   F   F   F
  0.4379714707718272  0.5212942440231570  0.3641373150565625   T   T   T
  0.3453827658088819  0.3393578829014621  0.2424103849324756   T   T   T
  0.5554852949158636  0.4444086474580378  0.0731067066060870   F   F   F
  0.6685530229633404  0.3334270937279206  0.9951872022906421   T   T   T
  0.7773056311137422  0.5553198155554570  0.1480098717980510   F   F   F
  0.8943541998512858  0.4447234470269643  0.3049576847214902   T   T   T
  0.7698649874005875  0.5515994937016875  0.3803730282405705   T   T   T
  0.6588248495244439  0.3425088149191053  0.2351198808880252   T   T   T
  0.8902235840533643  0.4446857316239316  0.0751415152841555   F   F   F
  0.0007984715432363  0.6670662357716114  0.9952213284193551   T   T   T
  0.1106779567705576  0.8889626512065001  0.1509397867448059   F   F   F
  0.2208297189410330  0.7770818594702563  0.3034390811094271   T   T   T
  0.1123751331647641  0.8867081715009396  0.3872773340348402   T   T   T
 -0.0024187714866127  0.6654576142556424  0.2298037104270610   T   T   T
  0.2229002266537499  0.7781171133268866  0.0752205785561914   F   F   F
  0.3337787529243219  0.6673935700752530  0.9948005503178288   T   T   T
  0.4472897347484033  0.8903118673746842  0.1497731323647296   F   F   F
  0.5554088565845713  0.7811847329678911  0.3064414409800748   T   T   T
  0.4398758138158808  0.8866049069075164  0.3852211537483993   T   T   T
  0.3381577661795222  0.6720260207324893  0.2283072939929531   T   T   T
  0.5545195049961356  0.7765519738582574  0.0749875396502158   F   F   F
  0.6685530229633802  0.6684589292364893  0.9951872022910138   T   T   T
  0.7730877504507837  0.8818107026843414  0.1514927302357853   F   F   F
  0.8943541998490240  0.7829637528188780  0.3049576847217063   T   T   T
  0.7799891890726646  0.8940402721922219  0.3882615193243195   T   T   T
  0.6588248495251058  0.6496490346085635  0.2351198808883515   T   T   T
  0.8902235840533258  0.7788708524294884  0.0751415152842281   F   F   F
  0.3281972507163360  0.3307651253649261  0.3390760202465479   T   T   T
  0.0050421279402104  0.0026273812748212  0.3441102779477611   T   T   T
  0.2218650227824299  0.1101781087198702  0.1915767339341512   F   F   F
  0.1119150892879214  0.2226240446437004  0.0363343569172265   F   F   F
  0.3302958567848324 -0.0000585032063322  0.3425739449373276   T   T   T
  0.5554156003179272  0.1116371864660801  0.1913841184924078   F   F   F
  0.4439677898834016  0.2208936779113316  0.0340624073919889   F   F   F
  0.6669435224115483  0.0001382612055874  0.3471144272209136   T   T   T
  0.8879099139350612  0.1106214569678496  0.1912198610142009   F   F   F
  0.7781236792015662  0.2228379824173488  0.0361059915477037   F   F   F
  0.0050421279372953  0.3357477466643883  0.3441102779477554   T   T   T
  0.2218650227834796  0.4450199140600358  0.1915767339343269   F   F   F
  0.1113288896510331  0.5550828421098145  0.0355621336800967   F   F   F
  0.5532441638697586  0.4432880819332624  0.1844538364352218   F   F   F
  0.4439677898828877  0.5564081119727482  0.0340624073920494   F   F   F
  0.6699010788259284  0.3284288792353348  0.3491060264518485   T   T   T
  0.8875271760487069  0.4448270518452173  0.1912974147825506   F   F   F
  0.7798385672887918  0.5565862836443584  0.0342511665667426   F   F   F
  0.0009818962415279  0.6671579481226627  0.3448404805628501   T   T   T
  0.2225215052908015  0.7779277526460212  0.1890567272277327   F   F   F
  0.1113288896506068  0.8895800475409512  0.0355621336800720   F   F   F
  0.3302958567861820  0.6636883599877920  0.3425739449377822   T   T   T
  0.5554156003216020  0.7771114138519117  0.1913841184923938   F   F   F
  0.4456755897736022  0.8895047948869962  0.0356559690023204   F   F   F
  0.6699010788312196  0.6748051995939475  0.3491060264510810   T   T   T
  0.8875271760510806  0.7760331242089380  0.1912974147826010   F   F   F
  0.7781236792020206  0.8886186967845117  0.0361059915477802   F   F   F
0.3281972507163360 0.3307651253649261 0.439076 T T T
0.446598 0.216020 0.433410 T T T 
 
  0.00000000E+00  0.00000000E+00  0.00000000E+00
  0.00000000E+00  0.00000000E+00  0.00000000E+00
  0.00000000E+00  0.00000000E+00  0.00000000E+00
  0.00000000E+00  0.00000000E+00  0.00000000E+00
  0.00000000E+00  0.00000000E+00  0.00000000E+00
  0.00000000E+00  0.00000000E+00  0.00000000E+00
  0.00000000E+00  0.00000000E+00  0.00000000E+00
  0.00000000E+00  0.00000000E+00  0.00000000E+00
  0.00000000E+00  0.00000000E+00  0.00000000E+00
  0.00000000E+00  0.00000000E+00  0.00000000E+00
  0.00000000E+00  0.00000000E+00  0.00000000E+00
  0.00000000E+00  0.00000000E+00  0.00000000E+00
  0.00000000E+00  0.00000000E+00  0.00000000E+00
  0.00000000E+00  0.00000000E+00  0.00000000E+00
  0.00000000E+00  0.00000000E+00  0.00000000E+00
  0.00000000E+00  0.00000000E+00  0.00000000E+00
  0.00000000E+00  0.00000000E+00  0.00000000E+00
  0.00000000E+00  0.00000000E+00  0.00000000E+00
  0.00000000E+00  0.00000000E+00  0.00000000E+00
  0.00000000E+00  0.00000000E+00  0.00000000E+00
  0.00000000E+00  0.00000000E+00  0.00000000E+00
  0.00000000E+00  0.00000000E+00  0.00000000E+00
  0.00000000E+00  0.00000000E+00  0.00000000E+00
  0.00000000E+00  0.00000000E+00  0.00000000E+00
  0.00000000E+00  0.00000000E+00  0.00000000E+00
  0.00000000E+00  0.00000000E+00  0.00000000E+00
  0.00000000E+00  0.00000000E+00  0.00000000E+00
  0.00000000E+00  0.00000000E+00  0.00000000E+00
  0.00000000E+00  0.00000000E+00  0.00000000E+00
  0.00000000E+00  0.00000000E+00  0.00000000E+00
  0.00000000E+00  0.00000000E+00  0.00000000E+00
  0.00000000E+00  0.00000000E+00  0.00000000E+00
  0.00000000E+00  0.00000000E+00  0.00000000E+00
  0.00000000E+00  0.00000000E+00  0.00000000E+00
  0.00000000E+00  0.00000000E+00  0.00000000E+00
  0.00000000E+00  0.00000000E+00  0.00000000E+00
  0.00000000E+00  0.00000000E+00  0.00000000E+00
  0.00000000E+00  0.00000000E+00  0.00000000E+00
  0.00000000E+00  0.00000000E+00  0.00000000E+00
  0.00000000E+00  0.00000000E+00  0.00000000E+00
  0.00000000E+00  0.00000000E+00  0.00000000E+00
  0.00000000E+00  0.00000000E+00  0.00000000E+00
  0.00000000E+00  0.00000000E+00  0.00000000E+00
  0.00000000E+00  0.00000000E+00  0.00000000E+00
  0.00000000E+00  0.00000000E+00  0.00000000E+00
  0.00000000E+00  0.00000000E+00  0.00000000E+00
  0.00000000E+00  0.00000000E+00  0.00000000E+00
  0.00000000E+00  0.00000000E+00  0.00000000E+00
  0.00000000E+00  0.00000000E+00  0.00000000E+00
  0.00000000E+00  0.00000000E+00  0.00000000E+00
  0.00000000E+00  0.00000000E+00  0.00000000E+00
  0.00000000E+00  0.00000000E+00  0.00000000E+00
  0.00000000E+00  0.00000000E+00  0.00000000E+00
  0.00000000E+00  0.00000000E+00  0.00000000E+00
  0.00000000E+00  0.00000000E+00  0.00000000E+00
  0.00000000E+00  0.00000000E+00  0.00000000E+00
  0.00000000E+00  0.00000000E+00  0.00000000E+00
  0.00000000E+00  0.00000000E+00  0.00000000E+00
  0.00000000E+00  0.00000000E+00  0.00000000E+00
  0.00000000E+00  0.00000000E+00  0.00000000E+00
  0.00000000E+00  0.00000000E+00  0.00000000E+00
  0.00000000E+00  0.00000000E+00  0.00000000E+00
  0.00000000E+00  0.00000000E+00  0.00000000E+00
  0.00000000E+00  0.00000000E+00  0.00000000E+00
  0.00000000E+00  0.00000000E+00  0.00000000E+00
  0.00000000E+00  0.00000000E+00  0.00000000E+00
  0.00000000E+00  0.00000000E+00  0.00000000E+00
  0.00000000E+00  0.00000000E+00  0.00000000E+00
  0.00000000E+00  0.00000000E+00  0.00000000E+00
  0.00000000E+00  0.00000000E+00  0.00000000E+00
  0.00000000E+00  0.00000000E+00  0.00000000E+00
  0.00000000E+00  0.00000000E+00  0.00000000E+00
  0.00000000E+00  0.00000000E+00  0.00000000E+00
  0.00000000E+00  0.00000000E+00  0.00000000E+00
  0.00000000E+00  0.00000000E+00  0.00000000E+00
  0.00000000E+00  0.00000000E+00  0.00000000E+00
  0.00000000E+00  0.00000000E+00  0.00000000E+00
  0.00000000E+00  0.00000000E+00  0.00000000E+00
  0.00000000E+00  0.00000000E+00  0.00000000E+00
  0.00000000E+00  0.00000000E+00  0.00000000E+00
