CeO2-you-111-you-Cd                     
   1.00000000000000     
     9.8357034854278265   -5.6881016909493534    0.0061944160380808
     0.0000000010299278   11.3762013816842167   -0.0000000007226126
     0.0128798806111637   -0.0000000012878579   21.1702882241084396
   O    Cd   Ce   H 
    53     1    26     1
Selective dynamics
Direct
  0.9998681065780548  0.0005022188361315  0.9961155484698384   T   T   T
  0.1150072501811904  0.2233431245146809  0.1512352009493453   T   T   T
  0.2199863473252071  0.1119161240748844  0.3043059208307681   T   T   T
  0.0931229996717642  0.2141748730334069  0.3881684214392465   T   T   T
  0.9998371364308735 -0.0001125998017584  0.2288364181670020   T   T   T
  0.2225806096921464  0.1107240704848719  0.0751617371116088   T   T   T
  0.3329350330803739  0.9997165144787022  0.9953570192842562   T   T   T
  0.4465024097365305  0.2206279023416941  0.1469260620343817   T   T   T
  0.5610902277140309  0.1150348866760083  0.3055349362522956   T   T   T
  0.4586938642829644  0.2431105169562635  0.3946785946576634   T   T   T
  0.3347744889868435 -0.0002085706086528  0.2286211011967625   T   T   T
  0.5553971302900569  0.1097414970292871  0.0741425565689597   T   T   T
  0.6692840218928949  0.0016455668930680  0.9955086818903327   T   T   T
  0.7736057548444657  0.2253886060983806  0.1515107299904974   T   T   T
  0.8863997306893050  0.1091401495475388  0.3034902541080897   T   T   T
  0.7794183877455954  0.2218585566406078  0.3868506412598716   T   T   T
  0.6655079460232723  0.0002853927324512  0.2284205874584636   T   T   T
  0.8882238470102719  0.1107675417834199  0.0777420879958606   T   T   T
  0.9990941525705823  0.3312632977387184  0.9961702194081615   T   T   T
  0.1104797462845371  0.5552142338325797  0.1503851152125016   T   T   T
  0.2173857595085437  0.4471813654200492  0.3011228597774543   T   T   T
  0.1125985390364585  0.5563729819822189  0.3848107145169988   T   T   T
  0.9980809813155995  0.3305520292692725  0.2276106275740550   T   T   T
  0.2216983057778496  0.4446934301207782  0.0746149868649487   T   T   T
  0.3309254763614133  0.3323372521498623  0.9950983094669799   T   T   T
  0.4454989535444970  0.5589404330656628  0.1456612305904599   T   T   T
  0.4580255791400144  0.5494980204089237  0.3736291218825636   T   T   T
  0.3493210090279891  0.3422998331817135  0.2279595265764356   T   T   T
  0.5550735405131463  0.4441524744104972  0.0711563161143799   T   T   T
  0.6680591482371949  0.3330622008810506  0.9950885472625897   T   T   T
  0.7787202758907854  0.5555952701648027  0.1465896556754609   T   T   T
  0.8931334600913341  0.4410709496581544  0.3038859880497962   T   T   T
  0.7595524056617965  0.5419759339933101  0.3749948038952535   T   T   T
  0.6579319713125849  0.3445166474637892  0.2360813879147644   T   T   T
  0.8900583872008819  0.4447334479377410  0.0747709094589475   T   T   T
  0.0006353043979058  0.6673864725543179  0.9956062512749797   T   T   T
  0.1106124371614545  0.8879039391630856  0.1508697078552729   T   T   T
  0.2185001813730300  0.7700612475347466  0.3029583194769686   T   T   T
  0.0957506047944928  0.8755520888779792  0.3859404204772642   T   T   T
  0.9965322237894986  0.6641327172350362  0.2293548715176496   T   T   T
  0.2226923091656705  0.7777731852077082  0.0751871047262143   T   T   T
  0.3328391834453961  0.6667968983745538  0.9949599461574319   T   T   T
  0.4453163423400719  0.8894370999750577  0.1496086731894514   T   T   T
  0.5598382963345230  0.7807145415821429  0.3015004573165002   T   T   T
  0.4503085297844186  0.8774783618020139  0.3842645401179758   T   T   T
  0.3364153981434554  0.6677272770217132  0.2283105245484716   T   T   T
  0.5562815337777063  0.7797764537485197  0.0737085915196850   T   T   T
  0.6684192464488073  0.6691153051870986  0.9950718209985200   T   T   T
  0.7747920053567278  0.8827255436497206  0.1516134733479773   T   T   T
  0.8881651244704543  0.7792829701269620  0.3030073364744422   T   T   T
  0.7762165883856502  0.8884406632679487  0.3853612995911531   T   T   T
  0.6572699295352189  0.6472157577818148  0.2336622001848650   T   T   T
  0.8898814282989784  0.7793925811072511  0.0750166043655286   T   T   T
  0.3155482666662828  0.3276892936860112  0.3466653273829178   T   T   T
  0.0025254676547123  0.0026216096629460  0.3442115865472071   T   T   T
  0.2245503881128619  0.1131736482806076  0.1928173894858395   T   T   T
  0.1115481766844736  0.2220070575961333  0.0366077956694942   T   T   T
  0.3279746212932278 -0.0066136588995278  0.3464879462996192   T   T   T
  0.5537208762260561  0.1105356841282906  0.1903585941929266   T   T   T
  0.4432709658971654  0.2198880449744785  0.0336583255906888   T   T   T
  0.6655170407729529 -0.0033583195710490  0.3439245653514619   T   T   T
  0.8888716278137585  0.1109200288442899  0.1905502282637246   T   T   T
  0.7778277275461892  0.2222654198532328  0.0357497622089011   T   T   T
  0.0058302211207396  0.3318763392015084  0.3448869471756847   T   T   T
  0.2237916619777916  0.4438029544233405  0.1905015784347186   T   T   T
  0.1111118663573317  0.5550455369171139  0.0359637897696490   T   T   T
  0.5532714449900176  0.4437075556568719  0.1803353906936316   T   T   T
  0.4433692049888968  0.5568112870952366  0.0331005483735269   T   T   T
  0.6807856660439051  0.3269626748138694  0.3444083545428313   T   T   T
  0.8892096696411914  0.4447951628560382  0.1895500283712545   T   T   T
  0.7802184257751091  0.5570290692397336  0.0336110890194415   T   T   T
  0.0015835317123501  0.6662392203129710  0.3427613163079119   T   T   T
  0.2225923330541559  0.7778681676204380  0.1894055388869798   T   T   T
  0.1113615354490603  0.8898023795872758  0.0366774145369747   T   T   T
  0.3336685979000207  0.6626536475341861  0.3419009520844897   T   T   T
  0.5550436362023893  0.7770437851138795  0.1890193355996280   T   T   T
  0.4453318204636985  0.8896388772846184  0.0353697579095710   T   T   T
  0.6703002948212903  0.6766706205001733  0.3445944123742146   T   T   T
  0.8885191948222956  0.7765141843054293  0.1902358644094966   T   T   T
  0.7784106791092296  0.8894404775207473  0.0356305958577615   T   T   T
  0.4569474062483557  0.2645159738734070  0.4391106016122047   T   T   T
 
  0.00000000E+00  0.00000000E+00  0.00000000E+00
  0.00000000E+00  0.00000000E+00  0.00000000E+00
  0.00000000E+00  0.00000000E+00  0.00000000E+00
  0.00000000E+00  0.00000000E+00  0.00000000E+00
  0.00000000E+00  0.00000000E+00  0.00000000E+00
  0.00000000E+00  0.00000000E+00  0.00000000E+00
  0.00000000E+00  0.00000000E+00  0.00000000E+00
  0.00000000E+00  0.00000000E+00  0.00000000E+00
  0.00000000E+00  0.00000000E+00  0.00000000E+00
  0.00000000E+00  0.00000000E+00  0.00000000E+00
  0.00000000E+00  0.00000000E+00  0.00000000E+00
  0.00000000E+00  0.00000000E+00  0.00000000E+00
  0.00000000E+00  0.00000000E+00  0.00000000E+00
  0.00000000E+00  0.00000000E+00  0.00000000E+00
  0.00000000E+00  0.00000000E+00  0.00000000E+00
  0.00000000E+00  0.00000000E+00  0.00000000E+00
  0.00000000E+00  0.00000000E+00  0.00000000E+00
  0.00000000E+00  0.00000000E+00  0.00000000E+00
  0.00000000E+00  0.00000000E+00  0.00000000E+00
  0.00000000E+00  0.00000000E+00  0.00000000E+00
  0.00000000E+00  0.00000000E+00  0.00000000E+00
  0.00000000E+00  0.00000000E+00  0.00000000E+00
  0.00000000E+00  0.00000000E+00  0.00000000E+00
  0.00000000E+00  0.00000000E+00  0.00000000E+00
  0.00000000E+00  0.00000000E+00  0.00000000E+00
  0.00000000E+00  0.00000000E+00  0.00000000E+00
  0.00000000E+00  0.00000000E+00  0.00000000E+00
  0.00000000E+00  0.00000000E+00  0.00000000E+00
  0.00000000E+00  0.00000000E+00  0.00000000E+00
  0.00000000E+00  0.00000000E+00  0.00000000E+00
  0.00000000E+00  0.00000000E+00  0.00000000E+00
  0.00000000E+00  0.00000000E+00  0.00000000E+00
  0.00000000E+00  0.00000000E+00  0.00000000E+00
  0.00000000E+00  0.00000000E+00  0.00000000E+00
  0.00000000E+00  0.00000000E+00  0.00000000E+00
  0.00000000E+00  0.00000000E+00  0.00000000E+00
  0.00000000E+00  0.00000000E+00  0.00000000E+00
  0.00000000E+00  0.00000000E+00  0.00000000E+00
  0.00000000E+00  0.00000000E+00  0.00000000E+00
  0.00000000E+00  0.00000000E+00  0.00000000E+00
  0.00000000E+00  0.00000000E+00  0.00000000E+00
  0.00000000E+00  0.00000000E+00  0.00000000E+00
  0.00000000E+00  0.00000000E+00  0.00000000E+00
  0.00000000E+00  0.00000000E+00  0.00000000E+00
  0.00000000E+00  0.00000000E+00  0.00000000E+00
  0.00000000E+00  0.00000000E+00  0.00000000E+00
  0.00000000E+00  0.00000000E+00  0.00000000E+00
  0.00000000E+00  0.00000000E+00  0.00000000E+00
  0.00000000E+00  0.00000000E+00  0.00000000E+00
  0.00000000E+00  0.00000000E+00  0.00000000E+00
  0.00000000E+00  0.00000000E+00  0.00000000E+00
  0.00000000E+00  0.00000000E+00  0.00000000E+00
  0.00000000E+00  0.00000000E+00  0.00000000E+00
  0.00000000E+00  0.00000000E+00  0.00000000E+00
  0.00000000E+00  0.00000000E+00  0.00000000E+00
  0.00000000E+00  0.00000000E+00  0.00000000E+00
  0.00000000E+00  0.00000000E+00  0.00000000E+00
  0.00000000E+00  0.00000000E+00  0.00000000E+00
  0.00000000E+00  0.00000000E+00  0.00000000E+00
  0.00000000E+00  0.00000000E+00  0.00000000E+00
  0.00000000E+00  0.00000000E+00  0.00000000E+00
  0.00000000E+00  0.00000000E+00  0.00000000E+00
  0.00000000E+00  0.00000000E+00  0.00000000E+00
  0.00000000E+00  0.00000000E+00  0.00000000E+00
  0.00000000E+00  0.00000000E+00  0.00000000E+00
  0.00000000E+00  0.00000000E+00  0.00000000E+00
  0.00000000E+00  0.00000000E+00  0.00000000E+00
  0.00000000E+00  0.00000000E+00  0.00000000E+00
  0.00000000E+00  0.00000000E+00  0.00000000E+00
  0.00000000E+00  0.00000000E+00  0.00000000E+00
  0.00000000E+00  0.00000000E+00  0.00000000E+00
  0.00000000E+00  0.00000000E+00  0.00000000E+00
  0.00000000E+00  0.00000000E+00  0.00000000E+00
  0.00000000E+00  0.00000000E+00  0.00000000E+00
  0.00000000E+00  0.00000000E+00  0.00000000E+00
  0.00000000E+00  0.00000000E+00  0.00000000E+00
  0.00000000E+00  0.00000000E+00  0.00000000E+00
  0.00000000E+00  0.00000000E+00  0.00000000E+00
  0.00000000E+00  0.00000000E+00  0.00000000E+00
  0.00000000E+00  0.00000000E+00  0.00000000E+00
  0.00000000E+00  0.00000000E+00  0.00000000E+00
