CeO2-you-111-you-In                     
   1.00000000000000     
     9.8479192243842277   -5.6961256032188006   -0.0008093888278923
    -0.0090295405125693   11.3766095797027909    0.0008093887043614
    -0.0009422537035582    0.0016320312321322   21.0747241904582623
   O    In   Ce   H 
    53     1    26     1
Selective dynamics
Direct
 -0.0001317332572484 -0.0001751799263607  0.9952052754705768   T   T   T
  0.1098918904010747  0.2192074030746713  0.1464995905208002   T   T   T
  0.2361740032829100  0.1127352770159157  0.3028990209649336   T   T   T
  0.1304499052385705  0.2333789600403395  0.3753254449906692   T   T   T
  0.0046117388615732  0.0027799287253517  0.2304603974449415   T   T   T
  0.2230488520814019  0.1105690858471770  0.0739627579933829   T   T   T
  0.3350043399740881  0.0005633014069310  0.9954176742018689   T   T   T
  0.4414654687907071  0.2249873794674526  0.1511785147058750   T   T   T
  0.5503815539509445  0.1160249542893081  0.3043094542901907   T   T   T
  0.4404715370201520  0.2254066652368961  0.3988741762463844   T   T   T
  0.3344241152618722 -0.0025133035003916  0.2262177170496661   T   T   T
  0.5556478646088123  0.1111951473836262  0.0770177209961633   T   T   T
  0.6660980259220558  0.0007616450216551  0.9956575834031088   T   T   T
  0.7846805663295918  0.2241413419722194  0.1508319836905701   T   T   T
  0.8844571800246882  0.1043056915466515  0.3043519409435535   T   T   T
  0.7662999885172004  0.2177348193539239  0.3865029563999297   T   T   T
  0.6651222306528711  0.0025126940067393  0.2293879637745560   T   T   T
  0.8882658280881978  0.1091864764594830  0.0747020688570537   T   T   T
  0.9981397259737446  0.3317643808311841  0.9946066250363187   T   T   T
  0.1106541898437952  0.5564592139938480  0.1458949018777141   T   T   T
  0.1053749567324802  0.5610344732123669  0.3844320688845280   T   T   T
  0.0177869858647725  0.3419588962819073  0.2327697278445325   T   T   T
  0.2226164283193835  0.4443966110379974  0.0712862701742328   T   T   T
  0.3342038794553160  0.3324186771605970  0.9942121217727413   T   T   T
  0.4475646381222705  0.5569559530115763  0.1466030098011456   T   T   T
  0.5527732377720201  0.4296146223634340  0.3026966092742782   T   T   T
  0.4336659676185398  0.5364367149696665  0.3752844584975756   T   T   T
  0.3226489536676636  0.3429308214398403  0.2334063294661404   T   T   T
  0.5560512711374690  0.4438177516694493  0.0739327635822951   T   T   T
  0.6657848211022589  0.3313572019283156  0.9953823274027153   T   T   T
  0.7776812525714083  0.5558182632877726  0.1496522917187885   T   T   T
  0.8845207640244396  0.4457617566020907  0.3020241210053095   T   T   T
  0.7744876490651671  0.5555757602269069  0.3832325165223514   T   T   T
  0.6687841022242895  0.3320928340907213  0.2261873744294351   T   T   T
  0.8882411057274415  0.4443051757514208  0.0738516220160690   T   T   T
  0.9996062390034129  0.6673223457744087  0.9949088446985600   T   T   T
  0.1106766758870470  0.8889852795460277  0.1497870115468887   T   T   T
  0.2204521111799889  0.7821527608271124  0.3024998544673499   T   T   T
  0.1103810976096338  0.8908962961250887  0.3834116919500770   T   T   T
  0.0004747621927209  0.6662605075165161  0.2282829696410421   T   T   T
  0.2225278127627108  0.7786360181885387  0.0739287129739658   T   T   T
  0.3343209712956207  0.6683145596994852  0.9942941873480688   T   T   T
  0.4428881074144652  0.8818109976717916  0.1508811151131756   T   T   T
  0.5630202550585015  0.7826582771603168  0.3046056053338285   T   T   T
  0.4493753962116901  0.9005798623592103  0.3866510515305791   T   T   T
  0.3249307429452187  0.6490139669012995  0.2331359860451751   T   T   T
  0.5571335881663881  0.7783709021812502  0.0743705165058697   T   T   T
  0.6675585346000251  0.6670406495864699  0.9947956954305186   T   T   T
  0.7776766567269865  0.8886388652326399  0.1527151263635996   T   T   T
  0.8885709606801458  0.7787396972697145  0.3033455765726168   T   T   T
  0.7798911595993686  0.8881673165011830  0.3856743165822189   T   T   T
  0.6634907608223037  0.6613128071849923  0.2307347289704083   T   T   T
  0.8886297503818791  0.7786268723518464  0.0751206845033096   T   T   T
  0.3391157925649285  0.3271702883188460  0.3420097180524422   T   T   T
  0.0030791737622678  0.0026745723865773  0.3433452939706503   T   T   T
  0.2228869376677972  0.1121251221623714  0.1902134356121148   T   T   T
  0.1101330259606516  0.2196838929321649  0.0333429643345378   T   T   T
  0.3294845208267980 -0.0066959975967072  0.3414597090909663   T   T   T
  0.5558425089098478  0.1106263776194718  0.1895521707140161   T   T   T
  0.4444490530769153  0.2221292399298610  0.0348537079657827   T   T   T
  0.6672654804947300 -0.0001652141389495  0.3448367853211157   T   T   T
  0.8911780533786012  0.1126327110203767  0.1916306708628807   T   T   T
  0.7782154345332031  0.2217733999265976  0.0355262481426218   T   T   T
  0.9925960446218838  0.3299997494399021  0.3512513672510143   T   T   T
  0.2226327241445330  0.4441874001752624  0.1811715996485850   T   T   T
  0.1102687472831634  0.5564823325457664  0.0327446636417886   T   T   T
  0.5542771891843908  0.4434837122454050  0.1901455713377737   T   T   T
  0.4469109694195509  0.5564929197794026  0.0331869233322291   T   T   T
  0.6729053671062827  0.3368992224355217  0.3411813827809075   T   T   T
  0.8912521427362690  0.4448953061887932  0.1895012954809177   T   T   T
  0.7773799222691056  0.5550175364064823  0.0355003776249315   T   T   T
 -0.0002756307540164  0.6666964131179327  0.3434647135739040   T   T   T
  0.2218547067513083  0.7754815764955912  0.1896283507866578   T   T   T
  0.1117460896255296  0.8893933360074630  0.0356008346149359   T   T   T
  0.3369119979096545  0.6742378009953111  0.3514288050173959   T   T   T
  0.5542174149348739  0.7755648216044281  0.1917686367200185   T   T   T
  0.4447196923702015  0.8883579888604693  0.0354598070404866   T   T   T
  0.6639195743906025  0.6634351898849759  0.3433034818026727   T   T   T
  0.8892641410393635  0.7773609539970258  0.1897501809199764   T   T   T
  0.7775605252933150  0.8891318601585577  0.0361871249987864   T   T   T
  0.4356355329882039  0.2294741097425556  0.4448871225323482   T   T   T
 
  0.00000000E+00  0.00000000E+00  0.00000000E+00
  0.00000000E+00  0.00000000E+00  0.00000000E+00
  0.00000000E+00  0.00000000E+00  0.00000000E+00
  0.00000000E+00  0.00000000E+00  0.00000000E+00
  0.00000000E+00  0.00000000E+00  0.00000000E+00
  0.00000000E+00  0.00000000E+00  0.00000000E+00
  0.00000000E+00  0.00000000E+00  0.00000000E+00
  0.00000000E+00  0.00000000E+00  0.00000000E+00
  0.00000000E+00  0.00000000E+00  0.00000000E+00
  0.00000000E+00  0.00000000E+00  0.00000000E+00
  0.00000000E+00  0.00000000E+00  0.00000000E+00
  0.00000000E+00  0.00000000E+00  0.00000000E+00
  0.00000000E+00  0.00000000E+00  0.00000000E+00
  0.00000000E+00  0.00000000E+00  0.00000000E+00
  0.00000000E+00  0.00000000E+00  0.00000000E+00
  0.00000000E+00  0.00000000E+00  0.00000000E+00
  0.00000000E+00  0.00000000E+00  0.00000000E+00
  0.00000000E+00  0.00000000E+00  0.00000000E+00
  0.00000000E+00  0.00000000E+00  0.00000000E+00
  0.00000000E+00  0.00000000E+00  0.00000000E+00
  0.00000000E+00  0.00000000E+00  0.00000000E+00
  0.00000000E+00  0.00000000E+00  0.00000000E+00
  0.00000000E+00  0.00000000E+00  0.00000000E+00
  0.00000000E+00  0.00000000E+00  0.00000000E+00
  0.00000000E+00  0.00000000E+00  0.00000000E+00
  0.00000000E+00  0.00000000E+00  0.00000000E+00
  0.00000000E+00  0.00000000E+00  0.00000000E+00
  0.00000000E+00  0.00000000E+00  0.00000000E+00
  0.00000000E+00  0.00000000E+00  0.00000000E+00
  0.00000000E+00  0.00000000E+00  0.00000000E+00
  0.00000000E+00  0.00000000E+00  0.00000000E+00
  0.00000000E+00  0.00000000E+00  0.00000000E+00
  0.00000000E+00  0.00000000E+00  0.00000000E+00
  0.00000000E+00  0.00000000E+00  0.00000000E+00
  0.00000000E+00  0.00000000E+00  0.00000000E+00
  0.00000000E+00  0.00000000E+00  0.00000000E+00
  0.00000000E+00  0.00000000E+00  0.00000000E+00
  0.00000000E+00  0.00000000E+00  0.00000000E+00
  0.00000000E+00  0.00000000E+00  0.00000000E+00
  0.00000000E+00  0.00000000E+00  0.00000000E+00
  0.00000000E+00  0.00000000E+00  0.00000000E+00
  0.00000000E+00  0.00000000E+00  0.00000000E+00
  0.00000000E+00  0.00000000E+00  0.00000000E+00
  0.00000000E+00  0.00000000E+00  0.00000000E+00
  0.00000000E+00  0.00000000E+00  0.00000000E+00
  0.00000000E+00  0.00000000E+00  0.00000000E+00
  0.00000000E+00  0.00000000E+00  0.00000000E+00
  0.00000000E+00  0.00000000E+00  0.00000000E+00
  0.00000000E+00  0.00000000E+00  0.00000000E+00
  0.00000000E+00  0.00000000E+00  0.00000000E+00
  0.00000000E+00  0.00000000E+00  0.00000000E+00
  0.00000000E+00  0.00000000E+00  0.00000000E+00
  0.00000000E+00  0.00000000E+00  0.00000000E+00
  0.00000000E+00  0.00000000E+00  0.00000000E+00
  0.00000000E+00  0.00000000E+00  0.00000000E+00
  0.00000000E+00  0.00000000E+00  0.00000000E+00
  0.00000000E+00  0.00000000E+00  0.00000000E+00
  0.00000000E+00  0.00000000E+00  0.00000000E+00
  0.00000000E+00  0.00000000E+00  0.00000000E+00
  0.00000000E+00  0.00000000E+00  0.00000000E+00
  0.00000000E+00  0.00000000E+00  0.00000000E+00
  0.00000000E+00  0.00000000E+00  0.00000000E+00
  0.00000000E+00  0.00000000E+00  0.00000000E+00
  0.00000000E+00  0.00000000E+00  0.00000000E+00
  0.00000000E+00  0.00000000E+00  0.00000000E+00
  0.00000000E+00  0.00000000E+00  0.00000000E+00
  0.00000000E+00  0.00000000E+00  0.00000000E+00
  0.00000000E+00  0.00000000E+00  0.00000000E+00
  0.00000000E+00  0.00000000E+00  0.00000000E+00
  0.00000000E+00  0.00000000E+00  0.00000000E+00
  0.00000000E+00  0.00000000E+00  0.00000000E+00
  0.00000000E+00  0.00000000E+00  0.00000000E+00
  0.00000000E+00  0.00000000E+00  0.00000000E+00
  0.00000000E+00  0.00000000E+00  0.00000000E+00
  0.00000000E+00  0.00000000E+00  0.00000000E+00
  0.00000000E+00  0.00000000E+00  0.00000000E+00
  0.00000000E+00  0.00000000E+00  0.00000000E+00
  0.00000000E+00  0.00000000E+00  0.00000000E+00
  0.00000000E+00  0.00000000E+00  0.00000000E+00
  0.00000000E+00  0.00000000E+00  0.00000000E+00
  0.00000000E+00  0.00000000E+00  0.00000000E+00
