CeO2-you-111-you-Mn                     
   1.00000000000000     
     9.8256311561024159   -5.6778512385821314   -0.0050415227148453
    -0.0043475087942311   11.3481703732133994    0.0050415218632384
    -0.0052628182939600    0.0091154682380279   21.0551596522680882
   O    Mn   Ce   H 
    53     1    26     2
Selective dynamics
Direct
  0.9998133580637913  0.9998402878636415  0.9951755064078553   T   T   T
  0.1083471375423954  0.2199371675660942  0.1470809252274847   F   F   F
  0.2644997759385448  0.1451584449725272  0.3132051402803366   T   T   T
  0.1566160650811859  0.2877053460379461  0.3540050543389563   T   T   T
  0.0091067312017643  0.0061404987169792  0.2309411273974378   T   T   T
  0.2214278015027347  0.1103868769228598  0.0750574789733847   F   F   F
  0.3346077856610346  0.0008330797775318  0.9960667859317937   T   T   T
  0.4428353160790977  0.2238306839197435  0.1512433517771683   F   F   F
  0.5518253594583403  0.1029978144503068  0.3057148757865648   T   T   T
  0.4676401305578428  0.1700431831871679  0.4198246256172399   T   T   T
  0.3302566025848347 -0.0003331569931796  0.2295535283337052   T   T   T
  0.5563888321493309  0.1102781678507796  0.0778300858373981   F   F   F
  0.6656988963826496  0.0006342980291312  0.9954067276509817   T   T   T
  0.7844314965501837  0.2255888990242880  0.1522158728095491   F   F   F
  0.8845539644848363  0.1120495622424738  0.3038677789985139   T   T   T
  0.7855937306552918  0.2136695453598165  0.3901142369150561   T   T   T
  0.6666204838387841 -0.0014080446101715  0.2284607774263338   T   T   T
  0.8873651404706280  0.1100844076157230  0.0746755629034013   F   F   F
  0.9981786822680634  0.3324377053241547  0.9948747960045051   T   T   T
  0.1107282840482924  0.5559387159505746  0.1481358822484751   F   F   F
  0.1152603095476613  0.5517045568588687  0.3791458812751614   T   T   T
  0.0154055531669407  0.3429599363426187  0.2333963174844373   T   T   T
  0.2224024155245488  0.4442635844765590  0.0723960722929959   F   F   F
  0.3340048511711804  0.3323799518955036  0.9948859626446220   T   T   T
  0.4467288324372021  0.5583198624586316  0.1470809252273355   F   F   F
  0.5295212617023219  0.4208929395518472  0.3086159888038524   T   T   T
  0.4049974760844181  0.5257833208135050  0.3618583710209018   T   T   T
  0.3248141914117592  0.3421111385330259  0.2291655741289369   T   T   T
  0.5562801230768812  0.4452381984968170  0.0750574789734344   F   F   F
  0.6653961960976397  0.3316455530806495  0.9961345376458345   T   T   T
  0.7782966299577083  0.5552058240912601  0.1514048315238128   F   F   F
  0.8876512401035217  0.4461967822804484  0.3050473960814075   T   T   T
  0.7781457314316009  0.5696240137235579  0.3853464457512086   T   T   T
  0.6652494077307215  0.3325265402486295  0.2283047793553837   T   T   T
  0.8883589464922537  0.4447343747865773  0.0753701446074331   F   F   F
  0.9993705105702484  0.6672121636421664  0.9954388961403606   T   T   T
  0.1114611759075430  0.8883703700404268  0.1514048315238270   F   F   F
  0.2237717598135710  0.7782678801682129  0.3034919886481359   T   T   T
  0.1169358839270171  0.8844644192054938  0.3843348293698178   T   T   T
  0.0005071942350114  0.6672573104750500  0.2299738319167032   T   T   T
  0.2219316252130028  0.7783080535074305  0.0753701446072981   F   F   F
  0.3337368458156437  0.6681672028324409  0.9950041064169702   T   T   T
  0.4410771009765284  0.8822355034494933  0.1522158728097622   F   F   F
  0.5552057986101077  0.7783159289733795  0.3037244060553023   T   T   T
  0.4426053386541435  0.8796286734068942  0.3874734458788295   T   T   T
  0.3237384072024947  0.6484850216154358  0.2345694817678957   T   T   T
  0.5565825923851335  0.7793018595302641  0.0746755629033302   F   F   F
  0.6673434114005239  0.6674628063232149  0.9950524464181577   T   T   T
  0.7776237545989702  0.8890432454013961  0.1505830882907162   F   F   F
  0.8881891763874310  0.7791626320061578  0.3028031779197671   T   T   T
  0.7665138289651900  0.8794173425529876  0.3859733326737199   T   T   T
  0.6634372033601037  0.6611092483865804  0.2314183043248911   T   T   T
  0.8887824205851445  0.7778845794143265  0.0757635649573913   F   F   F
  0.3376699946178519  0.3428796816266353  0.3334935439232691   T   T   T
  0.0103058642644868  0.0088320236335293  0.3451703683767199   T   T   T
  0.2231480374613142  0.1134529163222240  0.1918236940338218   F   F   F
  0.1100277293559273  0.2202051435007562  0.0336634286934370   F   F   F
  0.3351399956986428 -0.0032745497615085  0.3470557155241685   T   T   T
  0.5558993616947490  0.1107676383076281  0.1913033583475041   F   F   F
  0.4442333505786920  0.2224326494212505  0.0365219793653395   F   F   F
  0.6682962987529845 -0.0023475173908789  0.3468455255869561   T   T   T
  0.8896347272138172  0.1113306113722317  0.1905774287057937   F   F   F
  0.7778876257188330  0.2223009693256088  0.0359787186694405   F   F   F
  0.9876487026581929  0.3307421068625992  0.3444904818118478   T   T   T
  0.2235252667727892  0.4431407332214974  0.1822753888284439   F   F   F
  0.1100274792787985  0.5566395207205872  0.0342238268452419   F   F   F
  0.5532140836761599  0.4435179625376691  0.1918236940337579   F   F   F
  0.4464608564989803  0.5566392706436289  0.0336634286934938   F   F   F
  0.6619372252814679  0.3298523635840312  0.3520243743888896   T   T   T
  0.8897434635469779  0.4447342920204349  0.1914236578629271   F   F   F
  0.7773077143788640  0.5549826270936151  0.0363893117722967   F   F   F
  0.9973323520750732  0.6691813928436571  0.3433281471519237   T   T   T
  0.2219317079826126  0.7769235364600817  0.1914236578629485   F   F   F
  0.1116843729073693  0.8893592856218859  0.0363893117722682   F   F   F
  0.3339477132320322  0.6728583371640638  0.3454721987960319   T   T   T
  0.5553363886226776  0.7770322727852275  0.1905774287058222   F   F   F
  0.4443650306736799  0.8887793742811922  0.0359787186694689   F   F   F
  0.6653151902881511  0.6653341998656470  0.3430084628452212   T   T   T
  0.8889606056476325  0.7777063943543752  0.1897579099167004   F   F   F
  0.7773515420920134  0.8893154579075073  0.0355244864341415   F   F   F
  0.3612392626884773  0.3166648640267922  0.4029908727762858   T   T   T
  0.4211881490531555  0.2111665746729776  0.4414694848725302   T   T   T
 
  0.00000000E+00  0.00000000E+00  0.00000000E+00
  0.00000000E+00  0.00000000E+00  0.00000000E+00
  0.00000000E+00  0.00000000E+00  0.00000000E+00
  0.00000000E+00  0.00000000E+00  0.00000000E+00
  0.00000000E+00  0.00000000E+00  0.00000000E+00
  0.00000000E+00  0.00000000E+00  0.00000000E+00
  0.00000000E+00  0.00000000E+00  0.00000000E+00
  0.00000000E+00  0.00000000E+00  0.00000000E+00
  0.00000000E+00  0.00000000E+00  0.00000000E+00
  0.00000000E+00  0.00000000E+00  0.00000000E+00
  0.00000000E+00  0.00000000E+00  0.00000000E+00
  0.00000000E+00  0.00000000E+00  0.00000000E+00
  0.00000000E+00  0.00000000E+00  0.00000000E+00
  0.00000000E+00  0.00000000E+00  0.00000000E+00
  0.00000000E+00  0.00000000E+00  0.00000000E+00
  0.00000000E+00  0.00000000E+00  0.00000000E+00
  0.00000000E+00  0.00000000E+00  0.00000000E+00
  0.00000000E+00  0.00000000E+00  0.00000000E+00
  0.00000000E+00  0.00000000E+00  0.00000000E+00
  0.00000000E+00  0.00000000E+00  0.00000000E+00
  0.00000000E+00  0.00000000E+00  0.00000000E+00
  0.00000000E+00  0.00000000E+00  0.00000000E+00
  0.00000000E+00  0.00000000E+00  0.00000000E+00
  0.00000000E+00  0.00000000E+00  0.00000000E+00
  0.00000000E+00  0.00000000E+00  0.00000000E+00
  0.00000000E+00  0.00000000E+00  0.00000000E+00
  0.00000000E+00  0.00000000E+00  0.00000000E+00
  0.00000000E+00  0.00000000E+00  0.00000000E+00
  0.00000000E+00  0.00000000E+00  0.00000000E+00
  0.00000000E+00  0.00000000E+00  0.00000000E+00
  0.00000000E+00  0.00000000E+00  0.00000000E+00
  0.00000000E+00  0.00000000E+00  0.00000000E+00
  0.00000000E+00  0.00000000E+00  0.00000000E+00
  0.00000000E+00  0.00000000E+00  0.00000000E+00
  0.00000000E+00  0.00000000E+00  0.00000000E+00
  0.00000000E+00  0.00000000E+00  0.00000000E+00
  0.00000000E+00  0.00000000E+00  0.00000000E+00
  0.00000000E+00  0.00000000E+00  0.00000000E+00
  0.00000000E+00  0.00000000E+00  0.00000000E+00
  0.00000000E+00  0.00000000E+00  0.00000000E+00
  0.00000000E+00  0.00000000E+00  0.00000000E+00
  0.00000000E+00  0.00000000E+00  0.00000000E+00
  0.00000000E+00  0.00000000E+00  0.00000000E+00
  0.00000000E+00  0.00000000E+00  0.00000000E+00
  0.00000000E+00  0.00000000E+00  0.00000000E+00
  0.00000000E+00  0.00000000E+00  0.00000000E+00
  0.00000000E+00  0.00000000E+00  0.00000000E+00
  0.00000000E+00  0.00000000E+00  0.00000000E+00
  0.00000000E+00  0.00000000E+00  0.00000000E+00
  0.00000000E+00  0.00000000E+00  0.00000000E+00
  0.00000000E+00  0.00000000E+00  0.00000000E+00
  0.00000000E+00  0.00000000E+00  0.00000000E+00
  0.00000000E+00  0.00000000E+00  0.00000000E+00
  0.00000000E+00  0.00000000E+00  0.00000000E+00
  0.00000000E+00  0.00000000E+00  0.00000000E+00
  0.00000000E+00  0.00000000E+00  0.00000000E+00
  0.00000000E+00  0.00000000E+00  0.00000000E+00
  0.00000000E+00  0.00000000E+00  0.00000000E+00
  0.00000000E+00  0.00000000E+00  0.00000000E+00
  0.00000000E+00  0.00000000E+00  0.00000000E+00
  0.00000000E+00  0.00000000E+00  0.00000000E+00
  0.00000000E+00  0.00000000E+00  0.00000000E+00
  0.00000000E+00  0.00000000E+00  0.00000000E+00
  0.00000000E+00  0.00000000E+00  0.00000000E+00
  0.00000000E+00  0.00000000E+00  0.00000000E+00
  0.00000000E+00  0.00000000E+00  0.00000000E+00
  0.00000000E+00  0.00000000E+00  0.00000000E+00
  0.00000000E+00  0.00000000E+00  0.00000000E+00
  0.00000000E+00  0.00000000E+00  0.00000000E+00
  0.00000000E+00  0.00000000E+00  0.00000000E+00
  0.00000000E+00  0.00000000E+00  0.00000000E+00
  0.00000000E+00  0.00000000E+00  0.00000000E+00
  0.00000000E+00  0.00000000E+00  0.00000000E+00
  0.00000000E+00  0.00000000E+00  0.00000000E+00
  0.00000000E+00  0.00000000E+00  0.00000000E+00
  0.00000000E+00  0.00000000E+00  0.00000000E+00
  0.00000000E+00  0.00000000E+00  0.00000000E+00
  0.00000000E+00  0.00000000E+00  0.00000000E+00
  0.00000000E+00  0.00000000E+00  0.00000000E+00
  0.00000000E+00  0.00000000E+00  0.00000000E+00
  0.00000000E+00  0.00000000E+00  0.00000000E+00
  0.00000000E+00  0.00000000E+00  0.00000000E+00
