CeO2-you-111-you-Nb                     
   1.00000000000000     
     9.8785384935704208   -5.6895714531972557   -0.0163022250235876
     0.0119561460113382   11.3998495547891121    0.0163022222147260
    -0.0180484713549104    0.0312608674732001   20.8988297668117013
   O    Nb   Ce H
    53     1    26 2
Selective dynamics
Direct
 -0.0006490709577374 -0.0000854555405705  0.9949454885517165   T   T   T
  0.1097974982090852  0.2137732990996196  0.1484924324930073   F   F   F
  0.2226905358483480  0.1037927250962846  0.3022247154621966   T   T   T
  0.1617645278011322  0.2602274659763295  0.3683378451254087   T   T   T
 -0.0007740494390237 -0.0022551040054182  0.2301759649815227   T   T   T
  0.2233665161573237  0.1092641645720550  0.0735395886530168   F   F   F
  0.3347432944571847  0.0006253208769676  0.9942768970778533   T   T   T
  0.4400281894222532  0.2266378105762298  0.1522255995929549   F   F   F
  0.5511342400813624  0.1155327599218170  0.3056479953962950   T   T   T
  0.4283874499801671  0.2382785500288229  0.3811082520697563   T   T   T
  0.3352516264907430 -0.0008908524001887  0.2276769852486374   T   T   T
  0.5544692613890446  0.1121977386109532  0.0767575835659201   F   F   F
  0.6662136465317738  0.0004533534687129  0.9955508247788037   T   T   T
  0.7811486184553654  0.2222246225461409  0.1507331611471489   F   F   F
  0.8883434448491953  0.1031157717606054  0.3090342810711914   T   T   T
  0.7646607238414340  0.2163311909657377  0.3872079368197164   T   T   T
  0.6655943284664046  0.0010726715334320  0.2320366504807838   T   T   T
  0.8890189930821720  0.1104892403790007  0.0750756312327634   F   F   F
 -0.0025470974120897  0.3315632715004495  0.9947579135644835   T   T   T
  0.1072863618988944  0.5593806381014053  0.1465272912770523   F   F   F
  0.1068575574149672  0.5598094425769125  0.3843876372775292   T   T   T
  0.0036298196304605  0.3352632660110876  0.2346719086389399   T   T   T
  0.2224036024815818  0.4442623975182158  0.0702529926929657   F   F   F
  0.3345396380102912  0.3321263619885731  0.9945925741311931   T   T   T
  0.4528927009009492  0.5568695017921214  0.1484924324930236   F   F   F
  0.5628742749250040  0.4439754641467335  0.3022247154645292   T   T   T
  0.4064385340311907  0.5049024721841117  0.3683378451258322   T   T   T
  0.3288398052633706  0.3378261947378131  0.2446051773824023   T   T   T
  0.5574028354277174  0.4432994838418251  0.0735395886530418   F   F   F
  0.6660416791226589  0.3319227055423732  0.9942768970777602   T   T   T
  0.7781462524330802  0.5556453419760110  0.1495671728430693   F   F   F
  0.8808724434986419  0.4464796367963744  0.3050640440647931   T   T   T
  0.7758796795216745  0.5580414124761683  0.3864805038636424   T   T   T
  0.6675578523981873  0.3314143735070337  0.2276769852485363   T   T   T
  0.8866987499339848  0.4430086445697742  0.0736931008080386   F   F   F
 -0.0005659205007285  0.6672329205008096  0.9945574426516177   T   T   T
  0.1110216580233608  0.8885207475669850  0.1495671728431096   F   F   F
  0.2201863632031345  0.7857945565021931  0.3050640440649514   T   T   T
  0.1086255875209627  0.8907873204787631  0.3864805038633171   T   T   T
  0.0004599803065451  0.6662070196921837  0.2296844730922701   T   T   T
  0.2236573554301069  0.7799682500661487  0.0736931008080984   F   F   F
  0.3351027285000214  0.6692140974130728  0.9947579135645339   T   T   T
  0.4444413774535997  0.8855183815457502  0.1507331611470808   F   F   F
  0.5635512282386651  0.7783235551499847  0.3090342810710555   T   T   T
  0.4503348090388969  0.9020062761518413  0.3872079368207857   T   T   T
  0.3314027339913341  0.6630371803626133  0.2346719086394217   T   T   T
  0.5561777596209858  0.7776480069182472  0.0750756312327652   F   F   F
  0.6667524555402847  0.6673160709577501  0.9949454885516815   T   T   T
  0.7768908553352999  0.8897761446657825  0.1511816242796248   F   F   F
  0.8893284717143723  0.7773385282856348  0.3039008705033973   T   T   T
  0.7830555845906262  0.8836114154081933  0.3869216422382277   T   T   T
  0.6689221040073525  0.6674410494407307  0.2301759649814221   T   T   T
  0.8886453057548980  0.7780216942450685  0.0744106141239525   F   F   F
  0.3417980813564884  0.3248679186250326  0.3381779801242140   T   T   T
  0.0005109570169286 -0.0052183625581179  0.3427262064065714   T   T   T
  0.2203096807894489  0.1076220677132742  0.1893329077075739   F   F   F
  0.1100522339342237  0.2202500689788126  0.0339551806792353   F   F   F
  0.3305574892678302 -0.0006109576727198  0.3431357204036273   T   T   T
  0.5555056057166035  0.1111613942822647  0.1899808585872604   F   F   F
  0.4443060627468937  0.2223599372541891  0.0342425868798599   F   F   F
  0.6669042809797818 -0.0002372809803701  0.3463290100763179   T   T   T
  0.8905140934812198  0.1122882032938906  0.1917062151582050   F   F   F
  0.7779192272140915  0.2222455904392874  0.0351422418553557   F   F   F
 -0.0109533797940952  0.3309904288180308  0.3505498347303097   T   T   T
  0.2217543334613643  0.4449116665366655  0.1836168649927089   F   F   F
  0.1104404387963521  0.5562265612005719  0.0334914126192340   F   F   F
  0.5590449322828298  0.4463563192145369  0.1893329077069858   F   F   F
  0.4464159310248335  0.5566147660658540  0.0339551806793429   F   F   F
  0.6672779576662379  0.3361085107304588  0.3431357204033549   T   T   T
  0.8909416761266241  0.4441956531106742  0.1901347917914321   F   F   F
  0.7773030810590902  0.5546402934837003  0.0341724416260509   F   F   F
  0.0005781836148133  0.6660888163885827  0.3450721081674686   T   T   T
  0.2224703468943530  0.7757253238752366  0.1901347917914275   F   F   F
  0.1120267065165973  0.8893639189406558  0.0341724416261518   F   F   F
  0.3356755711817126  0.6776203798227882  0.3505498347283806   T   T   T
  0.5543787967010969  0.7761529065181610  0.1917062151578407   F   F   F
  0.4444204095610053  0.8887477727847715  0.0351422418553213   F   F   F
  0.6718853625484532  0.6661560429872874  0.3427262064058250   T   T   T
  0.8895952005870366  0.7770717994128016  0.1881876199573120   F   F   F
  0.7771498373516719  0.8895171626484156  0.0358540890499052   F   F   F
0.3417980813564884 0.3248679186250326 0.438178 T T T
0.446598 0.216020 0.433410 T T T 
 
  0.00000000E+00  0.00000000E+00  0.00000000E+00
  0.00000000E+00  0.00000000E+00  0.00000000E+00
  0.00000000E+00  0.00000000E+00  0.00000000E+00
  0.00000000E+00  0.00000000E+00  0.00000000E+00
  0.00000000E+00  0.00000000E+00  0.00000000E+00
  0.00000000E+00  0.00000000E+00  0.00000000E+00
  0.00000000E+00  0.00000000E+00  0.00000000E+00
  0.00000000E+00  0.00000000E+00  0.00000000E+00
  0.00000000E+00  0.00000000E+00  0.00000000E+00
  0.00000000E+00  0.00000000E+00  0.00000000E+00
  0.00000000E+00  0.00000000E+00  0.00000000E+00
  0.00000000E+00  0.00000000E+00  0.00000000E+00
  0.00000000E+00  0.00000000E+00  0.00000000E+00
  0.00000000E+00  0.00000000E+00  0.00000000E+00
  0.00000000E+00  0.00000000E+00  0.00000000E+00
  0.00000000E+00  0.00000000E+00  0.00000000E+00
  0.00000000E+00  0.00000000E+00  0.00000000E+00
  0.00000000E+00  0.00000000E+00  0.00000000E+00
  0.00000000E+00  0.00000000E+00  0.00000000E+00
  0.00000000E+00  0.00000000E+00  0.00000000E+00
  0.00000000E+00  0.00000000E+00  0.00000000E+00
  0.00000000E+00  0.00000000E+00  0.00000000E+00
  0.00000000E+00  0.00000000E+00  0.00000000E+00
  0.00000000E+00  0.00000000E+00  0.00000000E+00
  0.00000000E+00  0.00000000E+00  0.00000000E+00
  0.00000000E+00  0.00000000E+00  0.00000000E+00
  0.00000000E+00  0.00000000E+00  0.00000000E+00
  0.00000000E+00  0.00000000E+00  0.00000000E+00
  0.00000000E+00  0.00000000E+00  0.00000000E+00
  0.00000000E+00  0.00000000E+00  0.00000000E+00
  0.00000000E+00  0.00000000E+00  0.00000000E+00
  0.00000000E+00  0.00000000E+00  0.00000000E+00
  0.00000000E+00  0.00000000E+00  0.00000000E+00
  0.00000000E+00  0.00000000E+00  0.00000000E+00
  0.00000000E+00  0.00000000E+00  0.00000000E+00
  0.00000000E+00  0.00000000E+00  0.00000000E+00
  0.00000000E+00  0.00000000E+00  0.00000000E+00
  0.00000000E+00  0.00000000E+00  0.00000000E+00
  0.00000000E+00  0.00000000E+00  0.00000000E+00
  0.00000000E+00  0.00000000E+00  0.00000000E+00
  0.00000000E+00  0.00000000E+00  0.00000000E+00
  0.00000000E+00  0.00000000E+00  0.00000000E+00
  0.00000000E+00  0.00000000E+00  0.00000000E+00
  0.00000000E+00  0.00000000E+00  0.00000000E+00
  0.00000000E+00  0.00000000E+00  0.00000000E+00
  0.00000000E+00  0.00000000E+00  0.00000000E+00
  0.00000000E+00  0.00000000E+00  0.00000000E+00
  0.00000000E+00  0.00000000E+00  0.00000000E+00
  0.00000000E+00  0.00000000E+00  0.00000000E+00
  0.00000000E+00  0.00000000E+00  0.00000000E+00
  0.00000000E+00  0.00000000E+00  0.00000000E+00
  0.00000000E+00  0.00000000E+00  0.00000000E+00
  0.00000000E+00  0.00000000E+00  0.00000000E+00
  0.00000000E+00  0.00000000E+00  0.00000000E+00
  0.00000000E+00  0.00000000E+00  0.00000000E+00
  0.00000000E+00  0.00000000E+00  0.00000000E+00
  0.00000000E+00  0.00000000E+00  0.00000000E+00
  0.00000000E+00  0.00000000E+00  0.00000000E+00
  0.00000000E+00  0.00000000E+00  0.00000000E+00
  0.00000000E+00  0.00000000E+00  0.00000000E+00
  0.00000000E+00  0.00000000E+00  0.00000000E+00
  0.00000000E+00  0.00000000E+00  0.00000000E+00
  0.00000000E+00  0.00000000E+00  0.00000000E+00
  0.00000000E+00  0.00000000E+00  0.00000000E+00
  0.00000000E+00  0.00000000E+00  0.00000000E+00
  0.00000000E+00  0.00000000E+00  0.00000000E+00
  0.00000000E+00  0.00000000E+00  0.00000000E+00
  0.00000000E+00  0.00000000E+00  0.00000000E+00
  0.00000000E+00  0.00000000E+00  0.00000000E+00
  0.00000000E+00  0.00000000E+00  0.00000000E+00
  0.00000000E+00  0.00000000E+00  0.00000000E+00
  0.00000000E+00  0.00000000E+00  0.00000000E+00
  0.00000000E+00  0.00000000E+00  0.00000000E+00
  0.00000000E+00  0.00000000E+00  0.00000000E+00
  0.00000000E+00  0.00000000E+00  0.00000000E+00
  0.00000000E+00  0.00000000E+00  0.00000000E+00
  0.00000000E+00  0.00000000E+00  0.00000000E+00
  0.00000000E+00  0.00000000E+00  0.00000000E+00
  0.00000000E+00  0.00000000E+00  0.00000000E+00
  0.00000000E+00  0.00000000E+00  0.00000000E+00
