CeO2-you-111-you-Nb                     
   1.00000000000000     
     9.8355892315446969   -5.6785804569581906    0.0000000006345379
     0.0399187865379594   11.4263002773247102    0.0122385008889978
     0.0132330320226935    0.0229202799946159   20.9827945804203644
   O    Nb   Ce   H 
    53     1    26     2
Selective dynamics
Direct
  0.9981441179444550  0.9995655590642160  0.9954327353157690   T   T   T
  0.1115516993987029  0.2225072358724205  0.1484307642887828   F   F   F
  0.2353956569537207  0.1284003890659186  0.3025073335710469   T   T   T
  0.1400602413842078  0.2355959172952466  0.3785946345697801   T   T   T
  0.0029666264550177 -0.0000195554123956  0.2289802087506992   T   T   T
  0.2214510939287706  0.1095691878575735  0.0721768436451171   F   F   F
  0.3346789561444192  0.9989668347734347  0.9956655852270180   T   T   T
  0.4442885364737421  0.2225072358722073  0.1484307642888112   F   F   F
  0.5602391859762788  0.1236736092540314  0.3071792161177984   T   T   T
  0.4194451743495529  0.2385407849290367  0.3956253025120193   T   T   T
  0.3311814624954152  0.9983597836172371  0.2270239251137745   T   T   T
  0.5578962772394860  0.1118895499433563  0.0762498353050844   F   F   F
  0.6669494805250682  0.9997583676464090  0.9962487635019530   T   T   T
  0.7801003732298355  0.2268667464596348  0.1535822259111370   F   F   F
  0.8955372553074209  0.1154617264310528  0.3056088694279853   T   T   T
  0.7852737555906399  0.2295626006488690  0.3850990754335415   T   T   T
  0.6676182908284529  0.0029514365457413  0.2315503107246464   T   T   T
  0.8873272727039065  0.1118895499434487  0.0762498353050418   F   F   F
  0.0000535051878047  0.3325488455030555  0.9957257213327327   T   T   T
  0.1102277237297073  0.5542298666691110  0.1488917553046889   F   F   F
  0.2437862266853594  0.4403024912372107  0.3043853349754025   T   T   T
  0.0993604525741116  0.5434138304581895  0.3847303966753973   T   T   T
  0.0081088924826536  0.3371525589447295  0.2321223364872096   T   T   T
  0.2230771200701227  0.4443837373696340  0.0750929918058532   F   F   F
  0.3329122418614424  0.3326435945521986  0.9953264013549069   T   T   T
  0.4435414229212071  0.5537508458428917  0.1511423769252929   F   F   F
  0.5241485273732692  0.4263626192223816  0.3065903101010307   T   T   T
  0.3273491300726368  0.3271781314833233  0.2287779434119324   T   T   T
  0.5546406172993485  0.4443837373695203  0.0750929918058674   F   F   F
  0.6657739033066437  0.3324680802087813  0.9956330240662848   T   T   T
  0.7773351429393784  0.5542298666689973  0.1488917553046960   F   F   F
  0.8893538673547495  0.4432405931807715  0.3021615335361336   T   T   T
  0.7800611158727248  0.5447461630320128  0.3835602392265221   T   T   T
  0.6658294902359189  0.3395473363102714  0.2306863410325951   T   T   T
  0.8886008798270808  0.4438677596540117  0.0745991967251030   F   F   F
  0.0000231471712382  0.6670371136737004  0.9953466601687204   T   T   T
  0.1097902816904153  0.8862475633801949  0.1465695133503928   F   F   F
  0.2170747772150644  0.7751414290565974  0.3053561094823560   T   T   T
  0.0979676661060373  0.8852521366307934  0.3862631597202471   T   T   T
 -0.0003161978634240  0.6673700375649331  0.2282765311797971   T   T   T
  0.2233082258097028  0.7767552487297849  0.0741386211698014   F   F   F
  0.3343239123596941  0.6662008585774718  0.9954082377602285   T   T   T
  0.4471456938292491  0.8904956371789652  0.1506416801514447   F   F   F
  0.5585867465987825  0.7782551836809221  0.3055215479520521   T   T   T
  0.4622713283877731  0.8976014223496921  0.3896028213084838   T   T   T
  0.3314911118168462  0.6658369472287415  0.2285236417212461   T   T   T
  0.5546181604904916  0.7759023209809826  0.0758759037931327   F   F   F
  0.6661314063903394  0.6665656686240561  0.9955231219171194   T   T   T
  0.7766829433496767  0.8904956371790789  0.1506416801513808   F   F   F
  0.8913897338981861  0.7792750573486027  0.3031442721563175   T   T   T
  0.7902765997676644  0.9024138346916063  0.3867372204014752   T   T   T
  0.6665695520321122  0.6621644489986207  0.2285544192081078   T   T   T
  0.8867800229200782  0.7767552487297351  0.0741386211698227   F   F   F
  0.3164727498359968  0.3218237058309658  0.3276533954519866   T   T   T
  0.0017459803455625  0.9990099242138143  0.3447311446139312   T   T   T
  0.2190339267735411  0.1047348535480381  0.1842871497724659   F   F   F
  0.1103836541594632  0.2224831809414809  0.0348400103221636   F   F   F
  0.3315298579500563  0.9968026381844836  0.3484731464815110   T   T   T
  0.5547279031448369  0.1120501177645465  0.1913681782397987   F   F   F
  0.4454325267820138  0.2224831809416159  0.0348400103221707   F   F   F
  0.6686943270560411  0.0001813888087749  0.3468161145016576   T   T   T
  0.8906562146194474  0.1120501177640563  0.1913681782398982   F   F   F
  0.7780504707799736  0.2227669415598541  0.0366680024411181   F   F   F
  0.0028230124401481  0.3348437056301258  0.3451501910402621   T   T   T
  0.2250002723854365  0.4453796429142685  0.1900064666660697   F   F   F
  0.1119008017413279  0.5553893270411621  0.0353833385666320   F   F   F
  0.5537133705296355  0.4453796429149364  0.1900064666659276   F   F   F
  0.4444570393209659  0.5555820786417911  0.0349412062861418   F   F   F
  0.6738445865130368  0.3371309607548113  0.3428439101580344   T   T   T
  0.8901350099783301  0.4469360199570005  0.1901346953511123   F   F   F
  0.7768215252999369  0.5553893270412686  0.0353833385666320   F   F   F
  0.0001198582283023  0.6663056144671229  0.3433601385905637   T   T   T
  0.2227185327545556  0.7774152528146914  0.1886989722823671   F   F   F
  0.1103211929548493  0.8873093859097878  0.0333104691668069   F   F   F
  0.3328763894529709  0.6717040889857574  0.3469854970086111   T   T   T
  0.5561288096739005  0.7789236193474451  0.1919711927086993   F   F   F
  0.4456471873271823  0.8890343070810331  0.0361936167486760   F   F   F
  0.6719697823250194  0.6673287392053897  0.3452255946758995   T   T   T
  0.8880297200601603  0.7774152528147127  0.1886989722824453   F   F   F
  0.7767201197539109  0.8890343070810189  0.0361936167486760   F   F   F
  0.4014313142708882  0.4749443953841442  0.3901490289074482   T   T   T
  0.4094518925737700  0.2591964946576983  0.4395740350768185   T   T   T
 
  0.00000000E+00  0.00000000E+00  0.00000000E+00
  0.00000000E+00  0.00000000E+00  0.00000000E+00
  0.00000000E+00  0.00000000E+00  0.00000000E+00
  0.00000000E+00  0.00000000E+00  0.00000000E+00
  0.00000000E+00  0.00000000E+00  0.00000000E+00
  0.00000000E+00  0.00000000E+00  0.00000000E+00
  0.00000000E+00  0.00000000E+00  0.00000000E+00
  0.00000000E+00  0.00000000E+00  0.00000000E+00
  0.00000000E+00  0.00000000E+00  0.00000000E+00
  0.00000000E+00  0.00000000E+00  0.00000000E+00
  0.00000000E+00  0.00000000E+00  0.00000000E+00
  0.00000000E+00  0.00000000E+00  0.00000000E+00
  0.00000000E+00  0.00000000E+00  0.00000000E+00
  0.00000000E+00  0.00000000E+00  0.00000000E+00
  0.00000000E+00  0.00000000E+00  0.00000000E+00
  0.00000000E+00  0.00000000E+00  0.00000000E+00
  0.00000000E+00  0.00000000E+00  0.00000000E+00
  0.00000000E+00  0.00000000E+00  0.00000000E+00
  0.00000000E+00  0.00000000E+00  0.00000000E+00
  0.00000000E+00  0.00000000E+00  0.00000000E+00
  0.00000000E+00  0.00000000E+00  0.00000000E+00
  0.00000000E+00  0.00000000E+00  0.00000000E+00
  0.00000000E+00  0.00000000E+00  0.00000000E+00
  0.00000000E+00  0.00000000E+00  0.00000000E+00
  0.00000000E+00  0.00000000E+00  0.00000000E+00
  0.00000000E+00  0.00000000E+00  0.00000000E+00
  0.00000000E+00  0.00000000E+00  0.00000000E+00
  0.00000000E+00  0.00000000E+00  0.00000000E+00
  0.00000000E+00  0.00000000E+00  0.00000000E+00
  0.00000000E+00  0.00000000E+00  0.00000000E+00
  0.00000000E+00  0.00000000E+00  0.00000000E+00
  0.00000000E+00  0.00000000E+00  0.00000000E+00
  0.00000000E+00  0.00000000E+00  0.00000000E+00
  0.00000000E+00  0.00000000E+00  0.00000000E+00
  0.00000000E+00  0.00000000E+00  0.00000000E+00
  0.00000000E+00  0.00000000E+00  0.00000000E+00
  0.00000000E+00  0.00000000E+00  0.00000000E+00
  0.00000000E+00  0.00000000E+00  0.00000000E+00
  0.00000000E+00  0.00000000E+00  0.00000000E+00
  0.00000000E+00  0.00000000E+00  0.00000000E+00
  0.00000000E+00  0.00000000E+00  0.00000000E+00
  0.00000000E+00  0.00000000E+00  0.00000000E+00
  0.00000000E+00  0.00000000E+00  0.00000000E+00
  0.00000000E+00  0.00000000E+00  0.00000000E+00
  0.00000000E+00  0.00000000E+00  0.00000000E+00
  0.00000000E+00  0.00000000E+00  0.00000000E+00
  0.00000000E+00  0.00000000E+00  0.00000000E+00
  0.00000000E+00  0.00000000E+00  0.00000000E+00
  0.00000000E+00  0.00000000E+00  0.00000000E+00
  0.00000000E+00  0.00000000E+00  0.00000000E+00
  0.00000000E+00  0.00000000E+00  0.00000000E+00
  0.00000000E+00  0.00000000E+00  0.00000000E+00
  0.00000000E+00  0.00000000E+00  0.00000000E+00
  0.00000000E+00  0.00000000E+00  0.00000000E+00
  0.00000000E+00  0.00000000E+00  0.00000000E+00
  0.00000000E+00  0.00000000E+00  0.00000000E+00
  0.00000000E+00  0.00000000E+00  0.00000000E+00
  0.00000000E+00  0.00000000E+00  0.00000000E+00
  0.00000000E+00  0.00000000E+00  0.00000000E+00
  0.00000000E+00  0.00000000E+00  0.00000000E+00
  0.00000000E+00  0.00000000E+00  0.00000000E+00
  0.00000000E+00  0.00000000E+00  0.00000000E+00
  0.00000000E+00  0.00000000E+00  0.00000000E+00
  0.00000000E+00  0.00000000E+00  0.00000000E+00
  0.00000000E+00  0.00000000E+00  0.00000000E+00
  0.00000000E+00  0.00000000E+00  0.00000000E+00
  0.00000000E+00  0.00000000E+00  0.00000000E+00
  0.00000000E+00  0.00000000E+00  0.00000000E+00
  0.00000000E+00  0.00000000E+00  0.00000000E+00
  0.00000000E+00  0.00000000E+00  0.00000000E+00
  0.00000000E+00  0.00000000E+00  0.00000000E+00
  0.00000000E+00  0.00000000E+00  0.00000000E+00
  0.00000000E+00  0.00000000E+00  0.00000000E+00
  0.00000000E+00  0.00000000E+00  0.00000000E+00
  0.00000000E+00  0.00000000E+00  0.00000000E+00
  0.00000000E+00  0.00000000E+00  0.00000000E+00
  0.00000000E+00  0.00000000E+00  0.00000000E+00
  0.00000000E+00  0.00000000E+00  0.00000000E+00
  0.00000000E+00  0.00000000E+00  0.00000000E+00
  0.00000000E+00  0.00000000E+00  0.00000000E+00
  0.00000000E+00  0.00000000E+00  0.00000000E+00
  0.00000000E+00  0.00000000E+00  0.00000000E+00
