CeO2-you-111-you-Zn                     
   1.00000000000000     
     9.8191369327443248   -5.6690817227401684    0.0000000000000000
     0.0000000029350439   11.3381614552880539    0.0000000000000000
     0.0000000000000000    0.0000000000000000   21.1802314466714883
   O    Zn   Ce   H 
    54     1    26     2
Selective dynamics
Direct
  0.0021698231962313  0.0012411323754687  0.9948849409131996   T   T   T
  0.1085907605505507  0.2201739568021582  0.1473736264154052   T   T   T
  0.2337241220300307  0.1296677918006889  0.3127234352882175   T   T   T
  0.0641528330400826  0.1978499706417086  0.4060023796409205   T   T   T
  0.0073482549625233  0.0016663761663056  0.2295626762276481   T   T   T
  0.2247674071751671  0.1122646422990901  0.0744514233312622   T   T   T
  0.3354610487838184  0.0013819964504226  0.9947351513610195   T   T   T
  0.4492826249575172  0.2208103230574851  0.1477426782053138   T   T   T
  0.5539796301415565  0.1161016551268281  0.3030618171735608   T   T   T
  0.4731729680880951  0.1969536917390999  0.4065893463023247   T   T   T
  0.3311697522198265  0.0014225791050388  0.2297022993799968   T   T   T
  0.5585238571293372  0.1107512017444002  0.0740585063996673   T   T   T
  0.6692424074085260  0.0013097686560154  0.9938920065101170   T   T   T
  0.7805809633604700  0.2248403282265281  0.1497147625220409   T   T   T
  0.8995070570783864  0.1155320783183332  0.3031836783467581   T   T   T
  0.7815004678062749  0.2250414065939323  0.3796691203427930   T   T   T
  0.6717631892924396  0.0062560033771103  0.2295351775476060   T   T   T
  0.8886537347713237  0.1113609099917745  0.0740403729106205   T   T   T
  0.0023559035639632  0.3341024275723062  0.9947970859741261   T   T   T
  0.1131937698977154  0.5576575759314303  0.1481225337209006   T   T   T
  0.2301746515349744  0.4309041664057805  0.3102783354552164   T   T   T
  0.1123045234789835  0.5536202414742949  0.3822772518454191   T   T   T
  0.0063964039763999  0.3378708152782807  0.2288229414289841   T   T   T
  0.2245015058905073  0.4453875727552866  0.0744946630503201   T   T   T
  0.3352448357475919  0.3342531822621091  0.9949528848803465   T   T   T
  0.4498148539294969  0.5614250983332689  0.1473852269686918   T   T   T
  0.5384739888798646  0.4310863781390320  0.3098369637496972   T   T   T
  0.4709034648181777  0.6036303770371843  0.3931304973089943   T   T   T
  0.3350486935162824  0.3332789225975511  0.2175543854715698   T   T   T
  0.5575432566427064  0.4452874429583907  0.0744992608105630   T   T   T
  0.6682603432845012  0.3344696113242824  0.9948890005936327   T   T   T
  0.7814784308088494  0.5579402463967976  0.1482326859502133   T   T   T
  0.8929774626379671  0.4473147290956891  0.3023691627459345   T   T   T
  0.7791939179738248  0.5535400742642199  0.3823254902040970   T   T   T
  0.6698078455192288  0.3389504623603330  0.2290725510429267   T   T   T
  0.8911170807495825  0.4455039381274548  0.0739104707200888   T   T   T
  0.0022476909602951  0.6685287116584880  0.9951066746412559   T   T   T
  0.1127991408472121  0.8883131514230056  0.1482924108227419   T   T   T
  0.2245657539056070  0.7778446052601723  0.3036252261783444   T   T   T
  0.1139195849455741  0.8890133279782658  0.3828508756859366   T   T   T
  0.0026695178672781  0.6684465159998018  0.2286837443306935   T   T   T
  0.2257530117855526  0.7794723797334888  0.0743069674920861   T   T   T
  0.3350002028035187  0.6671041061673271  0.9948517002151436   T   T   T
  0.4467541613525738  0.8899656174942441  0.1508933558525017   T   T   T
  0.5591988064211505  0.7823984873347251  0.2993164941197854   T   T   T
  0.4492821256517738  0.8924073484566125  0.3809331086801286   T   T   T
  0.3312847819445892  0.6607920343006869  0.2294921233183090   T   T   T
  0.5584772558589121  0.7814303606155223  0.0737779730840492   T   T   T
  0.6687256316818020  0.6678225909179754  0.9950704441595236   T   T   T
  0.7804165115947419  0.8902297545613799  0.1504143483064315   T   T   T
  0.8916807210366874  0.7782843162634432  0.3038046415564775   T   T   T
  0.7805498358098516  0.8916985177316114  0.3805993623066564   T   T   T
  0.6671675947897133  0.6621701036100400  0.2298833063965516   T   T   T
  0.8905872450723276  0.7799864477839958  0.0745826782669960   T   T   T
  0.3361042530751684  0.3342306932222865  0.3152676756216277   T   T   T
  0.0018327421244784 -0.0023732897249675  0.3430946171685400   T   T   T
  0.2242476548494453  0.1111712657503549  0.1870053384504436   T   T   T
  0.1126503286878697  0.2229400550839278  0.0342593460526576   T   T   T
  0.3337478434635910 -0.0023076409116930  0.3432575818478142   T   T   T
  0.5580384823312743  0.1133746265857738  0.1894810398395381   T   T   T
  0.4469917074591719  0.2229571375372464  0.0343215527522806   T   T   T
  0.6699715655648556  0.0026097933382926  0.3423799306730824   T   T   T
  0.8923030654093098  0.1132455081996888  0.1892675631955357   T   T   T
  0.7796809287533226  0.2228717305118018  0.0344918774876966   T   T   T
  0.0046013083023773  0.3375577883007558  0.3427110180379094   T   T   T
  0.2245315347838504  0.4454533599007012  0.1873516298461960   T   T   T
  0.1135572918562543  0.5570411014290153  0.0346081732971176   T   T   T
  0.5583383586566142  0.4458811262855309  0.1876416053148210   T   T   T
  0.4469560576041221  0.5572241542226677  0.0345682850428673   T   T   T
  0.6713217475724084  0.3381247774183710  0.3428299300626029   T   T   T
  0.8917637448585853  0.4463756101414442  0.1883655528661207   T   T   T
  0.7801434816684836  0.5572440520878741  0.0347141987593017   T   T   T
  0.0024047201936774  0.6666145727213119  0.3422955584917937   T   T   T
  0.2246354988996874  0.7781810776962104  0.1896109442422187   T   T   T
  0.1130775789472102  0.8895667374432251  0.0349053284142339   T   T   T
  0.3403732209884436  0.6651244099258988  0.3450345654018639   T   T   T
  0.5578733332970874  0.7788160214654228  0.1894133237361985   T   T   T
  0.4469267831679669  0.8902501782191486  0.0346006614244131   T   T   T
  0.6624072825882448  0.6653955518363163  0.3450706541868697   T   T   T
  0.8908125493617666  0.7784554471596796  0.1896166271467984   T   T   T
  0.7798084516589990  0.8904976836696834  0.0346598482880407   T   T   T
  0.1383696442182931  0.2362784554269274  0.4363887206425955   T   T   T
  0.4429984304855253  0.2297935629802231  0.4419626255551921   T   T   T
 
  0.00000000E+00  0.00000000E+00  0.00000000E+00
  0.00000000E+00  0.00000000E+00  0.00000000E+00
  0.00000000E+00  0.00000000E+00  0.00000000E+00
  0.00000000E+00  0.00000000E+00  0.00000000E+00
  0.00000000E+00  0.00000000E+00  0.00000000E+00
  0.00000000E+00  0.00000000E+00  0.00000000E+00
  0.00000000E+00  0.00000000E+00  0.00000000E+00
  0.00000000E+00  0.00000000E+00  0.00000000E+00
  0.00000000E+00  0.00000000E+00  0.00000000E+00
  0.00000000E+00  0.00000000E+00  0.00000000E+00
  0.00000000E+00  0.00000000E+00  0.00000000E+00
  0.00000000E+00  0.00000000E+00  0.00000000E+00
  0.00000000E+00  0.00000000E+00  0.00000000E+00
  0.00000000E+00  0.00000000E+00  0.00000000E+00
  0.00000000E+00  0.00000000E+00  0.00000000E+00
  0.00000000E+00  0.00000000E+00  0.00000000E+00
  0.00000000E+00  0.00000000E+00  0.00000000E+00
  0.00000000E+00  0.00000000E+00  0.00000000E+00
  0.00000000E+00  0.00000000E+00  0.00000000E+00
  0.00000000E+00  0.00000000E+00  0.00000000E+00
  0.00000000E+00  0.00000000E+00  0.00000000E+00
  0.00000000E+00  0.00000000E+00  0.00000000E+00
  0.00000000E+00  0.00000000E+00  0.00000000E+00
  0.00000000E+00  0.00000000E+00  0.00000000E+00
  0.00000000E+00  0.00000000E+00  0.00000000E+00
  0.00000000E+00  0.00000000E+00  0.00000000E+00
  0.00000000E+00  0.00000000E+00  0.00000000E+00
  0.00000000E+00  0.00000000E+00  0.00000000E+00
  0.00000000E+00  0.00000000E+00  0.00000000E+00
  0.00000000E+00  0.00000000E+00  0.00000000E+00
  0.00000000E+00  0.00000000E+00  0.00000000E+00
  0.00000000E+00  0.00000000E+00  0.00000000E+00
  0.00000000E+00  0.00000000E+00  0.00000000E+00
  0.00000000E+00  0.00000000E+00  0.00000000E+00
  0.00000000E+00  0.00000000E+00  0.00000000E+00
  0.00000000E+00  0.00000000E+00  0.00000000E+00
  0.00000000E+00  0.00000000E+00  0.00000000E+00
  0.00000000E+00  0.00000000E+00  0.00000000E+00
  0.00000000E+00  0.00000000E+00  0.00000000E+00
  0.00000000E+00  0.00000000E+00  0.00000000E+00
  0.00000000E+00  0.00000000E+00  0.00000000E+00
  0.00000000E+00  0.00000000E+00  0.00000000E+00
  0.00000000E+00  0.00000000E+00  0.00000000E+00
  0.00000000E+00  0.00000000E+00  0.00000000E+00
  0.00000000E+00  0.00000000E+00  0.00000000E+00
  0.00000000E+00  0.00000000E+00  0.00000000E+00
  0.00000000E+00  0.00000000E+00  0.00000000E+00
  0.00000000E+00  0.00000000E+00  0.00000000E+00
  0.00000000E+00  0.00000000E+00  0.00000000E+00
  0.00000000E+00  0.00000000E+00  0.00000000E+00
  0.00000000E+00  0.00000000E+00  0.00000000E+00
  0.00000000E+00  0.00000000E+00  0.00000000E+00
  0.00000000E+00  0.00000000E+00  0.00000000E+00
  0.00000000E+00  0.00000000E+00  0.00000000E+00
  0.00000000E+00  0.00000000E+00  0.00000000E+00
  0.00000000E+00  0.00000000E+00  0.00000000E+00
  0.00000000E+00  0.00000000E+00  0.00000000E+00
  0.00000000E+00  0.00000000E+00  0.00000000E+00
  0.00000000E+00  0.00000000E+00  0.00000000E+00
  0.00000000E+00  0.00000000E+00  0.00000000E+00
  0.00000000E+00  0.00000000E+00  0.00000000E+00
  0.00000000E+00  0.00000000E+00  0.00000000E+00
  0.00000000E+00  0.00000000E+00  0.00000000E+00
  0.00000000E+00  0.00000000E+00  0.00000000E+00
  0.00000000E+00  0.00000000E+00  0.00000000E+00
  0.00000000E+00  0.00000000E+00  0.00000000E+00
  0.00000000E+00  0.00000000E+00  0.00000000E+00
  0.00000000E+00  0.00000000E+00  0.00000000E+00
  0.00000000E+00  0.00000000E+00  0.00000000E+00
  0.00000000E+00  0.00000000E+00  0.00000000E+00
  0.00000000E+00  0.00000000E+00  0.00000000E+00
  0.00000000E+00  0.00000000E+00  0.00000000E+00
  0.00000000E+00  0.00000000E+00  0.00000000E+00
  0.00000000E+00  0.00000000E+00  0.00000000E+00
  0.00000000E+00  0.00000000E+00  0.00000000E+00
  0.00000000E+00  0.00000000E+00  0.00000000E+00
  0.00000000E+00  0.00000000E+00  0.00000000E+00
  0.00000000E+00  0.00000000E+00  0.00000000E+00
  0.00000000E+00  0.00000000E+00  0.00000000E+00
  0.00000000E+00  0.00000000E+00  0.00000000E+00
  0.00000000E+00  0.00000000E+00  0.00000000E+00
  0.00000000E+00  0.00000000E+00  0.00000000E+00
  0.00000000E+00  0.00000000E+00  0.00000000E+00
