CeO2-you-111-you-Hg                     
   1.00000000000000     
     9.8484378691955410   -5.6667486524736166   -0.0108558012914801
     0.0166709617333234   11.3623702614055180    0.0108557994639374
    -0.0114446491159844    0.0198227128114725   21.0883315597222349
   O    Hg   Ce
    53     1    26
Selective dynamics
Direct
  0.0000940614722092 -0.0002724596880453  0.9948686361492890   T   T   T
  0.1052657530120777  0.2186975003163762  0.1461655733747632   T   T   T
  0.2147979439907365  0.0981897470362432  0.3018459298603662   T   T   T
  0.1064805030302304  0.2304255955597027  0.3804814577225203   T   T   T
 -0.0029427964386220  0.0001364886584093  0.2285375068805212   T   T   T
  0.2213719038079713  0.1107581106839565  0.0749992616378262   T   T   T
  0.3342604995413541  0.0010452660995375  0.9964081136910728   T   T   T
  0.4440492350565048  0.2226167649429165  0.1504982426243596   T   T   T
  0.5545105901627905  0.1121564098365110  0.3045992016567127   T   T   T
  0.4497221662606087  0.2169438337419069  0.3893799330389580   T   T   T
  0.3356071660976848 -0.0003098522209665  0.2283838347497485   T   T   T
  0.5568907690359106  0.1097762309639050  0.0772859155667044   T   T   T
  0.6655540247467144  0.0011129752548111  0.9944776854796988   T   T   T
  0.7852478891295351  0.2259643777656722  0.1513167569164978   T   T   T
  0.8851006156270036  0.1097639677921097  0.3033555246614710   T   T   T
  0.7762258590739748  0.2204642656842601  0.3850265626231874   T   T   T
  0.6660625058381316  0.0006044941621640  0.2288069445761740   T   T   T
  0.8865533725715697  0.1097386920661226  0.0733751245441684   T   T   T
 -0.0018011109474887  0.3329954662111841  0.9948606670671397   T   T   T
  0.1108632977173546  0.5558037022798334  0.1470343544685752   T   T   T
  0.1208186954933644  0.5458483045093331  0.3747786733917248   T   T   T
  0.0195741825366655  0.3431322566131622  0.2352749862635378   T   T   T
  0.2226634197874670  0.4440025802140844  0.0715017468570918   T   T   T
  0.3344116818929428  0.3322543181061950  0.9951661550706150   T   T   T
  0.4479684996878369  0.5614012469894243  0.1461655733743788   T   T   T
  0.5684772529661427  0.4518680560060102  0.3018459298612785   T   T   T
  0.4362404044407158  0.5601864969685794  0.3804814577227948   T   T   T
  0.3277000048301187  0.3389659951717793  0.2231180523871347   T   T   T
  0.5559088893159634  0.4452940961915208  0.0749992616379165   T   T   T
  0.6656217338994774  0.3324055004584492  0.9964081136910059   T   T   T
  0.7789143379098025  0.5556747422143237  0.1507154803745016   T   T   T
  0.8850389116430799  0.4431568815561039  0.3045378838103867   T   T   T
  0.7819369453307771  0.5596038912327387  0.3845203233623829   T   T   T
  0.6669768522193671  0.3310588339025770  0.2283838347498501   T   T   T
  0.8885441778454810  0.4447089139954157  0.0747386570071580   T   T   T
 -0.0004792106146124  0.6671462106134405  0.9953996209001194   T   T   T
  0.1109922577835808  0.8877526620881800  0.1507154803744782   T   T   T
  0.2235091184407312  0.7816280883526486  0.3045378838101626   T   T   T
  0.1070631087665898  0.8847300546676133  0.3845203233624628   T   T   T
  0.0015473947259101  0.6651196052721391  0.2297809946705766   T   T   T
  0.2219570860043150  0.7781228221543190  0.0747386570070647   T   T   T
  0.3336705337894521  0.6684681109484644  0.9948606670669762   T   T   T
  0.4407016222353686  0.8814191108699344  0.1513167569168585   T   T   T
  0.5569030322119267  0.7815663843745531  0.3033555246611309   T   T   T
  0.4462017343146943  0.8904411409248482  0.3850265626223428   T   T   T
  0.3235337433877831  0.6470928174673461  0.2352749862630746   T   T   T
  0.5569283079349256  0.7801136274293001  0.0733751245440648   T   T   T
  0.6669394596881462  0.6665729385272332  0.9948686361492182   T   T   T
  0.7765830926727240  0.8900839073274419  0.1491098825373774   T   T   T
  0.8900447926403101  0.7766222073582547  0.3021546098780361   T   T   T
  0.7787402807057432  0.8879267192946114  0.3812443121590012   T   T   T
  0.6665305113411605  0.6696097964391261  0.2285375068803820   T   T   T
  0.8883471515219223  0.7783198484772329  0.0751121877199474   T   T   T
  0.3369190247832481  0.3297469752144336  0.3805803933114921   T   T   T
  0.0020911309269891  0.0002008907462931  0.3418122000479649   T   T   T
  0.2230527684971818  0.1140718106165745  0.1916280538329517   T   T   T
  0.1097703840294673  0.2200051590662591  0.0332571438474082   T   T   T
  0.3312234160088360  0.0037961739356118  0.3434865064044471   T   T   T
  0.5554565889858956  0.1112104110165530  0.1902690439137076   T   T   T
  0.4441204936493169  0.2225455063507089  0.0366961008223996   T   T   T
  0.6664086963736138  0.0002583036270912  0.3435499450991929   T   T   T
  0.8893617656840546  0.1111870282112319  0.1892928846190127   T   T   T
  0.7776168479328222  0.2223981174093006  0.0351901607641935   T   T   T
 -0.0123196852318758  0.3250452929172452  0.3458223539325029   T   T   T
  0.2241492059598450  0.4425167940313207  0.1808267730617152   T   T   T
  0.1098575596955545  0.5568094403039099  0.0335954724913399   T   T   T
  0.5525951893831273  0.4436132315022807  0.1916280538328397   T   T   T
  0.4466608409323011  0.5568966159697053  0.0332571438474847   T   T   T
  0.6628708260719904  0.3354425839962022  0.3434865064040250   T   T   T
  0.8904212566076397  0.4450196101738605  0.1902197498722812   T   T   T
  0.7769614808100058  0.5550245522987786  0.0361670090093200   T   T   T
 -0.0006113536882275  0.6672783536960023  0.3425378700714055   T   T   T
  0.2216463898294353  0.7762457434000187  0.1902197498722953   T   T   T
  0.1116424477030891  0.8897055191916150  0.0361670090092650   T   T   T
  0.3416207070785940  0.6789866852237151  0.3458223539340923   T   T   T
  0.5554799717828963  0.7773052343146141  0.1892928846189693   T   T   T
  0.4442678825895396  0.8890501520672074  0.0351901607642408   T   T   T
  0.6664661092522880  0.6645758690710925  0.3418122000473305   T   T   T
  0.8886930830047597  0.7779739169977332  0.1883958069417154   T   T   T
  0.7769307152114847  0.8897362847876498  0.0344473952517315   T   T   T
 
  0.00000000E+00  0.00000000E+00  0.00000000E+00
  0.00000000E+00  0.00000000E+00  0.00000000E+00
  0.00000000E+00  0.00000000E+00  0.00000000E+00
  0.00000000E+00  0.00000000E+00  0.00000000E+00
  0.00000000E+00  0.00000000E+00  0.00000000E+00
  0.00000000E+00  0.00000000E+00  0.00000000E+00
  0.00000000E+00  0.00000000E+00  0.00000000E+00
  0.00000000E+00  0.00000000E+00  0.00000000E+00
  0.00000000E+00  0.00000000E+00  0.00000000E+00
  0.00000000E+00  0.00000000E+00  0.00000000E+00
  0.00000000E+00  0.00000000E+00  0.00000000E+00
  0.00000000E+00  0.00000000E+00  0.00000000E+00
  0.00000000E+00  0.00000000E+00  0.00000000E+00
  0.00000000E+00  0.00000000E+00  0.00000000E+00
  0.00000000E+00  0.00000000E+00  0.00000000E+00
  0.00000000E+00  0.00000000E+00  0.00000000E+00
  0.00000000E+00  0.00000000E+00  0.00000000E+00
  0.00000000E+00  0.00000000E+00  0.00000000E+00
  0.00000000E+00  0.00000000E+00  0.00000000E+00
  0.00000000E+00  0.00000000E+00  0.00000000E+00
  0.00000000E+00  0.00000000E+00  0.00000000E+00
  0.00000000E+00  0.00000000E+00  0.00000000E+00
  0.00000000E+00  0.00000000E+00  0.00000000E+00
  0.00000000E+00  0.00000000E+00  0.00000000E+00
  0.00000000E+00  0.00000000E+00  0.00000000E+00
  0.00000000E+00  0.00000000E+00  0.00000000E+00
  0.00000000E+00  0.00000000E+00  0.00000000E+00
  0.00000000E+00  0.00000000E+00  0.00000000E+00
  0.00000000E+00  0.00000000E+00  0.00000000E+00
  0.00000000E+00  0.00000000E+00  0.00000000E+00
  0.00000000E+00  0.00000000E+00  0.00000000E+00
  0.00000000E+00  0.00000000E+00  0.00000000E+00
  0.00000000E+00  0.00000000E+00  0.00000000E+00
  0.00000000E+00  0.00000000E+00  0.00000000E+00
  0.00000000E+00  0.00000000E+00  0.00000000E+00
  0.00000000E+00  0.00000000E+00  0.00000000E+00
  0.00000000E+00  0.00000000E+00  0.00000000E+00
  0.00000000E+00  0.00000000E+00  0.00000000E+00
  0.00000000E+00  0.00000000E+00  0.00000000E+00
  0.00000000E+00  0.00000000E+00  0.00000000E+00
  0.00000000E+00  0.00000000E+00  0.00000000E+00
  0.00000000E+00  0.00000000E+00  0.00000000E+00
  0.00000000E+00  0.00000000E+00  0.00000000E+00
  0.00000000E+00  0.00000000E+00  0.00000000E+00
  0.00000000E+00  0.00000000E+00  0.00000000E+00
  0.00000000E+00  0.00000000E+00  0.00000000E+00
  0.00000000E+00  0.00000000E+00  0.00000000E+00
  0.00000000E+00  0.00000000E+00  0.00000000E+00
  0.00000000E+00  0.00000000E+00  0.00000000E+00
  0.00000000E+00  0.00000000E+00  0.00000000E+00
  0.00000000E+00  0.00000000E+00  0.00000000E+00
  0.00000000E+00  0.00000000E+00  0.00000000E+00
  0.00000000E+00  0.00000000E+00  0.00000000E+00
  0.00000000E+00  0.00000000E+00  0.00000000E+00
  0.00000000E+00  0.00000000E+00  0.00000000E+00
  0.00000000E+00  0.00000000E+00  0.00000000E+00
  0.00000000E+00  0.00000000E+00  0.00000000E+00
  0.00000000E+00  0.00000000E+00  0.00000000E+00
  0.00000000E+00  0.00000000E+00  0.00000000E+00
  0.00000000E+00  0.00000000E+00  0.00000000E+00
  0.00000000E+00  0.00000000E+00  0.00000000E+00
  0.00000000E+00  0.00000000E+00  0.00000000E+00
  0.00000000E+00  0.00000000E+00  0.00000000E+00
  0.00000000E+00  0.00000000E+00  0.00000000E+00
  0.00000000E+00  0.00000000E+00  0.00000000E+00
  0.00000000E+00  0.00000000E+00  0.00000000E+00
  0.00000000E+00  0.00000000E+00  0.00000000E+00
  0.00000000E+00  0.00000000E+00  0.00000000E+00
  0.00000000E+00  0.00000000E+00  0.00000000E+00
  0.00000000E+00  0.00000000E+00  0.00000000E+00
  0.00000000E+00  0.00000000E+00  0.00000000E+00
  0.00000000E+00  0.00000000E+00  0.00000000E+00
  0.00000000E+00  0.00000000E+00  0.00000000E+00
  0.00000000E+00  0.00000000E+00  0.00000000E+00
  0.00000000E+00  0.00000000E+00  0.00000000E+00
  0.00000000E+00  0.00000000E+00  0.00000000E+00
  0.00000000E+00  0.00000000E+00  0.00000000E+00
  0.00000000E+00  0.00000000E+00  0.00000000E+00
  0.00000000E+00  0.00000000E+00  0.00000000E+00
  0.00000000E+00  0.00000000E+00  0.00000000E+00
