CeO2-you-111-you-Co                     
   1.00000000000000     
     9.8416727189801669   -5.6820927648320723    0.0000000000000000
     0.0000000009706465   11.3641835314900934    0.0000000000000000
     0.0000000000000000    0.0000000000000000   20.9900504919653379
   O    Co   Ce   H 
    54     1    26     2
Selective dynamics
Direct
  0.0001056831216638  0.0000762100459540  0.9950198817085947   T   T   T
  0.1076884004247451  0.2198738782659284  0.1468243826825424   T   T   T
  0.2461393393962924  0.1419958686528796  0.3112381518197079   T   T   T
  0.0554095626736844  0.1927018564713718  0.3962777072038478   T   T   T
  0.0094676733499998  0.0045060383252403  0.2316415987438403   T   T   T
  0.2227620093543476  0.1102886614924278  0.0742837737148043   T   T   T
  0.3336947702680438  0.0000074472671682  0.9947076887932823   T   T   T
  0.4469549690978213  0.2208202740858271  0.1481139107071617   T   T   T
  0.5513760992446781  0.1137444380877974  0.3041485876757294   T   T   T
  0.4737594310869578  0.1931317426453756  0.4096924362914303   T   T   T
  0.3285764459042855 -0.0000504264123272  0.2299768257694524   T   T   T
  0.5568082034469297  0.1095178345562819  0.0747184640027745   T   T   T
  0.6667964464226901  0.0000542749721072  0.9935848222109668   T   T   T
  0.7806370582118090  0.2257016271423388  0.1507189654518298   T   T   T
  0.8838676387207703  0.1093037960178820  0.3004002007428848   T   T   T
  0.7761117863915523  0.2223048192650737  0.3831606587914517   T   T   T
  0.6647405636908715  0.0030645706013399  0.2282208725878186   T   T   T
  0.8857902663571513  0.1092692526014175  0.0741124566525970   T   T   T
  0.9999254202691263  0.3321320405023823  0.9945688911153985   T   T   T
  0.1106209553999448  0.5563982512692968  0.1482429265282789   T   T   T
  0.2432833421681370  0.4270549341376415  0.3130657301055248   T   T   T
  0.1134039863004306  0.5520075498016979  0.3817418646865268   T   T   T
  0.0107456158631680  0.3394631567722296  0.2315990808733720   T   T   T
  0.2224751093935029  0.4449560983293958  0.0736706293333968   T   T   T
  0.3332957289535636  0.3325362148359019  0.9948251579951553   T   T   T
  0.4477215541294924  0.5596458274858739  0.1471900304591222   T   T   T
  0.5257746992263300  0.4237195492246028  0.3110607987182923   T   T   T
  0.4741184516650254  0.6129620998952232  0.3973068046401226   T   T   T
  0.3331453948508967  0.3326723206951381  0.2193428900885524   T   T   T
  0.5563838288581390  0.4443959450540012  0.0743046008481269   T   T   T
  0.6660628480820717  0.3320937808899497  0.9945560323852792   T   T   T
  0.7807706050203705  0.5571429778141032  0.1495829394441698   T   T   T
  0.8888514369919632  0.4435774090743058  0.3045206759368524   T   T   T
  0.7752404816327799  0.5517879291416172  0.3825423135915803   T   T   T
  0.6668664059751602  0.3379110266649801  0.2303612742546214   T   T   T
  0.8887675678527948  0.4442380720321706  0.0738532705090095   T   T   T
 -0.0004186710346363  0.6670599244940731  0.9945715229399374   T   T   T
  0.1096734303356225  0.8860555979184472  0.1489765298476012   T   T   T
  0.2244263542865200  0.7778508062509976  0.3048518469765008   T   T   T
  0.1153173352297646  0.8919455520795595  0.3823890333058703   T   T   T
  0.0014331065508284  0.6674377762198648  0.2305800254771380   T   T   T
  0.2230632637277053  0.7773276173019978  0.0737613381282980   T   T   T
  0.3341870117384048  0.6664900052210347  0.9940143267933379   T   T   T
  0.4422381472041349  0.8864756752214050  0.1509631528098622   T   T   T
  0.5565251229266560  0.7821207910822883  0.3004325783015973   T   T   T
  0.4452595281381194  0.8907245874975857  0.3835932139207995   T   T   T
  0.3277286294384125  0.6564914136322728  0.2307499254110698   T   T   T
  0.5574852405065497  0.7807434369667073  0.0740322843880052   T   T   T
  0.6665097865581794  0.6666943924135065  0.9945136236001564   T   T   T
  0.7794645587495675  0.8889531337018076  0.1526370565823719   T   T   T
  0.8888831096575387  0.7787545125856523  0.3056732461582403   T   T   T
  0.7752201224588011  0.8909110585111781  0.3835460819286594   T   T   T
  0.6638591125678381  0.6593504751648160  0.2315475137869359   T   T   T
  0.8878571278598857  0.7782292917164633  0.0745576169044065   T   T   T
  0.3283069058537872  0.3308434746003581  0.3147383444251689   T   T   T
 -0.0027691378677395  0.0038339903840027  0.3475723460548282   T   T   T
  0.2222552644584588  0.1098592079630478  0.1872670238163211   T   T   T
  0.1102723240998043  0.2211469773986102  0.0336933667825335   T   T   T
  0.3322769642154929 -0.0033372646563349  0.3452894028364991   T   T   T
  0.5552629438665382  0.1118134007725162  0.1898370919376607   T   T   T
  0.4452590824129898  0.2217077578388529  0.0339852995946949   T   T   T
  0.6656849868435534  0.0010035257520328  0.3437879229221947   T   T   T
  0.8899354655557669  0.1123124976727675  0.1899424594441486   T   T   T
  0.7776601514650834  0.2217993103084901  0.0344194175549355   T   T   T
 -0.0021350277444468  0.3266121232808026  0.3480297305957110   T   T   T
  0.2227355772821626  0.4445521339127922  0.1858045374385566   T   T   T
  0.1108366190071998  0.5558556125244504  0.0338521596738192   T   T   T
  0.5568382218007552  0.4449142072898674  0.1884322919699935   T   T   T
  0.4456587393268563  0.5563787006786928  0.0336655101356734   T   T   T
  0.6686829953154840  0.3354947466234240  0.3449599970578854   T   T   T
  0.8903227572206862  0.4449504772186548  0.1904669358173686   T   T   T
  0.7783169178654834  0.5559351740374217  0.0349381048707490   T   T   T
  0.0009811784305338  0.6660857342691396  0.3433869137363907   T   T   T
  0.2227595299698938  0.7767370999326009  0.1902955810752748   T   T   T
  0.1106681370892898  0.8878968621456506  0.0348482023551754   T   T   T
  0.3404032681997362  0.6681926475303405  0.3483027277933479   T   T   T
  0.5551735710590970  0.7772603498502484  0.1899787879758068   T   T   T
  0.4449422171209084  0.8888456542372183  0.0343020407244021   T   T   T
  0.6610909268408295  0.6673548227283227  0.3475097159386597   T   T   T
  0.8891808700813073  0.7782808245255778  0.1918451512485127   T   T   T
  0.7777232826644781  0.8891085756578969  0.0347290253465741   T   T   T
  0.3209352572374054  0.3244482937701254  0.3847596187070570   T   T   T
  0.4338189136315057  0.2348426860682071  0.4359150778452685   T   T   T
 
  0.00000000E+00  0.00000000E+00  0.00000000E+00
  0.00000000E+00  0.00000000E+00  0.00000000E+00
  0.00000000E+00  0.00000000E+00  0.00000000E+00
  0.00000000E+00  0.00000000E+00  0.00000000E+00
  0.00000000E+00  0.00000000E+00  0.00000000E+00
  0.00000000E+00  0.00000000E+00  0.00000000E+00
  0.00000000E+00  0.00000000E+00  0.00000000E+00
  0.00000000E+00  0.00000000E+00  0.00000000E+00
  0.00000000E+00  0.00000000E+00  0.00000000E+00
  0.00000000E+00  0.00000000E+00  0.00000000E+00
  0.00000000E+00  0.00000000E+00  0.00000000E+00
  0.00000000E+00  0.00000000E+00  0.00000000E+00
  0.00000000E+00  0.00000000E+00  0.00000000E+00
  0.00000000E+00  0.00000000E+00  0.00000000E+00
  0.00000000E+00  0.00000000E+00  0.00000000E+00
  0.00000000E+00  0.00000000E+00  0.00000000E+00
  0.00000000E+00  0.00000000E+00  0.00000000E+00
  0.00000000E+00  0.00000000E+00  0.00000000E+00
  0.00000000E+00  0.00000000E+00  0.00000000E+00
  0.00000000E+00  0.00000000E+00  0.00000000E+00
  0.00000000E+00  0.00000000E+00  0.00000000E+00
  0.00000000E+00  0.00000000E+00  0.00000000E+00
  0.00000000E+00  0.00000000E+00  0.00000000E+00
  0.00000000E+00  0.00000000E+00  0.00000000E+00
  0.00000000E+00  0.00000000E+00  0.00000000E+00
  0.00000000E+00  0.00000000E+00  0.00000000E+00
  0.00000000E+00  0.00000000E+00  0.00000000E+00
  0.00000000E+00  0.00000000E+00  0.00000000E+00
  0.00000000E+00  0.00000000E+00  0.00000000E+00
  0.00000000E+00  0.00000000E+00  0.00000000E+00
  0.00000000E+00  0.00000000E+00  0.00000000E+00
  0.00000000E+00  0.00000000E+00  0.00000000E+00
  0.00000000E+00  0.00000000E+00  0.00000000E+00
  0.00000000E+00  0.00000000E+00  0.00000000E+00
  0.00000000E+00  0.00000000E+00  0.00000000E+00
  0.00000000E+00  0.00000000E+00  0.00000000E+00
  0.00000000E+00  0.00000000E+00  0.00000000E+00
  0.00000000E+00  0.00000000E+00  0.00000000E+00
  0.00000000E+00  0.00000000E+00  0.00000000E+00
  0.00000000E+00  0.00000000E+00  0.00000000E+00
  0.00000000E+00  0.00000000E+00  0.00000000E+00
  0.00000000E+00  0.00000000E+00  0.00000000E+00
  0.00000000E+00  0.00000000E+00  0.00000000E+00
  0.00000000E+00  0.00000000E+00  0.00000000E+00
  0.00000000E+00  0.00000000E+00  0.00000000E+00
  0.00000000E+00  0.00000000E+00  0.00000000E+00
  0.00000000E+00  0.00000000E+00  0.00000000E+00
  0.00000000E+00  0.00000000E+00  0.00000000E+00
  0.00000000E+00  0.00000000E+00  0.00000000E+00
  0.00000000E+00  0.00000000E+00  0.00000000E+00
  0.00000000E+00  0.00000000E+00  0.00000000E+00
  0.00000000E+00  0.00000000E+00  0.00000000E+00
  0.00000000E+00  0.00000000E+00  0.00000000E+00
  0.00000000E+00  0.00000000E+00  0.00000000E+00
  0.00000000E+00  0.00000000E+00  0.00000000E+00
  0.00000000E+00  0.00000000E+00  0.00000000E+00
  0.00000000E+00  0.00000000E+00  0.00000000E+00
  0.00000000E+00  0.00000000E+00  0.00000000E+00
  0.00000000E+00  0.00000000E+00  0.00000000E+00
  0.00000000E+00  0.00000000E+00  0.00000000E+00
  0.00000000E+00  0.00000000E+00  0.00000000E+00
  0.00000000E+00  0.00000000E+00  0.00000000E+00
  0.00000000E+00  0.00000000E+00  0.00000000E+00
  0.00000000E+00  0.00000000E+00  0.00000000E+00
  0.00000000E+00  0.00000000E+00  0.00000000E+00
  0.00000000E+00  0.00000000E+00  0.00000000E+00
  0.00000000E+00  0.00000000E+00  0.00000000E+00
  0.00000000E+00  0.00000000E+00  0.00000000E+00
  0.00000000E+00  0.00000000E+00  0.00000000E+00
  0.00000000E+00  0.00000000E+00  0.00000000E+00
  0.00000000E+00  0.00000000E+00  0.00000000E+00
  0.00000000E+00  0.00000000E+00  0.00000000E+00
  0.00000000E+00  0.00000000E+00  0.00000000E+00
  0.00000000E+00  0.00000000E+00  0.00000000E+00
  0.00000000E+00  0.00000000E+00  0.00000000E+00
  0.00000000E+00  0.00000000E+00  0.00000000E+00
  0.00000000E+00  0.00000000E+00  0.00000000E+00
  0.00000000E+00  0.00000000E+00  0.00000000E+00
  0.00000000E+00  0.00000000E+00  0.00000000E+00
  0.00000000E+00  0.00000000E+00  0.00000000E+00
  0.00000000E+00  0.00000000E+00  0.00000000E+00
  0.00000000E+00  0.00000000E+00  0.00000000E+00
  0.00000000E+00  0.00000000E+00  0.00000000E+00
