CeO2-you-111-you-Zn                     
   1.00000000000000     
     9.8083368638347039   -5.6792005016529927   -0.0067205390384302
     0.0000000042726599   11.3583990118570366    0.0000000007857476
    -0.0144011992128946    0.0000000014671951   20.8331942983347069
   O    Zn   Ce   H 
    53     1    26     2
Selective dynamics
Direct
  0.9987056192236502  0.0001509689778277  0.9944811498754387   T   T   T
  0.1125119920786091  0.2229224960389118  0.1502648940273801   F   F   F
  0.2258682998523252  0.1360913589987303  0.3138901866737202   T   T   T
  0.0742637250882664  0.2067493667235893  0.4099553109323555   T   T   T
  0.0036987613967643  0.0016956043865480  0.2300560564050869   T   T   T
  0.2221162177548379  0.1105903044322645  0.0732705008165340   F   F   F
  0.3318700170284694 -0.0012502764824670  0.9921312173035970   T   T   T
  0.4460598697124283  0.2195508742144057  0.1464271162764703   F   F   F
  0.5592132186363653  0.1066891448396981  0.3051653250450763   T   T   T
  0.4632001411866382  0.2062771597330098  0.4140242884174609   T   T   T
  0.3301506561358573  0.0017998618261893  0.2296809833399612   T   T   T
  0.5555544528662608  0.1101958183259129  0.0723458913598805   F   F   F
  0.6668158274190022  0.0002681048449218  0.9923217030918373   T   T   T
  0.7741060259205739  0.2257900963337462  0.1513023433929490   F   F   F
  0.8963666542708960  0.1133398507157952  0.3063162234347522   T   T   T
  0.7858053876026464  0.2181972816458270  0.3892287560417113   T   T   T
  0.6693954051139200 -0.0012966481594476  0.2296952285401471   T   T   T
  0.8852417375741695  0.1092873687870721  0.0764102569645075   F   F   F
  0.9980531442147930  0.3310125932039400  0.9942257150067054   T   T   T
  0.1098313045244765  0.5549924321378228  0.1504484263267898   F   F   F
  0.2184517572034228  0.4381593235501597  0.3084219799737009   T   T   T
  0.1148196338834943  0.5571768386240961  0.3891422101752475   T   T   T
 -0.0000333225754727  0.3319847667739195  0.2291599891404841   T   T   T
  0.2221162177546177  0.4448589133222001  0.0732705008165340   F   F   F
  0.3301111813792754  0.3321154016048967  0.9919900484090759   T   T   T
  0.4460598697098845  0.5598429954982649  0.1464271162763922   F   F   F
  0.4736402305167868  0.4996127978872473  0.3632446962480004   T   T   T
  0.3445747410080879  0.3405193545502562  0.2277517163337638   T   T   T
  0.5536344726698488  0.4434832363352115  0.0707824665251948   F   F   F
  0.6663204517936607  0.3328175462780749  0.9919458242825449   T   T   T
  0.7772182991336720  0.5552761495662821  0.1476984247991666   F   F   F
  0.8966005302166985  0.4469174598243040  0.3056873780398305   T   T   T
  0.7815865424233692  0.5645870657950590  0.3843054848298022   T   T   T
  0.6562189894560106  0.3433061323653735  0.2347664532688508   T   T   T
  0.8879517326330131  0.4443089801792084  0.0737968840470344   F   F   F
  0.9995605466985709  0.6663342358970225  0.9928785581056389   T   T   T
  0.1098313045238442  0.8881728723855176  0.1504484263267827   F   F   F
  0.2206206817861716  0.7702451548212881  0.3048250199917638   T   T   T
  0.0978767619123610  0.8830741599331060  0.3879053794090918   T   T   T
 -0.0011548711871967  0.6670835377349319  0.2296553956786523   T   T   T
  0.2218244437015642  0.7775792218506439  0.0738537673483393   F   F   F
  0.3314613838619502  0.6662122798767227  0.9922079173553207   T   T   T
  0.4468442370491346  0.8900891185245996  0.1487221222923978   F   F   F
  0.5540789098646338  0.7740688675271342  0.3061767047051305   T   T   T
  0.4474065622564187  0.8730999101051742  0.3889211647555133   T   T   T
  0.3334244149903978  0.6644672721857833  0.2299342728373829   T   T   T
  0.5555544528663532  0.7786916345408841  0.0723458913599089   F   F   F
  0.6659524131013093  0.6670234106798064  0.9919320982929052   T   T   T
  0.7741060259195010  0.8816489295865395  0.1513023433929916   F   F   F
  0.8904743088242840  0.7816618022214425  0.3036365969690773   T   T   T
  0.7787897865572185  0.8896914007085455  0.3877273837182041   T   T   T
  0.6585730143899029  0.6495282198814174  0.2343186851550173   T   T   T
  0.8879517326331481  0.7769757524537795  0.0737968840469776   F   F   F
  0.3213225205411070  0.3350856030908748  0.3285779399810397   T   T   T
  0.0018992945547951 -0.0004109086084438  0.3471111600921016   T   T   T
  0.2243890800850110  0.1139147530909952  0.1918276416998808   F   F   F
  0.1103033139277585  0.2218181569637423  0.0350150554368156   F   F   F
  0.3327368403403561 -0.0004284814722028  0.3510017599249068   T   T   T
  0.5554200848778734  0.1113707949292575  0.1899864510153293   F   F   F
  0.4423236306522895  0.2197319910968289  0.0312174719085476   F   F   F
  0.6666326357031505 -0.0014989707402800  0.3468584703881362   T   T   T
  0.8890539334094569  0.1111934667055579  0.1909057887249048   F   F   F
  0.7765589870431242  0.2218987404643045  0.0337632988597676   F   F   F
 -0.0004827778220087  0.3359490695047711  0.3471283856504523   T   T   T
  0.2243890800857002  0.4438073269929390  0.1918276416998452   F   F   F
  0.1098763669767635  0.5545051520177964  0.0343783300574856   F   F   F
  0.5510550586686165  0.4421935293323287  0.1819829472203622   F   F   F
  0.4423236306522256  0.5559256395551486  0.0312174719085760   F   F   F
  0.6717251784490192  0.3290741115959527  0.3534771292991864   T   T   T
  0.8880747311790529  0.4449810738495685  0.1910862784391512   F   F   F
  0.7783447031825474  0.5558393515911106  0.0319853318557790   F   F   F
  0.0001625986679725  0.6674359450130616  0.3456862735873424   T   T   T
  0.2230526045148906  0.7781933022580247  0.1887611956569941   F   F   F
  0.1098763669765006  0.8887052149593728  0.0343783300574856   F   F   F
  0.3294678388952529  0.6661457068019202  0.3437655645657473   T   T   T
  0.5554200848811632  0.7773822899481999  0.1899864510153435   F   F   F
  0.4446365316944068  0.8889852658469266  0.0327632671566320   F   F   F
  0.6737954397643384  0.6729039011958932  0.3472282739268200   T   T   T
  0.8880747311820869  0.7764266573348237  0.1910862784391227   F   F   F
  0.7765589870436997  0.8879932465790930  0.0337632988597889   F   F   F
  0.1279856843443987  0.2336874742753723  0.4491480478188425   T   T   T
  0.4364570497104268  0.2464914269208441  0.4479638659280391   T   T   T
 
  0.00000000E+00  0.00000000E+00  0.00000000E+00
  0.00000000E+00  0.00000000E+00  0.00000000E+00
  0.00000000E+00  0.00000000E+00  0.00000000E+00
  0.00000000E+00  0.00000000E+00  0.00000000E+00
  0.00000000E+00  0.00000000E+00  0.00000000E+00
  0.00000000E+00  0.00000000E+00  0.00000000E+00
  0.00000000E+00  0.00000000E+00  0.00000000E+00
  0.00000000E+00  0.00000000E+00  0.00000000E+00
  0.00000000E+00  0.00000000E+00  0.00000000E+00
  0.00000000E+00  0.00000000E+00  0.00000000E+00
  0.00000000E+00  0.00000000E+00  0.00000000E+00
  0.00000000E+00  0.00000000E+00  0.00000000E+00
  0.00000000E+00  0.00000000E+00  0.00000000E+00
  0.00000000E+00  0.00000000E+00  0.00000000E+00
  0.00000000E+00  0.00000000E+00  0.00000000E+00
  0.00000000E+00  0.00000000E+00  0.00000000E+00
  0.00000000E+00  0.00000000E+00  0.00000000E+00
  0.00000000E+00  0.00000000E+00  0.00000000E+00
  0.00000000E+00  0.00000000E+00  0.00000000E+00
  0.00000000E+00  0.00000000E+00  0.00000000E+00
  0.00000000E+00  0.00000000E+00  0.00000000E+00
  0.00000000E+00  0.00000000E+00  0.00000000E+00
  0.00000000E+00  0.00000000E+00  0.00000000E+00
  0.00000000E+00  0.00000000E+00  0.00000000E+00
  0.00000000E+00  0.00000000E+00  0.00000000E+00
  0.00000000E+00  0.00000000E+00  0.00000000E+00
  0.00000000E+00  0.00000000E+00  0.00000000E+00
  0.00000000E+00  0.00000000E+00  0.00000000E+00
  0.00000000E+00  0.00000000E+00  0.00000000E+00
  0.00000000E+00  0.00000000E+00  0.00000000E+00
  0.00000000E+00  0.00000000E+00  0.00000000E+00
  0.00000000E+00  0.00000000E+00  0.00000000E+00
  0.00000000E+00  0.00000000E+00  0.00000000E+00
  0.00000000E+00  0.00000000E+00  0.00000000E+00
  0.00000000E+00  0.00000000E+00  0.00000000E+00
  0.00000000E+00  0.00000000E+00  0.00000000E+00
  0.00000000E+00  0.00000000E+00  0.00000000E+00
  0.00000000E+00  0.00000000E+00  0.00000000E+00
  0.00000000E+00  0.00000000E+00  0.00000000E+00
  0.00000000E+00  0.00000000E+00  0.00000000E+00
  0.00000000E+00  0.00000000E+00  0.00000000E+00
  0.00000000E+00  0.00000000E+00  0.00000000E+00
  0.00000000E+00  0.00000000E+00  0.00000000E+00
  0.00000000E+00  0.00000000E+00  0.00000000E+00
  0.00000000E+00  0.00000000E+00  0.00000000E+00
  0.00000000E+00  0.00000000E+00  0.00000000E+00
  0.00000000E+00  0.00000000E+00  0.00000000E+00
  0.00000000E+00  0.00000000E+00  0.00000000E+00
  0.00000000E+00  0.00000000E+00  0.00000000E+00
  0.00000000E+00  0.00000000E+00  0.00000000E+00
  0.00000000E+00  0.00000000E+00  0.00000000E+00
  0.00000000E+00  0.00000000E+00  0.00000000E+00
  0.00000000E+00  0.00000000E+00  0.00000000E+00
  0.00000000E+00  0.00000000E+00  0.00000000E+00
  0.00000000E+00  0.00000000E+00  0.00000000E+00
  0.00000000E+00  0.00000000E+00  0.00000000E+00
  0.00000000E+00  0.00000000E+00  0.00000000E+00
  0.00000000E+00  0.00000000E+00  0.00000000E+00
  0.00000000E+00  0.00000000E+00  0.00000000E+00
  0.00000000E+00  0.00000000E+00  0.00000000E+00
  0.00000000E+00  0.00000000E+00  0.00000000E+00
  0.00000000E+00  0.00000000E+00  0.00000000E+00
  0.00000000E+00  0.00000000E+00  0.00000000E+00
  0.00000000E+00  0.00000000E+00  0.00000000E+00
  0.00000000E+00  0.00000000E+00  0.00000000E+00
  0.00000000E+00  0.00000000E+00  0.00000000E+00
  0.00000000E+00  0.00000000E+00  0.00000000E+00
  0.00000000E+00  0.00000000E+00  0.00000000E+00
  0.00000000E+00  0.00000000E+00  0.00000000E+00
  0.00000000E+00  0.00000000E+00  0.00000000E+00
  0.00000000E+00  0.00000000E+00  0.00000000E+00
  0.00000000E+00  0.00000000E+00  0.00000000E+00
  0.00000000E+00  0.00000000E+00  0.00000000E+00
  0.00000000E+00  0.00000000E+00  0.00000000E+00
  0.00000000E+00  0.00000000E+00  0.00000000E+00
  0.00000000E+00  0.00000000E+00  0.00000000E+00
  0.00000000E+00  0.00000000E+00  0.00000000E+00
  0.00000000E+00  0.00000000E+00  0.00000000E+00
  0.00000000E+00  0.00000000E+00  0.00000000E+00
  0.00000000E+00  0.00000000E+00  0.00000000E+00
  0.00000000E+00  0.00000000E+00  0.00000000E+00
  0.00000000E+00  0.00000000E+00  0.00000000E+00
