CeO2-you-111-you-Pd                     
   1.00000000000000     
     9.8556808833579908   -5.6704643548632623   -0.0007336707167015
    -0.0000000011912849   11.3409267118817887    0.0000000000791284
    -0.0019354782822686    0.0000000001845824   20.9444231492412669
   O    Pd   Ce H
    53     1    26 1
Selective dynamics
Direct
 -0.0006305420553449  0.0008203269452053  0.9952563454309937   T   T   T
  0.1151354163194732  0.2242342081595405  0.1512905642385547   T   T   T
  0.2211336810177971  0.1177891215662192  0.3055308445429192   T   T   T
  0.0644417953290796  0.1988873976653120  0.3966221551133385   T   T   T
  0.0001835870097811  0.0003558960978462  0.2289377830713126   T   T   T
  0.2213475757504673  0.1099585205055187  0.0746747587491633   T   T   T
  0.3331988465705071  0.0000153939190826  0.9941103127273762   T   T   T
  0.4446296161174365  0.2204561988231262  0.1470990938068444   T   T   T
  0.5574031081739480  0.1083800216711902  0.3038294340080460   T   T   T
  0.4579516246261750  0.2406403096656927  0.3732580393393638   T   T   T
  0.3330201765973771  0.0019546695165512  0.2303822140153628   T   T   T
  0.5551123780778511  0.1094856181562776  0.0742191795395971   T   T   T
  0.6692316276200377  0.0012823138102604  0.9951141653728783   T   T   T
  0.7743368697854511  0.2254939682604478  0.1515829532781027   T   T   T
  0.8844687449456771  0.1089008724727597  0.3026608788363994   T   T   T
  0.7745767239617948  0.2188501429279414  0.3873866652602996   T   T   T
  0.6657420736526083 -0.0004624631736708  0.2278858904517133   T   T   T
  0.8885530910051924  0.1109430455024389  0.0773996628426385   T   T   T
 -0.0006305420557007  0.3318821309990013  0.9952563454309796   T   T   T
  0.1105364960294505  0.5559389652377550  0.1507316711762274   T   T   T
  0.2211336810145622  0.4366775594510678  0.3055308445429783   T   T   T
  0.1158737201814394  0.5599387479997101  0.3843192206952411   T   T   T
  0.0001835870106883  0.3331606909117527  0.2289377830713044   T   T   T
  0.2213475757507774  0.4447220552452795  0.0746747587491724   T   T   T
  0.3313918317811287  0.3323624158906560  0.9948389524442190   T   T   T
  0.4446296161153548  0.5575074172947641  0.1470990938067774   T   T   T
  0.4579516246225453  0.5506453149577770  0.3732580393394622   T   T   T
  0.3493850988091880  0.3413590494060184  0.2293500687196332   T   T   T
  0.5557989953644081  0.4445654976824480  0.0715504589120314   T   T   T
  0.6680555844397080  0.3325857400171705  0.9945711220356874   T   T   T
  0.7793779745149001  0.5563559872568045  0.1472362844160065   T   T   T
  0.8915037840928163  0.4426131904400044  0.3056048655689259   T   T   T
  0.7664094836774887  0.5498717418383522  0.3785489463395973   T   T   T
  0.6593914700825417  0.3429747210200054  0.2348344704034329   T   T   T
  0.8902612849040270  0.4446763887338665  0.0745907696038376   T   T   T
  0.0003875900911005  0.6668607950453351  0.9944401051452708   T   T   T
  0.1105364960285827  0.8879315307906164  0.1507316711762836   T   T   T
  0.2221078348746753  0.7777209174370906  0.3032360207448824   T   T   T
  0.1158737201796984  0.8892689721803140  0.3843192206952700   T   T   T
 -0.0020699436769864  0.6656320281609626  0.2305801817435603   T   T   T
  0.2228821561733481  0.7781080780865852  0.0747019696415866   T   T   T
  0.3331988465703608  0.6665174526513024  0.9941103127273632   T   T   T
  0.4436387938421562  0.8884863969212019  0.1505822068020794   T   T   T
  0.5574031081738131  0.7823560865032916  0.3038294340077987   T   T   T
  0.4416307826954695  0.8874823913477349  0.3839584110536245   T   T   T
  0.3330201765966005  0.6643995070806240  0.2303822140153388   T   T   T
  0.5551123780783517  0.7789597599220814  0.0742191795394922   T   T   T
  0.6680555844401352  0.6688028444229623  0.9945711220356195   T   T   T
  0.7743368697833447  0.8821759015241620  0.1515829532783288   T   T   T
  0.8915037840924759  0.7822235936516320  0.3056048655688022   T   T   T
  0.7745767239604048  0.8890595810324536  0.3873866652601011   T   T   T
  0.6593914700793870  0.6497497490606277  0.2348344704037133   T   T   T
  0.8902612849035164  0.7789178961694960  0.0745907696037767   T   T   T
  0.3483594323043043  0.3408462161510415  0.3339780825733829   T   T   T
  0.0029384898694560  0.0074176020936442  0.3478551139896948   T   T   T
  0.2222290899958951  0.1120562428782303  0.1917957586266775   T   T   T
  0.1110862246039079  0.2222096123020163  0.0357648446637834   T   T   T
  0.3329781378905258  0.0039663110393552  0.3435854235340183   T   T   T
  0.5548464123001401  0.1112652252512277  0.1902612537079883   T   T   T
  0.4431036341865823  0.2199044777972873  0.0331604181821144   T   T   T
  0.6652771316458546 -0.0006949341767953  0.3456880148020493   T   T   T
  0.8884497141786217  0.1108913570898241  0.1910176257013718   T   T   T
  0.7779941937222157  0.2224328329494427  0.0353278984894423   T   T   T
  0.0029384898668593  0.3288538877758475  0.3478551139896874   T   T   T
  0.2222290899951226  0.4435058471169740  0.1917957586266963   T   T   T
  0.1107169197427276  0.5546819763392103  0.0353431213137448   T   T   T
  0.5559416865432829  0.4446368432691384  0.1814706174515089   T   T   T
  0.4431036341872756  0.5565331563889223  0.0331604181820677   T   T   T
  0.6717344873968537  0.3277174424712934  0.3471151539015450   T   T   T
  0.8889103354198472  0.4446394853419693  0.1913041698559541   T   T   T
  0.7803544553047577  0.5568442276523731  0.0332276482043766   T   T   T
  0.0031927472321243  0.6682633736172416  0.3439846599715591   T   T   T
  0.2217002064013578  0.7775171032013863  0.1897351300319883   T   T   T
  0.1107169197428532  0.8893689434045873  0.0353431213137257   T   T   T
  0.3329781378905169  0.6623458268507123  0.3435854235339746   T   T   T
  0.5548464123030752  0.7769141870489416  0.1902612537079600   T   T   T
  0.4448936830015960  0.8891138415006365  0.0347243440745872   T   T   T
  0.6717344874013734  0.6773500449278691  0.3471151539015450   T   T   T
  0.8889103354225069  0.7776038500817793  0.1913041698559379   T   T   T
  0.7779941937232943  0.8888943607731998  0.0353278984894200   T   T   T
0.446598 0.216020 0.433410 T T T 
 
  0.00000000E+00  0.00000000E+00  0.00000000E+00
  0.00000000E+00  0.00000000E+00  0.00000000E+00
  0.00000000E+00  0.00000000E+00  0.00000000E+00
  0.00000000E+00  0.00000000E+00  0.00000000E+00
  0.00000000E+00  0.00000000E+00  0.00000000E+00
  0.00000000E+00  0.00000000E+00  0.00000000E+00
  0.00000000E+00  0.00000000E+00  0.00000000E+00
  0.00000000E+00  0.00000000E+00  0.00000000E+00
  0.00000000E+00  0.00000000E+00  0.00000000E+00
  0.00000000E+00  0.00000000E+00  0.00000000E+00
  0.00000000E+00  0.00000000E+00  0.00000000E+00
  0.00000000E+00  0.00000000E+00  0.00000000E+00
  0.00000000E+00  0.00000000E+00  0.00000000E+00
  0.00000000E+00  0.00000000E+00  0.00000000E+00
  0.00000000E+00  0.00000000E+00  0.00000000E+00
  0.00000000E+00  0.00000000E+00  0.00000000E+00
  0.00000000E+00  0.00000000E+00  0.00000000E+00
  0.00000000E+00  0.00000000E+00  0.00000000E+00
  0.00000000E+00  0.00000000E+00  0.00000000E+00
  0.00000000E+00  0.00000000E+00  0.00000000E+00
  0.00000000E+00  0.00000000E+00  0.00000000E+00
  0.00000000E+00  0.00000000E+00  0.00000000E+00
  0.00000000E+00  0.00000000E+00  0.00000000E+00
  0.00000000E+00  0.00000000E+00  0.00000000E+00
  0.00000000E+00  0.00000000E+00  0.00000000E+00
  0.00000000E+00  0.00000000E+00  0.00000000E+00
  0.00000000E+00  0.00000000E+00  0.00000000E+00
  0.00000000E+00  0.00000000E+00  0.00000000E+00
  0.00000000E+00  0.00000000E+00  0.00000000E+00
  0.00000000E+00  0.00000000E+00  0.00000000E+00
  0.00000000E+00  0.00000000E+00  0.00000000E+00
  0.00000000E+00  0.00000000E+00  0.00000000E+00
  0.00000000E+00  0.00000000E+00  0.00000000E+00
  0.00000000E+00  0.00000000E+00  0.00000000E+00
  0.00000000E+00  0.00000000E+00  0.00000000E+00
  0.00000000E+00  0.00000000E+00  0.00000000E+00
  0.00000000E+00  0.00000000E+00  0.00000000E+00
  0.00000000E+00  0.00000000E+00  0.00000000E+00
  0.00000000E+00  0.00000000E+00  0.00000000E+00
  0.00000000E+00  0.00000000E+00  0.00000000E+00
  0.00000000E+00  0.00000000E+00  0.00000000E+00
  0.00000000E+00  0.00000000E+00  0.00000000E+00
  0.00000000E+00  0.00000000E+00  0.00000000E+00
  0.00000000E+00  0.00000000E+00  0.00000000E+00
  0.00000000E+00  0.00000000E+00  0.00000000E+00
  0.00000000E+00  0.00000000E+00  0.00000000E+00
  0.00000000E+00  0.00000000E+00  0.00000000E+00
  0.00000000E+00  0.00000000E+00  0.00000000E+00
  0.00000000E+00  0.00000000E+00  0.00000000E+00
  0.00000000E+00  0.00000000E+00  0.00000000E+00
  0.00000000E+00  0.00000000E+00  0.00000000E+00
  0.00000000E+00  0.00000000E+00  0.00000000E+00
  0.00000000E+00  0.00000000E+00  0.00000000E+00
  0.00000000E+00  0.00000000E+00  0.00000000E+00
  0.00000000E+00  0.00000000E+00  0.00000000E+00
  0.00000000E+00  0.00000000E+00  0.00000000E+00
  0.00000000E+00  0.00000000E+00  0.00000000E+00
  0.00000000E+00  0.00000000E+00  0.00000000E+00
  0.00000000E+00  0.00000000E+00  0.00000000E+00
  0.00000000E+00  0.00000000E+00  0.00000000E+00
  0.00000000E+00  0.00000000E+00  0.00000000E+00
  0.00000000E+00  0.00000000E+00  0.00000000E+00
  0.00000000E+00  0.00000000E+00  0.00000000E+00
  0.00000000E+00  0.00000000E+00  0.00000000E+00
  0.00000000E+00  0.00000000E+00  0.00000000E+00
  0.00000000E+00  0.00000000E+00  0.00000000E+00
  0.00000000E+00  0.00000000E+00  0.00000000E+00
  0.00000000E+00  0.00000000E+00  0.00000000E+00
  0.00000000E+00  0.00000000E+00  0.00000000E+00
  0.00000000E+00  0.00000000E+00  0.00000000E+00
  0.00000000E+00  0.00000000E+00  0.00000000E+00
  0.00000000E+00  0.00000000E+00  0.00000000E+00
  0.00000000E+00  0.00000000E+00  0.00000000E+00
  0.00000000E+00  0.00000000E+00  0.00000000E+00
  0.00000000E+00  0.00000000E+00  0.00000000E+00
  0.00000000E+00  0.00000000E+00  0.00000000E+00
  0.00000000E+00  0.00000000E+00  0.00000000E+00
  0.00000000E+00  0.00000000E+00  0.00000000E+00
  0.00000000E+00  0.00000000E+00  0.00000000E+00
  0.00000000E+00  0.00000000E+00  0.00000000E+00
