CeO2-you-111-you-V                      
   1.00000000000000     
     9.8584634594416496   -5.7224825479709525    0.0377904399137240
    -0.0000000012051932   11.4449630797986188   -0.0000000044097182
     0.0825018270130831   -0.0000000084047274   20.9168348555509453
   O    V    Ce   H 
    53     1    26     2
Selective dynamics
Direct
  0.9996647894841050  0.0003774452267187  0.9962696593422634   T   T   T
  0.1218495806032607  0.2275912903014188  0.1532114666870612   F   F   F
  0.2341411248121434  0.1291646461120178  0.3104035841616887   T   T   T
  0.1281213815551633  0.2319454334929667  0.3790268974875250   T   T   T
  0.0009202656783655 -0.0003410733384014  0.2304511743188190   T   T   T
  0.2212682534015826  0.1096404956864419  0.0743102756124685   F   F   F
  0.3343181868794605  0.0001061642037098  0.9953318980195388   T   T   T
  0.4408338736226654  0.2238579263979545  0.1496688619024198   F   F   F
  0.5499250494416329  0.1059876835531669  0.3049810569420701   T   T   T
  0.4515072358836337  0.1826248042198162  0.4127832312880974   T   T   T
  0.3287406526613518 -0.0005910851561085  0.2301451142795366   T   T   T
  0.5535691367354048  0.1115754093690384  0.0754250368092784   F   F   F
  0.6697249400356737  0.0012524583834159  0.9971365265398645   T   T   T
  0.7717617679379103  0.2233812568498905  0.1512530258319131   F   F   F
  0.8904812874446993  0.1094992110729678  0.3058451446402290   T   T   T
  0.7810266170710353  0.2153790699661537  0.3880762427157403   T   T   T
  0.6674060287520904 -0.0007651583770639  0.2310910043434810   T   T   T
  0.8905771025481997  0.1119550512742293  0.0783335845847262   F   F   F
  0.9984961618456876  0.3305258442726374  0.9959162670362695   T   T   T
  0.1101426048317080  0.5549918579163702  0.1499397615891098   F   F   F
  0.2261596724720193  0.4370307780302811  0.3090299404808787   T   T   T
  0.0936590992369216  0.5455866017668082  0.3866407839043486   T   T   T
  0.9884967146365375  0.3273528325872448  0.2320405217707072   T   T   T
  0.2212682534011492  0.4449607577138721  0.0743102756124259   F   F   F
  0.3328519580142202  0.3322279291955646  0.9953566850169205   T   T   T
  0.4408338736202637  0.5503099472266442  0.1496688619020432   F   F   F
  0.4311347861119580  0.4144011713993617  0.3662695325931912   T   T   T
  0.3432807545568762  0.3345906773787828  0.2416538937287992   T   T   T
  0.5559231736385257  0.4446275868198484  0.0725871573982673   F   F   F
  0.6684718873776289  0.3329744118220098  0.9953141453653628   T   T   T
  0.7774418223046027  0.5553879111514348  0.1464183024740322   F   F   F
  0.8876112903682657  0.4428566279642673  0.3042162700224558   T   T   T
  0.7814067567901690  0.5572513023968181  0.3870909545527232   T   T   T
  0.6554786833718532  0.3418259458020404  0.2338962735194991   T   T   T
  0.8899619660675739  0.4446043085533162  0.0744011728842366   F   F   F
  0.0015075991464424  0.6681985261676127  0.9948119322242803   T   T   T
  0.1101426048301946  0.8884847469129085  0.1499397615888398   F   F   F
  0.2139367961925702  0.7783119460802030  0.3057997583612459   T   T   T
  0.1091330589892802  0.8924814295611770  0.3860178767815117   T   T   T
  0.9951186653911824  0.6650948583418645  0.2290073336211874   T   T   T
  0.2233228696846155  0.7783284348420025  0.0750675039360686   F   F   F
  0.3348378945636389  0.6684513797550345  0.9951143708543307   T   T   T
  0.4485762388417598  0.8909551194213634  0.1507427421789416   F   F   F
  0.5558289457469294  0.7772012994552624  0.3104548881334723   T   T   T
  0.4429198476377884  0.8958425446143551  0.3883152484064538   T   T   T
  0.3359043953801598  0.6765148229250404  0.2312314898297677   T   T   T
  0.5535691367351205  0.7753267273667106  0.0754250368091292   F   F   F
  0.6692718283219260  0.6692549250705273  0.9951980113762759   T   T   T
  0.7717617679368587  0.8817135110864029  0.1512530258315863   F   F   F
  0.8916040027303345  0.7827615725612486  0.3049653212725801   T   T   T
  0.7867612507995855  0.9001197277438332  0.3901235646048067   T   T   T
  0.6592490723259833  0.6491059316587525  0.2345146315016196   T   T   T
  0.8899619660675313  0.7786906575140904  0.0744011728844285   F   F   F
  0.2839593954373229  0.3176936632443911  0.3266926301033014   T   T   T
  0.0003250718655134 -0.0001989500640178  0.3460971100355349   T   T   T
  0.2194181404731950  0.1065964209468291  0.1910931793992106   F   F   F
  0.1121690498685339  0.2227510249343680  0.0363038337351043   F   F   F
  0.3297504633069409  0.9941931402144374  0.3476103970457726   T   T   T
  0.5545764260859727  0.1119857196042346  0.1925132615259670   F   F   F
  0.4439977863981639  0.2207645200515174  0.0343736998387527   F   F   F
  0.6642689473000912 -0.0023837794181206  0.3465272266373818   T   T   T
  0.8880796248339280  0.1107063124189906  0.1911255968054135   F   F   F
  0.7781402701374702  0.2229028523944194  0.0365055431982881   F   F   F
 -0.0080529863978135  0.3327559645398759  0.3447929505728696   T   T   T
  0.2194181404735502  0.4461547195219211  0.1910931793993100   F   F   F
  0.1119455002727250  0.5553721102537850  0.0350417218805745   F   F   F
  0.5554994335602004  0.4444157167761063  0.1832956956478213   F   F   F
  0.4439977863979223  0.5565672663467396  0.0343736998384614   F   F   F
  0.6662996561923924  0.3263893015931553  0.3543501610023997   T   T   T
  0.8861911514500562  0.4449486438300880  0.1901074009063848   F   F   F
  0.7803031987159699  0.5568185993573138  0.0331394802307088   F   F   F
  0.9927221656643938  0.6615363730320976  0.3454755938710195   T   T   T
  0.2214202854552241  0.7773771427288665  0.1887552652456819   F   F   F
  0.1119455002720926  0.8899073900201273  0.0350417218806669   F   F   F
  0.3242306812756891  0.6733347307254437  0.3460317107011934   T   T   T
  0.5545764260919270  0.7759237064802917  0.1925132615259670   F   F   F
  0.4463008205825787  0.8898174102910303  0.0367072625715892   F   F   F
  0.6776925427505501  0.6770224538263967  0.3509926683743002   T   T   T
  0.8861911514551153  0.7745755076297769  0.1901074009063706   F   F   F
  0.7781402701390405  0.8885704177440843  0.0365055431984231   F   F   F
  0.3116452071444647  0.3224130092560213  0.5091645637539496   T   T   T
  0.4092248735947299  0.2299933837589767  0.4320883677568129   T   T   T
 
  0.00000000E+00  0.00000000E+00  0.00000000E+00
  0.00000000E+00  0.00000000E+00  0.00000000E+00
  0.00000000E+00  0.00000000E+00  0.00000000E+00
  0.00000000E+00  0.00000000E+00  0.00000000E+00
  0.00000000E+00  0.00000000E+00  0.00000000E+00
  0.00000000E+00  0.00000000E+00  0.00000000E+00
  0.00000000E+00  0.00000000E+00  0.00000000E+00
  0.00000000E+00  0.00000000E+00  0.00000000E+00
  0.00000000E+00  0.00000000E+00  0.00000000E+00
  0.00000000E+00  0.00000000E+00  0.00000000E+00
  0.00000000E+00  0.00000000E+00  0.00000000E+00
  0.00000000E+00  0.00000000E+00  0.00000000E+00
  0.00000000E+00  0.00000000E+00  0.00000000E+00
  0.00000000E+00  0.00000000E+00  0.00000000E+00
  0.00000000E+00  0.00000000E+00  0.00000000E+00
  0.00000000E+00  0.00000000E+00  0.00000000E+00
  0.00000000E+00  0.00000000E+00  0.00000000E+00
  0.00000000E+00  0.00000000E+00  0.00000000E+00
  0.00000000E+00  0.00000000E+00  0.00000000E+00
  0.00000000E+00  0.00000000E+00  0.00000000E+00
  0.00000000E+00  0.00000000E+00  0.00000000E+00
  0.00000000E+00  0.00000000E+00  0.00000000E+00
  0.00000000E+00  0.00000000E+00  0.00000000E+00
  0.00000000E+00  0.00000000E+00  0.00000000E+00
  0.00000000E+00  0.00000000E+00  0.00000000E+00
  0.00000000E+00  0.00000000E+00  0.00000000E+00
  0.00000000E+00  0.00000000E+00  0.00000000E+00
  0.00000000E+00  0.00000000E+00  0.00000000E+00
  0.00000000E+00  0.00000000E+00  0.00000000E+00
  0.00000000E+00  0.00000000E+00  0.00000000E+00
  0.00000000E+00  0.00000000E+00  0.00000000E+00
  0.00000000E+00  0.00000000E+00  0.00000000E+00
  0.00000000E+00  0.00000000E+00  0.00000000E+00
  0.00000000E+00  0.00000000E+00  0.00000000E+00
  0.00000000E+00  0.00000000E+00  0.00000000E+00
  0.00000000E+00  0.00000000E+00  0.00000000E+00
  0.00000000E+00  0.00000000E+00  0.00000000E+00
  0.00000000E+00  0.00000000E+00  0.00000000E+00
  0.00000000E+00  0.00000000E+00  0.00000000E+00
  0.00000000E+00  0.00000000E+00  0.00000000E+00
  0.00000000E+00  0.00000000E+00  0.00000000E+00
  0.00000000E+00  0.00000000E+00  0.00000000E+00
  0.00000000E+00  0.00000000E+00  0.00000000E+00
  0.00000000E+00  0.00000000E+00  0.00000000E+00
  0.00000000E+00  0.00000000E+00  0.00000000E+00
  0.00000000E+00  0.00000000E+00  0.00000000E+00
  0.00000000E+00  0.00000000E+00  0.00000000E+00
  0.00000000E+00  0.00000000E+00  0.00000000E+00
  0.00000000E+00  0.00000000E+00  0.00000000E+00
  0.00000000E+00  0.00000000E+00  0.00000000E+00
  0.00000000E+00  0.00000000E+00  0.00000000E+00
  0.00000000E+00  0.00000000E+00  0.00000000E+00
  0.00000000E+00  0.00000000E+00  0.00000000E+00
  0.00000000E+00  0.00000000E+00  0.00000000E+00
  0.00000000E+00  0.00000000E+00  0.00000000E+00
  0.00000000E+00  0.00000000E+00  0.00000000E+00
  0.00000000E+00  0.00000000E+00  0.00000000E+00
  0.00000000E+00  0.00000000E+00  0.00000000E+00
  0.00000000E+00  0.00000000E+00  0.00000000E+00
  0.00000000E+00  0.00000000E+00  0.00000000E+00
  0.00000000E+00  0.00000000E+00  0.00000000E+00
  0.00000000E+00  0.00000000E+00  0.00000000E+00
  0.00000000E+00  0.00000000E+00  0.00000000E+00
  0.00000000E+00  0.00000000E+00  0.00000000E+00
  0.00000000E+00  0.00000000E+00  0.00000000E+00
  0.00000000E+00  0.00000000E+00  0.00000000E+00
  0.00000000E+00  0.00000000E+00  0.00000000E+00
  0.00000000E+00  0.00000000E+00  0.00000000E+00
  0.00000000E+00  0.00000000E+00  0.00000000E+00
  0.00000000E+00  0.00000000E+00  0.00000000E+00
  0.00000000E+00  0.00000000E+00  0.00000000E+00
  0.00000000E+00  0.00000000E+00  0.00000000E+00
  0.00000000E+00  0.00000000E+00  0.00000000E+00
  0.00000000E+00  0.00000000E+00  0.00000000E+00
  0.00000000E+00  0.00000000E+00  0.00000000E+00
  0.00000000E+00  0.00000000E+00  0.00000000E+00
  0.00000000E+00  0.00000000E+00  0.00000000E+00
  0.00000000E+00  0.00000000E+00  0.00000000E+00
  0.00000000E+00  0.00000000E+00  0.00000000E+00
  0.00000000E+00  0.00000000E+00  0.00000000E+00
  0.00000000E+00  0.00000000E+00  0.00000000E+00
  0.00000000E+00  0.00000000E+00  0.00000000E+00
