CeO2-you-111-you-Cd                     
   1.00000000000000     
     9.8826232238119580   -5.7057355508434409   -0.0000000010332488
    -0.0188243856376406   11.3788643032791974   -0.0197355970220452
    -0.0214139146441252   -0.0370899818634447   20.8517932097645478
   O    Cd   Ce   H 
    53     1    26     1
Selective dynamics
Direct
 -0.0001169919478631  0.9998858102848097  0.9919644120324670   T   T   T
  0.1079427378220677  0.2202655577083426  0.1471570353687969   T   T   T
  0.2260581475849040  0.1061825403087000  0.3026549195350287   T   T   T
  0.1000194213864987  0.2158522316328729  0.3869395757326738   T   T   T
  0.0020517466661551  0.0015516604244401  0.2281155731276639   T   T   T
  0.2229072797856344  0.1110943671462166  0.0719412069401266   T   T   T
  0.3340646720709690  0.9992086777548083  0.9928263781089237   T   T   T
  0.4464059985913479  0.2207921080823352  0.1485719264800925   T   T   T
  0.5491369768725125  0.1092079603782645  0.3058063749753502   T   T   T
  0.4384373260799862  0.2113273863812559  0.4050563161331757   T   T   T
  0.3328230844042147  0.9967609710085149  0.2268867490295821   T   T   T
  0.5574631425779727  0.1112571391512246  0.0734505266928790   T   T   T
  0.6664192646804117  0.9992079276207031  0.9924606518367162   T   T   T
  0.7772980483207643  0.2207973608832803  0.1524952789743287   T   T   T
  0.8889602186387309  0.1106303556996353  0.3031819933235389   T   T   T
  0.7825670612557297  0.2128761738347096  0.3872538722221758   T   T   T
  0.6614731494443075  0.9920603782335581  0.2328319029055502   T   T   T
  0.8872757548220297  0.1108141363455626  0.0726224936950149   T   T   T
  0.0004440825596251  0.3332579996438346  0.9931363042826494   T   T   T
  0.1105739355426348  0.5539838230790556  0.1482373829973992   T   T   T
  0.2362353490094746  0.4557908552180586  0.3114283782908088   T   T   T
  0.1127288715824434  0.5613101182932539  0.3873524445848152   T   T   T
  0.0067551038871976  0.3360304541995998  0.2311790392067123   T   T   T
  0.2234370490927090  0.4439093345522828  0.0736389347370418   T   T   T
  0.3340074758703478  0.3332233588437438  0.9930221008425264   T   T   T
  0.4466889586010702  0.5589913068632212  0.1490926306434411   T   T   T
  0.5443526066945980  0.4570422500021441  0.3167433660682855   T   T   T
  0.3328013254547599  0.3330602854714984  0.2220720198743625   T   T   T
  0.5547461256944660  0.4438191331743158  0.0743136820283475   T   T   T
  0.6663479543743824  0.3327462710277729  0.9933013184959778   T   T   T
  0.7783563067004619  0.5562258002228755  0.1483536918746010   T   T   T
  0.8953059651366699  0.4472333067744437  0.3057775689698441   T   T   T
  0.7921500640298804  0.5750296834853825  0.3883804758974606   T   T   T
  0.6649186581168023  0.3391573566164140  0.2307402044976444   T   T   T
  0.8876851001823843  0.4418617517269666  0.0740859028973368   T   T   T
  0.9987308930311906  0.6643186524614014  0.9933079313610650   T   T   T
  0.1109065408851539  0.8888724824679441  0.1461070163084145   T   T   T
  0.2197881500021821  0.7782709369573891  0.3028948328408206   T   T   T
  0.1142046663416369  0.8907561791938355  0.3858995542247682   T   T   T
  0.0009801094508319  0.6679171359989475  0.2278205569843879   T   T   T
  0.2220770706700243  0.7773468089996090  0.0720904304220119   T   T   T
  0.3332324761178849  0.6654332970097461  0.9931566935783346   T   T   T
  0.4460950683390419  0.8887330944476703  0.1477123787357360   T   T   T
  0.5449378023267057  0.7578079764060252  0.3143465221068762   T   T   T
  0.4393174142905566  0.8876931961126594  0.3852581762631541   T   T   T
  0.3325825839993296  0.6694560178184729  0.2282936933447484   T   T   T
  0.5564889584078678  0.7777875042315295  0.0728145120395060   T   T   T
  0.6660799731733508  0.6647469258782471  0.9931111075312153   T   T   T
  0.7774144470123634  0.8896762056327270  0.1482363193788994   T   T   T
  0.8955575339202148  0.7827452636237446  0.3024086305424274   T   T   T
  0.7820518965912765  0.8918473197137485  0.3838942970329413   T   T   T
  0.6708731484242919  0.6698009600998812  0.2289727649788144   T   T   T
  0.8890356138555183  0.7784707561956398  0.0717996252465052   T   T   T
  0.3227852698029769  0.3207821061848656  0.3410697335078343   T   T   T
  0.0061472679783123  0.0068677388225238  0.3444513972641839   T   T   T
  0.2232869294103721  0.1117833336937277  0.1876740746135988   T   T   T
  0.1110244347985405  0.2217164429957734  0.0329871659424847   T   T   T
  0.3294976303200001 -0.0036314258488297  0.3431739185629690   T   T   T
  0.5549944652980127  0.1113274161531837  0.1908580007777217   T   T   T
  0.4451301089174208  0.2217647174661937  0.0335157967407222   T   T   T
  0.6675128171674177  0.0010583683165648  0.3463293581404918   T   T   T
  0.8898572450709317  0.1109707653445109  0.1896788509178527   T   T   T
  0.7773799402186771  0.2213697031754073  0.0340332454297634   T   T   T
  0.0021297669660193  0.3315741654131515  0.3464975942149033   T   T   T
  0.2236895187400675  0.4436703736128090  0.1893443028937423   T   T   T
  0.1104313147093395  0.5535536774825467  0.0333713124634611   T   T   T
  0.5539085696499502  0.4441330467914656  0.1900656827033678   T   T   T
  0.4445028390511764  0.5545647863920544  0.0330328681207183   T   T   T
  0.6701346781614921  0.3384522413759162  0.3495396874463300   T   T   T
  0.8891277526687250  0.4451407264040424  0.1910340252759517   T   T   T
  0.7771417652787735  0.5540088124516419  0.0337662931199030   T   T   T
  0.0012417920722752  0.6683011893450728  0.3456610251764013   T   T   T
  0.2214298598719447  0.7776587177188834  0.1856721942138627   T   T   T
  0.1110505246868795  0.8884912994259155  0.0314787740221402   T   T   T
  0.3225407530167442  0.6716065211122783  0.3411464076870206   T   T   T
  0.5552577522629319  0.7772241694634110  0.1884772677220375   T   T   T
  0.4453144943957423  0.8885234485634915  0.0327895081086051   T   T   T
  0.6856757338563246  0.6757535845732972  0.3412515622897441   T   T   T
  0.8912445823224348  0.7792816266365363  0.1866205691081649   T   T   T
  0.7774160763199435  0.8885366653928347  0.0324554579378536   T   T   T
  0.4232237985609041  0.2118532362174632  0.4509132493743121   T   T   T
 
  0.00000000E+00  0.00000000E+00  0.00000000E+00
  0.00000000E+00  0.00000000E+00  0.00000000E+00
  0.00000000E+00  0.00000000E+00  0.00000000E+00
  0.00000000E+00  0.00000000E+00  0.00000000E+00
  0.00000000E+00  0.00000000E+00  0.00000000E+00
  0.00000000E+00  0.00000000E+00  0.00000000E+00
  0.00000000E+00  0.00000000E+00  0.00000000E+00
  0.00000000E+00  0.00000000E+00  0.00000000E+00
  0.00000000E+00  0.00000000E+00  0.00000000E+00
  0.00000000E+00  0.00000000E+00  0.00000000E+00
  0.00000000E+00  0.00000000E+00  0.00000000E+00
  0.00000000E+00  0.00000000E+00  0.00000000E+00
  0.00000000E+00  0.00000000E+00  0.00000000E+00
  0.00000000E+00  0.00000000E+00  0.00000000E+00
  0.00000000E+00  0.00000000E+00  0.00000000E+00
  0.00000000E+00  0.00000000E+00  0.00000000E+00
  0.00000000E+00  0.00000000E+00  0.00000000E+00
  0.00000000E+00  0.00000000E+00  0.00000000E+00
  0.00000000E+00  0.00000000E+00  0.00000000E+00
  0.00000000E+00  0.00000000E+00  0.00000000E+00
  0.00000000E+00  0.00000000E+00  0.00000000E+00
  0.00000000E+00  0.00000000E+00  0.00000000E+00
  0.00000000E+00  0.00000000E+00  0.00000000E+00
  0.00000000E+00  0.00000000E+00  0.00000000E+00
  0.00000000E+00  0.00000000E+00  0.00000000E+00
  0.00000000E+00  0.00000000E+00  0.00000000E+00
  0.00000000E+00  0.00000000E+00  0.00000000E+00
  0.00000000E+00  0.00000000E+00  0.00000000E+00
  0.00000000E+00  0.00000000E+00  0.00000000E+00
  0.00000000E+00  0.00000000E+00  0.00000000E+00
  0.00000000E+00  0.00000000E+00  0.00000000E+00
  0.00000000E+00  0.00000000E+00  0.00000000E+00
  0.00000000E+00  0.00000000E+00  0.00000000E+00
  0.00000000E+00  0.00000000E+00  0.00000000E+00
  0.00000000E+00  0.00000000E+00  0.00000000E+00
  0.00000000E+00  0.00000000E+00  0.00000000E+00
  0.00000000E+00  0.00000000E+00  0.00000000E+00
  0.00000000E+00  0.00000000E+00  0.00000000E+00
  0.00000000E+00  0.00000000E+00  0.00000000E+00
  0.00000000E+00  0.00000000E+00  0.00000000E+00
  0.00000000E+00  0.00000000E+00  0.00000000E+00
  0.00000000E+00  0.00000000E+00  0.00000000E+00
  0.00000000E+00  0.00000000E+00  0.00000000E+00
  0.00000000E+00  0.00000000E+00  0.00000000E+00
  0.00000000E+00  0.00000000E+00  0.00000000E+00
  0.00000000E+00  0.00000000E+00  0.00000000E+00
  0.00000000E+00  0.00000000E+00  0.00000000E+00
  0.00000000E+00  0.00000000E+00  0.00000000E+00
  0.00000000E+00  0.00000000E+00  0.00000000E+00
  0.00000000E+00  0.00000000E+00  0.00000000E+00
  0.00000000E+00  0.00000000E+00  0.00000000E+00
  0.00000000E+00  0.00000000E+00  0.00000000E+00
  0.00000000E+00  0.00000000E+00  0.00000000E+00
  0.00000000E+00  0.00000000E+00  0.00000000E+00
  0.00000000E+00  0.00000000E+00  0.00000000E+00
  0.00000000E+00  0.00000000E+00  0.00000000E+00
  0.00000000E+00  0.00000000E+00  0.00000000E+00
  0.00000000E+00  0.00000000E+00  0.00000000E+00
  0.00000000E+00  0.00000000E+00  0.00000000E+00
  0.00000000E+00  0.00000000E+00  0.00000000E+00
  0.00000000E+00  0.00000000E+00  0.00000000E+00
  0.00000000E+00  0.00000000E+00  0.00000000E+00
  0.00000000E+00  0.00000000E+00  0.00000000E+00
  0.00000000E+00  0.00000000E+00  0.00000000E+00
  0.00000000E+00  0.00000000E+00  0.00000000E+00
  0.00000000E+00  0.00000000E+00  0.00000000E+00
  0.00000000E+00  0.00000000E+00  0.00000000E+00
  0.00000000E+00  0.00000000E+00  0.00000000E+00
  0.00000000E+00  0.00000000E+00  0.00000000E+00
  0.00000000E+00  0.00000000E+00  0.00000000E+00
  0.00000000E+00  0.00000000E+00  0.00000000E+00
  0.00000000E+00  0.00000000E+00  0.00000000E+00
  0.00000000E+00  0.00000000E+00  0.00000000E+00
  0.00000000E+00  0.00000000E+00  0.00000000E+00
  0.00000000E+00  0.00000000E+00  0.00000000E+00
  0.00000000E+00  0.00000000E+00  0.00000000E+00
  0.00000000E+00  0.00000000E+00  0.00000000E+00
  0.00000000E+00  0.00000000E+00  0.00000000E+00
  0.00000000E+00  0.00000000E+00  0.00000000E+00
  0.00000000E+00  0.00000000E+00  0.00000000E+00
  0.00000000E+00  0.00000000E+00  0.00000000E+00
