CeO2-you-111-you-W                      
   1.00000000000000     
     9.8817992460907984   -5.7052598251521411    0.0000000000000000
    -0.0000000037524835   11.4105176357957063    0.0000000000000000
     0.0000000000000000    0.0000000000000000   21.0187239744701095
   O    W    Ce   H 
    54     1    26     2
Selective dynamics
Direct
 -0.0001262688571850 -0.0000323143161567  0.9944615590011742   T   T   T
  0.1113654848648732  0.2210957130027031  0.1472897181061601   T   T   T
  0.2579078224549605  0.1539902123950540  0.3057769134264138   T   T   T
  0.1724910941714833  0.2592306659792188  0.3822277618505295   T   T   T
  0.0097840035717048  0.0023785533421785  0.2311176594502806   T   T   T
  0.2227584584989172  0.1102084634896983  0.0735161393522162   T   T   T
  0.3330760760362203 -0.0005765292151300  0.9944068803744596   T   T   T
  0.4425851259032825  0.2235739733162746  0.1490017589455988   T   T   T
  0.5589663632627846  0.1159168884272898  0.3017241742434146   T   T   T
  0.4802777294575435  0.2145163533369987  0.4109446972390550   T   T   T
  0.3308323443164770  0.0012454424535230  0.2268798841924124   T   T   T
  0.5541912228049142  0.1109442422706176  0.0742775040306191   T   T   T
  0.6672590109717266 -0.0002941341048510  0.9954101155713225   T   T   T
  0.7761750119144180  0.2191133312297167  0.1493537483144479   T   T   T
  0.8960616660505566  0.1068838363477596  0.3074149459689458   T   T   T
  0.7692910983598322  0.2163547419453106  0.3846459198378279   T   T   T
  0.6683240118188692 -0.0017077564088979  0.2303025238424063   T   T   T
  0.8883223236454472  0.1085971173216116  0.0752467769927458   T   T   T
 -0.0022754948496084  0.3304485646640407  0.9947872465229581   T   T   T
  0.1087411560193619  0.5573414897125740  0.1461429996009813   T   T   T
  0.2252315671304337  0.4397805394342201  0.2968027206277980   T   T   T
  0.1009678932479164  0.5639231749485429  0.3873782592739415   T   T   T
 -0.0006540853619280  0.3331014812279592  0.2259363665967066   T   T   T
  0.2207331709815870  0.4444330452232882  0.0713583202289807   T   T   T
  0.3328630590965004  0.3320677940061736  0.9945506853513044   T   T   T
  0.4437788863924738  0.5548374678347984  0.1463262892424467   T   T   T
  0.5163345178660435  0.4042967110115181  0.3049749810103606   T   T   T
  0.4185229182550712  0.5023614741156039  0.3784581778618266   T   T   T
  0.3273162068331952  0.3418448534213803  0.2283071315877011   T   T   T
  0.5553532844344358  0.4432723276370789  0.0729928998839330   T   T   T
  0.6658555407925785  0.3320179883388304  0.9940759065388585   T   T   T
  0.7773591993651627  0.5559777711381383  0.1469534921730200   T   T   T
  0.8853067496107708  0.4451030862431803  0.3022862467126474   T   T   T
  0.7661241474809469  0.5517802845736330  0.3790167682573690   T   T   T
  0.6669038312047683  0.3363497094391586  0.2267163801061839   T   T   T
  0.8870578984712760  0.4426673008942432  0.0730877762712359   T   T   T
 -0.0000693289430004  0.6662334260284817  0.9943685093264201   T   T   T
  0.1095494933777156  0.8888818916007133  0.1478430712292289   T   T   T
  0.2175824980344520  0.7785115860644982  0.3031363104470183   T   T   T
  0.0973193047250584  0.8910583718023140  0.3825529524454044   T   T   T
 -0.0015060713920910  0.6660774692781911  0.2271594976277229   T   T   T
  0.2232097008407003  0.7789346022025349  0.0734727258477602   T   T   T
  0.3341205314198574  0.6678178383595128  0.9945091872301383   T   T   T
  0.4465763551875327  0.8898943157588025  0.1497611905128695   T   T   T
  0.5589679152884962  0.7689692432099979  0.3046454031879887   T   T   T
  0.4623767129147005  0.8950286413836602  0.3864408787194431   T   T   T
  0.3323252659323608  0.6665535871714879  0.2259614236207618   T   T   T
  0.5568509636080946  0.7784283435017428  0.0745507194020345   T   T   T
  0.6660656406457888  0.6667024798280210  0.9946829109279072   T   T   T
  0.7786595222057295  0.8864987061153157  0.1520118521892657   T   T   T
  0.8848436096645056  0.7760559795096778  0.3010072478774888   T   T   T
  0.7790271448155242  0.8802130123099019  0.3840349981018663   T   T   T
  0.6616828067578169  0.6536415753544565  0.2302243264982262   T   T   T
  0.8885119203378548  0.7778201510074854  0.0730528064130055   T   T   T
  0.3168000441067505  0.3499715758259125  0.3254975580022926   T   T   T
 -0.0038481267922254  0.9923449900569770  0.3426633557659511   T   T   T
  0.2241713744298242  0.1115800335840040  0.1884951200308188   T   T   T
  0.1097000790680735  0.2198539105294763  0.0336028603204917   T   T   T
  0.3367761089773149  0.0037844387250336  0.3487785013527445   T   T   T
  0.5548982429665360  0.1101853773077360  0.1898615904926650   T   T   T
  0.4439720132392823  0.2212814312753983  0.0333623923376979   T   T   T
  0.6666108897997496 -0.0018860770126599  0.3451460051651249   T   T   T
  0.8903925376107831  0.1116184023379547  0.1903614297550378   T   T   T
  0.7769573362890710  0.2207017968896129  0.0349132607951342   T   T   T
 -0.0030236841501224  0.3372338526338021  0.3482177954328566   T   T   T
  0.2180263783577608  0.4478860506559941  0.1822594376962145   T   T   T
  0.1098650678659752  0.5561461205637954  0.0327459863922944   T   T   T
  0.5540756717023274  0.4416584175631833  0.1870672533606538   T   T   T
  0.4452435311098717  0.5560792354890680  0.0332529072056163   T   T   T
  0.6675042389847087  0.3290401202305717  0.3427050303697057   T   T   T
  0.8873937125858196  0.4430199971542458  0.1881642934438597   T   T   T
  0.7769240611664958  0.5542682805609751  0.0336733219782815   T   T   T
  0.0000692884183552  0.6659695419135310  0.3417296800796698   T   T   T
  0.2230029401584318  0.7799768432392817  0.1898360650685507   T   T   T
  0.1117944020201716  0.8889883592541812  0.0342164104311502   T   T   T
  0.3301006796338833  0.6711961358275049  0.3473800754379850   T   T   T
  0.5538026393826334  0.7754481957944181  0.1899844711311425   T   T   T
  0.4444558145874136  0.8887538317924811  0.0351470291581162   T   T   T
  0.6661090669520640  0.6623922084907351  0.3413521305292965   T   T   T
  0.8895149875321040  0.7758020629925007  0.1876486024963462   T   T   T
  0.7776395310863031  0.8885511961076018  0.0351963610437297   T   T   T
  0.3279106519241398  0.3387553664859911  0.4993487509375218   T   T   T
  0.4519345093476017  0.2583862185666201  0.4421159835963641   T   T   T
 
  0.00000000E+00  0.00000000E+00  0.00000000E+00
  0.00000000E+00  0.00000000E+00  0.00000000E+00
  0.00000000E+00  0.00000000E+00  0.00000000E+00
  0.00000000E+00  0.00000000E+00  0.00000000E+00
  0.00000000E+00  0.00000000E+00  0.00000000E+00
  0.00000000E+00  0.00000000E+00  0.00000000E+00
  0.00000000E+00  0.00000000E+00  0.00000000E+00
  0.00000000E+00  0.00000000E+00  0.00000000E+00
  0.00000000E+00  0.00000000E+00  0.00000000E+00
  0.00000000E+00  0.00000000E+00  0.00000000E+00
  0.00000000E+00  0.00000000E+00  0.00000000E+00
  0.00000000E+00  0.00000000E+00  0.00000000E+00
  0.00000000E+00  0.00000000E+00  0.00000000E+00
  0.00000000E+00  0.00000000E+00  0.00000000E+00
  0.00000000E+00  0.00000000E+00  0.00000000E+00
  0.00000000E+00  0.00000000E+00  0.00000000E+00
  0.00000000E+00  0.00000000E+00  0.00000000E+00
  0.00000000E+00  0.00000000E+00  0.00000000E+00
  0.00000000E+00  0.00000000E+00  0.00000000E+00
  0.00000000E+00  0.00000000E+00  0.00000000E+00
  0.00000000E+00  0.00000000E+00  0.00000000E+00
  0.00000000E+00  0.00000000E+00  0.00000000E+00
  0.00000000E+00  0.00000000E+00  0.00000000E+00
  0.00000000E+00  0.00000000E+00  0.00000000E+00
  0.00000000E+00  0.00000000E+00  0.00000000E+00
  0.00000000E+00  0.00000000E+00  0.00000000E+00
  0.00000000E+00  0.00000000E+00  0.00000000E+00
  0.00000000E+00  0.00000000E+00  0.00000000E+00
  0.00000000E+00  0.00000000E+00  0.00000000E+00
  0.00000000E+00  0.00000000E+00  0.00000000E+00
  0.00000000E+00  0.00000000E+00  0.00000000E+00
  0.00000000E+00  0.00000000E+00  0.00000000E+00
  0.00000000E+00  0.00000000E+00  0.00000000E+00
  0.00000000E+00  0.00000000E+00  0.00000000E+00
  0.00000000E+00  0.00000000E+00  0.00000000E+00
  0.00000000E+00  0.00000000E+00  0.00000000E+00
  0.00000000E+00  0.00000000E+00  0.00000000E+00
  0.00000000E+00  0.00000000E+00  0.00000000E+00
  0.00000000E+00  0.00000000E+00  0.00000000E+00
  0.00000000E+00  0.00000000E+00  0.00000000E+00
  0.00000000E+00  0.00000000E+00  0.00000000E+00
  0.00000000E+00  0.00000000E+00  0.00000000E+00
  0.00000000E+00  0.00000000E+00  0.00000000E+00
  0.00000000E+00  0.00000000E+00  0.00000000E+00
  0.00000000E+00  0.00000000E+00  0.00000000E+00
  0.00000000E+00  0.00000000E+00  0.00000000E+00
  0.00000000E+00  0.00000000E+00  0.00000000E+00
  0.00000000E+00  0.00000000E+00  0.00000000E+00
  0.00000000E+00  0.00000000E+00  0.00000000E+00
  0.00000000E+00  0.00000000E+00  0.00000000E+00
  0.00000000E+00  0.00000000E+00  0.00000000E+00
  0.00000000E+00  0.00000000E+00  0.00000000E+00
  0.00000000E+00  0.00000000E+00  0.00000000E+00
  0.00000000E+00  0.00000000E+00  0.00000000E+00
  0.00000000E+00  0.00000000E+00  0.00000000E+00
  0.00000000E+00  0.00000000E+00  0.00000000E+00
  0.00000000E+00  0.00000000E+00  0.00000000E+00
  0.00000000E+00  0.00000000E+00  0.00000000E+00
  0.00000000E+00  0.00000000E+00  0.00000000E+00
  0.00000000E+00  0.00000000E+00  0.00000000E+00
  0.00000000E+00  0.00000000E+00  0.00000000E+00
  0.00000000E+00  0.00000000E+00  0.00000000E+00
  0.00000000E+00  0.00000000E+00  0.00000000E+00
  0.00000000E+00  0.00000000E+00  0.00000000E+00
  0.00000000E+00  0.00000000E+00  0.00000000E+00
  0.00000000E+00  0.00000000E+00  0.00000000E+00
  0.00000000E+00  0.00000000E+00  0.00000000E+00
  0.00000000E+00  0.00000000E+00  0.00000000E+00
  0.00000000E+00  0.00000000E+00  0.00000000E+00
  0.00000000E+00  0.00000000E+00  0.00000000E+00
  0.00000000E+00  0.00000000E+00  0.00000000E+00
  0.00000000E+00  0.00000000E+00  0.00000000E+00
  0.00000000E+00  0.00000000E+00  0.00000000E+00
  0.00000000E+00  0.00000000E+00  0.00000000E+00
  0.00000000E+00  0.00000000E+00  0.00000000E+00
  0.00000000E+00  0.00000000E+00  0.00000000E+00
  0.00000000E+00  0.00000000E+00  0.00000000E+00
  0.00000000E+00  0.00000000E+00  0.00000000E+00
  0.00000000E+00  0.00000000E+00  0.00000000E+00
  0.00000000E+00  0.00000000E+00  0.00000000E+00
  0.00000000E+00  0.00000000E+00  0.00000000E+00
  0.00000000E+00  0.00000000E+00  0.00000000E+00
  0.00000000E+00  0.00000000E+00  0.00000000E+00
