CeO2-you-111-you-Nb                     
   1.00000000000000     
     9.8355892315446969   -5.6785804569581906    0.0000000006345379
     0.0399187865379594   11.4263002773247102    0.0122385008889978
     0.0132330320226935    0.0229202799946159   20.9827945804203644
   O    Nb   Ce H
    53     1    26 2
Selective dynamics
Direct
 -0.0022893281970632 -0.0006329418152646  0.9957222616441154   T   T   T
  0.1115516993987027  0.2225072358724209  0.1484307642887800   F   F   F
  0.2224204334171239  0.1115078668387879  0.2971269604026354   T   T   T
  0.1485033228419788  0.2322538921437917  0.3794846119074359   T   T   T
 -0.0013872798193775 -0.0019957952955724  0.2274273527973942   T   T   T
  0.2214510939287730  0.1095691878575743  0.0721768436451177   F   F   F
  0.3349893863818625 -0.0006329418152760  0.9957222616441269   T   T   T
  0.4442885364737442  0.2225072358722044  0.1484307642888129   F   F   F
  0.5583329735455225  0.1207716138294927  0.3056075331600515   T   T   T
  0.4170835693039822  0.2322538921504990  0.3794846119078569   T   T   T
  0.3327244845241760 -0.0019957952958727  0.2274273527974541   T   T   T
  0.5578962772394853  0.1118895499433576  0.0762498353050817   F   F   F
  0.6665223109828131 -0.0002893780342843  0.9961263713982688   T   T   T
  0.7801003732298363  0.2268667464596351  0.1535822259111374   F   F   F
  0.8957726402842032  0.1207716138288999  0.3056075331600109   T   T   T
  0.7814996631820252  0.2296653263639175  0.3847994164433928   T   T   T
  0.6680106367467504  0.0026872734936376  0.2309039615802541   T   T   T
  0.8873272727039085  0.1118895499434485  0.0762498353050401   F   F   F
  0.0000950468043517  0.3326740037632906  0.9958980390376274   T   T   T
  0.1102277237297097  0.5542298666691123  0.1488917553046873   F   F   F
  0.2591837602584240  0.4444702135687615  0.3121198426355881   T   T   T
  0.0995610802226735  0.5435893476263023  0.3832231200649944   T   T   T
  0.0130913468440573  0.3408891551122655  0.2326788842616810   T   T   T
  0.2230771200701241  0.4443837373696322  0.0750929918058549   F   F   F
  0.3331828536264679  0.3330327072530000  0.9954509706009839   T   T   T
  0.4435414229212054  0.5537508458428909  0.1511423769252941   F   F   F
  0.5186204533157704  0.4444702135783844  0.3121198426362592   T   T   T
  0.3270916030605577  0.3208502061224440  0.2294721416119100   T   T   T
  0.5546406172993485  0.4443837373695229  0.0750929918058683   F   F   F
  0.6659129569588941  0.3326740037632561  0.9958980390376121   T   T   T
  0.7773351429393811  0.5542298666689959  0.1488917553046974   F   F   F
  0.8871595106513084  0.4409850213021402  0.3019283018516530   T   T   T
  0.7773612674032547  0.5435893476254273  0.3832231200648444   T   T   T
  0.6611318082683204  0.3408891551122181  0.2326788842616012   T   T   T
  0.8886008798270824  0.4438677596540125  0.0745991967251006   F   F   F
  0.0001558303789760  0.6669786607580251  0.9955020595268554   T   T   T
  0.1097902816904129  0.8862475633801916  0.1465695133503933   F   F   F
  0.2193162337688096  0.7769610088274919  0.3035732259225009   T   T   T
  0.1063779545476431  0.8794229090959330  0.3859823549666975   T   T   T
  0.0000810291401984  0.6668290582804870  0.2281958050585798   T   T   T
  0.2233082258097006  0.7767552487297844  0.0741386211698027   F   F   F
  0.3336794307374655  0.6659422160164431  0.9954826534689724   T   T   T
  0.4471456938292512  0.8904956371789672  0.1506416801514419   F   F   F
  0.5558799237655820  0.7784258475303252  0.3050858610397631   T   T   T
  0.4546525841926262  0.9013645255130296  0.3873445623991545   T   T   T
  0.3297859383089982  0.6641620032256850  0.2277089625455400   T   T   T
  0.5546181604904911  0.7759023209809842  0.0758759037931336   F   F   F
  0.6655957852788466  0.6659422160164151  0.9954826534689526   T   T   T
  0.7766829433496740  0.8904956371790794  0.1506416801513777   F   F   F
  0.8909777750590906  0.7769610088287477  0.3035732259225386   T   T   T
  0.7800449413198420  0.9013645255129434  0.3873445623991014   T   T   T
  0.6677090649163857  0.6641620032259575  0.2277089625455595   T   T   T
  0.8867800229200817  0.7767552487297322  0.0741386211698227   F   F   F
  0.3151070176552676  0.2968810353004386  0.3280479554597620   T   T   T
 -0.0009880708547229 -0.0032865084836836  0.3465732396384587   T   T   T
  0.2190339267735423  0.1047348535480405  0.1842871497724646   F   F   F
  0.1103836541594616  0.2224831809414798  0.0348400103221606   F   F   F
  0.3310345623717234 -0.0032865084829671  0.3465732396382896   T   T   T
  0.5547279031448392  0.1120501177645459  0.1913681782397973   F   F   F
  0.4454325267820142  0.2224831809416142  0.0348400103221709   F   F   F
  0.6685197999142811  0.0037055998293351  0.3463789735881835   T   T   T
  0.8906562146194448  0.1120501177640562  0.1913681782398968   F   F   F
  0.7780504707799730  0.2227669415598554  0.0366680024411215   F   F   F
  0.0034001883908027  0.3356267886642527  0.3443631501759705   T   T   T
  0.2250002723854338  0.4453796429142678  0.1900064666660672   F   F   F
  0.1119008017413244  0.5553893270411610  0.0353833385666319   F   F   F
  0.5537133705296362  0.4453796429149340  0.1900064666659267   F   F   F
  0.4444570393209633  0.5555820786417947  0.0349412062861390   F   F   F
  0.6655606002716414  0.3356267886626877  0.3443631501758360   T   T   T
  0.8901350099783328  0.4469360199570028  0.1901346953511097   F   F   F
  0.7768215252999336  0.5553893270412669  0.0353833385666286   F   F   F
 -0.0010315497094485  0.6646039005802477  0.3434970181678770   T   T   T
  0.2227185327545573  0.7774152528146934  0.1886989722823674   F   F   F
  0.1103211929548512  0.8873093859097871  0.0333104691668072   F   F   F
  0.3305580157040023  0.6735476940530026  0.3433163656026078   T   T   T
  0.5561288096738985  0.7789236193474449  0.1919711927086990   F   F   F
  0.4456471873271804  0.8890343070810367  0.0361936167486780   F   F   F
  0.6763226783435451  0.6735476940446948  0.3433163656019224   T   T   T
  0.8880297200601572  0.7774152528147158  0.1886989722824460   F   F   F
  0.7767201197539118  0.8890343070810155  0.0361936167486753   F   F   F
0.32070176552676 0.313368810353004386 0.408048 T T T
0.446598 0.216020 0.433410 T T T 
 
  0.00000000E+00  0.00000000E+00  0.00000000E+00
  0.00000000E+00  0.00000000E+00  0.00000000E+00
  0.00000000E+00  0.00000000E+00  0.00000000E+00
  0.00000000E+00  0.00000000E+00  0.00000000E+00
  0.00000000E+00  0.00000000E+00  0.00000000E+00
  0.00000000E+00  0.00000000E+00  0.00000000E+00
  0.00000000E+00  0.00000000E+00  0.00000000E+00
  0.00000000E+00  0.00000000E+00  0.00000000E+00
  0.00000000E+00  0.00000000E+00  0.00000000E+00
  0.00000000E+00  0.00000000E+00  0.00000000E+00
  0.00000000E+00  0.00000000E+00  0.00000000E+00
  0.00000000E+00  0.00000000E+00  0.00000000E+00
  0.00000000E+00  0.00000000E+00  0.00000000E+00
  0.00000000E+00  0.00000000E+00  0.00000000E+00
  0.00000000E+00  0.00000000E+00  0.00000000E+00
  0.00000000E+00  0.00000000E+00  0.00000000E+00
  0.00000000E+00  0.00000000E+00  0.00000000E+00
  0.00000000E+00  0.00000000E+00  0.00000000E+00
  0.00000000E+00  0.00000000E+00  0.00000000E+00
  0.00000000E+00  0.00000000E+00  0.00000000E+00
  0.00000000E+00  0.00000000E+00  0.00000000E+00
  0.00000000E+00  0.00000000E+00  0.00000000E+00
  0.00000000E+00  0.00000000E+00  0.00000000E+00
  0.00000000E+00  0.00000000E+00  0.00000000E+00
  0.00000000E+00  0.00000000E+00  0.00000000E+00
  0.00000000E+00  0.00000000E+00  0.00000000E+00
  0.00000000E+00  0.00000000E+00  0.00000000E+00
  0.00000000E+00  0.00000000E+00  0.00000000E+00
  0.00000000E+00  0.00000000E+00  0.00000000E+00
  0.00000000E+00  0.00000000E+00  0.00000000E+00
  0.00000000E+00  0.00000000E+00  0.00000000E+00
  0.00000000E+00  0.00000000E+00  0.00000000E+00
  0.00000000E+00  0.00000000E+00  0.00000000E+00
  0.00000000E+00  0.00000000E+00  0.00000000E+00
  0.00000000E+00  0.00000000E+00  0.00000000E+00
  0.00000000E+00  0.00000000E+00  0.00000000E+00
  0.00000000E+00  0.00000000E+00  0.00000000E+00
  0.00000000E+00  0.00000000E+00  0.00000000E+00
  0.00000000E+00  0.00000000E+00  0.00000000E+00
  0.00000000E+00  0.00000000E+00  0.00000000E+00
  0.00000000E+00  0.00000000E+00  0.00000000E+00
  0.00000000E+00  0.00000000E+00  0.00000000E+00
  0.00000000E+00  0.00000000E+00  0.00000000E+00
  0.00000000E+00  0.00000000E+00  0.00000000E+00
  0.00000000E+00  0.00000000E+00  0.00000000E+00
  0.00000000E+00  0.00000000E+00  0.00000000E+00
  0.00000000E+00  0.00000000E+00  0.00000000E+00
  0.00000000E+00  0.00000000E+00  0.00000000E+00
  0.00000000E+00  0.00000000E+00  0.00000000E+00
  0.00000000E+00  0.00000000E+00  0.00000000E+00
  0.00000000E+00  0.00000000E+00  0.00000000E+00
  0.00000000E+00  0.00000000E+00  0.00000000E+00
  0.00000000E+00  0.00000000E+00  0.00000000E+00
  0.00000000E+00  0.00000000E+00  0.00000000E+00
  0.00000000E+00  0.00000000E+00  0.00000000E+00
  0.00000000E+00  0.00000000E+00  0.00000000E+00
  0.00000000E+00  0.00000000E+00  0.00000000E+00
  0.00000000E+00  0.00000000E+00  0.00000000E+00
  0.00000000E+00  0.00000000E+00  0.00000000E+00
  0.00000000E+00  0.00000000E+00  0.00000000E+00
  0.00000000E+00  0.00000000E+00  0.00000000E+00
  0.00000000E+00  0.00000000E+00  0.00000000E+00
  0.00000000E+00  0.00000000E+00  0.00000000E+00
  0.00000000E+00  0.00000000E+00  0.00000000E+00
  0.00000000E+00  0.00000000E+00  0.00000000E+00
  0.00000000E+00  0.00000000E+00  0.00000000E+00
  0.00000000E+00  0.00000000E+00  0.00000000E+00
  0.00000000E+00  0.00000000E+00  0.00000000E+00
  0.00000000E+00  0.00000000E+00  0.00000000E+00
  0.00000000E+00  0.00000000E+00  0.00000000E+00
  0.00000000E+00  0.00000000E+00  0.00000000E+00
  0.00000000E+00  0.00000000E+00  0.00000000E+00
  0.00000000E+00  0.00000000E+00  0.00000000E+00
  0.00000000E+00  0.00000000E+00  0.00000000E+00
  0.00000000E+00  0.00000000E+00  0.00000000E+00
  0.00000000E+00  0.00000000E+00  0.00000000E+00
  0.00000000E+00  0.00000000E+00  0.00000000E+00
  0.00000000E+00  0.00000000E+00  0.00000000E+00
  0.00000000E+00  0.00000000E+00  0.00000000E+00
  0.00000000E+00  0.00000000E+00  0.00000000E+00
