CeO2-you-111-you-Co                     
   1.00000000000000     
     9.8251019935621891   -5.6688690845164036   -0.0060933432773853
     0.0031666819258298   11.3432210274887062    0.0060933422472463
    -0.0063576088724889    0.0110117010449115   21.0600758742251379
   O    Co   Ce H
    53     1    26 1
Selective dynamics
Direct
 -0.0006381982812729 -0.0006768722901543  0.9952349371550752   T   T   T
  0.1092508746749812  0.2204356018935340  0.1474052448846371   T   T   T
  0.2242077300349041  0.1107083223162857  0.3026082531718979   T   T   T
  0.1203118163045677  0.2404700424977472  0.3688898538797549   T   T   T
 -0.0003713238041542  0.0014501639097936  0.2299477064083012   T   T   T
  0.2217137810513331  0.1105053736922770  0.0751548287902784   T   T   T
  0.3345943361173971  0.0007663258977513  0.9964349965555922   T   T   T
  0.4418714160728924  0.2247945839256161  0.1516256692397625   T   T   T
  0.5567409496979832  0.1099260503012280  0.3053355535016958   T   T   T
  0.4430164263426668  0.2236495736567192  0.3809297114677849   T   T   T
  0.3350711218458445  0.0002647766309915  0.2292062286014726   T   T   T
  0.5558833757068813  0.1107836242930462  0.0780371299348112   T   T   T
  0.6658286270033024  0.0008383729974555  0.9957306812605040   T   T   T
  0.7844127759483789  0.2258973838711479  0.1520004211408221   T   T   T
  0.8825553237946300  0.1081459590530501  0.3038457003523217   T   T   T
  0.7773599085266597  0.2204095335272495  0.3877559289538791   T   T   T
  0.6662613205516625  0.0004056794489660  0.2283113550928321   T   T   T
  0.8876073251875316  0.1101456717306056  0.0749316468325766   T   T   T
 -0.0016538393771389  0.3326729336601683  0.9952485172802029   T   T   T
  0.1109169929615655  0.5557500070373780  0.1482522893610471   T   T   T
  0.1180953733198571  0.5485716266861178  0.3770687830534455   T   T   T
  0.0176684010463570  0.3426173289175632  0.2354532549786935   T   T   T
  0.2223829977523617  0.4442830022490017  0.0725657826218513   T   T   T
  0.3339198263604808  0.3327461736386771  0.9950950130366660   T   T   T
  0.4462303981102018  0.5574161253262583  0.1474052448844868   T   T   T
  0.5559586776832214  0.4424582699648809  0.3026082531719815   T   T   T
  0.4261959574965265  0.5463551836962691  0.3688898538795497   T   T   T
  0.3253651712601826  0.3413008287365089  0.2335997722372891   T   T   T
  0.5561616263074100  0.4449522189482409  0.0751548287903250   T   T   T
  0.6659006741018990  0.3320716638821397  0.9964349965555868   T   T   T
  0.7780482207335104  0.5554170088799608  0.1516241324319502   T   T   T
  0.8845783430390274  0.4431580646998816  0.3050198056826283   T   T   T
  0.7768929437245239  0.5577759459402498  0.3841097776733450   T   T   T
  0.6664022233662072  0.3315948781529967  0.2292062286015332   T   T   T
  0.8885730954206972  0.4448540121566118  0.0755150675093610   T   T   T
 -0.0005721100518105  0.6672391100510238  0.9956120360821406   T   T   T
  0.1112499911184770  0.8886187792641856  0.1516241324319282   T   T   T
  0.2235079352983868  0.7820886569570473  0.3050198056825351   T   T   T
  0.1088910540591449  0.8897740562733361  0.3841097776732120   T   T   T
  0.0010235332112306  0.6656434667863779  0.2305377853019236   T   T   T
  0.2218119878430843  0.7780939045788418  0.0755150675092816   T   T   T
  0.3339930663404339  0.6683208393781781  0.9952485172801382   T   T   T
  0.4407686161295060  0.8822542240514200  0.1520004211409320   T   T   T
  0.5585210409502851  0.7841116762054615  0.3038457003522382   T   T   T
  0.4462564664734464  0.8893070914719876  0.3877559289534362   T   T   T
  0.3240486710834558  0.6489985989620343  0.2354532549783492   T   T   T
  0.5565213282704207  0.7790596748134051  0.0749316468325585   T   T   T
  0.6673438722901258  0.6673051982808441  0.9952349371550733   T   T   T
  0.7775286319065168  0.8891383680938635  0.1507854591137678   T   T   T
  0.8889058302131078  0.7777611697855711  0.3033637145609190   T   T   T
  0.7782501126258144  0.8884168873739288  0.3841797963215766   T   T   T
  0.6652168360906575  0.6670383238049488  0.2299477064083397   T   T   T
  0.8888446930339742  0.7778223069653843  0.0759003742810298   T   T   T
  0.3503797133477306  0.3162862866608943  0.3339315219107585   T   T   T
  0.0043954236113977  0.0056939687948841  0.3428347898263104   T   T   T
  0.2227419355197920  0.1130952821544339  0.1919310520864795   T   T   T
  0.1100345012145694  0.2202131429204613  0.0338080598209845   T   T   T
  0.3335813171808819  0.0047645729423215  0.3449100995127303   T   T   T
  0.5557222960027748  0.1109447040001993  0.1912632979035951   T   T   T
  0.4440997599527381  0.2225662400472024  0.0365784188828181   T   T   T
  0.6669360272496890 -0.0002690272474311  0.3463904627774183   T   T   T
  0.8894550662626577  0.1114588365176334  0.1905823785191095   T   T   T
  0.7777757088635912  0.2224233759216881  0.0361419051395328   T   T   T
 -0.0089630467696948  0.3258710726421628  0.3471395201349859   T   T   T
  0.2234846849137222  0.4431813150792863  0.1826863177805666   T   T   T
  0.1100538684608034  0.5566131315384550  0.0343840308826468   T   T   T
  0.5535717178437478  0.4439240644789544  0.1919310520864141   T   T   T
  0.4464528570795298  0.5566324987848252  0.0338080598210566   T   T   T
  0.6619024270589795  0.3330846828197264  0.3449100995123858   T   T   T
  0.8899963988720599  0.4449197458764283  0.1914491698721321   T   T   T
  0.7773859306034611  0.5551564952158499  0.0365495807962861   T   T   T
 -0.0014082212700136  0.6680752212787500  0.3433924362798856   T   T   T
  0.2217462541269825  0.7766706011363198  0.1914491698721379   T   T   T
  0.1115105047851291  0.8892810693972145  0.0365495807962664   T   T   T
  0.3407949273553367  0.6756300467640507  0.3471395201359547   T   T   T
  0.5552081634764610  0.7772119337359800  0.1905823785191940   T   T   T
  0.4442426240777312  0.8888912911366118  0.0361419051395662   T   T   T
  0.6609730312001001  0.6622715763875908  0.3428347898258740   T   T   T
  0.8888301818378670  0.7778368181646940  0.1901682205979513   T   T   T
  0.7774477201726344  0.8892192798267614  0.0357326705337482   T   T   T
0.446598 0.216020 0.433410 T T T 
 
  0.00000000E+00  0.00000000E+00  0.00000000E+00
  0.00000000E+00  0.00000000E+00  0.00000000E+00
  0.00000000E+00  0.00000000E+00  0.00000000E+00
  0.00000000E+00  0.00000000E+00  0.00000000E+00
  0.00000000E+00  0.00000000E+00  0.00000000E+00
  0.00000000E+00  0.00000000E+00  0.00000000E+00
  0.00000000E+00  0.00000000E+00  0.00000000E+00
  0.00000000E+00  0.00000000E+00  0.00000000E+00
  0.00000000E+00  0.00000000E+00  0.00000000E+00
  0.00000000E+00  0.00000000E+00  0.00000000E+00
  0.00000000E+00  0.00000000E+00  0.00000000E+00
  0.00000000E+00  0.00000000E+00  0.00000000E+00
  0.00000000E+00  0.00000000E+00  0.00000000E+00
  0.00000000E+00  0.00000000E+00  0.00000000E+00
  0.00000000E+00  0.00000000E+00  0.00000000E+00
  0.00000000E+00  0.00000000E+00  0.00000000E+00
  0.00000000E+00  0.00000000E+00  0.00000000E+00
  0.00000000E+00  0.00000000E+00  0.00000000E+00
  0.00000000E+00  0.00000000E+00  0.00000000E+00
  0.00000000E+00  0.00000000E+00  0.00000000E+00
  0.00000000E+00  0.00000000E+00  0.00000000E+00
  0.00000000E+00  0.00000000E+00  0.00000000E+00
  0.00000000E+00  0.00000000E+00  0.00000000E+00
  0.00000000E+00  0.00000000E+00  0.00000000E+00
  0.00000000E+00  0.00000000E+00  0.00000000E+00
  0.00000000E+00  0.00000000E+00  0.00000000E+00
  0.00000000E+00  0.00000000E+00  0.00000000E+00
  0.00000000E+00  0.00000000E+00  0.00000000E+00
  0.00000000E+00  0.00000000E+00  0.00000000E+00
  0.00000000E+00  0.00000000E+00  0.00000000E+00
  0.00000000E+00  0.00000000E+00  0.00000000E+00
  0.00000000E+00  0.00000000E+00  0.00000000E+00
  0.00000000E+00  0.00000000E+00  0.00000000E+00
  0.00000000E+00  0.00000000E+00  0.00000000E+00
  0.00000000E+00  0.00000000E+00  0.00000000E+00
  0.00000000E+00  0.00000000E+00  0.00000000E+00
  0.00000000E+00  0.00000000E+00  0.00000000E+00
  0.00000000E+00  0.00000000E+00  0.00000000E+00
  0.00000000E+00  0.00000000E+00  0.00000000E+00
  0.00000000E+00  0.00000000E+00  0.00000000E+00
  0.00000000E+00  0.00000000E+00  0.00000000E+00
  0.00000000E+00  0.00000000E+00  0.00000000E+00
  0.00000000E+00  0.00000000E+00  0.00000000E+00
  0.00000000E+00  0.00000000E+00  0.00000000E+00
  0.00000000E+00  0.00000000E+00  0.00000000E+00
  0.00000000E+00  0.00000000E+00  0.00000000E+00
  0.00000000E+00  0.00000000E+00  0.00000000E+00
  0.00000000E+00  0.00000000E+00  0.00000000E+00
  0.00000000E+00  0.00000000E+00  0.00000000E+00
  0.00000000E+00  0.00000000E+00  0.00000000E+00
  0.00000000E+00  0.00000000E+00  0.00000000E+00
  0.00000000E+00  0.00000000E+00  0.00000000E+00
  0.00000000E+00  0.00000000E+00  0.00000000E+00
  0.00000000E+00  0.00000000E+00  0.00000000E+00
  0.00000000E+00  0.00000000E+00  0.00000000E+00
  0.00000000E+00  0.00000000E+00  0.00000000E+00
  0.00000000E+00  0.00000000E+00  0.00000000E+00
  0.00000000E+00  0.00000000E+00  0.00000000E+00
  0.00000000E+00  0.00000000E+00  0.00000000E+00
  0.00000000E+00  0.00000000E+00  0.00000000E+00
  0.00000000E+00  0.00000000E+00  0.00000000E+00
  0.00000000E+00  0.00000000E+00  0.00000000E+00
  0.00000000E+00  0.00000000E+00  0.00000000E+00
  0.00000000E+00  0.00000000E+00  0.00000000E+00
  0.00000000E+00  0.00000000E+00  0.00000000E+00
  0.00000000E+00  0.00000000E+00  0.00000000E+00
  0.00000000E+00  0.00000000E+00  0.00000000E+00
  0.00000000E+00  0.00000000E+00  0.00000000E+00
  0.00000000E+00  0.00000000E+00  0.00000000E+00
  0.00000000E+00  0.00000000E+00  0.00000000E+00
  0.00000000E+00  0.00000000E+00  0.00000000E+00
  0.00000000E+00  0.00000000E+00  0.00000000E+00
  0.00000000E+00  0.00000000E+00  0.00000000E+00
  0.00000000E+00  0.00000000E+00  0.00000000E+00
  0.00000000E+00  0.00000000E+00  0.00000000E+00
  0.00000000E+00  0.00000000E+00  0.00000000E+00
  0.00000000E+00  0.00000000E+00  0.00000000E+00
  0.00000000E+00  0.00000000E+00  0.00000000E+00
  0.00000000E+00  0.00000000E+00  0.00000000E+00
  0.00000000E+00  0.00000000E+00  0.00000000E+00
