CeO2-you-111-you-Ba                     
   1.00000000000000     
     9.8962393604856267   -5.7135968289044463    0.0000000000000000
    -0.0000000051665033   11.4271916379168932    0.0000000000000000
     0.0000000000000000    0.0000000000000000   21.1782510806590736
   O    Ba   Ce   H 
    54     1    26     2
Selective dynamics
Direct
 -0.0001151841453634  0.0002150071312317  0.9958549259850077   T   T   T
  0.1095722834500778  0.2218353591903681  0.1483080388743888   T   T   T
  0.2242406021534958  0.1065759655733088  0.3063786461210375   T   T   T
  0.0697760463591206  0.2008040159652318  0.3879444009443679   T   T   T
  0.0005989921033416  0.0010447780221112  0.2280265834379892   T   T   T
  0.2217827459825906  0.1123754451086281  0.0751124899951651   T   T   T
  0.3324993143197251  0.0014372002660877  0.9960231131000781   T   T   T
  0.4429863368764748  0.2237556315354765  0.1500550220381311   T   T   T
  0.5511410763763714  0.1148053985752612  0.3008172460506160   T   T   T
  0.4673903325580130  0.2014848245227400  0.4067788090014564   T   T   T
  0.3311503115529097  0.9979668932684300  0.2266935395160522   T   T   T
  0.5544036157214546  0.1126875726495981  0.0742239813912539   T   T   T
  0.6657412680798021  0.0015091836086655  0.9955342258886483   T   T   T
  0.7776077674717485  0.2240123127205756  0.1472290252002925   T   T   T
  0.8823580591214524  0.1075865082377507  0.2976994493639080   T   T   T
  0.7756630562997356  0.2219421271148894  0.3785581335175405   T   T   T
  0.6634011757057545  0.0028030352542758  0.2253755316559498   T   T   T
  0.8874444586098363  0.1108220474286040  0.0734873584353091   T   T   T
 -0.0003241128103886  0.3337126084493618  0.9958653135520500   T   T   T
  0.1109632281784450  0.5563505164385130  0.1476915175389676   T   T   T
  0.2207341886876629  0.4461768299255895  0.3042107632560586   T   T   T
  0.1128241796648096  0.5528789742462454  0.3795904870516745   T   T   T
  0.9997421154110210  0.3330672256724039  0.2265637946317648   T   T   T
  0.2220212542342603  0.4448959149837656  0.0742988739541290   T   T   T
  0.3327364365314022  0.3337542325066370  0.9958985433690564   T   T   T
  0.4444398534927064  0.5572153623907644  0.1483408419444536   T   T   T
  0.5593213285326429  0.4417058439398530  0.3061196723790494   T   T   T
  0.4657259753803265  0.5967537769494162  0.3878754265781666   T   T   T
  0.3311105737717273  0.3357473417644995  0.2251672865846325   T   T   T
  0.5540624457606739  0.4447525320617995  0.0751694761172814   T   T   T
  0.6658220527793460  0.3348903105645392  0.9962543349645191   T   T   T
  0.7771322809632444  0.5567725921688516  0.1488253230860611   T   T   T
  0.8909480186394380  0.4455449159450403  0.3004290036749250   T   T   T
  0.7834701288878868  0.5562649549857674  0.3811173962640900   T   T   T
  0.6684660111663334  0.3350124182922860  0.2266203971763686   T   T   T
  0.8887573284906695  0.4458596855999740  0.0738488453736866   T   T   T
 -0.0014170387288400  0.6674598720339023  0.9959400908769209   T   T   T
  0.1099680994061826  0.8899915074058907  0.1484504984201949   T   T   T
  0.2206783165905573  0.7757675317914441  0.3008033378275535   T   T   T
  0.1097965279782190  0.8830030221339071  0.3818518537422420   T   T   T
 -0.0002948844765929  0.6674359197550166  0.2266970034950309   T   T   T
  0.2206388341709809  0.7782382011765985  0.0736273296668926   T   T   T
  0.3322600549956496  0.6672460819009171  0.9957580103693686   T   T   T
  0.4425808725222498  0.8890358883144820  0.1469572631328036   T   T   T
  0.5584966195808490  0.7839701943729132  0.2978774934464925   T   T   T
  0.4437334142170493  0.8906489004212115  0.3790233798622316   T   T   T
  0.3331871802149941  0.6672759537643224  0.2267546813431741   T   T   T
  0.5557131048203541  0.7791547640002219  0.0733429732074689   T   T   T
  0.6662451586379712  0.6669162059552241  0.9958609083765440   T   T   T
  0.7772473376185755  0.8893165372153619  0.1484721175145333   T   T   T
  0.8892815710158315  0.7776557583635108  0.3016490806625040   T   T   T
  0.7762992872672709  0.8901129645839998  0.3789837692660838   T   T   T
  0.6654548778512334  0.6660654910903610  0.2282116419175701   T   T   T
  0.8877668131219695  0.7787698919248165  0.0744549518969765   T   T   T
  0.3323810087075725  0.3342769282281253  0.3775979350616001   T   T   T
  0.9966339407923817 -0.0011500628239865  0.3410430691880650   T   T   T
  0.2213600398408124  0.1125308860978709  0.1908014260867834   T   T   T
  0.1110145016353311  0.2228223146725372  0.0355051695640926   T   T   T
  0.3271579727815188  0.9911360027536362  0.3388999233200354   T   T   T
  0.5540751137019710  0.1123498424707281  0.1871617337631857   T   T   T
  0.4431940622078795  0.2236154003403020  0.0359226203531248   T   T   T
  0.6651854620296380  0.0011584168746479  0.3382270177100041   T   T   T
  0.8877924807813673  0.1116847835381103  0.1865397254410372   T   T   T
  0.7767903403915034  0.2232492637744285  0.0345924944934054   T   T   T
  0.9959836505285452  0.3271405001625292  0.3400380836443407   T   T   T
  0.2219842180598843  0.4447721413746667  0.1886294367322201   T   T   T
  0.1105661354968509  0.5561981327856403  0.0344669350355613   T   T   T
  0.5540395542841724  0.4451577701309543  0.1908349379620315   T   T   T
  0.4437753362953262  0.5556906349524837  0.0354770169976771   T   T   T
  0.6752443662281057  0.3390363626464267  0.3385618313389696   T   T   T
  0.8891967676294601  0.4456070263061750  0.1865738843120293   T   T   T
  0.7765121721936422  0.5563133131208793  0.0354980720211629   T   T   T
  0.0000410404850193  0.6664938399573140  0.3406877608807748   T   T   T
  0.2210415496900840  0.7776971153825865  0.1865206467489295   T   T   T
  0.1103627036075893  0.8902355471877809  0.0353907987804978   T   T   T
  0.3391852604633540  0.6706327073493191  0.3401945302596389   T   T   T
  0.5546846888473866  0.7787977004242336  0.1865721900957656   T   T   T
  0.4434903370235573  0.8901121270222359  0.0344759486265827   T   T   T
  0.6675465340328154  0.6698272960598490  0.3408861572241643   T   T   T
  0.8884854843443813  0.7782957159481995  0.1879012215266583   T   T   T
  0.7771991793527665  0.8894043833663683  0.0345974777849849   T   T   T
  0.3326472774851418  0.3335172868764045  0.5305146561502826   T   T   T
  0.4891281279186671  0.1796655937569295  0.4480320958578078   T   T   T
 
  0.00000000E+00  0.00000000E+00  0.00000000E+00
  0.00000000E+00  0.00000000E+00  0.00000000E+00
  0.00000000E+00  0.00000000E+00  0.00000000E+00
  0.00000000E+00  0.00000000E+00  0.00000000E+00
  0.00000000E+00  0.00000000E+00  0.00000000E+00
  0.00000000E+00  0.00000000E+00  0.00000000E+00
  0.00000000E+00  0.00000000E+00  0.00000000E+00
  0.00000000E+00  0.00000000E+00  0.00000000E+00
  0.00000000E+00  0.00000000E+00  0.00000000E+00
  0.00000000E+00  0.00000000E+00  0.00000000E+00
  0.00000000E+00  0.00000000E+00  0.00000000E+00
  0.00000000E+00  0.00000000E+00  0.00000000E+00
  0.00000000E+00  0.00000000E+00  0.00000000E+00
  0.00000000E+00  0.00000000E+00  0.00000000E+00
  0.00000000E+00  0.00000000E+00  0.00000000E+00
  0.00000000E+00  0.00000000E+00  0.00000000E+00
  0.00000000E+00  0.00000000E+00  0.00000000E+00
  0.00000000E+00  0.00000000E+00  0.00000000E+00
  0.00000000E+00  0.00000000E+00  0.00000000E+00
  0.00000000E+00  0.00000000E+00  0.00000000E+00
  0.00000000E+00  0.00000000E+00  0.00000000E+00
  0.00000000E+00  0.00000000E+00  0.00000000E+00
  0.00000000E+00  0.00000000E+00  0.00000000E+00
  0.00000000E+00  0.00000000E+00  0.00000000E+00
  0.00000000E+00  0.00000000E+00  0.00000000E+00
  0.00000000E+00  0.00000000E+00  0.00000000E+00
  0.00000000E+00  0.00000000E+00  0.00000000E+00
  0.00000000E+00  0.00000000E+00  0.00000000E+00
  0.00000000E+00  0.00000000E+00  0.00000000E+00
  0.00000000E+00  0.00000000E+00  0.00000000E+00
  0.00000000E+00  0.00000000E+00  0.00000000E+00
  0.00000000E+00  0.00000000E+00  0.00000000E+00
  0.00000000E+00  0.00000000E+00  0.00000000E+00
  0.00000000E+00  0.00000000E+00  0.00000000E+00
  0.00000000E+00  0.00000000E+00  0.00000000E+00
  0.00000000E+00  0.00000000E+00  0.00000000E+00
  0.00000000E+00  0.00000000E+00  0.00000000E+00
  0.00000000E+00  0.00000000E+00  0.00000000E+00
  0.00000000E+00  0.00000000E+00  0.00000000E+00
  0.00000000E+00  0.00000000E+00  0.00000000E+00
  0.00000000E+00  0.00000000E+00  0.00000000E+00
  0.00000000E+00  0.00000000E+00  0.00000000E+00
  0.00000000E+00  0.00000000E+00  0.00000000E+00
  0.00000000E+00  0.00000000E+00  0.00000000E+00
  0.00000000E+00  0.00000000E+00  0.00000000E+00
  0.00000000E+00  0.00000000E+00  0.00000000E+00
  0.00000000E+00  0.00000000E+00  0.00000000E+00
  0.00000000E+00  0.00000000E+00  0.00000000E+00
  0.00000000E+00  0.00000000E+00  0.00000000E+00
  0.00000000E+00  0.00000000E+00  0.00000000E+00
  0.00000000E+00  0.00000000E+00  0.00000000E+00
  0.00000000E+00  0.00000000E+00  0.00000000E+00
  0.00000000E+00  0.00000000E+00  0.00000000E+00
  0.00000000E+00  0.00000000E+00  0.00000000E+00
  0.00000000E+00  0.00000000E+00  0.00000000E+00
  0.00000000E+00  0.00000000E+00  0.00000000E+00
  0.00000000E+00  0.00000000E+00  0.00000000E+00
  0.00000000E+00  0.00000000E+00  0.00000000E+00
  0.00000000E+00  0.00000000E+00  0.00000000E+00
  0.00000000E+00  0.00000000E+00  0.00000000E+00
  0.00000000E+00  0.00000000E+00  0.00000000E+00
  0.00000000E+00  0.00000000E+00  0.00000000E+00
  0.00000000E+00  0.00000000E+00  0.00000000E+00
  0.00000000E+00  0.00000000E+00  0.00000000E+00
  0.00000000E+00  0.00000000E+00  0.00000000E+00
  0.00000000E+00  0.00000000E+00  0.00000000E+00
  0.00000000E+00  0.00000000E+00  0.00000000E+00
  0.00000000E+00  0.00000000E+00  0.00000000E+00
  0.00000000E+00  0.00000000E+00  0.00000000E+00
  0.00000000E+00  0.00000000E+00  0.00000000E+00
  0.00000000E+00  0.00000000E+00  0.00000000E+00
  0.00000000E+00  0.00000000E+00  0.00000000E+00
  0.00000000E+00  0.00000000E+00  0.00000000E+00
  0.00000000E+00  0.00000000E+00  0.00000000E+00
  0.00000000E+00  0.00000000E+00  0.00000000E+00
  0.00000000E+00  0.00000000E+00  0.00000000E+00
  0.00000000E+00  0.00000000E+00  0.00000000E+00
  0.00000000E+00  0.00000000E+00  0.00000000E+00
  0.00000000E+00  0.00000000E+00  0.00000000E+00
  0.00000000E+00  0.00000000E+00  0.00000000E+00
  0.00000000E+00  0.00000000E+00  0.00000000E+00
  0.00000000E+00  0.00000000E+00  0.00000000E+00
  0.00000000E+00  0.00000000E+00  0.00000000E+00
