CeO2-you-111-you-Cr                     
   1.00000000000000     
     9.8407395898070504   -5.6815540223244039    0.0000000000000000
     0.0000000007887307   11.3631060463492783    0.0000000000000000
     0.0000000000000000    0.0000000000000000   20.3225591016438401
   O    Cr   Ce   H 
    54     1    26     1
Selective dynamics
Direct
  0.9998173123812720  0.0002123760633519  0.9877028953469065   T   T   T
  0.1097624499888283  0.2215477249935631  0.1463715148023326   F   F   F
  0.2440412010392497  0.1551444814588614  0.3171573924378185   T   T   T
  0.0577906010507881  0.1943475179425270  0.4037341710180016   T   T   T
  0.0092107528808908  0.0036663471892138  0.2328184784395099   T   T   T
  0.2212243426216673  0.1091156852430473  0.0701551456449891   F   F   F
  0.3339961043220893  0.0004695662137015  0.9876691708563290   T   T   T
  0.4451182750047309  0.2215477249928028  0.1463715148023326   F   F   F
  0.5599208881983251  0.1177572786579290  0.3077613170054744   T   T   T
  0.4804681700554049  0.2093164797050574  0.4194955362287630   T   T   T
  0.3284803367678647  0.0021453281102804  0.2309932691949632   T   T   T
  0.5561767703679976  0.1104902296293062  0.0706372592963120   F   F   F
  0.6669555772377449 -0.0000170863302868  0.9880406662005830   T   T   T
  0.7796313679263989  0.2259287358530173  0.1494741564575151   F   F   F
  0.8834761703154614  0.1078508311526534  0.3043028205861859   T   T   T
  0.7788250043190575  0.2220326472731192  0.3920719403841114   T   T   T
  0.6651033421287940  0.0011622925266195  0.2278984089601618   T   T   T
  0.8876474592621335  0.1104902296301375  0.0706372592963120   F   F   F
  0.9995813746857946  0.3324504320514630  0.9878804281820543   T   T   T
  0.1091933958564866  0.5574736041444268  0.1477667860455512   F   F   F
  0.2419127100319666  0.4244100494168986  0.3138282274101314   T   T   T
  0.1145431184426140  0.5500355081106332  0.3892357944122303   T   T   T
  0.0082600548678521  0.3379145788153427  0.2322771040065793   T   T   T
  0.2212243426223139  0.4454416573786162  0.0701551456449891   F   F   F
  0.3329241350087945  0.3329771798060297  0.9885297916225562   T   T   T
  0.4451182750064362  0.5569045500136411  0.1463715148023326   F   F   F
  0.5154930260100516  0.4200734469704700  0.3148208719935375   T   T   T
  0.4700915453337750  0.6021474996875642  0.4015386054520378   T   T   T
  0.3336280633229523  0.3333808540050686  0.2232376507295189   T   T   T
  0.5575513147560187  0.4454416573783320  0.0701551456449891   F   F   F
  0.6658333088200250  0.3320465789775806  0.9879015185544169   T   T   T
  0.7816132082876521  0.5574736041441497  0.1477667860455512   F   F   F
  0.8895540258955318  0.4419647004763765  0.3093245195150400   T   T   T
  0.7711320300284231  0.5492217594008834  0.3880609850784871   T   T   T
  0.6658657079335336  0.3402632732548996  0.2321987436398273   T   T   T
  0.8888818973043797  0.4444297946087872  0.0698728267565230   F   F   F
 -0.0000353788476055  0.6663809973205466  0.9869028821675887   T   T   T
  0.1091933958558542  0.8850537917114352  0.1477667860455512   F   F   F
  0.2211707172624316  0.7730949442139117  0.3094440964007409   T   T   T
  0.0987362425081577  0.8847905142666539  0.3906876152080580   T   T   T
 -0.0010252215960049  0.6666145980383217  0.2327827226010527   T   T   T
  0.2222362053913187  0.7777851026956171  0.0698728267565230   F   F   F
  0.3343049339593329  0.6669052880944938  0.9877974515471929   T   T   T
  0.4407372641476925  0.8870356320736050  0.1494741564575151   F   F   F
  0.5584260293573610  0.7815793806037773  0.3038285285113794   T   T   T
  0.4527391963742516  0.8849105645834749  0.3928832378226366   T   T   T
  0.3290641326686493  0.6582448364618311  0.2321374656896046   T   T   T
  0.5561767703698663  0.7790195407405562  0.0706372592963120   F   F   F
  0.6661210515338026  0.6667805740444488  0.9876507171035724   T   T   T
  0.7796313679259015  0.8870356320733848  0.1494741564575151   F   F   F
  0.8836878849702310  0.7770852339642074  0.3086011716959827   T   T   T
  0.7743594137725890  0.8892370819742659  0.3923325735736980   T   T   T
  0.6620389656449549  0.6568294315932828  0.2322354057061770   T   T   T
  0.8888818973043016  0.7777851026955815  0.0698728267565230   F   F   F
  0.3338712513308817  0.3349023066050792  0.3137175038712587   T   T   T
  0.9933691352736050  0.0009645891872005  0.3544375751273726   T   T   T
  0.2200461707333687  0.1067593414657395  0.1860079628955944   F   F   F
  0.1099810856531676  0.2216570428265783  0.0286702190866635   F   F   F
  0.3333787230424121 -0.0013679321805693  0.3563209613699862   T   T   T
  0.5552065656491791  0.1114604343533827  0.1895842548462880   F   F   F
  0.4450089571734068  0.2216570428265783  0.0286702190866635   F   F   F
  0.6650545062129540  0.0000664253000302  0.3494039701361078   T   T   T
  0.8895878687034227  0.1114604343526011  0.1895842548462880   F   F   F
  0.7778939470166151  0.2224538940335421  0.0295275213179380   F   F   F
 -0.0007338000385764  0.3259916214906701  0.3543343651792135   T   T   T
  0.2200461707356069  0.4466198292676253  0.1860079628955944   F   F   F
  0.1104466444445507  0.5562203555564125  0.0288909732775906   F   F   F
  0.5599076585310314  0.4466198292666306  0.1860079628955944   F   F   F
  0.4450089571734139  0.5566859143468506  0.0286702190866635   F   F   F
  0.6723089270120988  0.3325517064121031  0.3518476760066932   T   T   T
  0.8887244640329328  0.4441149280664050  0.1920488736050316   F   F   F
  0.7791067111115666  0.5562203555561211  0.0288909732775906   F   F   F
  0.0009011036749038  0.6671442105361057  0.3492696960162626   T   T   T
  0.2225510719353423  0.7779425359670640  0.1920488736050316   F   F   F
  0.1104466444438827  0.8875602888874781  0.0288909732775906   F   F   F
  0.3401576219167078  0.6686102817741113  0.3537628887545707   T   T   T
  0.5552065656474028  0.7770791312940162  0.1895842548462880   F   F   F
  0.4442121059674378  0.8887730529833817  0.0295275213179380   F   F   F
  0.6619384837984613  0.6694021858438836  0.3531579106806266   T   T   T
  0.8887244640317249  0.7779425359665240  0.1920488736050316   F   F   F
  0.7778939470159401  0.8887730529830762  0.0295275213179380   F   F   F
  0.4507678590362846  0.2475520560807890  0.4541405732940982   T   T   T
 
  0.00000000E+00  0.00000000E+00  0.00000000E+00
  0.00000000E+00  0.00000000E+00  0.00000000E+00
  0.00000000E+00  0.00000000E+00  0.00000000E+00
  0.00000000E+00  0.00000000E+00  0.00000000E+00
  0.00000000E+00  0.00000000E+00  0.00000000E+00
  0.00000000E+00  0.00000000E+00  0.00000000E+00
  0.00000000E+00  0.00000000E+00  0.00000000E+00
  0.00000000E+00  0.00000000E+00  0.00000000E+00
  0.00000000E+00  0.00000000E+00  0.00000000E+00
  0.00000000E+00  0.00000000E+00  0.00000000E+00
  0.00000000E+00  0.00000000E+00  0.00000000E+00
  0.00000000E+00  0.00000000E+00  0.00000000E+00
  0.00000000E+00  0.00000000E+00  0.00000000E+00
  0.00000000E+00  0.00000000E+00  0.00000000E+00
  0.00000000E+00  0.00000000E+00  0.00000000E+00
  0.00000000E+00  0.00000000E+00  0.00000000E+00
  0.00000000E+00  0.00000000E+00  0.00000000E+00
  0.00000000E+00  0.00000000E+00  0.00000000E+00
  0.00000000E+00  0.00000000E+00  0.00000000E+00
  0.00000000E+00  0.00000000E+00  0.00000000E+00
  0.00000000E+00  0.00000000E+00  0.00000000E+00
  0.00000000E+00  0.00000000E+00  0.00000000E+00
  0.00000000E+00  0.00000000E+00  0.00000000E+00
  0.00000000E+00  0.00000000E+00  0.00000000E+00
  0.00000000E+00  0.00000000E+00  0.00000000E+00
  0.00000000E+00  0.00000000E+00  0.00000000E+00
  0.00000000E+00  0.00000000E+00  0.00000000E+00
  0.00000000E+00  0.00000000E+00  0.00000000E+00
  0.00000000E+00  0.00000000E+00  0.00000000E+00
  0.00000000E+00  0.00000000E+00  0.00000000E+00
  0.00000000E+00  0.00000000E+00  0.00000000E+00
  0.00000000E+00  0.00000000E+00  0.00000000E+00
  0.00000000E+00  0.00000000E+00  0.00000000E+00
  0.00000000E+00  0.00000000E+00  0.00000000E+00
  0.00000000E+00  0.00000000E+00  0.00000000E+00
  0.00000000E+00  0.00000000E+00  0.00000000E+00
  0.00000000E+00  0.00000000E+00  0.00000000E+00
  0.00000000E+00  0.00000000E+00  0.00000000E+00
  0.00000000E+00  0.00000000E+00  0.00000000E+00
  0.00000000E+00  0.00000000E+00  0.00000000E+00
  0.00000000E+00  0.00000000E+00  0.00000000E+00
  0.00000000E+00  0.00000000E+00  0.00000000E+00
  0.00000000E+00  0.00000000E+00  0.00000000E+00
  0.00000000E+00  0.00000000E+00  0.00000000E+00
  0.00000000E+00  0.00000000E+00  0.00000000E+00
  0.00000000E+00  0.00000000E+00  0.00000000E+00
  0.00000000E+00  0.00000000E+00  0.00000000E+00
  0.00000000E+00  0.00000000E+00  0.00000000E+00
  0.00000000E+00  0.00000000E+00  0.00000000E+00
  0.00000000E+00  0.00000000E+00  0.00000000E+00
  0.00000000E+00  0.00000000E+00  0.00000000E+00
  0.00000000E+00  0.00000000E+00  0.00000000E+00
  0.00000000E+00  0.00000000E+00  0.00000000E+00
  0.00000000E+00  0.00000000E+00  0.00000000E+00
  0.00000000E+00  0.00000000E+00  0.00000000E+00
  0.00000000E+00  0.00000000E+00  0.00000000E+00
  0.00000000E+00  0.00000000E+00  0.00000000E+00
  0.00000000E+00  0.00000000E+00  0.00000000E+00
  0.00000000E+00  0.00000000E+00  0.00000000E+00
  0.00000000E+00  0.00000000E+00  0.00000000E+00
  0.00000000E+00  0.00000000E+00  0.00000000E+00
  0.00000000E+00  0.00000000E+00  0.00000000E+00
  0.00000000E+00  0.00000000E+00  0.00000000E+00
  0.00000000E+00  0.00000000E+00  0.00000000E+00
  0.00000000E+00  0.00000000E+00  0.00000000E+00
  0.00000000E+00  0.00000000E+00  0.00000000E+00
  0.00000000E+00  0.00000000E+00  0.00000000E+00
  0.00000000E+00  0.00000000E+00  0.00000000E+00
  0.00000000E+00  0.00000000E+00  0.00000000E+00
  0.00000000E+00  0.00000000E+00  0.00000000E+00
  0.00000000E+00  0.00000000E+00  0.00000000E+00
  0.00000000E+00  0.00000000E+00  0.00000000E+00
  0.00000000E+00  0.00000000E+00  0.00000000E+00
  0.00000000E+00  0.00000000E+00  0.00000000E+00
  0.00000000E+00  0.00000000E+00  0.00000000E+00
  0.00000000E+00  0.00000000E+00  0.00000000E+00
  0.00000000E+00  0.00000000E+00  0.00000000E+00
  0.00000000E+00  0.00000000E+00  0.00000000E+00
  0.00000000E+00  0.00000000E+00  0.00000000E+00
  0.00000000E+00  0.00000000E+00  0.00000000E+00
  0.00000000E+00  0.00000000E+00  0.00000000E+00
  0.00000000E+00  0.00000000E+00  0.00000000E+00
