CeO2-you-111-you-Zr                     
   1.00000000000000     
     9.8661272674094604   -5.6879587065200212    0.0098847317255127
    -0.0000000023323471   11.3759154071379758   -0.0000000011759713
     0.0218867404599731   -0.0000000022766209   20.9392899134419928
   O    Zr   Ce   H 
    53     1    26     2
Selective dynamics
Direct
 -0.0001040427769039  0.0005189582887123  0.9947983654691849   T   T   T
  0.1166043514453108  0.2249686757229057  0.1510186049269393   F   F   F
  0.2230755983009052  0.1144620189111642  0.3041976483079016   T   T   T
  0.1183287553370432  0.2244488079914435  0.3855138462402659   T   T   T
  0.0004511614924487  0.0008603208668573  0.2284321062309312   T   T   T
  0.2199991627626190  0.1093179598197977  0.0742383045013568   F   F   F
  0.3344598933775164  0.0009202248747558  0.9946536868568168   T   T   T
  0.4393720843566058  0.2130954003210803  0.1474119055563037   F   F   F
  0.5495901025649488  0.1084875948166456  0.3048357504503840   T   T   T
  0.4302280315122975  0.2338741785209421  0.3890665259637220   T   T   T
  0.3308767876591184 -0.0014037937760047  0.2295833160137349   T   T   T
  0.5562724621705044  0.1096388333371721  0.0746270019978112   F   F   F
  0.6693403397828509  0.0014123649156885  0.9949178683624964   T   T   T
  0.7747455299264203  0.2232584917609728  0.1510270298398879   F   F   F
  0.8913814710750533  0.1112090732161548  0.3042314710445901   T   T   T
  0.7818245790322075  0.2167096215433940  0.3882723580488688   T   T   T
  0.6680717832005230  0.0024223458744510  0.2293982590929997   T   T   T
  0.8899425251489319  0.1116377625744818  0.0768567877471540   F   F   F
 -0.0001494844695656  0.3319726380372335  0.9946712640569308   T   T   T
  0.1109003968243627  0.5556377653130653  0.1503847053161707   F   F   F
  0.2132129274260696  0.4293607559324177  0.3026047377247321   T   T   T
  0.0980181409105563  0.5446592537905084  0.3863517801704512   T   T   T
  0.9982723334722107  0.3316217816501824  0.2273972059103285   T   T   T
  0.2199991627624556  0.4440142029426681  0.0742383045013781   F   F   F
  0.3322236671681026  0.3327604873802872  0.9949717630931411   T   T   T
  0.4393720843564566  0.5596106840358743  0.1474119055563179   F   F   F
  0.4442376195628402  0.5044657295660122  0.3720525862104367   T   T   T
  0.3545774351547676  0.3421605778558185  0.2375673930046129   T   T   T
  0.5561230028579516  0.4447275014289289  0.0705602801891985   F   F   F
  0.6682100451125538  0.3329779668660987  0.9948229333869527   T   T   T
  0.7863772460740037  0.5598556230366967  0.1472507451790293   F   F   F
  0.8910690565230771  0.4407276243452163  0.3023314172387095   T   T   T
  0.7876146023938457  0.5585910241631896  0.3856714917182500   T   T   T
  0.6559633799600312  0.3439605413614572  0.2332279189289129   T   T   T
  0.8905153955837051  0.4436918161274903  0.0745692261535638   F   F   F
  0.0006114771433074  0.6674038568335886  0.9945688132043814   T   T   T
  0.1109003968246469  0.8885966315116676  0.1503847053161564   F   F   F
  0.2203544250026343  0.7761138069636758  0.3040708340934920   T   T   T
  0.1136823864665038  0.8893331009019095  0.3853000464105144   T   T   T
 -0.0011793534389982  0.6657574679616837  0.2292327869831260   T   T   T
  0.2229486583303029  0.7781413291652512  0.0748121781157565   F   F   F
  0.3342208786491358  0.6666849695130809  0.9944141657909457   T   T   T
  0.4449618383023051  0.8891479191513554  0.1510669208566711   F   F   F
  0.5602435824708346  0.7838077664462524  0.3050296295678755   T   T   T
  0.4462760393832728  0.8983964526502340  0.3876581453955639   T   T   T
  0.3323153965311016  0.6636746055258917  0.2289185714208642   T   T   T
  0.5562724621705399  0.7799666288332574  0.0746270019978681   F   F   F
  0.6683175098476182  0.6689728209232394  0.9949501858758431   T   T   T
  0.7747455299268466  0.8848200381652731  0.1510270298398240   F   F   F
  0.8953788347298838  0.7838656823328261  0.3036303112426743   T   T   T
  0.7870844699546165  0.9025100960659735  0.3893912414209669   T   T   T
  0.6580226313717830  0.6465758056660146  0.2323522056799325   T   T   T
  0.8905153955838330  0.7801565794562322  0.0745692261536064   F   F   F
  0.3011508600335169  0.3214451245498836  0.3385806795866310   T   T   T
 -0.0001850580743709 -0.0018192150211664  0.3447949490152771   T   T   T
  0.2218366156084173  0.1099955705758831  0.1896113367939307   F   F   F
  0.1114051890956063  0.2223690945479291  0.0347354581939214   F   F   F
  0.3284966679914456  0.9894166028294806  0.3431471273918946   T   T   T
  0.5554477237039919  0.1117300942267079  0.1909965093547328   F   F   F
  0.4440475611313062  0.2204994880730666  0.0339906035372408   F   F   F
  0.6655376047092064  0.9990127820751292  0.3456150077810093   T   T   T
  0.8882578584103129  0.1107954292050195  0.1902791613892845   F   F   F
  0.7782476469431572  0.2224165289548949  0.0351153007701299   F   F   F
 -0.0035423443822326  0.3319004678168306  0.3449993986348489   T   T   T
  0.2218366156109184  0.4451740450327293  0.1896113367938170   F   F   F
  0.1109216898071708  0.5549441078949755  0.0347049890462259   F   F   F
  0.5557495465864051  0.4445407732937383  0.1835467248654936   F   F   F
  0.4440475611304180  0.5568820730581550  0.0339906035373474   F   F   F
  0.6761758056480384  0.3314511475148893  0.3512471243787400   T   T   T
  0.8879454102324473  0.4445807206206069  0.1903823258114983   F   F   F
  0.7797507820218570  0.5565423910108436  0.0339813792144099   F   F   F
 -0.0010137739967686  0.6632837991315373  0.3447643979224097   T   T   T
  0.2219265990809589  0.7776302995401849  0.1889537882443051   F   F   F
  0.1109216898067018  0.8893115819118407  0.0347049890462756   F   F   F
  0.3322969845869723  0.6612086507868425  0.3465312317845837   T   T   T
  0.5554477237046527  0.7770506294774435  0.1909965093547541   F   F   F
  0.4459531390078055  0.8896435695037681  0.0352013123532871   F   F   F
  0.6755947394889247  0.6769101021281873  0.3520794819558141   T   T   T
  0.8879454102314099  0.7766976896122628  0.1903823258116049   F   F   F
  0.7782476469425248  0.8891641179880381  0.0351153007701654   F   F   F
  0.3057968466419799  0.3406039193782463  0.4524945141071383   T   T   T
  0.4247175094288779  0.2560952865465745  0.4336241619935224   T   T   T
 
  0.00000000E+00  0.00000000E+00  0.00000000E+00
  0.00000000E+00  0.00000000E+00  0.00000000E+00
  0.00000000E+00  0.00000000E+00  0.00000000E+00
  0.00000000E+00  0.00000000E+00  0.00000000E+00
  0.00000000E+00  0.00000000E+00  0.00000000E+00
  0.00000000E+00  0.00000000E+00  0.00000000E+00
  0.00000000E+00  0.00000000E+00  0.00000000E+00
  0.00000000E+00  0.00000000E+00  0.00000000E+00
  0.00000000E+00  0.00000000E+00  0.00000000E+00
  0.00000000E+00  0.00000000E+00  0.00000000E+00
  0.00000000E+00  0.00000000E+00  0.00000000E+00
  0.00000000E+00  0.00000000E+00  0.00000000E+00
  0.00000000E+00  0.00000000E+00  0.00000000E+00
  0.00000000E+00  0.00000000E+00  0.00000000E+00
  0.00000000E+00  0.00000000E+00  0.00000000E+00
  0.00000000E+00  0.00000000E+00  0.00000000E+00
  0.00000000E+00  0.00000000E+00  0.00000000E+00
  0.00000000E+00  0.00000000E+00  0.00000000E+00
  0.00000000E+00  0.00000000E+00  0.00000000E+00
  0.00000000E+00  0.00000000E+00  0.00000000E+00
  0.00000000E+00  0.00000000E+00  0.00000000E+00
  0.00000000E+00  0.00000000E+00  0.00000000E+00
  0.00000000E+00  0.00000000E+00  0.00000000E+00
  0.00000000E+00  0.00000000E+00  0.00000000E+00
  0.00000000E+00  0.00000000E+00  0.00000000E+00
  0.00000000E+00  0.00000000E+00  0.00000000E+00
  0.00000000E+00  0.00000000E+00  0.00000000E+00
  0.00000000E+00  0.00000000E+00  0.00000000E+00
  0.00000000E+00  0.00000000E+00  0.00000000E+00
  0.00000000E+00  0.00000000E+00  0.00000000E+00
  0.00000000E+00  0.00000000E+00  0.00000000E+00
  0.00000000E+00  0.00000000E+00  0.00000000E+00
  0.00000000E+00  0.00000000E+00  0.00000000E+00
  0.00000000E+00  0.00000000E+00  0.00000000E+00
  0.00000000E+00  0.00000000E+00  0.00000000E+00
  0.00000000E+00  0.00000000E+00  0.00000000E+00
  0.00000000E+00  0.00000000E+00  0.00000000E+00
  0.00000000E+00  0.00000000E+00  0.00000000E+00
  0.00000000E+00  0.00000000E+00  0.00000000E+00
  0.00000000E+00  0.00000000E+00  0.00000000E+00
  0.00000000E+00  0.00000000E+00  0.00000000E+00
  0.00000000E+00  0.00000000E+00  0.00000000E+00
  0.00000000E+00  0.00000000E+00  0.00000000E+00
  0.00000000E+00  0.00000000E+00  0.00000000E+00
  0.00000000E+00  0.00000000E+00  0.00000000E+00
  0.00000000E+00  0.00000000E+00  0.00000000E+00
  0.00000000E+00  0.00000000E+00  0.00000000E+00
  0.00000000E+00  0.00000000E+00  0.00000000E+00
  0.00000000E+00  0.00000000E+00  0.00000000E+00
  0.00000000E+00  0.00000000E+00  0.00000000E+00
  0.00000000E+00  0.00000000E+00  0.00000000E+00
  0.00000000E+00  0.00000000E+00  0.00000000E+00
  0.00000000E+00  0.00000000E+00  0.00000000E+00
  0.00000000E+00  0.00000000E+00  0.00000000E+00
  0.00000000E+00  0.00000000E+00  0.00000000E+00
  0.00000000E+00  0.00000000E+00  0.00000000E+00
  0.00000000E+00  0.00000000E+00  0.00000000E+00
  0.00000000E+00  0.00000000E+00  0.00000000E+00
  0.00000000E+00  0.00000000E+00  0.00000000E+00
  0.00000000E+00  0.00000000E+00  0.00000000E+00
  0.00000000E+00  0.00000000E+00  0.00000000E+00
  0.00000000E+00  0.00000000E+00  0.00000000E+00
  0.00000000E+00  0.00000000E+00  0.00000000E+00
  0.00000000E+00  0.00000000E+00  0.00000000E+00
  0.00000000E+00  0.00000000E+00  0.00000000E+00
  0.00000000E+00  0.00000000E+00  0.00000000E+00
  0.00000000E+00  0.00000000E+00  0.00000000E+00
  0.00000000E+00  0.00000000E+00  0.00000000E+00
  0.00000000E+00  0.00000000E+00  0.00000000E+00
  0.00000000E+00  0.00000000E+00  0.00000000E+00
  0.00000000E+00  0.00000000E+00  0.00000000E+00
  0.00000000E+00  0.00000000E+00  0.00000000E+00
  0.00000000E+00  0.00000000E+00  0.00000000E+00
  0.00000000E+00  0.00000000E+00  0.00000000E+00
  0.00000000E+00  0.00000000E+00  0.00000000E+00
  0.00000000E+00  0.00000000E+00  0.00000000E+00
  0.00000000E+00  0.00000000E+00  0.00000000E+00
  0.00000000E+00  0.00000000E+00  0.00000000E+00
  0.00000000E+00  0.00000000E+00  0.00000000E+00
  0.00000000E+00  0.00000000E+00  0.00000000E+00
  0.00000000E+00  0.00000000E+00  0.00000000E+00
  0.00000000E+00  0.00000000E+00  0.00000000E+00
