CeO2-you-111-you-Ce                     
   1.00000000000000     
     9.8761064212428185   -5.7019730689266668    0.0000000004117460
     0.0177447740355906   11.4346789792161196    0.0078872358064599
     0.0083789126814258    0.0145127000284807   21.2012601894147039
   O    Ce   Ce   H 
    53     1    26     2
Selective dynamics
Direct
 -0.0001251113201437 -0.0000135340797894  0.9976829766009703   T   T   T
  0.1103401383859719  0.2221698535502554  0.1492635762658807   F   F   F
  0.2297382405759179  0.1144767342586323  0.3034697431660968   T   T   T
  0.1132858203803102  0.2207504070001103  0.3807290894128999   T   T   T
  0.0030186757410775  0.0011741655474662  0.2282685001510601   T   T   T
  0.2219605498715467  0.1105880997431186  0.0756062423659358   F   F   F
  0.3336062038012281  0.0001929817713679  0.9974741239816424   T   T   T
  0.4451627151642157  0.2221698535502910  0.1492635762658949   F   F   F
  0.5478316985831587  0.1099545373084529  0.3034768990130127   T   T   T
  0.4327946451558269  0.2159289205068575  0.4001261073620168   T   T   T
  0.3305601529913421  0.9979693212487816  0.2272953166844199   T   T   T
  0.5560853415891245  0.1112336140263537  0.0762011002668288   F   F   F
  0.6669205280345923  0.9994391781730655  0.9981946786355584   T   T   T
  0.7784255641478524  0.2235171282957040  0.1512472957854811   F   F   F
  0.8904651339834809  0.1095845033986052  0.3021821463424105   T   T   T
  0.7836425650717992  0.2161497045725320  0.3824378962543111   T   T   T
  0.6654387949689243  0.9994002978899377  0.2299692722409585   T   T   T
  0.8884822724371944  0.1112336140263395  0.0762011002668217   F   F   F
  0.0002612819528572  0.3326514338118421  0.9978683597990220   T   T   T
  0.1099265128056572  0.5544015566806522  0.1493142494446715   F   F   F
  0.2271713463484389  0.4424185754920043  0.3051716068699644   T   T   T
  0.0967028430702364  0.5482922886398109  0.3837722034198610   T   T   T
  0.0026475830777578  0.3337190321402945  0.2293511767629460   T   T   T
  0.2227243562459122  0.4448155870405515  0.0765682317156475   F   F   F
  0.3327986192293834  0.3329023337427969  0.9982188004527411   T   T   T
  0.4440635973204863  0.5547951946409313  0.1509757548299717   F   F   F
  0.5405111441935887  0.4465056746602931  0.3087181431209550   T   T   T
  0.3302995785469097  0.3297804160625274  0.2274832380255599   T   T   T
  0.5554252307946470  0.4448155870405586  0.0765682317156404   F   F   F
  0.6663163991902896  0.3333525305408923  0.9978353453945593   T   T   T
  0.7778080438751402  0.5544015566807019  0.1493142494446644   F   F   F
  0.8920450614561485  0.4468465007550352  0.3013043264911400   T   T   T
  0.7853632259877438  0.5719119262951095  0.3827934604156911   T   T   T
  0.6642224244547679  0.3361983690456228  0.2283461399646719   T   T   T
  0.8886730117362234  0.4440120234724034  0.0754179963086798   F   F   F
  0.0003098107386431  0.6676159034372517  0.9978502121967302   T   T   T
  0.1107343719959815  0.8881357439919597  0.1486486640366920   F   F   F
  0.2189446965276582  0.7794193367360759  0.3026824804458664   T   T   T
  0.1113472333320822  0.8907656224360299  0.3815183639474800   T   T   T
 -0.0002636274567193  0.6679685208742361  0.2275484633267743   T   T   T
  0.2226494063082995  0.7779333327539248  0.0758181441578571   F   F   F
  0.3335867513806401  0.6666701691541833  0.9982021137476459   T   T   T
  0.4454461255445779  0.8897644787756889  0.1501165718189483   F   F   F
  0.5598626838028320  0.7751923305985601  0.3058351230979669   T   T   T
  0.4495911485417332  0.9015931004772334  0.3846546038918013   T   T   T
  0.3331187119629364  0.6672139312849074  0.2275574617225450   T   T   T
  0.5552876693527011  0.7772413387054016  0.0769751736746400   F   F   F
  0.6663948172756188  0.6672402880066794  0.9980898817431029   T   T   T
  0.7776513532311427  0.8897644787757528  0.1501165718189341   F   F   F
  0.8916677167724992  0.7818424482333263  0.3010788795972843   T   T   T
  0.7827765256051182  0.8911318077819993  0.3826287487986547   T   T   T
  0.6686476946961198  0.6655557387636484  0.2288030645465237   T   T   T
  0.8886169264456001  0.7779333327539391  0.0758181441578500   F   F   F
  0.3221455076208568  0.3268774086553874  0.3377669530864610   T   T   T
  0.0008449107453071  0.0000857862759756  0.3418782546263376   T   T   T
  0.2208619324285408  0.1083908648567160  0.1870464526772295   F   F   F
  0.1108633431843913  0.2224998813181926  0.0369246634653848   F   F   F
  0.3305702245250610  0.9919030430717631  0.3410592937258795   T   T   T
  0.5549460741633965  0.1110921617867575  0.1898430927010537   F   F   F
  0.4449695381337904  0.2224998813181855  0.0369246634653848   F   F   F
  0.6673150275250037  0.0018373748176011  0.3429811497185780   T   T   T
  0.8894800876236104  0.1110921617868144  0.1898430927010679   F   F   F
  0.7778035604580680  0.2222731209161424  0.0373437870265292   F   F   F
 -0.0020929582997890  0.3338507863022477  0.3421807904892729   T   T   T
  0.2231292838766521  0.4448396024804424  0.1895299134708708   F   F   F
  0.1112977561904245  0.5555579567913611  0.0371302995648222   F   F   F
  0.5550443186033718  0.4448396024801582  0.1895299134708708   F   F   F
  0.4446688047750484  0.5560056095500983  0.0374251017466420   F   F   F
  0.6709518000522983  0.3375726212239559  0.3450112131037791   T   T   T
  0.8892986968675061  0.4452633937352743  0.1892992028295595   F   F   F
  0.7775932006009185  0.5555579567913611  0.0371302995648222   F   F   F
 -0.0005008998749346  0.6658850922979382  0.3421027472725432   T   T   T
  0.2217708302484809  0.7778404543248314  0.1883990422703476   F   F   F
  0.1111201849365671  0.8889073698730812  0.0358520047100725   F   F   F
  0.3298225558556696  0.6701800619939294  0.3456221066544217   T   T   T
  0.5555132567146117  0.7776925134293364  0.1909517559952505   F   F   F
  0.4450180127767496  0.8891370440606323  0.0374577900403423   F   F   F
  0.6775730105966099  0.6742837177799812  0.3411212386123880   T   T   T
  0.8894026240764177  0.7778404543248314  0.1883990422703690   F   F   F
  0.7774520312839286  0.8891370440606323  0.0374577900403423   F   F   F
  0.4488474359155178  0.5523029771147828  0.3900553736640897   T   T   T
  0.4224886878155478  0.2132144992183835  0.4457498774116712   T   T   T
 
  0.00000000E+00  0.00000000E+00  0.00000000E+00
  0.00000000E+00  0.00000000E+00  0.00000000E+00
  0.00000000E+00  0.00000000E+00  0.00000000E+00
  0.00000000E+00  0.00000000E+00  0.00000000E+00
  0.00000000E+00  0.00000000E+00  0.00000000E+00
  0.00000000E+00  0.00000000E+00  0.00000000E+00
  0.00000000E+00  0.00000000E+00  0.00000000E+00
  0.00000000E+00  0.00000000E+00  0.00000000E+00
  0.00000000E+00  0.00000000E+00  0.00000000E+00
  0.00000000E+00  0.00000000E+00  0.00000000E+00
  0.00000000E+00  0.00000000E+00  0.00000000E+00
  0.00000000E+00  0.00000000E+00  0.00000000E+00
  0.00000000E+00  0.00000000E+00  0.00000000E+00
  0.00000000E+00  0.00000000E+00  0.00000000E+00
  0.00000000E+00  0.00000000E+00  0.00000000E+00
  0.00000000E+00  0.00000000E+00  0.00000000E+00
  0.00000000E+00  0.00000000E+00  0.00000000E+00
  0.00000000E+00  0.00000000E+00  0.00000000E+00
  0.00000000E+00  0.00000000E+00  0.00000000E+00
  0.00000000E+00  0.00000000E+00  0.00000000E+00
  0.00000000E+00  0.00000000E+00  0.00000000E+00
  0.00000000E+00  0.00000000E+00  0.00000000E+00
  0.00000000E+00  0.00000000E+00  0.00000000E+00
  0.00000000E+00  0.00000000E+00  0.00000000E+00
  0.00000000E+00  0.00000000E+00  0.00000000E+00
  0.00000000E+00  0.00000000E+00  0.00000000E+00
  0.00000000E+00  0.00000000E+00  0.00000000E+00
  0.00000000E+00  0.00000000E+00  0.00000000E+00
  0.00000000E+00  0.00000000E+00  0.00000000E+00
  0.00000000E+00  0.00000000E+00  0.00000000E+00
  0.00000000E+00  0.00000000E+00  0.00000000E+00
  0.00000000E+00  0.00000000E+00  0.00000000E+00
  0.00000000E+00  0.00000000E+00  0.00000000E+00
  0.00000000E+00  0.00000000E+00  0.00000000E+00
  0.00000000E+00  0.00000000E+00  0.00000000E+00
  0.00000000E+00  0.00000000E+00  0.00000000E+00
  0.00000000E+00  0.00000000E+00  0.00000000E+00
  0.00000000E+00  0.00000000E+00  0.00000000E+00
  0.00000000E+00  0.00000000E+00  0.00000000E+00
  0.00000000E+00  0.00000000E+00  0.00000000E+00
  0.00000000E+00  0.00000000E+00  0.00000000E+00
  0.00000000E+00  0.00000000E+00  0.00000000E+00
  0.00000000E+00  0.00000000E+00  0.00000000E+00
  0.00000000E+00  0.00000000E+00  0.00000000E+00
  0.00000000E+00  0.00000000E+00  0.00000000E+00
  0.00000000E+00  0.00000000E+00  0.00000000E+00
  0.00000000E+00  0.00000000E+00  0.00000000E+00
  0.00000000E+00  0.00000000E+00  0.00000000E+00
  0.00000000E+00  0.00000000E+00  0.00000000E+00
  0.00000000E+00  0.00000000E+00  0.00000000E+00
  0.00000000E+00  0.00000000E+00  0.00000000E+00
  0.00000000E+00  0.00000000E+00  0.00000000E+00
  0.00000000E+00  0.00000000E+00  0.00000000E+00
  0.00000000E+00  0.00000000E+00  0.00000000E+00
  0.00000000E+00  0.00000000E+00  0.00000000E+00
  0.00000000E+00  0.00000000E+00  0.00000000E+00
  0.00000000E+00  0.00000000E+00  0.00000000E+00
  0.00000000E+00  0.00000000E+00  0.00000000E+00
  0.00000000E+00  0.00000000E+00  0.00000000E+00
  0.00000000E+00  0.00000000E+00  0.00000000E+00
  0.00000000E+00  0.00000000E+00  0.00000000E+00
  0.00000000E+00  0.00000000E+00  0.00000000E+00
  0.00000000E+00  0.00000000E+00  0.00000000E+00
  0.00000000E+00  0.00000000E+00  0.00000000E+00
  0.00000000E+00  0.00000000E+00  0.00000000E+00
  0.00000000E+00  0.00000000E+00  0.00000000E+00
  0.00000000E+00  0.00000000E+00  0.00000000E+00
  0.00000000E+00  0.00000000E+00  0.00000000E+00
  0.00000000E+00  0.00000000E+00  0.00000000E+00
  0.00000000E+00  0.00000000E+00  0.00000000E+00
  0.00000000E+00  0.00000000E+00  0.00000000E+00
  0.00000000E+00  0.00000000E+00  0.00000000E+00
  0.00000000E+00  0.00000000E+00  0.00000000E+00
  0.00000000E+00  0.00000000E+00  0.00000000E+00
  0.00000000E+00  0.00000000E+00  0.00000000E+00
  0.00000000E+00  0.00000000E+00  0.00000000E+00
  0.00000000E+00  0.00000000E+00  0.00000000E+00
  0.00000000E+00  0.00000000E+00  0.00000000E+00
  0.00000000E+00  0.00000000E+00  0.00000000E+00
  0.00000000E+00  0.00000000E+00  0.00000000E+00
  0.00000000E+00  0.00000000E+00  0.00000000E+00
  0.00000000E+00  0.00000000E+00  0.00000000E+00
