CeO2-you-111-you-Zr                     
   1.00000000000000     
     9.8661272674094604   -5.6879587065200212    0.0098847317255127
    -0.0000000023323471   11.3759154071379758   -0.0000000011759713
     0.0218867404599731   -0.0000000022766209   20.9392899134419928
   O    Zr   Ce   H 
    53     1    26     1
Selective dynamics
Direct
 -0.0000435974283165  0.0004084549981493  0.9935710901785868   T   T   T
  0.1184004317093835  0.2248545200550719  0.1507104713946417   T   T   T
  0.2249913961904577  0.1128646867830359  0.3060971485938943   T   T   T
  0.1204070225313355  0.2283466596129306  0.3835752315542152   T   T   T
  0.0019194190309070  0.0013398925260723  0.2291876324167257   T   T   T
  0.2208051672236801  0.1097306307896181  0.0725771829287768   T   T   T
  0.3346557800493113 -0.0005702130249289  0.9937512630781806   T   T   T
  0.4387186449829433  0.2124655640659329  0.1473627113655146   T   T   T
  0.5452393314823052  0.1023528478708608  0.3098855221659973   T   T   T
  0.4314408870315418  0.2482276218732585  0.3890702842960591   T   T   T
  0.3305278891696482  0.9964010214511984  0.2305942293640062   T   T   T
  0.5561084522624035  0.1095606021044942  0.0745468292175384   T   T   T
  0.6694456885278494  0.0011706815882909  0.9947138198372965   T   T   T
  0.7748360869322217  0.2225715983211451  0.1508862041576365   T   T   T
  0.8914265188268565  0.1114115115873710  0.3046806748977730   T   T   T
  0.7827335350579077  0.2160497614079668  0.3881592023474115   T   T   T
  0.6673264506791434  0.0014632618819154  0.2311681494405386   T   T   T
  0.8912605332365451  0.1123495366242396  0.0760418470188705   T   T   T
  0.0003858395509881  0.3323402457565763  0.9930418992059562   T   T   T
  0.1111391266725238  0.5548400855937351  0.1490610283315414   T   T   T
  0.2138526558863699  0.4384188195602219  0.3030385066348275   T   T   T
  0.1149907626093914  0.5547774982047680  0.3860975050464574   T   T   T
  0.9988721528445337  0.3308407007931720  0.2278313217220734   T   T   T
  0.2203602309813542  0.4431916956403696  0.0725672471089857   T   T   T
  0.3325656115630971  0.3325804850299056  0.9930681684486999   T   T   T
  0.4392446312507421  0.5593615856475063  0.1464653523436714   T   T   T
  0.4362551830084472  0.5151598570669076  0.3716260607743807   T   T   T
  0.3415972718589249  0.3377087217047502  0.2390471599320545   T   T   T
  0.5561322385194788  0.4437741764756726  0.0694658117457947   T   T   T
  0.6686242937116873  0.3317575356561189  0.9938595442948627   T   T   T
  0.7873404639062914  0.5594383215451245  0.1460187384028361   T   T   T
  0.8980007227422649  0.4448004585683898  0.3045900218980837   T   T   T
  0.7866997847196948  0.5581457205314307  0.3850725923982733   T   T   T
  0.6633834069017439  0.3342594965021469  0.2349929361043391   T   T   T
  0.8907343398808688  0.4426385007733020  0.0731362309646792   T   T   T
  0.0013138417280008  0.6670658857937332  0.9934718105616126   T   T   T
  0.1118098532502737  0.8887021027298000  0.1494518855649574   T   T   T
  0.2217613819569690  0.7739019122604196  0.3043334593992890   T   T   T
  0.1152979382252946  0.8889161652521472  0.3863999788874944   T   T   T
 -0.0002033271134939  0.6657489826290504  0.2297100688438426   T   T   T
  0.2232143666327747  0.7770697487330781  0.0739769415404617   T   T   T
  0.3347395400985341  0.6672478253243705  0.9935977458528913   T   T   T
  0.4447125805088897  0.8878323777601276  0.1511941701822542   T   T   T
  0.5497940267577230  0.7799063876770418  0.3075155769061650   T   T   T
  0.4344771082746087  0.8798122444213189  0.3879101481354331   T   T   T
  0.3316620155874944  0.6632078710527322  0.2305492362198326   T   T   T
  0.5574919056128818  0.7799548201312326  0.0740612371467417   T   T   T
  0.6690400136038298  0.6694557154484869  0.9939991995318112   T   T   T
  0.7762950128606220  0.8862889735333772  0.1512557999987344   T   T   T
  0.9001178351123935  0.7856933621024067  0.3052775020542989   T   T   T
  0.7845520674034550  0.9014698733085608  0.3878346247923159   T   T   T
  0.6658824892657352  0.6622737929164937  0.2344100998023155   T   T   T
  0.8906779276430138  0.7804364072565628  0.0734268305454659   T   T   T
  0.3026985177356543  0.3264875346120432  0.3369726881894374   T   T   T
  0.0016771712412439 -0.0001784688542387  0.3439334943730524   T   T   T
  0.2233579229356004  0.1097505782906576  0.1896833324100981   T   T   T
  0.1120650250936875  0.2220932692950377  0.0331881858200449   T   T   T
  0.3264252824213602  0.9881048529619008  0.3438311017992143   T   T   T
  0.5546107790542489  0.1113767386838621  0.1913589958738493   T   T   T
  0.4443013944214753  0.2200946578506851  0.0329497411252083   T   T   T
  0.6653146398946675  0.9979671648829938  0.3459692725428008   T   T   T
  0.8892327827371652  0.1111320456777071  0.1897510232138220   T   T   T
  0.7783623269206945  0.2220566747448199  0.0344041919257387   T   T   T
 -0.0017960325921774  0.3317180954458093  0.3444688900844544   T   T   T
  0.2222099916347403  0.4448461092727357  0.1877084892333520   T   T   T
  0.1111915869464862  0.5544188120983820  0.0332256387478079   T   T   T
  0.5569691877865603  0.4452637560646798  0.1824823050015894   T   T   T
  0.4448687184906056  0.5568401695287863  0.0326575407812844   T   T   T
  0.6781193691013371  0.3309597706144538  0.3496551576259788   T   T   T
  0.8875408978696346  0.4436107426829555  0.1896733719595980   T   T   T
  0.7803197517915934  0.5563738487897187  0.0329218537341083   T   T   T
 -0.0005543639486064  0.6646301390022220  0.3450466669225077   T   T   T
  0.2213235302081603  0.7758837293772711  0.1881620360478854   T   T   T
  0.1114297832495304  0.8892158120403276  0.0339609814168179   T   T   T
  0.3306357840614222  0.6619406426471526  0.3437372089777297   T   T   T
  0.5556662518373547  0.7758976825195095  0.1913408852030397   T   T   T
  0.4463255345632843  0.8892881289389393  0.0350542441988239   T   T   T
  0.6742391515944560  0.6764256625618608  0.3508891766778919   T   T   T
  0.8882161763028420  0.7761945369968289  0.1904381376009975   T   T   T
  0.7788298990608589  0.8892275883215490  0.0346391356772756   T   T   T
  0.4344460080725842  0.2699387310536908  0.4342943172586123   T   T   T
 
  0.00000000E+00  0.00000000E+00  0.00000000E+00
  0.00000000E+00  0.00000000E+00  0.00000000E+00
  0.00000000E+00  0.00000000E+00  0.00000000E+00
  0.00000000E+00  0.00000000E+00  0.00000000E+00
  0.00000000E+00  0.00000000E+00  0.00000000E+00
  0.00000000E+00  0.00000000E+00  0.00000000E+00
  0.00000000E+00  0.00000000E+00  0.00000000E+00
  0.00000000E+00  0.00000000E+00  0.00000000E+00
  0.00000000E+00  0.00000000E+00  0.00000000E+00
  0.00000000E+00  0.00000000E+00  0.00000000E+00
  0.00000000E+00  0.00000000E+00  0.00000000E+00
  0.00000000E+00  0.00000000E+00  0.00000000E+00
  0.00000000E+00  0.00000000E+00  0.00000000E+00
  0.00000000E+00  0.00000000E+00  0.00000000E+00
  0.00000000E+00  0.00000000E+00  0.00000000E+00
  0.00000000E+00  0.00000000E+00  0.00000000E+00
  0.00000000E+00  0.00000000E+00  0.00000000E+00
  0.00000000E+00  0.00000000E+00  0.00000000E+00
  0.00000000E+00  0.00000000E+00  0.00000000E+00
  0.00000000E+00  0.00000000E+00  0.00000000E+00
  0.00000000E+00  0.00000000E+00  0.00000000E+00
  0.00000000E+00  0.00000000E+00  0.00000000E+00
  0.00000000E+00  0.00000000E+00  0.00000000E+00
  0.00000000E+00  0.00000000E+00  0.00000000E+00
  0.00000000E+00  0.00000000E+00  0.00000000E+00
  0.00000000E+00  0.00000000E+00  0.00000000E+00
  0.00000000E+00  0.00000000E+00  0.00000000E+00
  0.00000000E+00  0.00000000E+00  0.00000000E+00
  0.00000000E+00  0.00000000E+00  0.00000000E+00
  0.00000000E+00  0.00000000E+00  0.00000000E+00
  0.00000000E+00  0.00000000E+00  0.00000000E+00
  0.00000000E+00  0.00000000E+00  0.00000000E+00
  0.00000000E+00  0.00000000E+00  0.00000000E+00
  0.00000000E+00  0.00000000E+00  0.00000000E+00
  0.00000000E+00  0.00000000E+00  0.00000000E+00
  0.00000000E+00  0.00000000E+00  0.00000000E+00
  0.00000000E+00  0.00000000E+00  0.00000000E+00
  0.00000000E+00  0.00000000E+00  0.00000000E+00
  0.00000000E+00  0.00000000E+00  0.00000000E+00
  0.00000000E+00  0.00000000E+00  0.00000000E+00
  0.00000000E+00  0.00000000E+00  0.00000000E+00
  0.00000000E+00  0.00000000E+00  0.00000000E+00
  0.00000000E+00  0.00000000E+00  0.00000000E+00
  0.00000000E+00  0.00000000E+00  0.00000000E+00
  0.00000000E+00  0.00000000E+00  0.00000000E+00
  0.00000000E+00  0.00000000E+00  0.00000000E+00
  0.00000000E+00  0.00000000E+00  0.00000000E+00
  0.00000000E+00  0.00000000E+00  0.00000000E+00
  0.00000000E+00  0.00000000E+00  0.00000000E+00
  0.00000000E+00  0.00000000E+00  0.00000000E+00
  0.00000000E+00  0.00000000E+00  0.00000000E+00
  0.00000000E+00  0.00000000E+00  0.00000000E+00
  0.00000000E+00  0.00000000E+00  0.00000000E+00
  0.00000000E+00  0.00000000E+00  0.00000000E+00
  0.00000000E+00  0.00000000E+00  0.00000000E+00
  0.00000000E+00  0.00000000E+00  0.00000000E+00
  0.00000000E+00  0.00000000E+00  0.00000000E+00
  0.00000000E+00  0.00000000E+00  0.00000000E+00
  0.00000000E+00  0.00000000E+00  0.00000000E+00
  0.00000000E+00  0.00000000E+00  0.00000000E+00
  0.00000000E+00  0.00000000E+00  0.00000000E+00
  0.00000000E+00  0.00000000E+00  0.00000000E+00
  0.00000000E+00  0.00000000E+00  0.00000000E+00
  0.00000000E+00  0.00000000E+00  0.00000000E+00
  0.00000000E+00  0.00000000E+00  0.00000000E+00
  0.00000000E+00  0.00000000E+00  0.00000000E+00
  0.00000000E+00  0.00000000E+00  0.00000000E+00
  0.00000000E+00  0.00000000E+00  0.00000000E+00
  0.00000000E+00  0.00000000E+00  0.00000000E+00
  0.00000000E+00  0.00000000E+00  0.00000000E+00
  0.00000000E+00  0.00000000E+00  0.00000000E+00
  0.00000000E+00  0.00000000E+00  0.00000000E+00
  0.00000000E+00  0.00000000E+00  0.00000000E+00
  0.00000000E+00  0.00000000E+00  0.00000000E+00
  0.00000000E+00  0.00000000E+00  0.00000000E+00
  0.00000000E+00  0.00000000E+00  0.00000000E+00
  0.00000000E+00  0.00000000E+00  0.00000000E+00
  0.00000000E+00  0.00000000E+00  0.00000000E+00
  0.00000000E+00  0.00000000E+00  0.00000000E+00
  0.00000000E+00  0.00000000E+00  0.00000000E+00
  0.00000000E+00  0.00000000E+00  0.00000000E+00
