CeO2-you-111-you-Rh                     
   1.00000000000000     
     9.8200904642133562   -5.6696322416929537    0.0000000004416082
     0.0230928492644757   11.3792604735531633    0.0082387772396385
     0.0088499371747241    0.0153285382190821   20.9263051931956987
   O    Rh   Ce   H 
    53     1    26     2
Selective dynamics
Direct
  0.9994477736559337 -0.0000890003826220  0.9944939233306136   T   T   T
  0.1076736669444642  0.2210418541722063  0.1486412039901310   F   F   F
  0.2232682528865310  0.1067112096739428  0.3016581777807640   T   T   T
  0.1286815043688047  0.2250476789771440  0.3877791135138146   T   T   T
 -0.0025421265904032 -0.0015591393779862  0.2287997133821165   T   T   T
  0.2216307065957324  0.1099284131914757  0.0732390360217110   F   F   F
  0.3341412137334826  0.0000511772319160  0.9941792846576447   T   T   T
  0.4467011872276956  0.2210418541720713  0.1486412039901595   F   F   F
  0.5511991286725444  0.1220555522638572  0.3084953516758374   T   T   T
  0.4078108525746569  0.2202304308499562  0.4005622782183469   T   T   T
  0.3346369247469667  0.9967106303814174  0.2283287391608063   T   T   T
  0.5578156695987104  0.1109781870648163  0.0747768034515843   F   F   F
  0.6667533504002393  0.0000671108438927  0.9936411281663301   T   T   T
  0.7786867896242171  0.2240395792485259  0.1532504177495682   F   F   F
  0.8955825852142841  0.1175300131708796  0.3063246818393652   T   T   T
  0.7787617229525309  0.2254630859752204  0.3858328829040364   T   T   T
  0.6652931088940806  0.0009415434042650  0.2329157879849363   T   T   T
  0.8864965174662345  0.1109781870650153  0.0747768034516127   F   F   F
  0.0005503952128820  0.3329871370099725  0.9946802406442274   T   T   T
  0.1100089706318030  0.5547626004540405  0.1494256483791929   F   F   F
  0.2477081971727655  0.4369616462377788  0.3119297540600319   T   T   T
  0.0989985354041271  0.5447288074204308  0.3856143860777254   T   T   T
  0.0089756632422608  0.3390555133907218  0.2335244175841117   T   T   T
  0.2233056269679281  0.4445491222116331  0.0750278305031884   F   F   F
  0.3329795978699731  0.3326729270286633  0.9945439036241036   T   T   T
  0.4459100152913749  0.5584880305830140  0.1498606354447460   F   F   F
  0.5171246958946546  0.4311242658571288  0.3197056162839521   T   T   T
  0.3326820146464121  0.3303691068128387  0.2174008153875633   T   T   T
  0.5545774952435849  0.4445491222115123  0.0750278305031742   F   F   F
  0.6660669256714244  0.3332674853746929  0.9943821928666690   T   T   T
  0.7780866298222975  0.5547626004539765  0.1494256483792071   F   F   F
  0.8873003771169690  0.4412542014421573  0.3043312242832990   T   T   T
  0.7810318279742962  0.5455324148986348  0.3867156229049333   T   T   T
  0.6641738149809483  0.3402976343611717  0.2337971111848850   T   T   T
  0.8879181419668001  0.4425022839335995  0.0746993620168155   F   F   F
  0.9997380102724823  0.6662381546200014  0.9946973786699171   T   T   T
  0.1103159504609508  0.8872989009217775  0.1477407149470409   F   F   F
  0.2171717350344480  0.7780791275938976  0.3045984077755869   T   T   T
  0.1110664445154542  0.8881119770359440  0.3872300859023124   T   T   T
 -0.0008418985717892  0.6657965914370453  0.2293687228567861   T   T   T
  0.2230248045833889  0.7773200799388178  0.0736726494774516   F   F   F
  0.3335561003252860  0.6660096217969371  0.9941471529554863   T   T   T
  0.4464575332067326  0.8896579013544041  0.1493494917309235   F   F   F
  0.5562172636363806  0.7785675187168710  0.3093652256326244   T   T   T
  0.4477629327349856  0.9044005997750580  0.3871144313722394   T   T   T
  0.3312499589451611  0.6657447333838485  0.2294151514073505   T   T   T
  0.5557867853123568  0.7782395706246987  0.0743498505029265   F   F   F
  0.6664538574883141  0.6664417290786268  0.9942760202387972   T   T   T
  0.7765333681478239  0.8896579013546670  0.1493494917309164   F   F   F
  0.8945700744957353  0.7794956158051779  0.3052892710435151   T   T   T
  0.7877581924530704  0.9049716804144128  0.3876136328432181   T   T   T
  0.6670946582541850  0.6633813996026238  0.2301279268051316   T   T   T
  0.8876282753555316  0.7773200799388960  0.0736726494774658   F   F   F
  0.3217165393679834  0.3310446671868509  0.3550691076467142   T   T   T
  0.0060195139853513  0.0022303699549684  0.3443555632682029   T   T   T
  0.2215769182314986  0.1098208364627737  0.1878471291987225   F   F   F
  0.1106899271128583  0.2222116139885983  0.0345820388731468   F   F   F
  0.3252274901895541 -0.0046635923209324  0.3429874503494056   T   T   T
  0.5549686651199366  0.1109791111120444  0.1906840334722446   F   F   F
  0.4448546868757504  0.2222116139887689  0.0345820388731468   F   F   F
  0.6677125512421154  0.0019220352992529  0.3473379850274496   T   T   T
  0.8893444459916395  0.1109791111113623  0.1906840334722801   F   F   F
  0.7780178606961954  0.2227017213923688  0.0351554536475902   F   F   F
  0.0048179371094451  0.3330870113289437  0.3462534332866864   T   T   T
  0.2249586580045744  0.4438893998480395  0.1902514347728683   F   F   F
  0.1112645473955638  0.5549369544375793  0.0349645287525320   F   F   F
  0.5522647418439988  0.4438893998485085  0.1902514347729607   F   F   F
  0.4444804645189251  0.5556289290377805  0.0342770252658937   F   F   F
  0.6706359434600657  0.3375724208147067  0.3451275058062595   T   T   T
  0.8894253146256617  0.4455166292514647  0.1913633481225006   F   F   F
  0.7770054070421182  0.5549369544377640  0.0349645287525391   F   F   F
  0.9985380468439135  0.6638811514151765  0.3449998529505656   T   T   T
  0.2219467476550179  0.7775848092209401  0.1879595934481131   F   F   F
  0.1108868795491986  0.8884407590984367  0.0331238846399629   F   F   F
  0.3294369078078915  0.6724421812458831  0.3452551851875283   T   T   T
  0.5555288418721460  0.7777236837442061  0.1902434837675102   F   F   F
  0.4455318939238992  0.8893399399797772  0.0343039485857517   F   F   F
  0.6766775924225713  0.6729335441438675  0.3456867545644968   T   T   T
  0.8889710615654138  0.7775848092204143  0.1879595934481060   F   F   F
  0.7771410460559594  0.8893399399797843  0.0343039485857517   F   F   F
  0.3667446426249908  0.4357313904288067  0.4095064138702126   T   T   T
  0.4013654766043375  0.2273326007248932  0.4466164713273143   T   T   T
 
  0.00000000E+00  0.00000000E+00  0.00000000E+00
  0.00000000E+00  0.00000000E+00  0.00000000E+00
  0.00000000E+00  0.00000000E+00  0.00000000E+00
  0.00000000E+00  0.00000000E+00  0.00000000E+00
  0.00000000E+00  0.00000000E+00  0.00000000E+00
  0.00000000E+00  0.00000000E+00  0.00000000E+00
  0.00000000E+00  0.00000000E+00  0.00000000E+00
  0.00000000E+00  0.00000000E+00  0.00000000E+00
  0.00000000E+00  0.00000000E+00  0.00000000E+00
  0.00000000E+00  0.00000000E+00  0.00000000E+00
  0.00000000E+00  0.00000000E+00  0.00000000E+00
  0.00000000E+00  0.00000000E+00  0.00000000E+00
  0.00000000E+00  0.00000000E+00  0.00000000E+00
  0.00000000E+00  0.00000000E+00  0.00000000E+00
  0.00000000E+00  0.00000000E+00  0.00000000E+00
  0.00000000E+00  0.00000000E+00  0.00000000E+00
  0.00000000E+00  0.00000000E+00  0.00000000E+00
  0.00000000E+00  0.00000000E+00  0.00000000E+00
  0.00000000E+00  0.00000000E+00  0.00000000E+00
  0.00000000E+00  0.00000000E+00  0.00000000E+00
  0.00000000E+00  0.00000000E+00  0.00000000E+00
  0.00000000E+00  0.00000000E+00  0.00000000E+00
  0.00000000E+00  0.00000000E+00  0.00000000E+00
  0.00000000E+00  0.00000000E+00  0.00000000E+00
  0.00000000E+00  0.00000000E+00  0.00000000E+00
  0.00000000E+00  0.00000000E+00  0.00000000E+00
  0.00000000E+00  0.00000000E+00  0.00000000E+00
  0.00000000E+00  0.00000000E+00  0.00000000E+00
  0.00000000E+00  0.00000000E+00  0.00000000E+00
  0.00000000E+00  0.00000000E+00  0.00000000E+00
  0.00000000E+00  0.00000000E+00  0.00000000E+00
  0.00000000E+00  0.00000000E+00  0.00000000E+00
  0.00000000E+00  0.00000000E+00  0.00000000E+00
  0.00000000E+00  0.00000000E+00  0.00000000E+00
  0.00000000E+00  0.00000000E+00  0.00000000E+00
  0.00000000E+00  0.00000000E+00  0.00000000E+00
  0.00000000E+00  0.00000000E+00  0.00000000E+00
  0.00000000E+00  0.00000000E+00  0.00000000E+00
  0.00000000E+00  0.00000000E+00  0.00000000E+00
  0.00000000E+00  0.00000000E+00  0.00000000E+00
  0.00000000E+00  0.00000000E+00  0.00000000E+00
  0.00000000E+00  0.00000000E+00  0.00000000E+00
  0.00000000E+00  0.00000000E+00  0.00000000E+00
  0.00000000E+00  0.00000000E+00  0.00000000E+00
  0.00000000E+00  0.00000000E+00  0.00000000E+00
  0.00000000E+00  0.00000000E+00  0.00000000E+00
  0.00000000E+00  0.00000000E+00  0.00000000E+00
  0.00000000E+00  0.00000000E+00  0.00000000E+00
  0.00000000E+00  0.00000000E+00  0.00000000E+00
  0.00000000E+00  0.00000000E+00  0.00000000E+00
  0.00000000E+00  0.00000000E+00  0.00000000E+00
  0.00000000E+00  0.00000000E+00  0.00000000E+00
  0.00000000E+00  0.00000000E+00  0.00000000E+00
  0.00000000E+00  0.00000000E+00  0.00000000E+00
  0.00000000E+00  0.00000000E+00  0.00000000E+00
  0.00000000E+00  0.00000000E+00  0.00000000E+00
  0.00000000E+00  0.00000000E+00  0.00000000E+00
  0.00000000E+00  0.00000000E+00  0.00000000E+00
  0.00000000E+00  0.00000000E+00  0.00000000E+00
  0.00000000E+00  0.00000000E+00  0.00000000E+00
  0.00000000E+00  0.00000000E+00  0.00000000E+00
  0.00000000E+00  0.00000000E+00  0.00000000E+00
  0.00000000E+00  0.00000000E+00  0.00000000E+00
  0.00000000E+00  0.00000000E+00  0.00000000E+00
  0.00000000E+00  0.00000000E+00  0.00000000E+00
  0.00000000E+00  0.00000000E+00  0.00000000E+00
  0.00000000E+00  0.00000000E+00  0.00000000E+00
  0.00000000E+00  0.00000000E+00  0.00000000E+00
  0.00000000E+00  0.00000000E+00  0.00000000E+00
  0.00000000E+00  0.00000000E+00  0.00000000E+00
  0.00000000E+00  0.00000000E+00  0.00000000E+00
  0.00000000E+00  0.00000000E+00  0.00000000E+00
  0.00000000E+00  0.00000000E+00  0.00000000E+00
  0.00000000E+00  0.00000000E+00  0.00000000E+00
  0.00000000E+00  0.00000000E+00  0.00000000E+00
  0.00000000E+00  0.00000000E+00  0.00000000E+00
  0.00000000E+00  0.00000000E+00  0.00000000E+00
  0.00000000E+00  0.00000000E+00  0.00000000E+00
  0.00000000E+00  0.00000000E+00  0.00000000E+00
  0.00000000E+00  0.00000000E+00  0.00000000E+00
  0.00000000E+00  0.00000000E+00  0.00000000E+00
  0.00000000E+00  0.00000000E+00  0.00000000E+00
