CeO2-you-111-you-Re                     
   1.00000000000000     
     9.8574383390581062   -5.6911950451955384    0.0000000008021707
     0.0349891988231736   11.4429911535160898    0.0152387379200071
     0.0161160208337313    0.0279137622267962   21.1402671599840168
   O    Re   Ce   H 
    53     1    26     2
Selective dynamics
Direct
  0.9979675340757589  0.0001191711134746  0.9972666884992117   T   T   T
  0.1127332761707720  0.2235758685249820  0.1486794913576901   F   F   F
  0.2553896591153095  0.1444732473273013  0.3098198603331493   T   T   T
  0.1451079795263442  0.2417452697342937  0.3794203573985400   T   T   T
  0.0089094256056335  0.0032392994739015  0.2287941590382335   T   T   T
  0.2210186263695633  0.1087042527388533  0.0734591976352661   F   F   F
  0.3357367668946338  0.0004519962603501  0.9970589875599521   T   T   T
  0.4441755923531758  0.2235758685241791  0.1486794913576048   F   F   F
  0.5584260797256041  0.1091482182629960  0.3034952261897992   T   T   T
  0.4558234743430838  0.2020624779040053  0.4138485704263590   T   T   T
  0.3276754663943685  0.0002313007079882  0.2271833238928352   T   T   T
  0.5571384196778268  0.1119841859082129  0.0776696917463369   F   F   F
  0.6672601939565208  0.0002480934963745  0.9984703241204774   T   T   T
  0.7801755708316946  0.2270171416636515  0.1540812316560860   F   F   F
  0.8933566186788896  0.1179460059797857  0.3039778521876819   T   T   T
  0.7880890507432187  0.2214788961154356  0.3876859070225575   T   T   T
  0.6690603851932264 -0.0005668804306698  0.2290382077796289   T   T   T
  0.8881797662304862  0.1119841859084332  0.0776696917463440   F   F   F
  0.9996459800577714  0.3317173153417594  0.9971179114465391   T   T   T
  0.1095680576350162  0.5540030725571867  0.1482276278177963   F   F   F
  0.2506962614469782  0.4427422658918256  0.3077236688560184   T   T   T
  0.1002693366677876  0.5418673269909799  0.3831132493545671   T   T   T
  0.0133229093111009  0.3404140838263868  0.2314393633829887   T   T   T
  0.2230081119988228  0.4455310694325902  0.0753192125987354   F   F   F
  0.3328965243220499  0.3331117262564661  0.9969431564859992   T   T   T
  0.4430031262652108  0.5526742525302950  0.1501677788324187   F   F   F
  0.4949275203414748  0.4188642594737783  0.3217249780123189   T   T   T
  0.3261849464023508  0.3281190503386894  0.2302582877559345   T   T   T
  0.5558569574333561  0.4455310694323771  0.0753192125987212   F   F   F
  0.6659854303742025  0.3323669143521850  0.9973504791666018   T   T   T
  0.7777680149221524  0.5540030725568670  0.1482276278177537   F   F   F
  0.8893357894818401  0.4411698394002993  0.3009086561598330   T   T   T
  0.7887605268668412  0.5604166788353659  0.3847332360931729   T   T   T
  0.6582868451611602  0.3418142651349687  0.2308933307165694   T   T   T
  0.8885818379077790  0.4438296758155644  0.0748121792778136   F   F   F
  0.0002483071463316  0.6675578956989117  0.9963545487638897   T   T   T
  0.1096403901611609  0.8859477803213522  0.1473293373505840   F   F   F
  0.2206407969233882  0.7749625633437379  0.3024463414799173   T   T   T
  0.1032848574985338  0.8749289102840576  0.3861482836138465   T   T   T
  0.9995687991800136  0.6670414238918910  0.2267184913871763   T   T   T
  0.2232920243580665  0.7777555116549948  0.0749995259609051   F   F   F
  0.3339345249948169  0.6669842833538844  0.9968039067552370   T   T   T
  0.4470069446669385  0.8902251302334960  0.1512844127866231   F   F   F
  0.5550217185789686  0.7752650273552201  0.3037899835682584   T   T   T
  0.4580310185362714  0.8907321408296726  0.3902130830073051   T   T   T
  0.3290257895811721  0.6610090713519352  0.2272457964470371   T   T   T
  0.5546144097973951  0.7758948195946189  0.0766820865106297   F   F   F
  0.6663447250085223  0.6671158906184962  0.9966345744023749   T   T   T
  0.7765511855669160  0.8902251302339863  0.1512844127865947   F   F   F
  0.8901326195544674  0.7784739727229633  0.3005929573155485   T   T   T
  0.7777942668955548  0.8947407903513371  0.3872231000800938   T   T   T
  0.6631803126820531  0.6565963217697486  0.2292259772682751   T   T   T
  0.8877964872971660  0.7777555116550658  0.0749995259609193   F   F   F
  0.3034721164073290  0.3194827551366557  0.3291309035984963   T   T   T
  0.9982945676057976  0.9932795854330718  0.3476700038353082   T   T   T
  0.2183740303933916  0.1034150607863396  0.1842455171469055   F   F   F
  0.1101421971694876  0.2223674010858474  0.0360137386036712   F   F   F
  0.3368607219684684  0.9929126757398387  0.3522202192075479   T   T   T
  0.5542526379724322  0.1118885102263079  0.1920192997169892   F   F   F
  0.4455582039162280  0.2223674010862027  0.0360137386037209   F   F   F
  0.6680803254569715 -0.0011903512641868  0.3448687318075545   T   T   T
  0.8909698722525619  0.1118885102245386  0.1920192997170318   F   F   F
  0.7778431643414265  0.2223523286827671  0.0381661217823606   F   F   F
  0.9893809218167954  0.3342626413171127  0.3437511192492471   T   T   T
  0.2240849715455511  0.4462843863365293  0.1876444427957935   F   F   F
  0.1117437370730059  0.5559968111312088  0.0359308841308703   F   F   F
  0.5555334147934587  0.4462843863391583  0.1876444427962198   F   F   F
  0.4449199466971194  0.5565078933939986  0.0356580083468216   F   F   F
  0.6665216861834293  0.3305054245984175  0.3509071450751858   T   T   T
  0.8900527764450317  0.4467715528901977  0.1891464602866577   F   F   F
  0.7775860740585046  0.5559968111315854  0.0359308841308490   F   F   F
  0.9983166257280393  0.6652488240820669  0.3434934025657324   T   T   T
  0.2225854651184989  0.7773870720680591  0.1891636185079477   F   F   F
  0.1106134951523785  0.8878939903048817  0.0348506516024116   F   F   F
  0.3317563849270631  0.6781639423529469  0.3450236335008874   T   T   T
  0.5558381761463878  0.7783423522925119  0.1917278821652744   F   F   F
  0.4455327876613708  0.8894519109637216  0.0377816659009227   F   F   F
  0.6800786976750530  0.6751850128792957  0.3453309444089804   T   T   T
  0.8881346069482490  0.7773870720670359  0.1891636185080472   F   F   F
  0.7772521233023397  0.8894519109637713  0.0377816659008801   F   F   F
  0.3570274524777796  0.3867241786523603  0.4011695855206436   T   T   T
  0.4312174455809804  0.2253969170600597  0.4538685359745164   T   T   T
 
  0.00000000E+00  0.00000000E+00  0.00000000E+00
  0.00000000E+00  0.00000000E+00  0.00000000E+00
  0.00000000E+00  0.00000000E+00  0.00000000E+00
  0.00000000E+00  0.00000000E+00  0.00000000E+00
  0.00000000E+00  0.00000000E+00  0.00000000E+00
  0.00000000E+00  0.00000000E+00  0.00000000E+00
  0.00000000E+00  0.00000000E+00  0.00000000E+00
  0.00000000E+00  0.00000000E+00  0.00000000E+00
  0.00000000E+00  0.00000000E+00  0.00000000E+00
  0.00000000E+00  0.00000000E+00  0.00000000E+00
  0.00000000E+00  0.00000000E+00  0.00000000E+00
  0.00000000E+00  0.00000000E+00  0.00000000E+00
  0.00000000E+00  0.00000000E+00  0.00000000E+00
  0.00000000E+00  0.00000000E+00  0.00000000E+00
  0.00000000E+00  0.00000000E+00  0.00000000E+00
  0.00000000E+00  0.00000000E+00  0.00000000E+00
  0.00000000E+00  0.00000000E+00  0.00000000E+00
  0.00000000E+00  0.00000000E+00  0.00000000E+00
  0.00000000E+00  0.00000000E+00  0.00000000E+00
  0.00000000E+00  0.00000000E+00  0.00000000E+00
  0.00000000E+00  0.00000000E+00  0.00000000E+00
  0.00000000E+00  0.00000000E+00  0.00000000E+00
  0.00000000E+00  0.00000000E+00  0.00000000E+00
  0.00000000E+00  0.00000000E+00  0.00000000E+00
  0.00000000E+00  0.00000000E+00  0.00000000E+00
  0.00000000E+00  0.00000000E+00  0.00000000E+00
  0.00000000E+00  0.00000000E+00  0.00000000E+00
  0.00000000E+00  0.00000000E+00  0.00000000E+00
  0.00000000E+00  0.00000000E+00  0.00000000E+00
  0.00000000E+00  0.00000000E+00  0.00000000E+00
  0.00000000E+00  0.00000000E+00  0.00000000E+00
  0.00000000E+00  0.00000000E+00  0.00000000E+00
  0.00000000E+00  0.00000000E+00  0.00000000E+00
  0.00000000E+00  0.00000000E+00  0.00000000E+00
  0.00000000E+00  0.00000000E+00  0.00000000E+00
  0.00000000E+00  0.00000000E+00  0.00000000E+00
  0.00000000E+00  0.00000000E+00  0.00000000E+00
  0.00000000E+00  0.00000000E+00  0.00000000E+00
  0.00000000E+00  0.00000000E+00  0.00000000E+00
  0.00000000E+00  0.00000000E+00  0.00000000E+00
  0.00000000E+00  0.00000000E+00  0.00000000E+00
  0.00000000E+00  0.00000000E+00  0.00000000E+00
  0.00000000E+00  0.00000000E+00  0.00000000E+00
  0.00000000E+00  0.00000000E+00  0.00000000E+00
  0.00000000E+00  0.00000000E+00  0.00000000E+00
  0.00000000E+00  0.00000000E+00  0.00000000E+00
  0.00000000E+00  0.00000000E+00  0.00000000E+00
  0.00000000E+00  0.00000000E+00  0.00000000E+00
  0.00000000E+00  0.00000000E+00  0.00000000E+00
  0.00000000E+00  0.00000000E+00  0.00000000E+00
  0.00000000E+00  0.00000000E+00  0.00000000E+00
  0.00000000E+00  0.00000000E+00  0.00000000E+00
  0.00000000E+00  0.00000000E+00  0.00000000E+00
  0.00000000E+00  0.00000000E+00  0.00000000E+00
  0.00000000E+00  0.00000000E+00  0.00000000E+00
  0.00000000E+00  0.00000000E+00  0.00000000E+00
  0.00000000E+00  0.00000000E+00  0.00000000E+00
  0.00000000E+00  0.00000000E+00  0.00000000E+00
  0.00000000E+00  0.00000000E+00  0.00000000E+00
  0.00000000E+00  0.00000000E+00  0.00000000E+00
  0.00000000E+00  0.00000000E+00  0.00000000E+00
  0.00000000E+00  0.00000000E+00  0.00000000E+00
  0.00000000E+00  0.00000000E+00  0.00000000E+00
  0.00000000E+00  0.00000000E+00  0.00000000E+00
  0.00000000E+00  0.00000000E+00  0.00000000E+00
  0.00000000E+00  0.00000000E+00  0.00000000E+00
  0.00000000E+00  0.00000000E+00  0.00000000E+00
  0.00000000E+00  0.00000000E+00  0.00000000E+00
  0.00000000E+00  0.00000000E+00  0.00000000E+00
  0.00000000E+00  0.00000000E+00  0.00000000E+00
  0.00000000E+00  0.00000000E+00  0.00000000E+00
  0.00000000E+00  0.00000000E+00  0.00000000E+00
  0.00000000E+00  0.00000000E+00  0.00000000E+00
  0.00000000E+00  0.00000000E+00  0.00000000E+00
  0.00000000E+00  0.00000000E+00  0.00000000E+00
  0.00000000E+00  0.00000000E+00  0.00000000E+00
  0.00000000E+00  0.00000000E+00  0.00000000E+00
  0.00000000E+00  0.00000000E+00  0.00000000E+00
  0.00000000E+00  0.00000000E+00  0.00000000E+00
  0.00000000E+00  0.00000000E+00  0.00000000E+00
  0.00000000E+00  0.00000000E+00  0.00000000E+00
  0.00000000E+00  0.00000000E+00  0.00000000E+00
