CeO2-you-111-you-Pt                     
   1.00000000000000     
     9.8188542044952261   -5.7092917562430952    0.0011264555094801
    -0.0349642631865452   11.3580216267111123   -0.0011264552524717
     0.0009379747147454   -0.0016246195948108   21.2183918281675687
   O    Pt   Ce   H 
    53     1    26     2
Selective dynamics
Direct
  0.0002849585676857  0.0003223470271592  0.9956427806090894   T   T   T
  0.1012283077796639  0.2170762381025710  0.1461622714304340   F   F   F
  0.2528971724394637  0.1371389502852826  0.3080422545459745   T   T   T
  0.1302032139754877  0.2465184716287839  0.3669700364167285   T   T   T
  0.0113738371547894  0.0063085885693333  0.2321363885537930   T   T   T
  0.2215848129404989  0.1111994539822021  0.0759189653009571   F   F   F
  0.3340521837269633  0.0019477562398924  0.9967617311527096   T   T   T
  0.4484404236096253  0.2182255763897487  0.1483057094178193   F   F   F
  0.5531166273512605  0.1077198676763322  0.3056592359340748   T   T   T
  0.4796049596171807  0.1853833494764319  0.4132025876338239   T   T   T
  0.3305969171509385  0.0017811771326653  0.2296500307227927   T   T   T
  0.5585500147271176  0.1081169852720620  0.0766645291610573   F   F   F
  0.6661409513841186 -0.0002777775020588  0.9944413171758069   T   T   T
  0.7836534006102980  0.2249616468563289  0.1534744121543454   F   F   F
  0.8844434862877516  0.1052276948922187  0.3050419097868920   T   T   T
  0.7775134559869289  0.2161430448354799  0.3872236774796622   T   T   T
  0.6663771101199850  0.9988324371159361  0.2298665465074761   T   T   T
  0.8838390288960980  0.1080754656342293  0.0750039840901877   F   F   F
  0.9989031353425381  0.3314834469287793  0.9956883690191273   T   T   T
  0.1100639632607567  0.5566030367406256  0.1484576726425004   F   F   F
  0.1253916446479116  0.5435813501092706  0.3784434386477600   T   T   T
  0.0271100164363033  0.3393075193150012  0.2385779347373607   T   T   T
  0.2219142342525444  0.4447517657504818  0.0729708700595779   F   F   F
  0.3336764208580533  0.3327285158041033  0.9960914826555608   T   T   T
  0.4495897619003060  0.5654386922212851  0.1461622714309172   F   F   F
  0.5286978655901738  0.4167856290150999  0.3093726440159925   T   T   T
  0.4145093636037070  0.5341117416592646  0.3664646763390699   T   T   T
  0.3261184116944276  0.3395088098572697  0.2257874650836948   T   T   T
  0.5554675460159686  0.4450811870578733  0.0759189653009074   F   F   F
  0.6641108585676302  0.3322867987864623  0.9965224259129772   T   T   T
  0.7806227927543077  0.5563326189277831  0.1503591103597728   F   F   F
  0.8813134476164933  0.4348694330919267  0.3088679316158639   T   T   T
  0.7579973282258644  0.5481128202767575  0.3836974361890659   T   T   T
  0.6540240062184677  0.3300107045103996  0.2324063955405903   T   T   T
  0.8879094922645194  0.4434777956430764  0.0756078827514699   F   F   F
  0.0003992181986600  0.6683355322413891  0.9962030012550463   T   T   T
  0.1103343810691797  0.8860442072414969  0.1503591103597870   F   F   F
  0.2333861764395652  0.7853746510144856  0.3053291905699209   T   T   T
  0.1177434444687154  0.9068442162291962  0.3831827729964614   T   T   T
  0.0061881782078502  0.6781150453049928  0.2331142577790891   T   T   T
  0.2231882043563260  0.7787575077339355  0.0756078827513846   F   F   F
  0.3351729697789509  0.6683442391409516  0.9957249726389037   T   T   T
  0.4417043531465197  0.8830135993903880  0.1534744121538552   F   F   F
  0.5604046011717326  0.7803851468671698  0.3051562620002682   T   T   T
  0.4475497046589555  0.8862463570069998  0.3875617447443204   T   T   T
  0.3258674694697996  0.6479087010677288  0.2352833039689894   T   T   T
  0.5585915343682188  0.7828279711063715  0.0750039840902872   F   F   F
  0.6660877273487685  0.6669145041907496  0.9957142391975652   T   T   T
  0.7791628938084045  0.8875041061914857  0.1526662717805536   F   F   F
  0.8819455462784189  0.7820227609473009  0.3044326880065972   T   T   T
  0.7795331892583873  0.8888127546831081  0.3864435090378837   T   T   T
  0.6600179430223749  0.6555222801557882  0.2321665131338028   T   T   T
  0.8882749484642147  0.7783920515336362  0.0759368259126916   F   F   F
  0.3307304339919485  0.3342113931923630  0.3377707888483302   T   T   T
  0.0022655793369169  0.0022489215981740  0.3424962577345201   T   T   T
  0.2254423163975403  0.1141945338078898  0.1890431717574614   F   F   F
  0.1093077139010461  0.2200302681580695  0.0342319893476670   F   F   F
  0.3349817748266498 -0.0008180426201116  0.3450625675778343   T   T   T
  0.5562448793181858  0.1104221206851292  0.1908238164883329   F   F   F
  0.4448307071502668  0.2218352928518001  0.0362637457378270   F   F   F
  0.6677932844934383  0.9978291698535450  0.3470513368257064   T   T   T
  0.8904599148409105  0.1109373821634492  0.1909153378730153   F   F   F
  0.7775904488404777  0.2212197535884144  0.0359840250482932   F   F   F
  0.9900947027467366  0.3277750163135229  0.3454133803327567   T   T   T
  0.2232256952578169  0.4434403047383952  0.1812435203409137   F   F   F
  0.1098217866363882  0.5568452133612851  0.0353371788907637   F   F   F
  0.5524724661899896  0.4412236835992758  0.1890431717579162   F   F   F
  0.4466357318400114  0.5573592860976575  0.0342319893476812   F   F   F
  0.6657927415729108  0.3304962391935641  0.3448365976115044   T   T   T
  0.8888067074259283  0.4443389464963516  0.1915053519410250   F   F   F
  0.7776959045834531  0.5552308040438092  0.0371308807372444   F   F   F
  0.9988926070595651  0.6676228395621296  0.3460835395410681   T   T   T
  0.2223270535068096  0.7778602925835827  0.1915053519417000   F   F   F
  0.1114361959588805  0.8889710954201462  0.0371308807374007   F   F   F
  0.3380891784150952  0.6760702861864299  0.3447058517424327   T   T   T
  0.5557296178289661  0.7762070851559031  0.1909153378731361   F   F   F
  0.4454462464094249  0.8890765511592917  0.0359840250483145   F   F   F
  0.6630355889358645  0.6621432854766546  0.3427631405168937   T   T   T
  0.8893450161823822  0.7773219838248480  0.1903482828417111   F   F   F
  0.7773568694791138  0.8893101305208546  0.0356626081600737   F   F   F
  0.3476922086423690  0.3167980362285673  0.4078249848453803   T   T   T
  0.4473999972426420  0.2161890521664444  0.4484188619122810   T   T   T
 
  0.00000000E+00  0.00000000E+00  0.00000000E+00
  0.00000000E+00  0.00000000E+00  0.00000000E+00
  0.00000000E+00  0.00000000E+00  0.00000000E+00
  0.00000000E+00  0.00000000E+00  0.00000000E+00
  0.00000000E+00  0.00000000E+00  0.00000000E+00
  0.00000000E+00  0.00000000E+00  0.00000000E+00
  0.00000000E+00  0.00000000E+00  0.00000000E+00
  0.00000000E+00  0.00000000E+00  0.00000000E+00
  0.00000000E+00  0.00000000E+00  0.00000000E+00
  0.00000000E+00  0.00000000E+00  0.00000000E+00
  0.00000000E+00  0.00000000E+00  0.00000000E+00
  0.00000000E+00  0.00000000E+00  0.00000000E+00
  0.00000000E+00  0.00000000E+00  0.00000000E+00
  0.00000000E+00  0.00000000E+00  0.00000000E+00
  0.00000000E+00  0.00000000E+00  0.00000000E+00
  0.00000000E+00  0.00000000E+00  0.00000000E+00
  0.00000000E+00  0.00000000E+00  0.00000000E+00
  0.00000000E+00  0.00000000E+00  0.00000000E+00
  0.00000000E+00  0.00000000E+00  0.00000000E+00
  0.00000000E+00  0.00000000E+00  0.00000000E+00
  0.00000000E+00  0.00000000E+00  0.00000000E+00
  0.00000000E+00  0.00000000E+00  0.00000000E+00
  0.00000000E+00  0.00000000E+00  0.00000000E+00
  0.00000000E+00  0.00000000E+00  0.00000000E+00
  0.00000000E+00  0.00000000E+00  0.00000000E+00
  0.00000000E+00  0.00000000E+00  0.00000000E+00
  0.00000000E+00  0.00000000E+00  0.00000000E+00
  0.00000000E+00  0.00000000E+00  0.00000000E+00
  0.00000000E+00  0.00000000E+00  0.00000000E+00
  0.00000000E+00  0.00000000E+00  0.00000000E+00
  0.00000000E+00  0.00000000E+00  0.00000000E+00
  0.00000000E+00  0.00000000E+00  0.00000000E+00
  0.00000000E+00  0.00000000E+00  0.00000000E+00
  0.00000000E+00  0.00000000E+00  0.00000000E+00
  0.00000000E+00  0.00000000E+00  0.00000000E+00
  0.00000000E+00  0.00000000E+00  0.00000000E+00
  0.00000000E+00  0.00000000E+00  0.00000000E+00
  0.00000000E+00  0.00000000E+00  0.00000000E+00
  0.00000000E+00  0.00000000E+00  0.00000000E+00
  0.00000000E+00  0.00000000E+00  0.00000000E+00
  0.00000000E+00  0.00000000E+00  0.00000000E+00
  0.00000000E+00  0.00000000E+00  0.00000000E+00
  0.00000000E+00  0.00000000E+00  0.00000000E+00
  0.00000000E+00  0.00000000E+00  0.00000000E+00
  0.00000000E+00  0.00000000E+00  0.00000000E+00
  0.00000000E+00  0.00000000E+00  0.00000000E+00
  0.00000000E+00  0.00000000E+00  0.00000000E+00
  0.00000000E+00  0.00000000E+00  0.00000000E+00
  0.00000000E+00  0.00000000E+00  0.00000000E+00
  0.00000000E+00  0.00000000E+00  0.00000000E+00
  0.00000000E+00  0.00000000E+00  0.00000000E+00
  0.00000000E+00  0.00000000E+00  0.00000000E+00
  0.00000000E+00  0.00000000E+00  0.00000000E+00
  0.00000000E+00  0.00000000E+00  0.00000000E+00
  0.00000000E+00  0.00000000E+00  0.00000000E+00
  0.00000000E+00  0.00000000E+00  0.00000000E+00
  0.00000000E+00  0.00000000E+00  0.00000000E+00
  0.00000000E+00  0.00000000E+00  0.00000000E+00
  0.00000000E+00  0.00000000E+00  0.00000000E+00
  0.00000000E+00  0.00000000E+00  0.00000000E+00
  0.00000000E+00  0.00000000E+00  0.00000000E+00
  0.00000000E+00  0.00000000E+00  0.00000000E+00
  0.00000000E+00  0.00000000E+00  0.00000000E+00
  0.00000000E+00  0.00000000E+00  0.00000000E+00
  0.00000000E+00  0.00000000E+00  0.00000000E+00
  0.00000000E+00  0.00000000E+00  0.00000000E+00
  0.00000000E+00  0.00000000E+00  0.00000000E+00
  0.00000000E+00  0.00000000E+00  0.00000000E+00
  0.00000000E+00  0.00000000E+00  0.00000000E+00
  0.00000000E+00  0.00000000E+00  0.00000000E+00
  0.00000000E+00  0.00000000E+00  0.00000000E+00
  0.00000000E+00  0.00000000E+00  0.00000000E+00
  0.00000000E+00  0.00000000E+00  0.00000000E+00
  0.00000000E+00  0.00000000E+00  0.00000000E+00
  0.00000000E+00  0.00000000E+00  0.00000000E+00
  0.00000000E+00  0.00000000E+00  0.00000000E+00
  0.00000000E+00  0.00000000E+00  0.00000000E+00
  0.00000000E+00  0.00000000E+00  0.00000000E+00
  0.00000000E+00  0.00000000E+00  0.00000000E+00
  0.00000000E+00  0.00000000E+00  0.00000000E+00
  0.00000000E+00  0.00000000E+00  0.00000000E+00
  0.00000000E+00  0.00000000E+00  0.00000000E+00
