CeO2-you-111-you-Au 
1.0 
9.842385 -5.682504 0.000000 
0.000000 11.365006 0.000000 
0.000000 0.000000 21.000000 
O Au Ce 
53 1 26 
Selective Dynamics
Direct 
0.000000 0.000000 -0.001564 F F F 
0.111111 0.222222 0.150274 F F F 
0.222222 0.111111 0.302462 T T T 
0.111111 0.222222 0.380709 T T T 
0.000000 0.000000 0.228871 T T T 
0.222222 0.111111 0.076683 F F F 
0.333333 0.000000 -0.001564 F F F 
0.444444 0.222222 0.150274 F F F 
0.555556 0.111111 0.302462 T T T 
0.444444 0.222222 0.380709 T T T 
0.333333 0.000000 0.228871 T T T 
0.555556 0.111111 0.076683 F F F 
0.666667 0.000000 -0.001564 F F F 
0.777778 0.222222 0.150274 F F F 
0.888889 0.111111 0.302462 T T T 
0.777778 0.222222 0.380709 T T T 
0.666667 0.000000 0.228871 T T T 
0.888889 0.111111 0.076683 F F F 
0.000000 0.333333 -0.001564 F F F 
0.111111 0.555556 0.150274 F F F 
0.222222 0.444444 0.302462 T T T 
0.111111 0.555556 0.380709 T T T 
0.000000 0.333333 0.228871 T T T 
0.222222 0.444444 0.076683 F F F 
0.333333 0.333333 -0.001564 F F F 
0.444444 0.555556 0.150274 F F F 
0.555556 0.444444 0.302462 T T T 
0.333333 0.333333 0.228871 T T T 
0.555556 0.444444 0.076683 F F F 
0.666667 0.333333 -0.001564 F F F 
0.777778 0.555556 0.150274 F F F 
0.888889 0.444444 0.302462 T T T 
0.777778 0.555556 0.380709 T T T 
0.666667 0.333333 0.228871 T T T 
0.888889 0.444444 0.076683 F F F 
0.000000 0.666667 -0.001564 F F F 
0.111111 0.888889 0.150274 F F F 
0.222222 0.777778 0.302462 T T T 
0.111111 0.888889 0.380709 T T T 
0.000000 0.666667 0.228871 T T T 
0.222222 0.777778 0.076683 F F F 
0.333333 0.666667 -0.001564 F F F 
0.444444 0.888889 0.150274 F F F 
0.555556 0.777778 0.302462 T T T 
0.444444 0.888889 0.380709 T T T 
0.333333 0.666667 0.228871 T T T 
0.555556 0.777778 0.076683 F F F 
0.666667 0.666667 -0.001564 F F F 
0.777778 0.888889 0.150274 F F F 
0.888889 0.777778 0.302462 T T T 
0.777778 0.888889 0.380709 T T T 
0.666667 0.666667 0.228871 T T T 
0.888889 0.777778 0.076683 F F F 
0.333333 0.333333 0.341562 T T T 
0.000000 0.000000 0.341562 T T T 
0.222222 0.111111 0.189573 F F F 
0.111111 0.222222 0.037584 F F F 
0.333333 0.000000 0.341562 T T T 
0.555556 0.111111 0.189573 F F F 
0.444444 0.222222 0.037584 F F F 
0.666667 0.000000 0.341562 T T T 
0.888889 0.111111 0.189573 F F F 
0.777778 0.222222 0.037584 F F F 
0.000000 0.333333 0.341562 T T T 
0.222222 0.444444 0.189573 F F F 
0.111111 0.555556 0.037584 F F F 
0.555556 0.444444 0.189573 F F F 
0.444444 0.555556 0.037584 F F F 
0.666667 0.333333 0.341562 T T T 
0.888889 0.444444 0.189573 F F F 
0.777778 0.555556 0.037584 F F F 
0.000000 0.666667 0.341562 T T T 
0.222222 0.777778 0.189573 F F F 
0.111111 0.888889 0.037584 F F F 
0.333333 0.666667 0.341562 T T T 
0.555556 0.777778 0.189573 F F F 
0.444444 0.888889 0.037584 F F F 
0.666667 0.666667 0.341562 T T T 
0.888889 0.777778 0.189573 F F F 
0.777778 0.888889 0.037584 F F F 
