CeO2-you-111-you-Ru                     
   1.00000000000000     
     9.8462090043868056   -5.7235719201610609    0.0076116499343250
    -0.0336538518888803   11.3888516483097515   -0.0076116485201547
     0.0077820871633258   -0.0134789692441140   21.0215276798713511
   O    Ru   Ce   H 
    53     1    26     1
Selective dynamics
Direct
 -0.0001924933237349  0.9997844852921973  0.9941956457954750   T   T   T
  0.1079149625022330  0.2186246788180991  0.1453535116649484   T   T   T
  0.2528322799351345  0.1348776646883784  0.3048156756400091   T   T   T
  0.1530637100124330  0.2556867682920584  0.3705879011593965   T   T   T
  0.0100972468420435  0.0043286734259799  0.2305654207227811   T   T   T
  0.2232971740378008  0.1115763345147081  0.0729192351008664   T   T   T
  0.3352173160204928  0.0008836521924161  0.9946575274792834   T   T   T
  0.4431398189265391  0.2236244590254335  0.1496114833913821   T   T   T
  0.5493224216388528  0.1071864765746230  0.3036535514783980   T   T   T
  0.4428264695447335  0.2064637502287267  0.4074182226665483   T   T   T
  0.3309132295843801 -0.0007476741050181  0.2271242722533446   T   T   T
  0.5564037331142594  0.1106753650571657  0.0765504601620410   T   T   T
  0.6661207588589416  0.0001319586776685  0.9947838544513712   T   T   T
  0.7836193407790770  0.2231017433521578  0.1522181901627853   T   T   T
  0.8916797891360350  0.1056157031347343  0.3046094466710858   T   T   T
  0.7722930417148123  0.2060969365570403  0.3890477199889787   T   T   T
  0.6673010332840860  0.9997076755548269  0.2301446857155054   T   T   T
  0.8866820993035200  0.1087933599466708  0.0741058991261855   T   T   T
  0.9979398961265100  0.3320150294342577  0.9942087780378576   T   T   T
  0.1095899432394400  0.5568413509196086  0.1459910658486108   T   T   T
  0.1041172704849619  0.5637337670018497  0.3868794535334794   T   T   T
  0.0167171074597752  0.3422807053539274  0.2327453572164425   T   T   T
  0.2223581701976510  0.4447003006811705  0.0707983902061477   T   T   T
  0.3344876962580933  0.3331167129278947  0.9932923603178626   T   T   T
  0.4486208848580149  0.5594101768054425  0.1463546766250013   T   T   T
  0.5298553797200353  0.4205220937239950  0.3052890219585879   T   T   T
  0.4021704952646370  0.5097702802755107  0.3724027031030594   T   T   T
  0.3226494242928610  0.3419471143049969  0.2267165996993612   T   T   T
  0.5558386859959653  0.4440907454345806  0.0737131225295617   T   T   T
  0.6656500464987652  0.3317321644550058  0.9944854934495069   T   T   T
  0.7781800879256873  0.5561056585021006  0.1494090053226935   T   T   T
  0.8883244423855303  0.4501587481011037  0.3034350557614738   T   T   T
  0.7766082666565587  0.5703217894716670  0.3850952089173157   T   T   T
  0.6658342589156641  0.3334846975433697  0.2268034162692338   T   T   T
  0.8869271270015465  0.4432669388423870  0.0738205634443575   T   T   T
 -0.0001412098018822  0.6667791253005340  0.9944597607598354   T   T   T
  0.1112689406426982  0.8888454498104813  0.1478314186800440   T   T   T
  0.2207413757082487  0.7830084651972651  0.3033225671306377   T   T   T
  0.1126005735419628  0.8988078853186026  0.3817346312140477   T   T   T
  0.0011125788788256  0.6684470222155464  0.2283181105810176   T   T   T
  0.2235456407606191  0.7788061175919634  0.0734408914530667   T   T   T
  0.3347009999700762  0.6682820659493049  0.9939105284753436   T   T   T
  0.4431960808221135  0.8829778348748284  0.1520559412607558   T   T   T
  0.5612226220216757  0.7763386946314464  0.3067677155438554   T   T   T
  0.4486434001222211  0.8979861673998243  0.3875952056281345   T   T   T
  0.3241221461881939  0.6498656210037411  0.2331585465438996   T   T   T
  0.5574056137643658  0.7796429231151009  0.0745742626018917   T   T   T
  0.6665726736064294  0.6672517502884338  0.9941334178693554   T   T   T
  0.7787870198297335  0.8880962199076047  0.1526143982850831   T   T   T
  0.8903130920726796  0.7815619291184064  0.3022729367288935   T   T   T
  0.7845441950193172  0.8875707788231429  0.3850017130201647   T   T   T
  0.6646240692071226  0.6597679039430725  0.2313554059969726   T   T   T
  0.8879916635620853  0.7776723468870954  0.0740819037871717   T   T   T
  0.3360911923422306  0.3318671086889370  0.3383146428464707   T   T   T
  0.0049325041541991  0.0028488268000050  0.3415237962045957   T   T   T
  0.2251399777576706  0.1144572300862550  0.1882225652505056   T   T   T
  0.1099392977738514  0.2198353867074346  0.0322324028541049   T   T   T
  0.3346208228823896 -0.0020348427062251  0.3431102171983728   T   T   T
  0.5562240983211225  0.1110573860908657  0.1910267807314459   T   T   T
  0.4451749712249790  0.2222386343923150  0.0338973588334270   T   T   T
  0.6685988442295888 -0.0003162438908592  0.3459307652302989   T   T   T
  0.8917702922094218  0.1126734027808765  0.1913728712367465   T   T   T
  0.7778394649228306  0.2214805866620419  0.0355459811951084   T   T   T
  0.9920557855669466  0.3337152004147074  0.3504125444987462   T   T   T
  0.2214534085674249  0.4452689723080858  0.1801614573511043   T   T   T
  0.1097760893300165  0.5563839409298669  0.0326263276301421   T   T   T
  0.5529166060537154  0.4420172943630249  0.1898622043107615   T   T   T
  0.4470528365136184  0.5569618107577032  0.0326224226414282   T   T   T
  0.6663309738860503  0.3326711378489466  0.3485677227481010   T   T   T
  0.8889259552086872  0.4444332670979809  0.1913136018885643   T   T   T
  0.7771881113583915  0.5542779494460407  0.0351339522739235   T   T   T
  0.9992529888721211  0.6675105617395635  0.3434929003224534   T   T   T
  0.2219558210476758  0.7767290297267663  0.1896297958823785   T   T   T
  0.1122009346937792  0.8892603583531141  0.0344591684945320   T   T   T
  0.3319949788163316  0.6748135874731609  0.3508407286874577   T   T   T
  0.5542837683609503  0.7751560208885456  0.1919640234958803   T   T   T
  0.4453254059635166  0.8886341438771267  0.0352135642132122   T   T   T
  0.6700332728310179  0.6673180584716263  0.3426303350740225   T   T   T
  0.8902639004379210  0.7772927524034424  0.1883533806111122   T   T   T
  0.7772790030627933  0.8890064660203457  0.0353300153498801   T   T   T
  0.4261021025009345  0.2143993858851991  0.4521101415142407   T   T   T
 
  0.00000000E+00  0.00000000E+00  0.00000000E+00
  0.00000000E+00  0.00000000E+00  0.00000000E+00
  0.00000000E+00  0.00000000E+00  0.00000000E+00
  0.00000000E+00  0.00000000E+00  0.00000000E+00
  0.00000000E+00  0.00000000E+00  0.00000000E+00
  0.00000000E+00  0.00000000E+00  0.00000000E+00
  0.00000000E+00  0.00000000E+00  0.00000000E+00
  0.00000000E+00  0.00000000E+00  0.00000000E+00
  0.00000000E+00  0.00000000E+00  0.00000000E+00
  0.00000000E+00  0.00000000E+00  0.00000000E+00
  0.00000000E+00  0.00000000E+00  0.00000000E+00
  0.00000000E+00  0.00000000E+00  0.00000000E+00
  0.00000000E+00  0.00000000E+00  0.00000000E+00
  0.00000000E+00  0.00000000E+00  0.00000000E+00
  0.00000000E+00  0.00000000E+00  0.00000000E+00
  0.00000000E+00  0.00000000E+00  0.00000000E+00
  0.00000000E+00  0.00000000E+00  0.00000000E+00
  0.00000000E+00  0.00000000E+00  0.00000000E+00
  0.00000000E+00  0.00000000E+00  0.00000000E+00
  0.00000000E+00  0.00000000E+00  0.00000000E+00
  0.00000000E+00  0.00000000E+00  0.00000000E+00
  0.00000000E+00  0.00000000E+00  0.00000000E+00
  0.00000000E+00  0.00000000E+00  0.00000000E+00
  0.00000000E+00  0.00000000E+00  0.00000000E+00
  0.00000000E+00  0.00000000E+00  0.00000000E+00
  0.00000000E+00  0.00000000E+00  0.00000000E+00
  0.00000000E+00  0.00000000E+00  0.00000000E+00
  0.00000000E+00  0.00000000E+00  0.00000000E+00
  0.00000000E+00  0.00000000E+00  0.00000000E+00
  0.00000000E+00  0.00000000E+00  0.00000000E+00
  0.00000000E+00  0.00000000E+00  0.00000000E+00
  0.00000000E+00  0.00000000E+00  0.00000000E+00
  0.00000000E+00  0.00000000E+00  0.00000000E+00
  0.00000000E+00  0.00000000E+00  0.00000000E+00
  0.00000000E+00  0.00000000E+00  0.00000000E+00
  0.00000000E+00  0.00000000E+00  0.00000000E+00
  0.00000000E+00  0.00000000E+00  0.00000000E+00
  0.00000000E+00  0.00000000E+00  0.00000000E+00
  0.00000000E+00  0.00000000E+00  0.00000000E+00
  0.00000000E+00  0.00000000E+00  0.00000000E+00
  0.00000000E+00  0.00000000E+00  0.00000000E+00
  0.00000000E+00  0.00000000E+00  0.00000000E+00
  0.00000000E+00  0.00000000E+00  0.00000000E+00
  0.00000000E+00  0.00000000E+00  0.00000000E+00
  0.00000000E+00  0.00000000E+00  0.00000000E+00
  0.00000000E+00  0.00000000E+00  0.00000000E+00
  0.00000000E+00  0.00000000E+00  0.00000000E+00
  0.00000000E+00  0.00000000E+00  0.00000000E+00
  0.00000000E+00  0.00000000E+00  0.00000000E+00
  0.00000000E+00  0.00000000E+00  0.00000000E+00
  0.00000000E+00  0.00000000E+00  0.00000000E+00
  0.00000000E+00  0.00000000E+00  0.00000000E+00
  0.00000000E+00  0.00000000E+00  0.00000000E+00
  0.00000000E+00  0.00000000E+00  0.00000000E+00
  0.00000000E+00  0.00000000E+00  0.00000000E+00
  0.00000000E+00  0.00000000E+00  0.00000000E+00
  0.00000000E+00  0.00000000E+00  0.00000000E+00
  0.00000000E+00  0.00000000E+00  0.00000000E+00
  0.00000000E+00  0.00000000E+00  0.00000000E+00
  0.00000000E+00  0.00000000E+00  0.00000000E+00
  0.00000000E+00  0.00000000E+00  0.00000000E+00
  0.00000000E+00  0.00000000E+00  0.00000000E+00
  0.00000000E+00  0.00000000E+00  0.00000000E+00
  0.00000000E+00  0.00000000E+00  0.00000000E+00
  0.00000000E+00  0.00000000E+00  0.00000000E+00
  0.00000000E+00  0.00000000E+00  0.00000000E+00
  0.00000000E+00  0.00000000E+00  0.00000000E+00
  0.00000000E+00  0.00000000E+00  0.00000000E+00
  0.00000000E+00  0.00000000E+00  0.00000000E+00
  0.00000000E+00  0.00000000E+00  0.00000000E+00
  0.00000000E+00  0.00000000E+00  0.00000000E+00
  0.00000000E+00  0.00000000E+00  0.00000000E+00
  0.00000000E+00  0.00000000E+00  0.00000000E+00
  0.00000000E+00  0.00000000E+00  0.00000000E+00
  0.00000000E+00  0.00000000E+00  0.00000000E+00
  0.00000000E+00  0.00000000E+00  0.00000000E+00
  0.00000000E+00  0.00000000E+00  0.00000000E+00
  0.00000000E+00  0.00000000E+00  0.00000000E+00
  0.00000000E+00  0.00000000E+00  0.00000000E+00
  0.00000000E+00  0.00000000E+00  0.00000000E+00
  0.00000000E+00  0.00000000E+00  0.00000000E+00
