CeO2-you-111-you-Re                     
   1.00000000000000     
     9.9165469040078182   -5.7092775955436030    0.0178086753781414
    -0.0000000080234057   11.4185531679348156   -0.0000000020253978
     0.0402668556878463   -0.0000000040140923   21.0086698896929960
   O    Re   Ce H
    53     1    26 2
Selective dynamics
Direct
 -0.0005999863043409  0.0014496376497300  0.9967677850758626   T   T   T
  0.1230137434356127  0.2281733717190404  0.1533264625998224   F   F   F
  0.2206435472286335  0.1233802056642147  0.3007136467929542   T   T   T
  0.1749596165810676  0.2541463082862909  0.3907086975121828   T   T   T
 -0.0015577970232723 -0.0018941329926485  0.2253650385004004   T   T   T
  0.2209012423296487  0.1099447163450180  0.0744201753023328   F   F   F
  0.3347576122057001  0.0009387567863984  0.9960233692091497   T   T   T
  0.4409336367881850  0.2233256137615705  0.1485593015064536   F   F   F
  0.5455066929882735  0.1055049167127695  0.3047303443112432   T   T   T
  0.4336662791005399  0.2659594038625214  0.3657478384020442   T   T   T
  0.3288390360375174 -0.0000795223597199  0.2284621891841084   T   T   T
  0.5534064248773757  0.1104987657129464  0.0763780349221669   F   F   F
  0.6688618324472526  0.0010974162236088  0.9990547965489629   T   T   T
  0.7715270930940418  0.2224678644158673  0.1524279481589875   F   F   F
  0.8885968805245070  0.1109649402600334  0.3040084790015669   T   T   T
  0.7664934097162952  0.2073672528930171  0.3886757308845553   T   T   T
  0.6640238732300816 -0.0013215633864657  0.2299692459452224   T   T   T
  0.8917368583181849  0.1125349291585606  0.0794979970046927   F   F   F
 -0.0005999863044793  0.3312833760453505  0.9967677850758470   T   T   T
  0.1111948927126192  0.5555251189432545  0.1489188553063717   F   F   F
  0.2206435472119110  0.4305963415469660  0.3007136467979931   T   T   T
  0.1228924541955610  0.5691454022393164  0.3829749070835498   T   T   T
 -0.0015577970210578  0.3336693359705135  0.2253650385004428   T   T   T
  0.2209012423298329  0.4442895259837345  0.0744201753023441   F   F   F
  0.3330272332144587  0.3331801166066100  0.9960483633777065   T   T   T
  0.4409336367830365  0.5509420230260538  0.1485593015072544   F   F   F
  0.4336662790772782  0.5010408752412328  0.3657478384060303   T   T   T
  0.3665482170357562  0.3499406085168649  0.2462070497767024   T   T   T
  0.5568905470254490  0.4451112735128308  0.0719403887738389   F   F   F
  0.6687523400770302  0.3319680080396640  0.9963924069238892   T   T   T
  0.7797336604674779  0.5565338302340402  0.1462994225091509   F   F   F
  0.8927454297212047  0.4466718054170701  0.3029216049166469   T   T   T
  0.7887078643866609  0.5610209321932249  0.3854674667082947   T   T   T
  0.6592606724908804  0.3422193138596084  0.2322129216283230   T   T   T
  0.8902025612389562  0.4438272834658684  0.0747823301325307   F   F   F
  0.0000067123326971  0.6666703561663462  0.9956494784625942   T   T   T
  0.1111948927129887  0.8890037737686523  0.1489188553064453   F   F   F
  0.2227705249013850  0.7780522624512544  0.2992091097545154   T   T   T
  0.1228924541924101  0.8870810519632227  0.3829749070823789   T   T   T
 -0.0014124543101884  0.6659607728444208  0.2272933782865466   T   T   T
  0.2226143803006344  0.7779741901504292  0.0740203809782094   F   F   F
  0.3347576122055159  0.6671528554192592  0.9960233692092604   T   T   T
  0.4435716083698542  0.8884528041853188  0.1515187379871782   F   F   F
  0.5455066929855398  0.7733347762776198  0.3047303443099677   T   T   T
  0.4327414222695298  0.8830377111336100  0.3832694795010000   T   T   T
  0.3288390360368743  0.6622525583970624  0.2284621891835992   T   T   T
  0.5534064248770582  0.7762406591651093  0.0763780349223594   F   F   F
  0.6687523400768614  0.6701173320379800  0.9963924069240556   T   T   T
  0.7715270930926119  0.8823922286760715  0.1524279481587177   F   F   F
  0.8927454297181853  0.7794066242892851  0.3029216049158269   T   T   T
  0.7664934097082404  0.8924591568051135  0.3886757308848983   T   T   T
  0.6592606724781458  0.6503743586281373  0.2322129216311908   T   T   T
  0.8902025612383635  0.7797082777722748  0.0747823301326332   F   F   F
  0.3160439132957831  0.3246884566631440  0.3363680243561549   T   T   T
 -0.0028775359619839 -0.0040107108396990  0.3456616032984362   T   T   T
  0.2196517110045258  0.1079837658053691  0.1896129110062214   F   F   F
  0.1114050556082511  0.2223690278046071  0.0365024528658612   F   F   F
  0.3273204497639756 -0.0066297183662445  0.3400724304076543   T   T   T
  0.5535092018583068  0.1119444786679210  0.1919836021487606   F   F   F
  0.4438348731652632  0.2204568789118746  0.0345646639289166   F   F   F
  0.6637279663838151 -0.0014695168046009  0.3458651961833437   T   T   T
  0.8874113497206744  0.1103721748618920  0.1930251839779545   F   F   F
  0.7778651978935506  0.2223303442917796  0.0380022374919280   F   F   F
 -0.0028775359649127  0.3344661748740397  0.3456616032983517   T   T   T
  0.2196517110068493  0.4450009451980066  0.1896129110060497   F   F   F
  0.1108000418068173  0.5542909768385297  0.0353125870402174   F   F   F
  0.5607042088633194  0.4470181044304937  0.1815523635015948   F   F   F
  0.4438348731663036  0.5567119942532769  0.0345646639287237   F   F   F
  0.6745429127179456  0.3327029502915318  0.3500308641100839   T   T   T
  0.8876566745333656  0.4441935608445498  0.1908436126303139   F   F   F
  0.7806200602702830  0.5569770301347284  0.0337003953713677   F   F   F
 -0.0009912157173265  0.6661713921478771  0.3430258765284608   T   T   T
  0.2198337204637168  0.7765838602321492  0.1871089348071220   F   F   F
  0.1108000418067220  0.8898430649692239  0.0353125870402924   F   F   F
  0.3273204497695018  0.6672841681266585  0.3400724304086341   T   T   T
  0.5535092018663249  0.7748977231919789  0.1919836021479636   F   F   F
  0.4455582841060890  0.8894461420529125  0.0371687570654582   F   F   F
  0.6745429127368008  0.6751729624336433  0.3500308641070067   T   T   T
  0.8876566745370101  0.7767961136960236  0.1908436126304445   F   F   F
  0.7778651978944379  0.8888678536022129  0.0380022374917915   F   F   F
0.3160439132957831 0.3246884566631440 0.436368 T T T
0.446598 0.216020 0.433410 T T T 
 
  0.00000000E+00  0.00000000E+00  0.00000000E+00
  0.00000000E+00  0.00000000E+00  0.00000000E+00
  0.00000000E+00  0.00000000E+00  0.00000000E+00
  0.00000000E+00  0.00000000E+00  0.00000000E+00
  0.00000000E+00  0.00000000E+00  0.00000000E+00
  0.00000000E+00  0.00000000E+00  0.00000000E+00
  0.00000000E+00  0.00000000E+00  0.00000000E+00
  0.00000000E+00  0.00000000E+00  0.00000000E+00
  0.00000000E+00  0.00000000E+00  0.00000000E+00
  0.00000000E+00  0.00000000E+00  0.00000000E+00
  0.00000000E+00  0.00000000E+00  0.00000000E+00
  0.00000000E+00  0.00000000E+00  0.00000000E+00
  0.00000000E+00  0.00000000E+00  0.00000000E+00
  0.00000000E+00  0.00000000E+00  0.00000000E+00
  0.00000000E+00  0.00000000E+00  0.00000000E+00
  0.00000000E+00  0.00000000E+00  0.00000000E+00
  0.00000000E+00  0.00000000E+00  0.00000000E+00
  0.00000000E+00  0.00000000E+00  0.00000000E+00
  0.00000000E+00  0.00000000E+00  0.00000000E+00
  0.00000000E+00  0.00000000E+00  0.00000000E+00
  0.00000000E+00  0.00000000E+00  0.00000000E+00
  0.00000000E+00  0.00000000E+00  0.00000000E+00
  0.00000000E+00  0.00000000E+00  0.00000000E+00
  0.00000000E+00  0.00000000E+00  0.00000000E+00
  0.00000000E+00  0.00000000E+00  0.00000000E+00
  0.00000000E+00  0.00000000E+00  0.00000000E+00
  0.00000000E+00  0.00000000E+00  0.00000000E+00
  0.00000000E+00  0.00000000E+00  0.00000000E+00
  0.00000000E+00  0.00000000E+00  0.00000000E+00
  0.00000000E+00  0.00000000E+00  0.00000000E+00
  0.00000000E+00  0.00000000E+00  0.00000000E+00
  0.00000000E+00  0.00000000E+00  0.00000000E+00
  0.00000000E+00  0.00000000E+00  0.00000000E+00
  0.00000000E+00  0.00000000E+00  0.00000000E+00
  0.00000000E+00  0.00000000E+00  0.00000000E+00
  0.00000000E+00  0.00000000E+00  0.00000000E+00
  0.00000000E+00  0.00000000E+00  0.00000000E+00
  0.00000000E+00  0.00000000E+00  0.00000000E+00
  0.00000000E+00  0.00000000E+00  0.00000000E+00
  0.00000000E+00  0.00000000E+00  0.00000000E+00
  0.00000000E+00  0.00000000E+00  0.00000000E+00
  0.00000000E+00  0.00000000E+00  0.00000000E+00
  0.00000000E+00  0.00000000E+00  0.00000000E+00
  0.00000000E+00  0.00000000E+00  0.00000000E+00
  0.00000000E+00  0.00000000E+00  0.00000000E+00
  0.00000000E+00  0.00000000E+00  0.00000000E+00
  0.00000000E+00  0.00000000E+00  0.00000000E+00
  0.00000000E+00  0.00000000E+00  0.00000000E+00
  0.00000000E+00  0.00000000E+00  0.00000000E+00
  0.00000000E+00  0.00000000E+00  0.00000000E+00
  0.00000000E+00  0.00000000E+00  0.00000000E+00
  0.00000000E+00  0.00000000E+00  0.00000000E+00
  0.00000000E+00  0.00000000E+00  0.00000000E+00
  0.00000000E+00  0.00000000E+00  0.00000000E+00
  0.00000000E+00  0.00000000E+00  0.00000000E+00
  0.00000000E+00  0.00000000E+00  0.00000000E+00
  0.00000000E+00  0.00000000E+00  0.00000000E+00
  0.00000000E+00  0.00000000E+00  0.00000000E+00
  0.00000000E+00  0.00000000E+00  0.00000000E+00
  0.00000000E+00  0.00000000E+00  0.00000000E+00
  0.00000000E+00  0.00000000E+00  0.00000000E+00
  0.00000000E+00  0.00000000E+00  0.00000000E+00
  0.00000000E+00  0.00000000E+00  0.00000000E+00
  0.00000000E+00  0.00000000E+00  0.00000000E+00
  0.00000000E+00  0.00000000E+00  0.00000000E+00
  0.00000000E+00  0.00000000E+00  0.00000000E+00
  0.00000000E+00  0.00000000E+00  0.00000000E+00
  0.00000000E+00  0.00000000E+00  0.00000000E+00
  0.00000000E+00  0.00000000E+00  0.00000000E+00
  0.00000000E+00  0.00000000E+00  0.00000000E+00
  0.00000000E+00  0.00000000E+00  0.00000000E+00
  0.00000000E+00  0.00000000E+00  0.00000000E+00
  0.00000000E+00  0.00000000E+00  0.00000000E+00
  0.00000000E+00  0.00000000E+00  0.00000000E+00
  0.00000000E+00  0.00000000E+00  0.00000000E+00
  0.00000000E+00  0.00000000E+00  0.00000000E+00
  0.00000000E+00  0.00000000E+00  0.00000000E+00
  0.00000000E+00  0.00000000E+00  0.00000000E+00
  0.00000000E+00  0.00000000E+00  0.00000000E+00
  0.00000000E+00  0.00000000E+00  0.00000000E+00
