CeO2-you-111-you-Sr                     
   1.00000000000000     
     9.8679042174718337   -5.6788589604227582   -0.0034093366080849
     0.0159162990184791   11.3852837589658566    0.0034093360667917
    -0.0033471532490527    0.0057974393566222   21.1305259293557306
   O    Sr   Ce   H 
    53     1    26     2
Selective dynamics
Direct
  0.0000320424024428 -0.0001077547623320  0.9958231054111898   T   T   T
  0.1082036790317247  0.2198918161302004  0.1466720495603653   F   F   F
  0.2153216692146407  0.1052798183083555  0.3041834443573272   T   T   T
  0.0912648553340968  0.2201614679948244  0.3825264685266545   T   T   T
  0.9979013313273701  0.0008198979365799  0.2285169631053724   T   T   T
  0.2217961871769489  0.1102228737796835  0.0759728958149140   F   F   F
  0.3348280834163037  0.0013153979351717  0.9974884285704456   T   T   T
  0.4420278887593767  0.2246381112394999  0.1519259922737959   F   F   F
  0.5600322423092481  0.1192733523937351  0.3042983605651775   T   T   T
  0.4624048383548134  0.2247333546368086  0.4062683494141034   T   T   T
  0.3342759350870992 -0.0011059656621296  0.2270202854954721   T   T   T
  0.5564016040570507  0.1102653959427613  0.0780847886127205   F   F   F
  0.6659869594937589  0.0010611074268636  0.9960442709662904   T   T   T
  0.7853394860562943  0.2273000142005515  0.1512944142386061   F   F   F
  0.8803896818678810  0.1076367660080144  0.3015762646045221   T   T   T
  0.7761671162350530  0.2230558371717584  0.3863537878029336   T   T   T
  0.6650339606297571  0.0015842700973722  0.2264293429043317   T   T   T
  0.8873366041092297  0.1096854783509045  0.0741575285595957   F   F   F
  0.9984454805574192  0.3322135903394154  0.9958494626314323   T   T   T
  0.1108848420488826  0.5557821579481086  0.1475887483269673   F   F   F
  0.1252571909600562  0.5401826001069322  0.3751516036277733   T   T   T
  0.0197530390662870  0.3418231769398761  0.2352199075275548   T   T   T
  0.2226118920884375  0.4440541079126774  0.0720378732908245   F   F   F
  0.3346034400407166  0.3318436203128205  0.9959957469570343   T   T   T
  0.4467741838742612  0.5584633209698850  0.1466720495599887   F   F   F
  0.5631328051165908  0.4427434711460926  0.3048630684824720   T   T   T
  0.4482174455363820  0.5737085662891704  0.3799934375090281   T   T   T
  0.3269596584969031  0.3429296362046920  0.2298638118548599   T   T   T
  0.5564441262204554  0.4448698128230930  0.0759728958149353   F   F   F
  0.6659994688999101  0.3319870666198844  0.9976004548479850   T   T   T
  0.7784978087179866  0.5559615611638407  0.1515658563367666   F   F   F
  0.8881957015217070  0.4438532006836078  0.3040883545906817   T   T   T
  0.7825630843851631  0.5580893158743447  0.3838884312675473   T   T   T
  0.6690967813655715  0.3341799470725152  0.2278290766362989   T   T   T
  0.8890634244361166  0.4455457829010427  0.0754063783652370   F   F   F
 -0.0002135371120712  0.6671745401737759  0.9961160124271015   T   T   T
  0.1107054388345503  0.8881691912797081  0.1515658563367310   F   F   F
  0.2211535779301189  0.7750458723475818  0.3044284575674719   T   T   T
  0.0932805223314686  0.8757337349639928  0.3861505771096526   T   T   T
  0.0004563327533871  0.6656804200904087  0.2294457434541706   T   T   T
  0.2211202170985516  0.7776035755631767  0.0754063783651944   F   F   F
  0.3342298933774980  0.6688752263361047  0.9958760680756956   T   T   T
  0.4393659858001797  0.8813275139432264  0.1512944142388406   F   F   F
  0.5601468506126089  0.7858994373129886  0.3002310453443642   T   T   T
  0.4547430727419587  0.8875454347470588  0.3870635741722274   T   T   T
  0.3252422152511888  0.6468240879076627  0.2347324526026026   T   T   T
  0.5569815216497958  0.7793303958910442  0.0741575285594891   F   F   F
  0.6670051148789371  0.6665060123154474  0.9957967749855819   T   T   T
  0.7777604153558286  0.8889065846446442  0.1493731370463323   F   F   F
  0.8871751674813526  0.7760602865758215  0.3015931236028332   T   T   T
  0.7765322172783252  0.8871803891367690  0.3818438026951922   T   T   T
  0.6636888328345393  0.6657574776734075  0.2292025369371384   T   T   T
  0.8888592802641000  0.7778077197354847  0.0755378488867819   F   F   F
  0.3350321914100368  0.3302637256951378  0.3546433012401903   T   T   T
 -0.0014920504843561 -0.0007620527198938  0.3424148653043226   T   T   T
  0.2223760753897253  0.1134697318539111  0.1924899059528116   F   F   F
  0.1103422815332351  0.2198271455694609  0.0340704459190775   F   F   F
  0.3290479374000572 -0.0033619344998138  0.3461195447037192   T   T   T
  0.5553818421443282  0.1112851578588661  0.1900546038012081   F   F   F
  0.4441418070544643  0.2225241929453645  0.0378102487488263   F   F   F
  0.6656043542280224  0.0005501685220928  0.3427197237000457   T   T   T
  0.8894283190726426  0.1113126897309016  0.1888459882555154   F   F   F
  0.7779246966009836  0.2224841441113696  0.0362928247670808   F   F   F
  0.9863925283070781  0.3222157801230222  0.3468186963551204   T   T   T
  0.2234876473701490  0.4431783526204782  0.1811551992702007   F   F   F
  0.1099610699031359  0.5567059300969035  0.0344138197584556   F   F   F
  0.5531972681456239  0.4442899246087251  0.1924899059526979   F   F   F
  0.4468388544294513  0.5563247184659161  0.0340704459191201   F   F   F
  0.6738401427454369  0.3391107880074384  0.3420304373825457   T   T   T
  0.8901218724484963  0.4451816154988606  0.1905922704298035   F   F   F
  0.7773061332653768  0.5550395176969900  0.0372322046020841   F   F   F
 -0.0000659683055592  0.6687630309064193  0.3426033101144917   T   T   T
  0.2214843845052457  0.7765451275600697  0.1905922704298817   F   F   F
  0.1116274823041010  0.8893608667355011  0.0372322046020770   F   F   F
  0.3451328071094665  0.6811988275429289  0.3458315325943996   T   T   T
  0.5553543102630556  0.7772386809258123  0.1888459882556575   F   F   F
  0.4441818558881323  0.8887423033993969  0.0362928247671306   F   F   F
  0.6662835559397158  0.6675234527492648  0.3421269873274131   T   T   T
  0.8886528567206895  0.7780141432815384  0.1890828284631354   F   F   F
  0.7774285693822733  0.8892384306169419  0.0355078721027837   F   F   F
  0.3324471892503860  0.3330823240406974  0.4979396961775280   T   T   T
  0.4722365165799466  0.2267992929711857  0.4520127548162768   T   T   T
 
  0.00000000E+00  0.00000000E+00  0.00000000E+00
  0.00000000E+00  0.00000000E+00  0.00000000E+00
  0.00000000E+00  0.00000000E+00  0.00000000E+00
  0.00000000E+00  0.00000000E+00  0.00000000E+00
  0.00000000E+00  0.00000000E+00  0.00000000E+00
  0.00000000E+00  0.00000000E+00  0.00000000E+00
  0.00000000E+00  0.00000000E+00  0.00000000E+00
  0.00000000E+00  0.00000000E+00  0.00000000E+00
  0.00000000E+00  0.00000000E+00  0.00000000E+00
  0.00000000E+00  0.00000000E+00  0.00000000E+00
  0.00000000E+00  0.00000000E+00  0.00000000E+00
  0.00000000E+00  0.00000000E+00  0.00000000E+00
  0.00000000E+00  0.00000000E+00  0.00000000E+00
  0.00000000E+00  0.00000000E+00  0.00000000E+00
  0.00000000E+00  0.00000000E+00  0.00000000E+00
  0.00000000E+00  0.00000000E+00  0.00000000E+00
  0.00000000E+00  0.00000000E+00  0.00000000E+00
  0.00000000E+00  0.00000000E+00  0.00000000E+00
  0.00000000E+00  0.00000000E+00  0.00000000E+00
  0.00000000E+00  0.00000000E+00  0.00000000E+00
  0.00000000E+00  0.00000000E+00  0.00000000E+00
  0.00000000E+00  0.00000000E+00  0.00000000E+00
  0.00000000E+00  0.00000000E+00  0.00000000E+00
  0.00000000E+00  0.00000000E+00  0.00000000E+00
  0.00000000E+00  0.00000000E+00  0.00000000E+00
  0.00000000E+00  0.00000000E+00  0.00000000E+00
  0.00000000E+00  0.00000000E+00  0.00000000E+00
  0.00000000E+00  0.00000000E+00  0.00000000E+00
  0.00000000E+00  0.00000000E+00  0.00000000E+00
  0.00000000E+00  0.00000000E+00  0.00000000E+00
  0.00000000E+00  0.00000000E+00  0.00000000E+00
  0.00000000E+00  0.00000000E+00  0.00000000E+00
  0.00000000E+00  0.00000000E+00  0.00000000E+00
  0.00000000E+00  0.00000000E+00  0.00000000E+00
  0.00000000E+00  0.00000000E+00  0.00000000E+00
  0.00000000E+00  0.00000000E+00  0.00000000E+00
  0.00000000E+00  0.00000000E+00  0.00000000E+00
  0.00000000E+00  0.00000000E+00  0.00000000E+00
  0.00000000E+00  0.00000000E+00  0.00000000E+00
  0.00000000E+00  0.00000000E+00  0.00000000E+00
  0.00000000E+00  0.00000000E+00  0.00000000E+00
  0.00000000E+00  0.00000000E+00  0.00000000E+00
  0.00000000E+00  0.00000000E+00  0.00000000E+00
  0.00000000E+00  0.00000000E+00  0.00000000E+00
  0.00000000E+00  0.00000000E+00  0.00000000E+00
  0.00000000E+00  0.00000000E+00  0.00000000E+00
  0.00000000E+00  0.00000000E+00  0.00000000E+00
  0.00000000E+00  0.00000000E+00  0.00000000E+00
  0.00000000E+00  0.00000000E+00  0.00000000E+00
  0.00000000E+00  0.00000000E+00  0.00000000E+00
  0.00000000E+00  0.00000000E+00  0.00000000E+00
  0.00000000E+00  0.00000000E+00  0.00000000E+00
  0.00000000E+00  0.00000000E+00  0.00000000E+00
  0.00000000E+00  0.00000000E+00  0.00000000E+00
  0.00000000E+00  0.00000000E+00  0.00000000E+00
  0.00000000E+00  0.00000000E+00  0.00000000E+00
  0.00000000E+00  0.00000000E+00  0.00000000E+00
  0.00000000E+00  0.00000000E+00  0.00000000E+00
  0.00000000E+00  0.00000000E+00  0.00000000E+00
  0.00000000E+00  0.00000000E+00  0.00000000E+00
  0.00000000E+00  0.00000000E+00  0.00000000E+00
  0.00000000E+00  0.00000000E+00  0.00000000E+00
  0.00000000E+00  0.00000000E+00  0.00000000E+00
  0.00000000E+00  0.00000000E+00  0.00000000E+00
  0.00000000E+00  0.00000000E+00  0.00000000E+00
  0.00000000E+00  0.00000000E+00  0.00000000E+00
  0.00000000E+00  0.00000000E+00  0.00000000E+00
  0.00000000E+00  0.00000000E+00  0.00000000E+00
  0.00000000E+00  0.00000000E+00  0.00000000E+00
  0.00000000E+00  0.00000000E+00  0.00000000E+00
  0.00000000E+00  0.00000000E+00  0.00000000E+00
  0.00000000E+00  0.00000000E+00  0.00000000E+00
  0.00000000E+00  0.00000000E+00  0.00000000E+00
  0.00000000E+00  0.00000000E+00  0.00000000E+00
  0.00000000E+00  0.00000000E+00  0.00000000E+00
  0.00000000E+00  0.00000000E+00  0.00000000E+00
  0.00000000E+00  0.00000000E+00  0.00000000E+00
  0.00000000E+00  0.00000000E+00  0.00000000E+00
  0.00000000E+00  0.00000000E+00  0.00000000E+00
  0.00000000E+00  0.00000000E+00  0.00000000E+00
  0.00000000E+00  0.00000000E+00  0.00000000E+00
  0.00000000E+00  0.00000000E+00  0.00000000E+00
