CeO2-you-111-you-Sc                     
   1.00000000000000     
     9.8316279131391227   -5.6938444357237321   -0.0004171354623701
    -0.0151996434780920   11.3613603143726358    0.0004171353993626
    -0.0005685848935740    0.0009848178526604   21.1176104069576205
   O    Sc   Ce   H 
    53     1    26     2
Selective dynamics
Direct
 -0.0002393317621934  0.9997727815295325  0.9955033401514316   T   T   T
  0.1106885468435905  0.2213822045513609  0.1478473116831225   F   F   F
  0.2358748817751475  0.1122580537368260  0.3027564779696691   T   T   T
  0.1406970270115577  0.2411923733588583  0.3703070478365869   T   T   T
  0.0035005770821953  0.0026677370693964  0.2303039365645592   T   T   T
  0.2218773109653966  0.1106262229382651  0.0749520268249952   F   F   F
  0.3349319187432375  0.0007801743824762  0.9963798820629214   T   T   T
  0.4413428984128061  0.2253231015856372  0.1518757604376617   F   F   F
  0.5507154398241283  0.1158988049274261  0.3053627512780838   T   T   T
  0.4362790063697563  0.2299342249996345  0.3957545265134176   T   T   T
  0.3351333140401258 -0.0016530968540629  0.2273557922536188   T   T   T
  0.5553738749838359  0.1112931250160116  0.0783932293896328   F   F   F
  0.6656207223103586  0.0006701396851424  0.9964554403728003   T   T   T
  0.7844521342435939  0.2246764919788120  0.1519056586677650   F   F   F
  0.8852962930708947  0.1046076100178661  0.3048093589242886   T   T   T
  0.7668301733799466  0.2172587926979321  0.3871258210512608   T   T   T
  0.6653068005167829  0.0017326276568379  0.2299430300569344   T   T   T
  0.8883096681182252  0.1099258356479993  0.0754419478456185   F   F   F
  0.9978743540802026  0.3321689837923154  0.9955579364741217   T   T   T
  0.1107880378372315  0.5558789621613656  0.1481716492402754   F   F   F
  0.1046598435551209  0.5617711988701992  0.3850496106760254   T   T   T
  0.0164095013219652  0.3422068529936268  0.2338199249314927   T   T   T
  0.2220529517646668  0.4446130482357660  0.0727627421004655   F   F   F
  0.3336907681848679  0.3325954685075591  0.9953873280546948   T   T   T
  0.4452837954514024  0.5559784531575644  0.1478473116832006   F   F   F
  0.5531558591454716  0.4297479608909592  0.3027404950581672   T   T   T
  0.4249966686240418  0.5259513451981971  0.3703327905427719   T   T   T
  0.3232525256386055  0.3429790345057707  0.2371443925540077   T   T   T
  0.5560407770617957  0.4447886890345529  0.0749520268249952   F   F   F
  0.6657600657525166  0.3316275410546669  0.9963523165805485   T   T   T
  0.7775168890932775  0.5553296648723034  0.1510849699277372   F   F   F
  0.8833227343264700  0.4464115972260232  0.3035437311918175   T   T   T
  0.7728836997606987  0.5559244337149131  0.3848336070781951   T   T   T
  0.6677354068455928  0.3313009395589099  0.2272471801142819   T   T   T
  0.8883949275759448  0.4447765651739388  0.0755199554855608   F   F   F
 -0.0002136968699845  0.6674370720265448  0.9958441406784608   T   T   T
  0.1113373351273239  0.8891501109057316  0.1510849699277586   F   F   F
  0.2201622437473946  0.7831314009444149  0.3035901014939242   T   T   T
  0.1106540370351163  0.8926161705396370  0.3852875619912745   T   T   T
 -0.0002905526482857  0.6670039160677761  0.2294040880865494   T   T   T
  0.2218894348258829  0.7782720724237393  0.0755199554855679   F   F   F
  0.3342490285176946  0.6685751464688973  0.9955931800455732   T   T   T
  0.4419895080214289  0.8822148657565094  0.1519056586676584   F   F   F
  0.5626731493426046  0.7814102418430949  0.3046722903852788   T   T   T
  0.4493520360832485  0.8995907718036318  0.3871316718818288   T   T   T
  0.3249902609046912  0.6502027529624383  0.2339728401587874   T   T   T
  0.5567411643523883  0.7783573318819137  0.0754419478456612   F   F   F
  0.6673914930427235  0.6673696667497300  0.9956674992702352   T   T   T
  0.7776349662599955  0.8890320337404631  0.1514437968196205   F   F   F
  0.8882282594706166  0.7792238147089875  0.3038464928051099   T   T   T
  0.7795312006337156  0.8881013242385870  0.3859197739872176   T   T   T
  0.6638438920365163  0.6626125157491013  0.2303950275719510   T   T   T
  0.8886691102413948  0.7779978897583391  0.0760663470623228   F   F   F
  0.3400480591357027  0.3262623796794467  0.3377495302200982   T   T   T
  0.0054963773975170  0.0049803668288478  0.3430843805880493   T   T   T
  0.2227151911401180  0.1122947683187903  0.1911880950741889   F   F   F
  0.1100562830801906  0.2203835765868547  0.0342432521437317   F   F   F
  0.3297297397070022 -0.0056974345809746  0.3428603030045525   T   T   T
  0.5560321054954613  0.1106348945057007  0.1909781822019525   F   F   F
  0.4443397579468424  0.2223262420530787  0.0363188587734413   F   F   F
  0.6679711918458950  0.9991934929022105  0.3457553198175609   T   T   T
  0.8901199113974698  0.1119841071404863  0.1913518231396978   F   F   F
  0.7778957015293386  0.2222217906554320  0.0365671000777894   F   F   F
  0.9934430713963627  0.3306028677091293  0.3512872717541647   T   T   T
  0.2226678259111736  0.4439981740860404  0.1828290808503681   F   F   F
  0.1100908722230614  0.5565761277765446  0.0346622273665602   F   F   F
  0.5543722316790962  0.4439508088586379  0.1911880950741818   F   F   F
  0.4462824234134501  0.5566107169200691  0.0342432521436891   F   F   F
  0.6717132480778931  0.3367227899438390  0.3427080341386293   T   T   T
  0.8898951771951218  0.4448163487188239  0.1913820665461330   F   F   F
  0.7774353081168712  0.5550150274492438  0.0366455986711784   F   F   F
  0.9988869308381387  0.6678884305098992  0.3447088869963757   T   T   T
  0.2218496512835273  0.7767718228091809  0.1913820665461543   F   F   F
  0.1116519725512788  0.8892316918833885  0.0366455986711856   F   F   F
  0.3359884786094120  0.6729980692300719  0.3512853850522859   T   T   T
  0.5546828928563983  0.7765470886025909  0.1913518231396338   F   F   F
  0.4444442093443470  0.8887712984709353  0.0365671000777610   F   F   F
  0.6614646390910488  0.6609582235048104  0.3429606041259184   T   T   T
  0.8888003833487161  0.7778666166521901  0.1900324184324802   F   F   F
  0.7774776129969183  0.8891893870028511  0.0365731740776596   F   F   F
  0.3147418431566895  0.3515285782765429  0.4566869495828321   T   T   T
  0.4269097509904189  0.2393961606573853  0.4410684725769775   T   T   T
 
  0.00000000E+00  0.00000000E+00  0.00000000E+00
  0.00000000E+00  0.00000000E+00  0.00000000E+00
  0.00000000E+00  0.00000000E+00  0.00000000E+00
  0.00000000E+00  0.00000000E+00  0.00000000E+00
  0.00000000E+00  0.00000000E+00  0.00000000E+00
  0.00000000E+00  0.00000000E+00  0.00000000E+00
  0.00000000E+00  0.00000000E+00  0.00000000E+00
  0.00000000E+00  0.00000000E+00  0.00000000E+00
  0.00000000E+00  0.00000000E+00  0.00000000E+00
  0.00000000E+00  0.00000000E+00  0.00000000E+00
  0.00000000E+00  0.00000000E+00  0.00000000E+00
  0.00000000E+00  0.00000000E+00  0.00000000E+00
  0.00000000E+00  0.00000000E+00  0.00000000E+00
  0.00000000E+00  0.00000000E+00  0.00000000E+00
  0.00000000E+00  0.00000000E+00  0.00000000E+00
  0.00000000E+00  0.00000000E+00  0.00000000E+00
  0.00000000E+00  0.00000000E+00  0.00000000E+00
  0.00000000E+00  0.00000000E+00  0.00000000E+00
  0.00000000E+00  0.00000000E+00  0.00000000E+00
  0.00000000E+00  0.00000000E+00  0.00000000E+00
  0.00000000E+00  0.00000000E+00  0.00000000E+00
  0.00000000E+00  0.00000000E+00  0.00000000E+00
  0.00000000E+00  0.00000000E+00  0.00000000E+00
  0.00000000E+00  0.00000000E+00  0.00000000E+00
  0.00000000E+00  0.00000000E+00  0.00000000E+00
  0.00000000E+00  0.00000000E+00  0.00000000E+00
  0.00000000E+00  0.00000000E+00  0.00000000E+00
  0.00000000E+00  0.00000000E+00  0.00000000E+00
  0.00000000E+00  0.00000000E+00  0.00000000E+00
  0.00000000E+00  0.00000000E+00  0.00000000E+00
  0.00000000E+00  0.00000000E+00  0.00000000E+00
  0.00000000E+00  0.00000000E+00  0.00000000E+00
  0.00000000E+00  0.00000000E+00  0.00000000E+00
  0.00000000E+00  0.00000000E+00  0.00000000E+00
  0.00000000E+00  0.00000000E+00  0.00000000E+00
  0.00000000E+00  0.00000000E+00  0.00000000E+00
  0.00000000E+00  0.00000000E+00  0.00000000E+00
  0.00000000E+00  0.00000000E+00  0.00000000E+00
  0.00000000E+00  0.00000000E+00  0.00000000E+00
  0.00000000E+00  0.00000000E+00  0.00000000E+00
  0.00000000E+00  0.00000000E+00  0.00000000E+00
  0.00000000E+00  0.00000000E+00  0.00000000E+00
  0.00000000E+00  0.00000000E+00  0.00000000E+00
  0.00000000E+00  0.00000000E+00  0.00000000E+00
  0.00000000E+00  0.00000000E+00  0.00000000E+00
  0.00000000E+00  0.00000000E+00  0.00000000E+00
  0.00000000E+00  0.00000000E+00  0.00000000E+00
  0.00000000E+00  0.00000000E+00  0.00000000E+00
  0.00000000E+00  0.00000000E+00  0.00000000E+00
  0.00000000E+00  0.00000000E+00  0.00000000E+00
  0.00000000E+00  0.00000000E+00  0.00000000E+00
  0.00000000E+00  0.00000000E+00  0.00000000E+00
  0.00000000E+00  0.00000000E+00  0.00000000E+00
  0.00000000E+00  0.00000000E+00  0.00000000E+00
  0.00000000E+00  0.00000000E+00  0.00000000E+00
  0.00000000E+00  0.00000000E+00  0.00000000E+00
  0.00000000E+00  0.00000000E+00  0.00000000E+00
  0.00000000E+00  0.00000000E+00  0.00000000E+00
  0.00000000E+00  0.00000000E+00  0.00000000E+00
  0.00000000E+00  0.00000000E+00  0.00000000E+00
  0.00000000E+00  0.00000000E+00  0.00000000E+00
  0.00000000E+00  0.00000000E+00  0.00000000E+00
  0.00000000E+00  0.00000000E+00  0.00000000E+00
  0.00000000E+00  0.00000000E+00  0.00000000E+00
  0.00000000E+00  0.00000000E+00  0.00000000E+00
  0.00000000E+00  0.00000000E+00  0.00000000E+00
  0.00000000E+00  0.00000000E+00  0.00000000E+00
  0.00000000E+00  0.00000000E+00  0.00000000E+00
  0.00000000E+00  0.00000000E+00  0.00000000E+00
  0.00000000E+00  0.00000000E+00  0.00000000E+00
  0.00000000E+00  0.00000000E+00  0.00000000E+00
  0.00000000E+00  0.00000000E+00  0.00000000E+00
  0.00000000E+00  0.00000000E+00  0.00000000E+00
  0.00000000E+00  0.00000000E+00  0.00000000E+00
  0.00000000E+00  0.00000000E+00  0.00000000E+00
  0.00000000E+00  0.00000000E+00  0.00000000E+00
  0.00000000E+00  0.00000000E+00  0.00000000E+00
  0.00000000E+00  0.00000000E+00  0.00000000E+00
  0.00000000E+00  0.00000000E+00  0.00000000E+00
  0.00000000E+00  0.00000000E+00  0.00000000E+00
  0.00000000E+00  0.00000000E+00  0.00000000E+00
  0.00000000E+00  0.00000000E+00  0.00000000E+00
