CeO2-you-111-you-Ge                     
   1.00000000000000     
     9.9226737757821670   -5.7288587508534503   -0.0000000012377476
    -0.0512787102112422   11.3688981597340444   -0.0235440349574658
    -0.0259165893218115   -0.0448888418254432   20.2363011238330479
   O    Ge   Ce   H 
    53     1    26     2
Selective dynamics
Direct
  0.0002727853415162  0.0002409127258369  0.9878731180287652   T   T   T
  0.1123632982655494  0.2236634074037198  0.1486014754347451   F   F   F
  0.2400183993905907  0.1500187729017564  0.3159849639285331   T   T   T
  0.0602677135852931  0.1994984110924003  0.4028378996608010   T   T   T
  0.0083069066470583  0.0040987014773815  0.2314654165148207   T   T   T
  0.2224307037034592  0.1115284074069649  0.0705292630819159   F   F   F
  0.3331607774426822  0.0000743405574766  0.9877084505806782   T   T   T
  0.4446331091378113  0.2236634074031585  0.1486014754347167   F   F   F
  0.5580776263384789  0.1069986059026529  0.3065278188949438   T   T   T
  0.4722211774519539  0.1998984556263534  0.4236010408823958   T   T   T
  0.3281826632279344  0.0014933493354158  0.2297530550715298   T   T   T
  0.5552544150738825  0.1115676087092652  0.0704774244110098   F   F   F
  0.6668357436433503  0.9994113042428180  0.9885849021582226   T   T   T
  0.7760316444631101  0.2187292889259993  0.1497466970960062   F   F   F
  0.8834020475206865  0.1065731327455965  0.3038053920835961   T   T   T
  0.7817333508709200  0.2123085976408246  0.3932476214233401   T   T   T
  0.6602901470465516  0.9882255551766321  0.2310288747332704   T   T   T
  0.8896471936354544  0.1115676087093931  0.0704774244110240   F   F   F
  0.0001337955457068  0.3328387689647259  0.9885462139524557   T   T   T
  0.1106291416326073  0.5552825270351960  0.1484921564946049   F   F   F
  0.2457516258619648  0.4393890897832204  0.3165791234837483   T   T   T
  0.1165429983774698  0.5585354771474814  0.3918092428386865   T   T   T
  0.0069503554859554  0.3368466058338257  0.2330213768806482   T   T   T
  0.2226474200769673  0.4452009860097661  0.0715295566561807   F   F   F
  0.3334726050635884  0.3336561799631267  0.9885175914474561   T   T   T
  0.4438348730373249  0.5543377460750989  0.1496523396941498   F   F   F
  0.5241408406461706  0.4409782854356847  0.3182972285732935   T   T   T
  0.3349091197809522  0.3368448344179471  0.2300192968446691   T   T   T
  0.5558875659328422  0.4452009860098229  0.0715295566562020   F   F   F
  0.6663973274561124  0.3328655144640205  0.9885324154776547   T   T   T
  0.7779863854022437  0.5552825270348549  0.1484921564946120   F   F   F
  0.8962581357209904  0.4484120580922002  0.3098347632759561   T   T   T
  0.7850134123191379  0.5725539942373671  0.3918990815051888   T   T   T
  0.6658776292439330  0.3389935384240161  0.2317845610148014   T   T   T
  0.8879089831320641  0.4424839662641205  0.0713599860284262   F   F   F
  0.9986624202951840  0.6644983277831981  0.9880905529056040   T   T   T
  0.1115380099276138  0.8897430198550751  0.1462597161511070   F   F   F
  0.2185817070868804  0.7745070695461321  0.3069670069639972   T   T   T
  0.0996509745075301  0.8873834140437916  0.3901695487239064   T   T   T
  0.0000049939520753  0.6683719290410828  0.2294446051166194   T   T   T
  0.2215533393906242  0.7779645797921546  0.0696289944711168   F   F   F
  0.3334091206900489  0.6662473478053739  0.9886062006615109   T   T   T
  0.4431572628026004  0.8890888185311141  0.1468283698328605   F   F   F
  0.5449529203940711  0.7535425221537102  0.3155974519873379   T   T   T
  0.4462514471678417  0.8784464581763748  0.3929071600570556   T   T   T
  0.3310676616738569  0.6667635958681337  0.2314068347693329   T   T   T
  0.5552000897379799  0.7770661794759306  0.0716255808784751   F   F   F
  0.6664832702889850  0.6668173236297953  0.9886556821627612   T   T   T
  0.7792645557289148  0.8890888185314481  0.1468283698327824   F   F   F
  0.8906216717421902  0.7810937902203635  0.3050014200906115   T   T   T
  0.7783130890558676  0.8876917850664147  0.3907722433796795   T   T   T
  0.6695930142591057  0.6664050142581227  0.2310179157026404   T   T   T
  0.8897442404015976  0.7779645797922754  0.0696289944710884   F   F   F
  0.3340206115907405  0.3386967750496478  0.3296544032997073   T   T   T
  0.0015376176346189  0.0082577858531531  0.3527045524682580   T   T   T
  0.2231068543212942  0.1128807086431465  0.1891017679382045   F   F   F
  0.1114616384057925  0.2224878155629710  0.0298520297911935   F   F   F
  0.3339154513540759  0.0037052348267694  0.3550835946084506   T   T   T
  0.5543035861097607  0.1100047426772335  0.1897078083029768   F   F   F
  0.4443591771571391  0.2224878155629710  0.0298520297911438   F   F   F
  0.6643587471325884 -0.0020148414025177  0.3502077311096876   T   T   T
  0.8890351565666776  0.1100047426764448  0.1897078083029484   F   F   F
  0.7772727291531325  0.2212114583063212  0.0302156981878383   F   F   F
  0.9956932944889811  0.3261100042065586  0.3540968216439930   T   T   T
  0.2215567317732194  0.4453770029329078  0.1917767462836153   F   F   F
  0.1104276658854531  0.5541210705356931  0.0299099828694409   F   F   F
  0.5571542711605417  0.4453770029328012  0.1917767462835300   F   F   F
  0.4439468617146289  0.5545617234292095  0.0303641000466541   F   F   F
  0.6700596893712601  0.3322632984748898  0.3560798892817322   T   T   T
  0.8888993168450057  0.4444646336896696  0.1908082489389287   F   F   F
  0.7770264046502504  0.5541210705356718  0.0299099828694622   F   F   F
  0.0010339119466391  0.6696813512536337  0.3491524403545903   T   T   T
  0.2210338988657412  0.7796755978964143  0.1874169920614648   F   F   F
  0.1111324187806275  0.8889318375614081  0.0278043353988622   F   F   F
  0.3235370242193034  0.6739074824449784  0.3475533477465543   T   T   T
  0.5544189760340785  0.7755039520680569  0.1886878289834328   F   F   F
  0.4437124717243321  0.8882298468924574  0.0291349200338331   F   F   F
  0.6857319688228877  0.6770545490511343  0.3466260360970095   T   T   T
  0.8919746990298947  0.7796755978957961  0.1874169920614435   F   F   F
  0.7778503751679864  0.8882298468924361  0.0291349200337834   F   F   F
  0.3354722555027174  0.3441976417891657  0.4071310469036450   T   T   T
  0.4342018619052456  0.2351930187420727  0.4555090174836102   T   T   T
 
  0.00000000E+00  0.00000000E+00  0.00000000E+00
  0.00000000E+00  0.00000000E+00  0.00000000E+00
  0.00000000E+00  0.00000000E+00  0.00000000E+00
  0.00000000E+00  0.00000000E+00  0.00000000E+00
  0.00000000E+00  0.00000000E+00  0.00000000E+00
  0.00000000E+00  0.00000000E+00  0.00000000E+00
  0.00000000E+00  0.00000000E+00  0.00000000E+00
  0.00000000E+00  0.00000000E+00  0.00000000E+00
  0.00000000E+00  0.00000000E+00  0.00000000E+00
  0.00000000E+00  0.00000000E+00  0.00000000E+00
  0.00000000E+00  0.00000000E+00  0.00000000E+00
  0.00000000E+00  0.00000000E+00  0.00000000E+00
  0.00000000E+00  0.00000000E+00  0.00000000E+00
  0.00000000E+00  0.00000000E+00  0.00000000E+00
  0.00000000E+00  0.00000000E+00  0.00000000E+00
  0.00000000E+00  0.00000000E+00  0.00000000E+00
  0.00000000E+00  0.00000000E+00  0.00000000E+00
  0.00000000E+00  0.00000000E+00  0.00000000E+00
  0.00000000E+00  0.00000000E+00  0.00000000E+00
  0.00000000E+00  0.00000000E+00  0.00000000E+00
  0.00000000E+00  0.00000000E+00  0.00000000E+00
  0.00000000E+00  0.00000000E+00  0.00000000E+00
  0.00000000E+00  0.00000000E+00  0.00000000E+00
  0.00000000E+00  0.00000000E+00  0.00000000E+00
  0.00000000E+00  0.00000000E+00  0.00000000E+00
  0.00000000E+00  0.00000000E+00  0.00000000E+00
  0.00000000E+00  0.00000000E+00  0.00000000E+00
  0.00000000E+00  0.00000000E+00  0.00000000E+00
  0.00000000E+00  0.00000000E+00  0.00000000E+00
  0.00000000E+00  0.00000000E+00  0.00000000E+00
  0.00000000E+00  0.00000000E+00  0.00000000E+00
  0.00000000E+00  0.00000000E+00  0.00000000E+00
  0.00000000E+00  0.00000000E+00  0.00000000E+00
  0.00000000E+00  0.00000000E+00  0.00000000E+00
  0.00000000E+00  0.00000000E+00  0.00000000E+00
  0.00000000E+00  0.00000000E+00  0.00000000E+00
  0.00000000E+00  0.00000000E+00  0.00000000E+00
  0.00000000E+00  0.00000000E+00  0.00000000E+00
  0.00000000E+00  0.00000000E+00  0.00000000E+00
  0.00000000E+00  0.00000000E+00  0.00000000E+00
  0.00000000E+00  0.00000000E+00  0.00000000E+00
  0.00000000E+00  0.00000000E+00  0.00000000E+00
  0.00000000E+00  0.00000000E+00  0.00000000E+00
  0.00000000E+00  0.00000000E+00  0.00000000E+00
  0.00000000E+00  0.00000000E+00  0.00000000E+00
  0.00000000E+00  0.00000000E+00  0.00000000E+00
  0.00000000E+00  0.00000000E+00  0.00000000E+00
  0.00000000E+00  0.00000000E+00  0.00000000E+00
  0.00000000E+00  0.00000000E+00  0.00000000E+00
  0.00000000E+00  0.00000000E+00  0.00000000E+00
  0.00000000E+00  0.00000000E+00  0.00000000E+00
  0.00000000E+00  0.00000000E+00  0.00000000E+00
  0.00000000E+00  0.00000000E+00  0.00000000E+00
  0.00000000E+00  0.00000000E+00  0.00000000E+00
  0.00000000E+00  0.00000000E+00  0.00000000E+00
  0.00000000E+00  0.00000000E+00  0.00000000E+00
  0.00000000E+00  0.00000000E+00  0.00000000E+00
  0.00000000E+00  0.00000000E+00  0.00000000E+00
  0.00000000E+00  0.00000000E+00  0.00000000E+00
  0.00000000E+00  0.00000000E+00  0.00000000E+00
  0.00000000E+00  0.00000000E+00  0.00000000E+00
  0.00000000E+00  0.00000000E+00  0.00000000E+00
  0.00000000E+00  0.00000000E+00  0.00000000E+00
  0.00000000E+00  0.00000000E+00  0.00000000E+00
  0.00000000E+00  0.00000000E+00  0.00000000E+00
  0.00000000E+00  0.00000000E+00  0.00000000E+00
  0.00000000E+00  0.00000000E+00  0.00000000E+00
  0.00000000E+00  0.00000000E+00  0.00000000E+00
  0.00000000E+00  0.00000000E+00  0.00000000E+00
  0.00000000E+00  0.00000000E+00  0.00000000E+00
  0.00000000E+00  0.00000000E+00  0.00000000E+00
  0.00000000E+00  0.00000000E+00  0.00000000E+00
  0.00000000E+00  0.00000000E+00  0.00000000E+00
  0.00000000E+00  0.00000000E+00  0.00000000E+00
  0.00000000E+00  0.00000000E+00  0.00000000E+00
  0.00000000E+00  0.00000000E+00  0.00000000E+00
  0.00000000E+00  0.00000000E+00  0.00000000E+00
  0.00000000E+00  0.00000000E+00  0.00000000E+00
  0.00000000E+00  0.00000000E+00  0.00000000E+00
  0.00000000E+00  0.00000000E+00  0.00000000E+00
  0.00000000E+00  0.00000000E+00  0.00000000E+00
  0.00000000E+00  0.00000000E+00  0.00000000E+00
