CeO2-you-111-you-Sb                     
   1.00000000000000     
     9.8679166377705858   -5.6706253857158293   -0.0064438353167162
     0.0230529924195964   11.3811777271862269    0.0064438342295400
    -0.0068950893421751    0.0119426444752088   21.0723991228819436
   O    Sb   Ce   H 
    53     1    26     2
Selective dynamics
Direct
  0.9997702866878120  0.9997677246498498  0.9955617297369588   T   T   T
  0.1097930494396024  0.2208633560685769  0.1462762776637661   F   F   F
  0.2536705846823697  0.1436994900306010  0.3123732273616545   T   T   T
  0.0888830038142965  0.1978218175125215  0.3881016677582701   T   T   T
  0.0083654814312467  0.0040408255750010  0.2315938294041988   T   T   T
  0.2215506565759924  0.1099022998132142  0.0748371981851434   F   F   F
  0.3348071961981255  0.0005116302693614  0.9966006678594096   T   T   T
  0.4418936197114505  0.2247723802887265  0.1505694194122427   F   F   F
  0.5512999329191032  0.1121319578391677  0.3029267836502349   T   T   T
  0.4784356278952367  0.1853889155324245  0.4106487149478483   T   T   T
  0.3297562172788627  0.0006140442760531  0.2292600557865494   T   T   T
  0.5560650118703734  0.1106019881289200  0.0778953562734088   F   F   F
  0.6658558722389690  0.0005531959494769  0.9963548419677897   T   T   T
  0.7845700271845146  0.2273953902680788  0.1515180288976694   F   F   F
  0.8794086468207227  0.1028384990333420  0.3010806935893892   T   T   T
  0.7669035582787019  0.2170684798851014  0.3845749240097501   T   T   T
  0.6640827598757252  0.0022318337714303  0.2264571347998939   T   T   T
  0.8873287760182009  0.1094730714843521  0.0749403205123897   F   F   F
  0.9978943689036696  0.3313918545018305  0.9953761925446435   T   T   T
  0.1102888636931851  0.5563781363047582  0.1469446358333002   F   F   F
  0.1240562626665250  0.5626814721499539  0.3786950011289878   T   T   T
  0.0163489258430034  0.3410284606605370  0.2322042647009905   T   T   T
  0.2220016919575443  0.4446643080430732  0.0714969530373892   F   F   F
  0.3342982582840202  0.3320905508311415  0.9954467652063701   T   T   T
  0.4458026439345275  0.5568739505618865  0.1462762776634676   F   F   F
  0.5225798726270069  0.4190168824378107  0.3147643086801462   T   T   T
  0.4605046261926167  0.5949130259129609  0.3900966688421114   T   T   T
  0.3285672957678715  0.3383807757864856  0.2209403185664334   T   T   T
  0.5567647001873581  0.4451153434240638  0.0748371981852429   F   F   F
  0.6658509123660645  0.3315060820932157  0.9966696338613443   T   T   T
  0.7786998271270846  0.5553422899434324  0.1505083378835721   F   F   F
  0.8845711414141547  0.4471595912637487  0.3036746616700718   T   T   T
  0.7746041938201983  0.5544658098090423  0.3826189490889218   T   T   T
  0.6644816582748553  0.3359211981568942  0.2300089091776208   T   T   T
  0.8890838378708281  0.4451774726066446  0.0744945894025761   F   F   F
  0.9993498623072212  0.6673629891857824  0.9955058937502931   T   T   T
  0.1113247100557260  0.8879671728719885  0.1505083378835224   F   F   F
  0.2258739692108007  0.7829091067770210  0.3029454332602744   T   T   T
  0.1127935466974695  0.8891996563775674  0.3808045853383790   T   T   T
  0.0016811364377448  0.6671637006948656  0.2294115554771943   T   T   T
  0.2214885273928360  0.7775831621289342  0.0744945894024340   F   F   F
  0.3351609060391770  0.6688562359284979  0.9954744488937037   T   T   T
  0.4392706097321764  0.8820969728149421  0.1515180288976907   F   F   F
  0.5596431731287000  0.7859668263583519  0.3006938032511737   T   T   T
  0.4454144158595903  0.8912526534130154  0.3840609418502670   T   T   T
  0.3253350095778268  0.6487870822746349  0.2345268647622817   T   T   T
  0.5571939285159218  0.7793382239820303  0.0749403205123969   F   F   F
  0.6675940417045113  0.6675246582808088  0.9956222529160562   T   T   T
  0.7779228992171241  0.8887441007832138  0.1516295581475617   F   F   F
  0.8870818783760850  0.7765609995002031  0.3036755119648979   T   T   T
  0.7753248546899523  0.8871124212305577  0.3847064712819853   T   T   T
  0.6616256820734380  0.6588435751329276  0.2319156903490924   T   T   T
  0.8885351107956225  0.7781318892042037  0.0757345018707625   F   F   F
  0.3165374283899024  0.3391352045392166  0.3435210393369125   T   T   T
  0.9966095109915951 -0.0000385720492348  0.3462252488104406   T   T   T
  0.2214562296053089  0.1121650361586717  0.1894386432041699   F   F   F
  0.1097093121814581  0.2200254154029366  0.0336412315074455   F   F   F
  0.3330002569263785 -0.0011104414057826  0.3442976469469798   T   T   T
  0.5550018086797621  0.1116651913217765  0.1902305397070450   F   F   F
  0.4443784755159115  0.2222875244841376  0.0360626725795825   F   F   F
  0.6670330944197940  0.0021232870333522  0.3432051744886185   T   T   T
  0.8901020404110938  0.1119106295423293  0.1902564138144669   F   F   F
  0.7780627212100626  0.2223932081032132  0.0362877167694435   F   F   F
  0.9919637817818663  0.3259973099826283  0.3500531933052149   T   T   T
  0.2223282269601370  0.4443377730359543  0.1814322202865739   F   F   F
  0.1100051833479156  0.5566618166523867  0.0337858717845876   F   F   F
  0.5545019638392930  0.4452097703936744  0.1894386432041628   F   F   F
  0.4466405845963948  0.5569576878180413  0.0336412315075023   F   F   F
  0.6675622774434444  0.3345143193448037  0.3448153664721138   T   T   T
  0.8905251216940329  0.4447619775136786  0.1906674259264420   F   F   F
  0.7778087196360133  0.5554595117298362  0.0363185134269486   F   F   F
  0.0004028760864769  0.6662705652891870  0.3419946242061300   T   T   T
  0.2219040224891344  0.7761418783112717  0.1906674259264349   F   F   F
  0.1112074882711696  0.8888582803647225  0.0363185134268988   F   F   F
  0.3424108868020316  0.6793279899383768  0.3476454387185686   T   T   T
  0.5547563704538518  0.7765649595889457  0.1902564138145095   F   F   F
  0.4442727918965659  0.8886042787901616  0.0362877167694506   F   F   F
  0.6627411377228715  0.6676177713153409  0.3467682537292387   T   T   T
  0.8886964944269877  0.7779705055741459  0.1902437820602998   F   F   F
  0.7773706524023964  0.8892963475967477  0.0361793964608239   F   F   F
  0.3585890601855614  0.3162030416775718  0.4205968982378394   T   T   T
  0.4372013640830914  0.2273722321877696  0.4360692803593849   T   T   T
 
  0.00000000E+00  0.00000000E+00  0.00000000E+00
  0.00000000E+00  0.00000000E+00  0.00000000E+00
  0.00000000E+00  0.00000000E+00  0.00000000E+00
  0.00000000E+00  0.00000000E+00  0.00000000E+00
  0.00000000E+00  0.00000000E+00  0.00000000E+00
  0.00000000E+00  0.00000000E+00  0.00000000E+00
  0.00000000E+00  0.00000000E+00  0.00000000E+00
  0.00000000E+00  0.00000000E+00  0.00000000E+00
  0.00000000E+00  0.00000000E+00  0.00000000E+00
  0.00000000E+00  0.00000000E+00  0.00000000E+00
  0.00000000E+00  0.00000000E+00  0.00000000E+00
  0.00000000E+00  0.00000000E+00  0.00000000E+00
  0.00000000E+00  0.00000000E+00  0.00000000E+00
  0.00000000E+00  0.00000000E+00  0.00000000E+00
  0.00000000E+00  0.00000000E+00  0.00000000E+00
  0.00000000E+00  0.00000000E+00  0.00000000E+00
  0.00000000E+00  0.00000000E+00  0.00000000E+00
  0.00000000E+00  0.00000000E+00  0.00000000E+00
  0.00000000E+00  0.00000000E+00  0.00000000E+00
  0.00000000E+00  0.00000000E+00  0.00000000E+00
  0.00000000E+00  0.00000000E+00  0.00000000E+00
  0.00000000E+00  0.00000000E+00  0.00000000E+00
  0.00000000E+00  0.00000000E+00  0.00000000E+00
  0.00000000E+00  0.00000000E+00  0.00000000E+00
  0.00000000E+00  0.00000000E+00  0.00000000E+00
  0.00000000E+00  0.00000000E+00  0.00000000E+00
  0.00000000E+00  0.00000000E+00  0.00000000E+00
  0.00000000E+00  0.00000000E+00  0.00000000E+00
  0.00000000E+00  0.00000000E+00  0.00000000E+00
  0.00000000E+00  0.00000000E+00  0.00000000E+00
  0.00000000E+00  0.00000000E+00  0.00000000E+00
  0.00000000E+00  0.00000000E+00  0.00000000E+00
  0.00000000E+00  0.00000000E+00  0.00000000E+00
  0.00000000E+00  0.00000000E+00  0.00000000E+00
  0.00000000E+00  0.00000000E+00  0.00000000E+00
  0.00000000E+00  0.00000000E+00  0.00000000E+00
  0.00000000E+00  0.00000000E+00  0.00000000E+00
  0.00000000E+00  0.00000000E+00  0.00000000E+00
  0.00000000E+00  0.00000000E+00  0.00000000E+00
  0.00000000E+00  0.00000000E+00  0.00000000E+00
  0.00000000E+00  0.00000000E+00  0.00000000E+00
  0.00000000E+00  0.00000000E+00  0.00000000E+00
  0.00000000E+00  0.00000000E+00  0.00000000E+00
  0.00000000E+00  0.00000000E+00  0.00000000E+00
  0.00000000E+00  0.00000000E+00  0.00000000E+00
  0.00000000E+00  0.00000000E+00  0.00000000E+00
  0.00000000E+00  0.00000000E+00  0.00000000E+00
  0.00000000E+00  0.00000000E+00  0.00000000E+00
  0.00000000E+00  0.00000000E+00  0.00000000E+00
  0.00000000E+00  0.00000000E+00  0.00000000E+00
  0.00000000E+00  0.00000000E+00  0.00000000E+00
  0.00000000E+00  0.00000000E+00  0.00000000E+00
  0.00000000E+00  0.00000000E+00  0.00000000E+00
  0.00000000E+00  0.00000000E+00  0.00000000E+00
  0.00000000E+00  0.00000000E+00  0.00000000E+00
  0.00000000E+00  0.00000000E+00  0.00000000E+00
  0.00000000E+00  0.00000000E+00  0.00000000E+00
  0.00000000E+00  0.00000000E+00  0.00000000E+00
  0.00000000E+00  0.00000000E+00  0.00000000E+00
  0.00000000E+00  0.00000000E+00  0.00000000E+00
  0.00000000E+00  0.00000000E+00  0.00000000E+00
  0.00000000E+00  0.00000000E+00  0.00000000E+00
  0.00000000E+00  0.00000000E+00  0.00000000E+00
  0.00000000E+00  0.00000000E+00  0.00000000E+00
  0.00000000E+00  0.00000000E+00  0.00000000E+00
  0.00000000E+00  0.00000000E+00  0.00000000E+00
  0.00000000E+00  0.00000000E+00  0.00000000E+00
  0.00000000E+00  0.00000000E+00  0.00000000E+00
  0.00000000E+00  0.00000000E+00  0.00000000E+00
  0.00000000E+00  0.00000000E+00  0.00000000E+00
  0.00000000E+00  0.00000000E+00  0.00000000E+00
  0.00000000E+00  0.00000000E+00  0.00000000E+00
  0.00000000E+00  0.00000000E+00  0.00000000E+00
  0.00000000E+00  0.00000000E+00  0.00000000E+00
  0.00000000E+00  0.00000000E+00  0.00000000E+00
  0.00000000E+00  0.00000000E+00  0.00000000E+00
  0.00000000E+00  0.00000000E+00  0.00000000E+00
  0.00000000E+00  0.00000000E+00  0.00000000E+00
  0.00000000E+00  0.00000000E+00  0.00000000E+00
  0.00000000E+00  0.00000000E+00  0.00000000E+00
  0.00000000E+00  0.00000000E+00  0.00000000E+00
  0.00000000E+00  0.00000000E+00  0.00000000E+00
