CeO2-you-111-you-Ge                     
   1.00000000000000     
     9.8521147621421363   -5.6498604839235886   -0.0130751294360552
     0.0331349869597751   11.3571104565652803    0.0130751271948454
    -0.0139934801802886    0.0242374173118659   21.1576572424859037
   O    Ge   Ce   H 
    53     1    26     1
Selective dynamics
Direct
  0.0000801672543285  0.0001312717354324  0.9954169269290835   T   T   T
  0.1086263525715486  0.2202704123425811  0.1450334068331373   T   T   T
  0.2492819752993481  0.1416003895685746  0.3076757834269664   T   T   T
  0.0663207255889082  0.1971875432757713  0.3898718878215593   T   T   T
  0.0096283221796893  0.0054880948130440  0.2299206560542465   T   T   T
  0.2224256797540035  0.1094358033658556  0.0746834686756307   T   T   T
  0.3353156911783422  0.0009814051310513  0.9962532067388653   T   T   T
  0.4433834053653920  0.2232711674313514  0.1503750418123244   T   T   T
  0.5487208467311026  0.1070863446965584  0.3037512336277159   T   T   T
  0.4536686913754155  0.1866426377209877  0.4101594108017679   T   T   T
  0.3287685916450162  0.9986402481658870  0.2286041707635634   T   T   T
  0.5567678659481727  0.1102503246892629  0.0779252652949993   T   T   T
  0.6658260895197405  0.0008220344288391  0.9956996651346970   T   T   T
  0.7851153236589519  0.2276049628296370  0.1519381399279413   T   T   T
  0.8823925334087718  0.1075078991108908  0.2984390455630111   T   T   T
  0.7803949494318113  0.2126737234295716  0.3858623033185637   T   T   T
  0.6657616822033156  0.0023447240823220  0.2260049031722436   T   T   T
  0.8863470855708229  0.1090731692745611  0.0742984203567341   T   T   T
  0.9982653590036031  0.3316603666426695  0.9950482345643035   T   T   T
  0.1096723487273407  0.5571778974844843  0.1464690728826089   T   T   T
  0.1232783709482043  0.5448598253721838  0.3772931419887609   T   T   T
  0.0210400923080178  0.3422117955608041  0.2335904551391688   T   T   T
  0.2222858204234974  0.4449828995340160  0.0708244809343015   T   T   T
  0.3347998758259843  0.3318991415018617  0.9956048411262429   T   T   T
  0.4471531726410012  0.5587655949705206  0.1456273657454849   T   T   T
  0.5246816574426422  0.4255173499608296  0.3078031830023038   T   T   T
  0.4718631294378437  0.6054498798711428  0.3917638298760003   T   T   T
  0.3266575502438042  0.3390779856861262  0.2236919569234808   T   T   T
  0.5575543377310502  0.4445059860972096  0.0750103432112893   T   T   T
  0.6657797540554045  0.3313739174668284  0.9963667989528477   T   T   T
  0.7808634143639540  0.5569649964615211  0.1501963494061161   T   T   T
  0.8916579745927978  0.4441462147947235  0.3045769005347793   T   T   T
  0.7860519904966962  0.5698395137074554  0.3830902371409241   T   T   T
  0.6666639601524289  0.3357137716773767  0.2283200424090059   T   T   T
  0.8889243934594944  0.4444733972254226  0.0742689634841414   T   T   T
  0.9996755296195028  0.6671117868508630  0.9950246132567104   T   T   T
  0.1104447384816831  0.8860585816042068  0.1495326012311357   T   T   T
  0.2251411520263745  0.7780302929289993  0.3039494549697267   T   T   T
  0.1143141053593380  0.8915556789125743  0.3798697689169463   T   T   T
  0.0022620494694773  0.6658819435095459  0.2299105404473276   T   T   T
  0.2225330124376464  0.7777272263267472  0.0741183371626415   T   T   T
  0.3351287840649331  0.6684536527393459  0.9949733301524775   T   T   T
  0.4399141156816238  0.8819804718739277  0.1522070822632554   T   T   T
  0.5589110139736044  0.7856271095901222  0.2991557121127249   T   T   T
  0.4451858485391901  0.8883556524441784  0.3846502287084743   T   T   T
  0.3240628802603870  0.6451728907315779  0.2339740455527035   T   T   T
  0.5579045352004663  0.7800757798449872  0.0742062903532585   T   T   T
  0.6676146117492019  0.6667439957027985  0.9954263953493762   T   T   T
  0.7790150672511311  0.8882029893205688  0.1516150816335615   T   T   T
  0.8918594016806168  0.7805317682771452  0.3018828480425456   T   T   T
  0.7791592348630898  0.8909033212172298  0.3812015878364671   T   T   T
  0.6639743719922546  0.6597938364207676  0.2301693849346822   T   T   T
  0.8892208273947330  0.7784999957818303  0.0749004294064393   T   T   T
  0.3303318741364641  0.3382607154844970  0.3174321132008056   T   T   T
 -0.0000841160285526  0.0038160647013481  0.3443276285057344   T   T   T
  0.2223921649323008  0.1105000683286335  0.1879636198957401   T   T   T
  0.1096938840479241  0.2198226640737825  0.0330379081320868   T   T   T
  0.3320688912007106 -0.0029346322014516  0.3438836063787761   T   T   T
  0.5555675012513045  0.1120236258009883  0.1913882195243323   T   T   T
  0.4452630360083024  0.2219363581284153  0.0359248404079945   T   T   T
  0.6669488856126982  0.0008811226276285  0.3426998652560221   T   T   T
  0.8908825590628706  0.1120406743278713  0.1893737289163127   T   T   T
  0.7777298363443835  0.2223885925457998  0.0361574829924358   T   T   T
  0.9900150750053640  0.3212747317278542  0.3480030295144684   T   T   T
  0.2209866060477516  0.4459702386960608  0.1790259050701619   T   T   T
  0.1096771922127407  0.5568038677844291  0.0329496098015181   T   T   T
  0.5572120008367480  0.4448158413139187  0.1891689855857858   T   T   T
  0.4473478540566162  0.5571079422214081  0.0332954342794592   T   T   T
  0.6648841412828320  0.3343067757993581  0.3497594409183723   T   T   T
  0.8898124822004863  0.4439807420347032  0.1921461182340402   T   T   T
  0.7784576397648115  0.5553071593586538  0.0363464137909884   T   T   T
  0.0002114264823820  0.6655386647586294  0.3416904792987235   T   T   T
  0.2223847701858646  0.7757666166452902  0.1908269023216740   T   T   T
  0.1115072142871017  0.8885169269347798  0.0359004562558896   T   T   T
  0.3455445035994016  0.6757030072065668  0.3485958138936927   T   T   T
  0.5554734009229186  0.7763052444138945  0.1898231138683630   T   T   T
  0.4446982801338875  0.8890550915257421  0.0359666728581707   T   T   T
  0.6665796599688875  0.6702770339976073  0.3454330856084233   T   T   T
  0.8898706764200471  0.7779603293929394  0.1904227780396425   T   T   T
  0.7776224435622038  0.8892651473017938  0.0355854916558394   T   T   T
  0.4089556558778049  0.2145457208841116  0.4409783898893861   T   T   T
 
  0.00000000E+00  0.00000000E+00  0.00000000E+00
  0.00000000E+00  0.00000000E+00  0.00000000E+00
  0.00000000E+00  0.00000000E+00  0.00000000E+00
  0.00000000E+00  0.00000000E+00  0.00000000E+00
  0.00000000E+00  0.00000000E+00  0.00000000E+00
  0.00000000E+00  0.00000000E+00  0.00000000E+00
  0.00000000E+00  0.00000000E+00  0.00000000E+00
  0.00000000E+00  0.00000000E+00  0.00000000E+00
  0.00000000E+00  0.00000000E+00  0.00000000E+00
  0.00000000E+00  0.00000000E+00  0.00000000E+00
  0.00000000E+00  0.00000000E+00  0.00000000E+00
  0.00000000E+00  0.00000000E+00  0.00000000E+00
  0.00000000E+00  0.00000000E+00  0.00000000E+00
  0.00000000E+00  0.00000000E+00  0.00000000E+00
  0.00000000E+00  0.00000000E+00  0.00000000E+00
  0.00000000E+00  0.00000000E+00  0.00000000E+00
  0.00000000E+00  0.00000000E+00  0.00000000E+00
  0.00000000E+00  0.00000000E+00  0.00000000E+00
  0.00000000E+00  0.00000000E+00  0.00000000E+00
  0.00000000E+00  0.00000000E+00  0.00000000E+00
  0.00000000E+00  0.00000000E+00  0.00000000E+00
  0.00000000E+00  0.00000000E+00  0.00000000E+00
  0.00000000E+00  0.00000000E+00  0.00000000E+00
  0.00000000E+00  0.00000000E+00  0.00000000E+00
  0.00000000E+00  0.00000000E+00  0.00000000E+00
  0.00000000E+00  0.00000000E+00  0.00000000E+00
  0.00000000E+00  0.00000000E+00  0.00000000E+00
  0.00000000E+00  0.00000000E+00  0.00000000E+00
  0.00000000E+00  0.00000000E+00  0.00000000E+00
  0.00000000E+00  0.00000000E+00  0.00000000E+00
  0.00000000E+00  0.00000000E+00  0.00000000E+00
  0.00000000E+00  0.00000000E+00  0.00000000E+00
  0.00000000E+00  0.00000000E+00  0.00000000E+00
  0.00000000E+00  0.00000000E+00  0.00000000E+00
  0.00000000E+00  0.00000000E+00  0.00000000E+00
  0.00000000E+00  0.00000000E+00  0.00000000E+00
  0.00000000E+00  0.00000000E+00  0.00000000E+00
  0.00000000E+00  0.00000000E+00  0.00000000E+00
  0.00000000E+00  0.00000000E+00  0.00000000E+00
  0.00000000E+00  0.00000000E+00  0.00000000E+00
  0.00000000E+00  0.00000000E+00  0.00000000E+00
  0.00000000E+00  0.00000000E+00  0.00000000E+00
  0.00000000E+00  0.00000000E+00  0.00000000E+00
  0.00000000E+00  0.00000000E+00  0.00000000E+00
  0.00000000E+00  0.00000000E+00  0.00000000E+00
  0.00000000E+00  0.00000000E+00  0.00000000E+00
  0.00000000E+00  0.00000000E+00  0.00000000E+00
  0.00000000E+00  0.00000000E+00  0.00000000E+00
  0.00000000E+00  0.00000000E+00  0.00000000E+00
  0.00000000E+00  0.00000000E+00  0.00000000E+00
  0.00000000E+00  0.00000000E+00  0.00000000E+00
  0.00000000E+00  0.00000000E+00  0.00000000E+00
  0.00000000E+00  0.00000000E+00  0.00000000E+00
  0.00000000E+00  0.00000000E+00  0.00000000E+00
  0.00000000E+00  0.00000000E+00  0.00000000E+00
  0.00000000E+00  0.00000000E+00  0.00000000E+00
  0.00000000E+00  0.00000000E+00  0.00000000E+00
  0.00000000E+00  0.00000000E+00  0.00000000E+00
  0.00000000E+00  0.00000000E+00  0.00000000E+00
  0.00000000E+00  0.00000000E+00  0.00000000E+00
  0.00000000E+00  0.00000000E+00  0.00000000E+00
  0.00000000E+00  0.00000000E+00  0.00000000E+00
  0.00000000E+00  0.00000000E+00  0.00000000E+00
  0.00000000E+00  0.00000000E+00  0.00000000E+00
  0.00000000E+00  0.00000000E+00  0.00000000E+00
  0.00000000E+00  0.00000000E+00  0.00000000E+00
  0.00000000E+00  0.00000000E+00  0.00000000E+00
  0.00000000E+00  0.00000000E+00  0.00000000E+00
  0.00000000E+00  0.00000000E+00  0.00000000E+00
  0.00000000E+00  0.00000000E+00  0.00000000E+00
  0.00000000E+00  0.00000000E+00  0.00000000E+00
  0.00000000E+00  0.00000000E+00  0.00000000E+00
  0.00000000E+00  0.00000000E+00  0.00000000E+00
  0.00000000E+00  0.00000000E+00  0.00000000E+00
  0.00000000E+00  0.00000000E+00  0.00000000E+00
  0.00000000E+00  0.00000000E+00  0.00000000E+00
  0.00000000E+00  0.00000000E+00  0.00000000E+00
  0.00000000E+00  0.00000000E+00  0.00000000E+00
  0.00000000E+00  0.00000000E+00  0.00000000E+00
  0.00000000E+00  0.00000000E+00  0.00000000E+00
  0.00000000E+00  0.00000000E+00  0.00000000E+00
