CeO2-you-111-you-Ti                     
   1.00000000000000     
     9.8463412018558891   -5.6799124418674989   -0.0173834297372638
     0.0042224552524361   11.3671363910652463    0.0173834268144598
    -0.0191930819557883    0.0332433912961013   21.0634462957510351
   O    Ti   Ce H
    53     1    26 1
Selective dynamics
Direct
 -0.0006721407783516 -0.0004122497732445  0.9957295709457794   T   T   T
  0.1135146322427936  0.2225223464081990  0.1490714935221422   T   T   T
  0.2196411946411790  0.0988974203284153  0.2989872939560275   T   T   T
  0.1604840070538406  0.2567650597292611  0.3653764865438144   T   T   T
 -0.0009038129370044 -0.0004558721740327  0.2287464705052828   T   T   T
  0.2218430864171325  0.1102696859110532  0.0745687082519564   T   T   T
  0.3347076030309807  0.0008749766779818  0.9963623749472593   T   T   T
  0.4402919748836381  0.2263740251171553  0.1518027608570228   T   T   T
  0.5528835844590009  0.1137834155404581  0.3045498249958410   T   T   T
  0.4294032048048591  0.2372627951884260  0.3765952750784342   T   T   T
  0.3369356523108220 -0.0005320708482799  0.2267867256214293   T   T   T
  0.5549115745931700  0.1117554254068276  0.0781320649731160   T   T   T
  0.6656855529653651  0.0009814470352259  0.9972476828907280   T   T   T
  0.7844825484940879  0.2237034446316598  0.1517346758434547   T   T   T
  0.8882069776035614  0.1059377374276111  0.3061048014093020   T   T   T
  0.7654183632371779  0.2160785196344934  0.3871038824763745   T   T   T
  0.6662523853256030  0.0004146146736829  0.2306624432733154   T   T   T
  0.8902318327492239  0.1108367487078285  0.0758458100285077   T   T   T
 -0.0020650929589410  0.3324381872978067  0.9958356745151301   T   T   T
  0.1111318632359721  0.5555351367619399  0.1476127287858835   T   T   T
  0.1057075720559439  0.5609594279436945  0.3845563311631517   T   T   T
  0.0165305441790000  0.3427415275685112  0.2339963669325802   T   T   T
  0.2222064490818567  0.4444595509186458  0.0730825141632616   T   T   T
  0.3335310908939912  0.3331349091051371  0.9954941473997426   T   T   T
  0.4441436535969988  0.5531523677583299  0.1490714935224176   T   T   T
  0.5677695796727013  0.4470248053522789  0.2989872939587149   T   T   T
  0.4099009402830889  0.5061829929434389  0.3653764865447121   T   T   T
  0.3250394910584520  0.3416265089443809  0.2417530628479151   T   T   T
  0.5563973140887868  0.4448229135822103  0.0745687082518631   T   T   T
  0.6657920233215485  0.3319583969686534  0.9963623749471524   T   T   T
  0.7777499284531916  0.5549107892640349  0.1504459425770134   T   T   T
  0.8814939130912181  0.4448291556360404  0.3037248341109646   T   T   T
  0.7748949170315268  0.5575505445830121  0.3848457449984672   T   T   T
  0.6671990708450625  0.3297303476875547  0.2267867256212189   T   T   T
  0.8881924085703115  0.4443256301557406  0.0752348813154854   T   T   T
 -0.0006412918031361  0.6673082918028658  0.9956502557975754   T   T   T
  0.1117562107348999  0.8889170715452589  0.1504459425771477   T   T   T
  0.2218368443593510  0.7851730869009117  0.3037248341112023   T   T   T
  0.1091164554189633  0.8917720829678394  0.3848457449989391   T   T   T
  0.0009113983586009  0.6657556016390146  0.2290581909237666   T   T   T
  0.2223403698438267  0.7784745914289667  0.0752348813156133   T   T   T
  0.3342278127029110  0.6687320929595142  0.9958356745153790   T   T   T
  0.4429625553678225  0.8821844515044612  0.1517346758430195   T   T   T
  0.5607292625760005  0.7784600223977735  0.3061048014084386   T   T   T
  0.4505874803656009  0.9012486367535771  0.3871038824771950   T   T   T
  0.3239244724363040  0.6501364558165852  0.2339963669338207   T   T   T
  0.5558302512928889  0.7764351672509459  0.0758458100285480   T   T   T
  0.6670792497735494  0.6673391407783046  0.9957295709458387   T   T   T
  0.7767117350278376  0.8899552649730722  0.1511517442881157   T   T   T
  0.8891289847996880  0.7775380152001276  0.3027989521747267   T   T   T
  0.7812846709484773  0.8853823290509917  0.3845016382851039   T   T   T
  0.6671228721756781  0.6675708129390850  0.2287464705047323   T   T   T
  0.8887180652834361  0.7779489347164001  0.0757926245787363   T   T   T
  0.3402239911267995  0.3264420088837666  0.3371048363869231   T   T   T
  0.0033564586619332 -0.0011983314541016  0.3413360656992285   T   T   T
  0.2219629874182414  0.1101473642946185  0.1906968468950615   T   T   T
  0.1101441475967090  0.2206027440003951  0.0345679904610049   T   T   T
  0.3319632270168819  0.0023879210541537  0.3428144962143763   T   T   T
  0.5560907146641572  0.1105762853384772  0.1906905386532190   T   T   T
  0.4440549940433960  0.2226110059569354  0.0361571671597823   T   T   T
  0.6668930972752261 -0.0002260972712244  0.3459071120604708   T   T   T
  0.8906040253922335  0.1120629259323176  0.1921688064520679   T   T   T
  0.7781950283321234  0.2225433939601174  0.0368246137178321   T   T   T
 -0.0082836356125317  0.3312629917886998  0.3510922122268682   T   T   T
  0.2223902687387955  0.4442757312558315  0.1838623152486988   T   T   T
  0.1101196937720376  0.5565473062275883  0.0345927605863899   T   T   T
  0.5565196357002951  0.4447030125799544  0.1906968468946402   T   T   T
  0.4460632559993872  0.5565228524033518  0.0345679904607874   T   T   T
  0.6642790789498374  0.3347027729822570  0.3428144962137598   T   T   T
  0.8907571160231528  0.4444877489228355  0.1912141575387602   T   T   T
  0.7772205667070652  0.5549268991728673  0.0359455948642599   T   T   T
  0.0000393914893318  0.6666276085197492  0.3442812995890577   T   T   T
  0.2221782510817173  0.7759098839854561  0.1912141575389681   T   T   T
  0.1117401008279297  0.8894464332932961  0.0359455948643609   T   T   T
  0.3354030082023566  0.6749506356249498  0.3510922122245980   T   T   T
  0.5546040740609781  0.7760629746092150  0.1921688064517370   T   T   T
  0.4441226060396369  0.8884719716684308  0.0368246137177009   T   T   T
  0.6678653314487778  0.6633105413329881  0.3413360656992863   T   T   T
  0.8893987611758049  0.7772682388250615  0.1887675520633676   T   T   T
  0.7773105366072349  0.8893564633921872  0.0367931306335433   T   T   T
0.446598 0.216020 0.433410 T T T 
 
  0.00000000E+00  0.00000000E+00  0.00000000E+00
  0.00000000E+00  0.00000000E+00  0.00000000E+00
  0.00000000E+00  0.00000000E+00  0.00000000E+00
  0.00000000E+00  0.00000000E+00  0.00000000E+00
  0.00000000E+00  0.00000000E+00  0.00000000E+00
  0.00000000E+00  0.00000000E+00  0.00000000E+00
  0.00000000E+00  0.00000000E+00  0.00000000E+00
  0.00000000E+00  0.00000000E+00  0.00000000E+00
  0.00000000E+00  0.00000000E+00  0.00000000E+00
  0.00000000E+00  0.00000000E+00  0.00000000E+00
  0.00000000E+00  0.00000000E+00  0.00000000E+00
  0.00000000E+00  0.00000000E+00  0.00000000E+00
  0.00000000E+00  0.00000000E+00  0.00000000E+00
  0.00000000E+00  0.00000000E+00  0.00000000E+00
  0.00000000E+00  0.00000000E+00  0.00000000E+00
  0.00000000E+00  0.00000000E+00  0.00000000E+00
  0.00000000E+00  0.00000000E+00  0.00000000E+00
  0.00000000E+00  0.00000000E+00  0.00000000E+00
  0.00000000E+00  0.00000000E+00  0.00000000E+00
  0.00000000E+00  0.00000000E+00  0.00000000E+00
  0.00000000E+00  0.00000000E+00  0.00000000E+00
  0.00000000E+00  0.00000000E+00  0.00000000E+00
  0.00000000E+00  0.00000000E+00  0.00000000E+00
  0.00000000E+00  0.00000000E+00  0.00000000E+00
  0.00000000E+00  0.00000000E+00  0.00000000E+00
  0.00000000E+00  0.00000000E+00  0.00000000E+00
  0.00000000E+00  0.00000000E+00  0.00000000E+00
  0.00000000E+00  0.00000000E+00  0.00000000E+00
  0.00000000E+00  0.00000000E+00  0.00000000E+00
  0.00000000E+00  0.00000000E+00  0.00000000E+00
  0.00000000E+00  0.00000000E+00  0.00000000E+00
  0.00000000E+00  0.00000000E+00  0.00000000E+00
  0.00000000E+00  0.00000000E+00  0.00000000E+00
  0.00000000E+00  0.00000000E+00  0.00000000E+00
  0.00000000E+00  0.00000000E+00  0.00000000E+00
  0.00000000E+00  0.00000000E+00  0.00000000E+00
  0.00000000E+00  0.00000000E+00  0.00000000E+00
  0.00000000E+00  0.00000000E+00  0.00000000E+00
  0.00000000E+00  0.00000000E+00  0.00000000E+00
  0.00000000E+00  0.00000000E+00  0.00000000E+00
  0.00000000E+00  0.00000000E+00  0.00000000E+00
  0.00000000E+00  0.00000000E+00  0.00000000E+00
  0.00000000E+00  0.00000000E+00  0.00000000E+00
  0.00000000E+00  0.00000000E+00  0.00000000E+00
  0.00000000E+00  0.00000000E+00  0.00000000E+00
  0.00000000E+00  0.00000000E+00  0.00000000E+00
  0.00000000E+00  0.00000000E+00  0.00000000E+00
  0.00000000E+00  0.00000000E+00  0.00000000E+00
  0.00000000E+00  0.00000000E+00  0.00000000E+00
  0.00000000E+00  0.00000000E+00  0.00000000E+00
  0.00000000E+00  0.00000000E+00  0.00000000E+00
  0.00000000E+00  0.00000000E+00  0.00000000E+00
  0.00000000E+00  0.00000000E+00  0.00000000E+00
  0.00000000E+00  0.00000000E+00  0.00000000E+00
  0.00000000E+00  0.00000000E+00  0.00000000E+00
  0.00000000E+00  0.00000000E+00  0.00000000E+00
  0.00000000E+00  0.00000000E+00  0.00000000E+00
  0.00000000E+00  0.00000000E+00  0.00000000E+00
  0.00000000E+00  0.00000000E+00  0.00000000E+00
  0.00000000E+00  0.00000000E+00  0.00000000E+00
  0.00000000E+00  0.00000000E+00  0.00000000E+00
  0.00000000E+00  0.00000000E+00  0.00000000E+00
  0.00000000E+00  0.00000000E+00  0.00000000E+00
  0.00000000E+00  0.00000000E+00  0.00000000E+00
  0.00000000E+00  0.00000000E+00  0.00000000E+00
  0.00000000E+00  0.00000000E+00  0.00000000E+00
  0.00000000E+00  0.00000000E+00  0.00000000E+00
  0.00000000E+00  0.00000000E+00  0.00000000E+00
  0.00000000E+00  0.00000000E+00  0.00000000E+00
  0.00000000E+00  0.00000000E+00  0.00000000E+00
  0.00000000E+00  0.00000000E+00  0.00000000E+00
  0.00000000E+00  0.00000000E+00  0.00000000E+00
  0.00000000E+00  0.00000000E+00  0.00000000E+00
  0.00000000E+00  0.00000000E+00  0.00000000E+00
  0.00000000E+00  0.00000000E+00  0.00000000E+00
  0.00000000E+00  0.00000000E+00  0.00000000E+00
  0.00000000E+00  0.00000000E+00  0.00000000E+00
  0.00000000E+00  0.00000000E+00  0.00000000E+00
  0.00000000E+00  0.00000000E+00  0.00000000E+00
  0.00000000E+00  0.00000000E+00  0.00000000E+00
