CeO2-you-111-you-Au                     
   1.00000000000000     
     9.8498400572266558   -5.6868081800260395    0.0000000000179434
    -0.0061736265954958   11.3629213242959040    0.0008080137485827
     0.0002787556231856    0.0004828189380920   21.3303692612421791
   O    Au   Ce   H 
    53     1    26     1
Selective dynamics
Direct
  0.0000000000000000  0.0000000000000000  0.9984359999999981   F   F   F
  0.1111110000000011  0.2222220000000021  0.1502740000000031   F   F   F
  0.2193797431652679  0.0952819836800329  0.2998560381142963   T   T   T
  0.1194103457936972  0.2278186871435903  0.3807473123704734   T   T   T
  0.9977681461825733  0.0003537461706659  0.2279973271199534   T   T   T
  0.2222220000000021  0.1111110000000011  0.0766830000000027   F   F   F
  0.3333330000000032  0.0000000000000000  0.9984359999999981   F   F   F
  0.4444439999999972  0.2222220000000021  0.1502740000000031   F   F   F
  0.5502923068570840  0.1082702748372956  0.3051004420758965   T   T   T
  0.4374869006178483  0.2029644125235409  0.4041565263279221   T   T   T
  0.3362323318556371  0.9972190337761311  0.2272018481183087   T   T   T
  0.5555560000000028  0.1111110000000011  0.0766830000000027   F   F   F
  0.6666669999999968  0.0000000000000000  0.9984359999999981   F   F   F
  0.7777779999999979  0.2222220000000021  0.1502740000000031   F   F   F
  0.8912598897485010  0.1120648560207645  0.3028949635464933   T   T   T
  0.7833977632158927  0.2139902703185911  0.3842867126172875   T   T   T
  0.6635563123763561  0.9944447369557192  0.2314756727416183   T   T   T
  0.8888889999999989  0.1111110000000011  0.0766830000000027   F   F   F
  0.0000000000000000  0.3333330000000032  0.9984359999999981   F   F   F
  0.1111110000000011  0.5555560000000028  0.1502740000000031   F   F   F
  0.2333715385754395  0.4544320058255983  0.3059391807490662   T   T   T
  0.1138225663916024  0.5585291322534580  0.3835156095181493   T   T   T
  0.0024306665417287  0.3348535828074337  0.2301690082091333   T   T   T
  0.2222220000000021  0.4444439999999972  0.0766830000000027   F   F   F
  0.3333330000000032  0.3333330000000032  0.9984359999999981   F   F   F
  0.4444439999999972  0.5555560000000028  0.1502740000000031   F   F   F
  0.5296286606954894  0.4542794942202208  0.3242128278524332   T   T   T
  0.3349850537342017  0.3345093131624166  0.2201597290503274   T   T   T
  0.5555560000000028  0.4444439999999972  0.0766830000000027   F   F   F
  0.6666669999999968  0.3333330000000032  0.9984359999999981   F   F   F
  0.7777779999999979  0.5555560000000028  0.1502740000000031   F   F   F
  0.8938056456387827  0.4462608927058664  0.3047394897145452   T   T   T
  0.7896461604126178  0.5729209644435684  0.3849129122740527   T   T   T
  0.6639303697970071  0.3382745707983789  0.2313089469735670   T   T   T
  0.8888889999999989  0.4444439999999972  0.0766830000000027   F   F   F
  0.0000000000000000  0.6666669999999968  0.9984359999999981   F   F   F
  0.1111110000000011  0.8888889999999989  0.1502740000000031   F   F   F
  0.2198995344037648  0.7766330764079717  0.3018644949313486   T   T   T
  0.1120362839996148  0.8871212960631601  0.3833642043099952   T   T   T
  0.9990031779264310  0.6655766686772568  0.2287343541960606   T   T   T
  0.2222220000000021  0.7777779999999979  0.0766830000000027   F   F   F
  0.3333330000000032  0.6666669999999968  0.9984359999999981   F   F   F
  0.4444439999999972  0.8888889999999989  0.1502740000000031   F   F   F
  0.5482185635065917  0.7626624506939608  0.3119471773378071   T   T   T
  0.4386956908593115  0.8846874576284436  0.3824404001229609   T   T   T
  0.3349411185537319  0.6702643580021137  0.2293535421229406   T   T   T
  0.5555560000000028  0.7777779999999979  0.0766830000000027   F   F   F
  0.6666669999999968  0.6666669999999968  0.9984359999999981   F   F   F
  0.7777779999999979  0.8888889999999989  0.1502740000000031   F   F   F
  0.8946277022521409  0.7821504621694371  0.3016369902371611   T   T   T
  0.7828026712346418  0.8923463819447751  0.3816500718190518   T   T   T
  0.6681262374925947  0.6658625641361651  0.2309646445324973   T   T   T
  0.8888889999999989  0.7777779999999979  0.0766830000000027   F   F   F
  0.3258405669456218  0.3444113874423161  0.3534038360049614   T   T   T
  0.0094844822985080  0.0064770690264470  0.3407993396602867   T   T   T
  0.2222220000000021  0.1111110000000011  0.1895730000000029   F   F   F
  0.1111110000000011  0.2222220000000021  0.0375840000000025   F   F   F
  0.3289002945272326 -0.0033650000692080  0.3409035221364337   T   T   T
  0.5555560000000028  0.1111110000000011  0.1895730000000029   F   F   F
  0.4444439999999972  0.2222220000000021  0.0375840000000025   F   F   F
  0.6681291605361689  0.0018121060925999  0.3438706771552923   T   T   T
  0.8888889999999989  0.1111110000000011  0.1895730000000029   F   F   F
  0.7777779999999979  0.2222220000000021  0.0375840000000025   F   F   F
  0.0006870456778558  0.3328827886617903  0.3426684542648329   T   T   T
  0.2222220000000021  0.4444439999999972  0.1895730000000029   F   F   F
  0.1111110000000011  0.5555560000000028  0.0375840000000025   F   F   F
  0.5555560000000028  0.4444439999999972  0.1895730000000029   F   F   F
  0.4444439999999972  0.5555560000000028  0.0375840000000025   F   F   F
  0.6660554680789387  0.3355393352677155  0.3482209347344330   T   T   T
  0.8888889999999989  0.4444439999999972  0.1895730000000029   F   F   F
  0.7777779999999979  0.5555560000000028  0.0375840000000025   F   F   F
 -0.0001652481931714  0.6662232804265357  0.3432766813726350   T   T   T
  0.2222220000000021  0.7777779999999979  0.1895730000000029   F   F   F
  0.1111110000000011  0.8888889999999989  0.0375840000000025   F   F   F
  0.3249986818086864  0.6719468242584858  0.3400156709786446   T   T   T
  0.5555560000000028  0.7777779999999979  0.1895730000000029   F   F   F
  0.4444439999999972  0.8888889999999989  0.0375840000000025   F   F   F
  0.6837196353437375  0.6759196953810328  0.3413611268999111   T   T   T
  0.8888889999999989  0.7777779999999979  0.1895730000000029   F   F   F
  0.7777779999999979  0.8888889999999989  0.0375840000000025   F   F   F
  0.4091456841382577  0.2103961168311769  0.4462497677390500   T   T   T
 
  0.00000000E+00  0.00000000E+00  0.00000000E+00
  0.00000000E+00  0.00000000E+00  0.00000000E+00
  0.00000000E+00  0.00000000E+00  0.00000000E+00
  0.00000000E+00  0.00000000E+00  0.00000000E+00
  0.00000000E+00  0.00000000E+00  0.00000000E+00
  0.00000000E+00  0.00000000E+00  0.00000000E+00
  0.00000000E+00  0.00000000E+00  0.00000000E+00
  0.00000000E+00  0.00000000E+00  0.00000000E+00
  0.00000000E+00  0.00000000E+00  0.00000000E+00
  0.00000000E+00  0.00000000E+00  0.00000000E+00
  0.00000000E+00  0.00000000E+00  0.00000000E+00
  0.00000000E+00  0.00000000E+00  0.00000000E+00
  0.00000000E+00  0.00000000E+00  0.00000000E+00
  0.00000000E+00  0.00000000E+00  0.00000000E+00
  0.00000000E+00  0.00000000E+00  0.00000000E+00
  0.00000000E+00  0.00000000E+00  0.00000000E+00
  0.00000000E+00  0.00000000E+00  0.00000000E+00
  0.00000000E+00  0.00000000E+00  0.00000000E+00
  0.00000000E+00  0.00000000E+00  0.00000000E+00
  0.00000000E+00  0.00000000E+00  0.00000000E+00
  0.00000000E+00  0.00000000E+00  0.00000000E+00
  0.00000000E+00  0.00000000E+00  0.00000000E+00
  0.00000000E+00  0.00000000E+00  0.00000000E+00
  0.00000000E+00  0.00000000E+00  0.00000000E+00
  0.00000000E+00  0.00000000E+00  0.00000000E+00
  0.00000000E+00  0.00000000E+00  0.00000000E+00
  0.00000000E+00  0.00000000E+00  0.00000000E+00
  0.00000000E+00  0.00000000E+00  0.00000000E+00
  0.00000000E+00  0.00000000E+00  0.00000000E+00
  0.00000000E+00  0.00000000E+00  0.00000000E+00
  0.00000000E+00  0.00000000E+00  0.00000000E+00
  0.00000000E+00  0.00000000E+00  0.00000000E+00
  0.00000000E+00  0.00000000E+00  0.00000000E+00
  0.00000000E+00  0.00000000E+00  0.00000000E+00
  0.00000000E+00  0.00000000E+00  0.00000000E+00
  0.00000000E+00  0.00000000E+00  0.00000000E+00
  0.00000000E+00  0.00000000E+00  0.00000000E+00
  0.00000000E+00  0.00000000E+00  0.00000000E+00
  0.00000000E+00  0.00000000E+00  0.00000000E+00
  0.00000000E+00  0.00000000E+00  0.00000000E+00
  0.00000000E+00  0.00000000E+00  0.00000000E+00
  0.00000000E+00  0.00000000E+00  0.00000000E+00
  0.00000000E+00  0.00000000E+00  0.00000000E+00
  0.00000000E+00  0.00000000E+00  0.00000000E+00
  0.00000000E+00  0.00000000E+00  0.00000000E+00
  0.00000000E+00  0.00000000E+00  0.00000000E+00
  0.00000000E+00  0.00000000E+00  0.00000000E+00
  0.00000000E+00  0.00000000E+00  0.00000000E+00
  0.00000000E+00  0.00000000E+00  0.00000000E+00
  0.00000000E+00  0.00000000E+00  0.00000000E+00
  0.00000000E+00  0.00000000E+00  0.00000000E+00
  0.00000000E+00  0.00000000E+00  0.00000000E+00
  0.00000000E+00  0.00000000E+00  0.00000000E+00
  0.00000000E+00  0.00000000E+00  0.00000000E+00
  0.00000000E+00  0.00000000E+00  0.00000000E+00
  0.00000000E+00  0.00000000E+00  0.00000000E+00
  0.00000000E+00  0.00000000E+00  0.00000000E+00
  0.00000000E+00  0.00000000E+00  0.00000000E+00
  0.00000000E+00  0.00000000E+00  0.00000000E+00
  0.00000000E+00  0.00000000E+00  0.00000000E+00
  0.00000000E+00  0.00000000E+00  0.00000000E+00
  0.00000000E+00  0.00000000E+00  0.00000000E+00
  0.00000000E+00  0.00000000E+00  0.00000000E+00
  0.00000000E+00  0.00000000E+00  0.00000000E+00
  0.00000000E+00  0.00000000E+00  0.00000000E+00
  0.00000000E+00  0.00000000E+00  0.00000000E+00
  0.00000000E+00  0.00000000E+00  0.00000000E+00
  0.00000000E+00  0.00000000E+00  0.00000000E+00
  0.00000000E+00  0.00000000E+00  0.00000000E+00
  0.00000000E+00  0.00000000E+00  0.00000000E+00
  0.00000000E+00  0.00000000E+00  0.00000000E+00
  0.00000000E+00  0.00000000E+00  0.00000000E+00
  0.00000000E+00  0.00000000E+00  0.00000000E+00
  0.00000000E+00  0.00000000E+00  0.00000000E+00
  0.00000000E+00  0.00000000E+00  0.00000000E+00
  0.00000000E+00  0.00000000E+00  0.00000000E+00
  0.00000000E+00  0.00000000E+00  0.00000000E+00
  0.00000000E+00  0.00000000E+00  0.00000000E+00
  0.00000000E+00  0.00000000E+00  0.00000000E+00
  0.00000000E+00  0.00000000E+00  0.00000000E+00
  0.00000000E+00  0.00000000E+00  0.00000000E+00
