CeO2-you-111-you-Cr                     
   1.00000000000000     
     9.8497013525862673   -5.6665275056005013   -0.0225323764278075
     0.0174942224103153   11.3633538969158003    0.0225323726626242
    -0.0245842150542845    0.0425811074232776   20.8516120844109558
   O    Cr   Ce   H 
    53     1    26     1
Selective dynamics
Direct
  0.9999782467798832  0.9994200215204445  0.9939785308465491   T   T   T
  0.1105001999413144  0.2134924893338647  0.1482859650803629   T   T   T
  0.2320316616989183  0.1076621245140752  0.3035634984261693   T   T   T
  0.1655341289598113  0.2631136185865305  0.3640188295717205   T   T   T
  0.0028309271027085 -0.0015998351402907  0.2312874441363832   T   T   T
  0.2243746808865574  0.1094299631266667  0.0728644291191889   T   T   T
  0.3350201902818135 -0.0001251143883122  0.9923842364608095   T   T   T
  0.4408540921434905  0.2257571372411327  0.1526828019966749   T   T   T
  0.5486926799342813  0.1172873978751796  0.3085103142338670   T   T   T
  0.4216467308964872  0.2449056105227213  0.3925421891771782   T   T   T
  0.3365488604759849  0.9964037940645396  0.2278659931067352   T   T   T
  0.5546204849280529  0.1117887600322485  0.0760550134354759   T   T   T
  0.6667611382447404  0.0005599064264335  0.9942189066009149   T   T   T
  0.7815592775654496  0.2199399016577659  0.1500956050181772   T   T   T
  0.8894525887679495  0.1028920969958328  0.3088051616732508   T   T   T
  0.7677977219425705  0.2168087489680179  0.3883955952687386   T   T   T
  0.6648811847505549  0.0005854140172410  0.2333057007282563   T   T   T
  0.8893829379881230  0.1092089271198408  0.0745378536692235   T   T   T
  0.9975696795522857  0.3313657199400352  0.9932734058012087   T   T   T
  0.1081588515447825  0.5589694928731592  0.1459171334287409   T   T   T
  0.1072094108989866  0.5601303026456881  0.3867652680926747   T   T   T
  0.0045234320855950  0.3354292100746071  0.2342710225406505   T   T   T
  0.2227689673949596  0.4437398504108286  0.0696774318257964   T   T   T
  0.3343672991221600  0.3321681913363380  0.9927289882669200   T   T   T
  0.4535535020029078  0.5566090609060916  0.1481957199881296   T   T   T
  0.5602100392138039  0.4355287846082714  0.3035157847754007   T   T   T
  0.4046373216562850  0.5016538904287543  0.3638128211790642   T   T   T
  0.3275836769769336  0.3395053126541241  0.2449686087879890   T   T   T
  0.5568097932241207  0.4424256887064591  0.0729139505691232   T   T   T
  0.6661474703148725  0.3316951856264612  0.9928427107473697   T   T   T
  0.7773623793028176  0.5543583132793636  0.1496794508236138   T   T   T
  0.8839585005982569  0.4473226924656921  0.3055475118127409   T   T   T
  0.7756821132695415  0.5566558414702659  0.3875506446878416   T   T   T
  0.6705951441246767  0.3296413125132715  0.2281150315069853   T   T   T
  0.8867176364609535  0.4424556332084359  0.0729861459926520   T   T   T
  0.9997864889701910  0.6666275717802730  0.9930254713050988   T   T   T
  0.1119947358976422  0.8888568958154150  0.1496534007185034   T   T   T
  0.2195772398301072  0.7825408590074586  0.3052457377434174   T   T   T
  0.1100918411424647  0.8909955905329915  0.3874671320767945   T   T   T
  0.0005716183157981  0.6656075699312527  0.2297231203916325   T   T   T
  0.2239097086463211  0.7794185075354132  0.0728666483845055   T   T   T
  0.3348693689567625  0.6685331888522241  0.9930125454536527   T   T   T
  0.4458560520022339  0.8846113543573152  0.1500105580571556   T   T   T
  0.5637987836000007  0.7771298813242938  0.3090814518970337   T   T   T
  0.4502873263382231  0.8990770685667141  0.3887279307527186   T   T   T
  0.3316033945386904  0.6620163608008048  0.2342411184127191   T   T   T
  0.5574534083510212  0.7776812008438869  0.0739896646422769   T   T   T
  0.6672216936676967  0.6667138858693211  0.9931286737525896   T   T   T
  0.7778218357773222  0.8889131171946750  0.1525892888611647   T   T   T
  0.8896039762876866  0.7777512354342473  0.3052211470613643   T   T   T
  0.7817568285987408  0.8854909779662877  0.3880217301470558   T   T   T
  0.6680467964607161  0.6638156007977776  0.2314287031947472   T   T   T
  0.8885874248818776  0.7770938267015467  0.0743884875868550   T   T   T
  0.3379496156388270  0.3287952469890018  0.3335601671935338   T   T   T
  0.0045655851801692 -0.0017535358408960  0.3431844608557810   T   T   T
  0.2223593932661030  0.1083526895349446  0.1906622863314414   T   T   T
  0.1107170258796191  0.2199849583614584  0.0331856702944338   T   T   T
  0.3294415083668932 -0.0058340932364483  0.3434281739493355   T   T   T
  0.5564019415203700  0.1099604963478081  0.1900130439838575   T   T   T
  0.4444677134804533  0.2219536847719676  0.0330606199746916   T   T   T
  0.6683925867244219 -0.0018765772929925  0.3479370837666421   T   T   T
  0.8914939387501513  0.1119209991535952  0.1919951048371286   T   T   T
  0.7781088894994825  0.2215757249947877  0.0340876706372866   T   T   T
  0.9939498288422679  0.3313398844855669  0.3508837414059853   T   T   T
  0.2226721659236649  0.4442669082948842  0.1835405459802243   T   T   T
  0.1105765052457875  0.5558184613897227  0.0321296211210538   T   T   T
  0.5582559956211179  0.4442215786420282  0.1907220825846662   T   T   T
  0.4466327153975630  0.5559577024258472  0.0329131248273892   T   T   T
  0.6724164529600635  0.3371506717966889  0.3434582163776218   T   T   T
  0.8916685833306974  0.4435776371862225  0.1895729993865655   T   T   T
  0.7769918866379019  0.5539087615309487  0.0334787453429172   T   T   T
  0.0007752155446975  0.6659330693584397  0.3461039993816996   T   T   T
  0.2229878686297553  0.7748912053234273  0.1895610964993450   T   T   T
  0.1124414879828902  0.8890077141005507  0.0335757048914803   T   T   T
  0.3355664933625424  0.6727310812732779  0.3509852437137459   T   T   T
  0.5545443745110433  0.7750446749113377  0.1919814317441973   T   T   T
  0.4447665130826916  0.8883811804181815  0.0338804097491132   T   T   T
  0.6685629709820328  0.6621695939534734  0.3432561658167574   T   T   T
  0.8902533033185609  0.7760611925526075  0.1889262989601199   T   T   T
  0.7776364686695684  0.8888659516800758  0.0351557312849651   T   T   T
  0.4066174983545442  0.2591089979598233  0.4371120492922730   T   T   T
 
  0.00000000E+00  0.00000000E+00  0.00000000E+00
  0.00000000E+00  0.00000000E+00  0.00000000E+00
  0.00000000E+00  0.00000000E+00  0.00000000E+00
  0.00000000E+00  0.00000000E+00  0.00000000E+00
  0.00000000E+00  0.00000000E+00  0.00000000E+00
  0.00000000E+00  0.00000000E+00  0.00000000E+00
  0.00000000E+00  0.00000000E+00  0.00000000E+00
  0.00000000E+00  0.00000000E+00  0.00000000E+00
  0.00000000E+00  0.00000000E+00  0.00000000E+00
  0.00000000E+00  0.00000000E+00  0.00000000E+00
  0.00000000E+00  0.00000000E+00  0.00000000E+00
  0.00000000E+00  0.00000000E+00  0.00000000E+00
  0.00000000E+00  0.00000000E+00  0.00000000E+00
  0.00000000E+00  0.00000000E+00  0.00000000E+00
  0.00000000E+00  0.00000000E+00  0.00000000E+00
  0.00000000E+00  0.00000000E+00  0.00000000E+00
  0.00000000E+00  0.00000000E+00  0.00000000E+00
  0.00000000E+00  0.00000000E+00  0.00000000E+00
  0.00000000E+00  0.00000000E+00  0.00000000E+00
  0.00000000E+00  0.00000000E+00  0.00000000E+00
  0.00000000E+00  0.00000000E+00  0.00000000E+00
  0.00000000E+00  0.00000000E+00  0.00000000E+00
  0.00000000E+00  0.00000000E+00  0.00000000E+00
  0.00000000E+00  0.00000000E+00  0.00000000E+00
  0.00000000E+00  0.00000000E+00  0.00000000E+00
  0.00000000E+00  0.00000000E+00  0.00000000E+00
  0.00000000E+00  0.00000000E+00  0.00000000E+00
  0.00000000E+00  0.00000000E+00  0.00000000E+00
  0.00000000E+00  0.00000000E+00  0.00000000E+00
  0.00000000E+00  0.00000000E+00  0.00000000E+00
  0.00000000E+00  0.00000000E+00  0.00000000E+00
  0.00000000E+00  0.00000000E+00  0.00000000E+00
  0.00000000E+00  0.00000000E+00  0.00000000E+00
  0.00000000E+00  0.00000000E+00  0.00000000E+00
  0.00000000E+00  0.00000000E+00  0.00000000E+00
  0.00000000E+00  0.00000000E+00  0.00000000E+00
  0.00000000E+00  0.00000000E+00  0.00000000E+00
  0.00000000E+00  0.00000000E+00  0.00000000E+00
  0.00000000E+00  0.00000000E+00  0.00000000E+00
  0.00000000E+00  0.00000000E+00  0.00000000E+00
  0.00000000E+00  0.00000000E+00  0.00000000E+00
  0.00000000E+00  0.00000000E+00  0.00000000E+00
  0.00000000E+00  0.00000000E+00  0.00000000E+00
  0.00000000E+00  0.00000000E+00  0.00000000E+00
  0.00000000E+00  0.00000000E+00  0.00000000E+00
  0.00000000E+00  0.00000000E+00  0.00000000E+00
  0.00000000E+00  0.00000000E+00  0.00000000E+00
  0.00000000E+00  0.00000000E+00  0.00000000E+00
  0.00000000E+00  0.00000000E+00  0.00000000E+00
  0.00000000E+00  0.00000000E+00  0.00000000E+00
  0.00000000E+00  0.00000000E+00  0.00000000E+00
  0.00000000E+00  0.00000000E+00  0.00000000E+00
  0.00000000E+00  0.00000000E+00  0.00000000E+00
  0.00000000E+00  0.00000000E+00  0.00000000E+00
  0.00000000E+00  0.00000000E+00  0.00000000E+00
  0.00000000E+00  0.00000000E+00  0.00000000E+00
  0.00000000E+00  0.00000000E+00  0.00000000E+00
  0.00000000E+00  0.00000000E+00  0.00000000E+00
  0.00000000E+00  0.00000000E+00  0.00000000E+00
  0.00000000E+00  0.00000000E+00  0.00000000E+00
  0.00000000E+00  0.00000000E+00  0.00000000E+00
  0.00000000E+00  0.00000000E+00  0.00000000E+00
  0.00000000E+00  0.00000000E+00  0.00000000E+00
  0.00000000E+00  0.00000000E+00  0.00000000E+00
  0.00000000E+00  0.00000000E+00  0.00000000E+00
  0.00000000E+00  0.00000000E+00  0.00000000E+00
  0.00000000E+00  0.00000000E+00  0.00000000E+00
  0.00000000E+00  0.00000000E+00  0.00000000E+00
  0.00000000E+00  0.00000000E+00  0.00000000E+00
  0.00000000E+00  0.00000000E+00  0.00000000E+00
  0.00000000E+00  0.00000000E+00  0.00000000E+00
  0.00000000E+00  0.00000000E+00  0.00000000E+00
  0.00000000E+00  0.00000000E+00  0.00000000E+00
  0.00000000E+00  0.00000000E+00  0.00000000E+00
  0.00000000E+00  0.00000000E+00  0.00000000E+00
  0.00000000E+00  0.00000000E+00  0.00000000E+00
  0.00000000E+00  0.00000000E+00  0.00000000E+00
  0.00000000E+00  0.00000000E+00  0.00000000E+00
  0.00000000E+00  0.00000000E+00  0.00000000E+00
  0.00000000E+00  0.00000000E+00  0.00000000E+00
  0.00000000E+00  0.00000000E+00  0.00000000E+00
