CeO2-you-111-you-Bi                     
   1.00000000000000     
     9.8692771926929161   -5.6901123005032259   -0.0022150946831396
     0.0068571100569485   11.3920994606020543    0.0022150943224671
    -0.0022146511767568    0.0038358882388099   21.2088272741057509
   O    Bi   Ce   H 
    53     1    26     1
Selective dynamics
Direct
  0.0000217823321391  0.9998805768705799  0.9957744764790605   T   T   T
  0.1111798142590488  0.2205161346684059  0.1469696241008738   T   T   T
  0.2333593546075965  0.1100484479259948  0.3027153031552657   T   T   T
  0.1088749256819473  0.2161382638763730  0.3800996087227397   T   T   T
  0.0040452832969493  0.0027124545459251  0.2295798545241523   T   T   T
  0.2218998307399800  0.1095630283386131  0.0747997348532234   T   T   T
  0.3355914343069942  0.0013972988056368  0.9967994165178763   T   T   T
  0.4400868117331025  0.2267290503912921  0.1517671779659366   T   T   T
  0.5506879775476972  0.1160148632990888  0.3027623882120304   T   T   T
  0.4492972329901930  0.2166374872892873  0.4000000946042965   T   T   T
  0.3338406712506997 -0.0017336319273505  0.2254687951957993   T   T   T
  0.5555850878905488  0.1120490654811931  0.0780116114610466   T   T   T
  0.6658040722326788  0.0011294289626458  0.9972842999067772   T   T   T
  0.7849830260818730  0.2250850407536001  0.1506597831103939   T   T   T
  0.8808378108538439  0.1033748479640244  0.3017469690924767   T   T   T
  0.7658193747126385  0.2181304408546038  0.3853393385009072   T   T   T
  0.6637302833875759  0.0028453021715974  0.2275740399785938   T   T   T
  0.8888112687103956  0.1091396202142496  0.0750836587706069   T   T   T
  0.9976877455520461  0.3311831729292371  0.9957341394043583   T   T   T
  0.1103876367366490  0.5569781012876446  0.1459162349832924   T   T   T
  0.1077862024344046  0.5593153725095978  0.3809918418057859   T   T   T
  0.0181695866695380  0.3422267522949500  0.2322278688618289   T   T   T
  0.2219325235459385  0.4443750718377172  0.0714927401097919   T   T   T
  0.3338775077340147  0.3318792484512847  0.9958529778417644   T   T   T
  0.4460979504623635  0.5555838904451319  0.1466381490962926   T   T   T
  0.5567758150409674  0.4336082742888923  0.3029424820669734   T   T   T
  0.4511367022842568  0.5581425962267907  0.3800940970059227   T   T   T
  0.3226033849513607  0.3449080429235539  0.2352376727751117   T   T   T
  0.5562969789147175  0.4442413815447295  0.0745846442064444   T   T   T
  0.6658854645158424  0.3315392215679315  0.9966837805040101   T   T   T
  0.7772984498201144  0.5560131311175549  0.1499665062306956   T   T   T
  0.8840124788449732  0.4451503480139469  0.3005897882979502   T   T   T
  0.7785762034463177  0.5555694039792805  0.3823947444694880   T   T   T
  0.6681231140684024  0.3327627577346757  0.2254573254352992   T   T   T
  0.8888222118523978  0.4449602104846009  0.0744367860319480   T   T   T
  0.9994509001838202  0.6671180526649017  0.9958189730782880   T   T   T
  0.1099140745277539  0.8888492087074764  0.1500622793007093   T   T   T
  0.2208560550456325  0.7822791985103531  0.3005169782839615   T   T   T
  0.1110611255601043  0.8881488451216495  0.3821646228809513   T   T   T
  0.0002726655395621  0.6657785431592046  0.2277846528434510   T   T   T
  0.2214341910079454  0.7783982120352825  0.0742327940329897   T   T   T
  0.3348750946155415  0.6690789745180559  0.9957920539403859   T   T   T
  0.4415321668770115  0.8817575004806824  0.1505378214462193   T   T   T
  0.5633685815758719  0.7857256460689939  0.3017688168827102   T   T   T
  0.4494558194746757  0.9012702790014316  0.3848451170372097   T   T   T
  0.3243735534435181  0.6482416916792464  0.2323690113799060   T   T   T
  0.5571906933922011  0.7781821907813854  0.0750301324461723   T   T   T
  0.6671058116790654  0.6669937201988519  0.9959860900576291   T   T   T
  0.7777309566021209  0.8888210829711602  0.1522680617992793   T   T   T
  0.8886991709044118  0.7780862706915309  0.3022216399908037   T   T   T
  0.7792692145777412  0.8886340785189650  0.3833465575900701   T   T   T
  0.6630612655562742  0.6620199962532093  0.2295880655367576   T   T   T
  0.8883070897268734  0.7782011372868973  0.0754954045298587   T   T   T
  0.3379828163010060  0.3288291141076508  0.3454342446125221   T   T   T
  0.9999324976726037  0.0003343305271106  0.3427949974483133   T   T   T
  0.2214842612774872  0.1110815897159562  0.1900039031498016   T   T   T
  0.1098482427704312  0.2194836959315780  0.0341468515976699   T   T   T
  0.3287458030319419  0.9917331750336450  0.3401486841495179   T   T   T
  0.5552940841660818  0.1114340530373853  0.1893905955084124   T   T   T
  0.4442726387890990  0.2224025300642325  0.0361366903531654   T   T   T
  0.6663164187911113  0.0005356977523364  0.3424709714242173   T   T   T
  0.8905967243959599  0.1125668330469246  0.1910199378532531   T   T   T
  0.7782840928172114  0.2221370887626750  0.0365066367891235   T   T   T
  0.9888458671731274  0.3273555903188870  0.3500015794965655   T   T   T
  0.2216479440331405  0.4449539519730710  0.1806500680934261   T   T   T
  0.1100830543050254  0.5566276557873328  0.0335035657766842   T   T   T
  0.5552315322858873  0.4448590923367767  0.1900815192836930   T   T   T
  0.4468340422672863  0.5567345743616497  0.0342418350696340   T   T   T
  0.6747307742710771  0.3377629216748702  0.3403524018340144   T   T   T
  0.8909936793963152  0.4450812852251329  0.1892358105379790   T   T   T
  0.7772751698721205  0.5550909234965300  0.0362975105828214   T   T   T
  0.0003932491212695  0.6660170613612734  0.3421777724214213   T   T   T
  0.2211935315848917  0.7755716365089714  0.1891737758178361   T   T   T
  0.1113458486192192  0.8893681964979578  0.0362516527645446   T   T   T
  0.3394562406280918  0.6778259253285976  0.3498799663135133   T   T   T
  0.5538674676557536  0.7759689162469036  0.1910446197023175   T   T   T
  0.4445953298961078  0.8887486524055082  0.0365726230259700   T   T   T
  0.6664394293551335  0.6667751326254544  0.3428532733236787   T   T   T
  0.8887643748190706  0.7773251509617001  0.1896327884310627   T   T   T
  0.7774575318901031  0.8891217002031089  0.0370979300164474   T   T   T
  0.4445789230331064  0.2201701979342595  0.4457247672861415   T   T   T
 
  0.00000000E+00  0.00000000E+00  0.00000000E+00
  0.00000000E+00  0.00000000E+00  0.00000000E+00
  0.00000000E+00  0.00000000E+00  0.00000000E+00
  0.00000000E+00  0.00000000E+00  0.00000000E+00
  0.00000000E+00  0.00000000E+00  0.00000000E+00
  0.00000000E+00  0.00000000E+00  0.00000000E+00
  0.00000000E+00  0.00000000E+00  0.00000000E+00
  0.00000000E+00  0.00000000E+00  0.00000000E+00
  0.00000000E+00  0.00000000E+00  0.00000000E+00
  0.00000000E+00  0.00000000E+00  0.00000000E+00
  0.00000000E+00  0.00000000E+00  0.00000000E+00
  0.00000000E+00  0.00000000E+00  0.00000000E+00
  0.00000000E+00  0.00000000E+00  0.00000000E+00
  0.00000000E+00  0.00000000E+00  0.00000000E+00
  0.00000000E+00  0.00000000E+00  0.00000000E+00
  0.00000000E+00  0.00000000E+00  0.00000000E+00
  0.00000000E+00  0.00000000E+00  0.00000000E+00
  0.00000000E+00  0.00000000E+00  0.00000000E+00
  0.00000000E+00  0.00000000E+00  0.00000000E+00
  0.00000000E+00  0.00000000E+00  0.00000000E+00
  0.00000000E+00  0.00000000E+00  0.00000000E+00
  0.00000000E+00  0.00000000E+00  0.00000000E+00
  0.00000000E+00  0.00000000E+00  0.00000000E+00
  0.00000000E+00  0.00000000E+00  0.00000000E+00
  0.00000000E+00  0.00000000E+00  0.00000000E+00
  0.00000000E+00  0.00000000E+00  0.00000000E+00
  0.00000000E+00  0.00000000E+00  0.00000000E+00
  0.00000000E+00  0.00000000E+00  0.00000000E+00
  0.00000000E+00  0.00000000E+00  0.00000000E+00
  0.00000000E+00  0.00000000E+00  0.00000000E+00
  0.00000000E+00  0.00000000E+00  0.00000000E+00
  0.00000000E+00  0.00000000E+00  0.00000000E+00
  0.00000000E+00  0.00000000E+00  0.00000000E+00
  0.00000000E+00  0.00000000E+00  0.00000000E+00
  0.00000000E+00  0.00000000E+00  0.00000000E+00
  0.00000000E+00  0.00000000E+00  0.00000000E+00
  0.00000000E+00  0.00000000E+00  0.00000000E+00
  0.00000000E+00  0.00000000E+00  0.00000000E+00
  0.00000000E+00  0.00000000E+00  0.00000000E+00
  0.00000000E+00  0.00000000E+00  0.00000000E+00
  0.00000000E+00  0.00000000E+00  0.00000000E+00
  0.00000000E+00  0.00000000E+00  0.00000000E+00
  0.00000000E+00  0.00000000E+00  0.00000000E+00
  0.00000000E+00  0.00000000E+00  0.00000000E+00
  0.00000000E+00  0.00000000E+00  0.00000000E+00
  0.00000000E+00  0.00000000E+00  0.00000000E+00
  0.00000000E+00  0.00000000E+00  0.00000000E+00
  0.00000000E+00  0.00000000E+00  0.00000000E+00
  0.00000000E+00  0.00000000E+00  0.00000000E+00
  0.00000000E+00  0.00000000E+00  0.00000000E+00
  0.00000000E+00  0.00000000E+00  0.00000000E+00
  0.00000000E+00  0.00000000E+00  0.00000000E+00
  0.00000000E+00  0.00000000E+00  0.00000000E+00
  0.00000000E+00  0.00000000E+00  0.00000000E+00
  0.00000000E+00  0.00000000E+00  0.00000000E+00
  0.00000000E+00  0.00000000E+00  0.00000000E+00
  0.00000000E+00  0.00000000E+00  0.00000000E+00
  0.00000000E+00  0.00000000E+00  0.00000000E+00
  0.00000000E+00  0.00000000E+00  0.00000000E+00
  0.00000000E+00  0.00000000E+00  0.00000000E+00
  0.00000000E+00  0.00000000E+00  0.00000000E+00
  0.00000000E+00  0.00000000E+00  0.00000000E+00
  0.00000000E+00  0.00000000E+00  0.00000000E+00
  0.00000000E+00  0.00000000E+00  0.00000000E+00
  0.00000000E+00  0.00000000E+00  0.00000000E+00
  0.00000000E+00  0.00000000E+00  0.00000000E+00
  0.00000000E+00  0.00000000E+00  0.00000000E+00
  0.00000000E+00  0.00000000E+00  0.00000000E+00
  0.00000000E+00  0.00000000E+00  0.00000000E+00
  0.00000000E+00  0.00000000E+00  0.00000000E+00
  0.00000000E+00  0.00000000E+00  0.00000000E+00
  0.00000000E+00  0.00000000E+00  0.00000000E+00
  0.00000000E+00  0.00000000E+00  0.00000000E+00
  0.00000000E+00  0.00000000E+00  0.00000000E+00
  0.00000000E+00  0.00000000E+00  0.00000000E+00
  0.00000000E+00  0.00000000E+00  0.00000000E+00
  0.00000000E+00  0.00000000E+00  0.00000000E+00
  0.00000000E+00  0.00000000E+00  0.00000000E+00
  0.00000000E+00  0.00000000E+00  0.00000000E+00
  0.00000000E+00  0.00000000E+00  0.00000000E+00
  0.00000000E+00  0.00000000E+00  0.00000000E+00
