CeO2-you-111-you-Pt                     
   1.00000000000000     
     9.8535556292941333   -5.6472438583061084    0.0023499418985517
    -0.0000000007722844   11.2944857278403088   -0.0000000001648340
     0.0058047347855341   -0.0000000004705927   21.1178782821267461
   O    Pt   Ce   H 
    53     1    26     2
Selective dynamics
Direct
  0.0005177708043750  0.0011849489330322  0.9956927643827861   T   T   T
  0.1034940941989220  0.2184135470996864  0.1484593860322718   F   F   F
  0.2191453205848340  0.1375339522461529  0.3143444057157740   T   T   T
  0.0452719630917254  0.1881945578475338  0.4042700624248136   T   T   T
  0.0039838543650026  0.0019113303693802  0.2305141637674294   T   T   T
  0.2228292565982670  0.1112208754950643  0.0753936054822759   F   F   F
  0.3331005144025585  0.0003310162857145  0.9948308052777103   T   T   T
  0.4494017926209608  0.2171191501080614  0.1459641601662156   F   F   F
  0.5568582161967016  0.1142195571161052  0.3089036295327268   T   T   T
  0.4531591349981180  0.2667448248966059  0.3854624715884351   T   T   T
  0.3288202564325566  0.0038090683031294  0.2315927424097015   T   T   T
  0.5573809464397712  0.1076120004335763  0.0742821550250028   F   F   F
  0.6680881882625119  0.0010449620911766  0.9932215270356392   T   T   T
  0.7751482194536052  0.2250731069014122  0.1532353837001779   F   F   F
  0.8806726590117885  0.1062199594028734  0.3038013632455802   T   T   T
  0.7749405894311271  0.2209128872021013  0.3893470282896721   T   T   T
  0.6620395610845382 -0.0007432600576164  0.2301119861359783   T   T   T
  0.8842459027685194  0.1087894513842613  0.0759720676487206   F   F   F
  0.0011501355622952  0.3323195952774756  0.9956719664710726   T   T   T
  0.1093982529311859  0.5566361014528312  0.1502783072848288   F   F   F
  0.2189651809233499  0.4170816528907572  0.3090454908089953   T   T   T
  0.1181742696052886  0.5546715890486276  0.3846747591897807   T   T   T
  0.0031185415971251  0.3345104723774583  0.2302161734929845   T   T   T
  0.2228292565981889  0.4449413811027867  0.0753936054822404   F   F   F
  0.3311849624251510  0.3319840607947407  0.9951656869465002   T   T   T
  0.4494017926185592  0.5656166425122251  0.1459641601676864   F   F   F
  0.4503745697650622  0.5373983805704139  0.3702681107706624   T   T   T
  0.3349071945031415  0.3332008535777627  0.2271337385757121   T   T   T
  0.5563598054568857  0.4448459027290070  0.0725346217516432   F   F   F
  0.6684935352326460  0.3324607736339150  0.9948721573766262   T   T   T
  0.7798352204423225  0.5565846102223944  0.1478967771349247   F   F   F
  0.8959899338351306  0.4427702612991926  0.3073741606690998   T   T   T
  0.7627045766215330  0.5457189397721850  0.3777225440829416   T   T   T
  0.6667089557415581  0.3396885464093955  0.2377753112484361   T   T   T
  0.8897608400378800  0.4435987499776317  0.0750573530172574   F   F   F
  0.0014163453177658  0.6675583455794035  0.9953310866517644   T   T   T
  0.1093982529303901  0.8860961514759040  0.1502783072849283   F   F   F
  0.2189273727586891  0.7726487874774690  0.3046941164914800   T   T   T
  0.0975686451692464  0.8786334177542121  0.3874431202912193   T   T   T
  0.9981280372177218  0.6654814550252032  0.2318720211124708   T   T   T
  0.2235941439955553  0.7784640719979876  0.0748418969553626   F   F   F
  0.3334831493249190  0.6664563491014764  0.9947679670797730   T   T   T
  0.4410421373218583  0.8871880686606346  0.1521698606277724   F   F   F
  0.5530458648071382  0.7786358700197251  0.3046170524228997   T   T   T
  0.4440711458495899  0.8768922493604268  0.3871128255177742   T   T   T
  0.3278415981846939  0.6567018788243898  0.2330781890928578   T   T   T
  0.5573809464406025  0.7831019460078394  0.0742821550252017   F   F   F
  0.6683395524718703  0.6695378657851631  0.9949037923933384   T   T   T
  0.7751482194518005  0.8834081125503417  0.1532353836995739   F   F   F
  0.8899120940568142  0.7807950300379322  0.3058724649595462   T   T   T
  0.7686078188465029  0.8833459515973962  0.3875803029751460   T   T   T
  0.6636079730949784  0.6596678882179311  0.2370839785002842   T   T   T
  0.8897608400377308  0.7794950900601449  0.0750573530173000   F   F   F
  0.3308007053118371  0.3382615096038637  0.3417524723247727   T   T   T
 -0.0038033772075238  0.0029016676194937  0.3495707482410946   T   T   T
  0.2219976169377134  0.1141780889868613  0.1892435754107140   F   F   F
  0.1106396785041852  0.2219863392521830  0.0355311535025464   F   F   F
  0.3252702521212535 -0.0038701084357370  0.3470743607262659   T   T   T
  0.5539565484838604  0.1109776698143037  0.1907134476121968   F   F   F
  0.4443023650702500  0.2202695654447027  0.0336663685375029   F   F   F
  0.6603744090170878  0.9954165310154918  0.3461616594538606   T   T   T
  0.8874609926422536  0.1103969963217537  0.1909357561982716   F   F   F
  0.7775079517891115  0.2214732227996521  0.0351626563571656   F   F   F
 -0.0001888232200070  0.3233069430993589  0.3503348170352124   T   T   T
  0.2219976169358659  0.4411525279496331  0.1892435754106714   F   F   F
  0.1109573222079447  0.5551356983148139  0.0361769388140587   F   F   F
  0.5536981927783913  0.4435150963880830  0.1813392668279974   F   F   F
  0.4443023650715787  0.5573667996255480  0.0336663685372827   F   F   F
  0.6836726625784229  0.3302665886857780  0.3435179296058862   T   T   T
  0.8888459374498936  0.4443412708559435  0.1914539921612217   F   F   F
  0.7805993654551955  0.5569666827273565  0.0345211883957575   F   F   F
  0.0024330180550587  0.6683686272369234  0.3442932593080898   T   T   T
  0.2214287029004751  0.7773813514516164  0.1903093956593764   F   F   F
  0.1109573222081437  0.8891556238932949  0.0361769388142150   F   F   F
  0.3310420987810500  0.6621233543621244  0.3440563757022463   T   T   T
  0.5539565484882232  0.7763118786699366  0.1907134476118983   F   F   F
  0.4455139469281448  0.8894239734643605  0.0347897244541286   F   F   F
  0.6719532729593942  0.6768790332300239  0.3439840045450400   T   T   T
  0.8888459374529560  0.7778376665981810  0.1914539921617688   F   F   F
  0.7775079517905326  0.8893677289894626  0.0351626563569880   F   F   F
  0.2694996011041095  0.3151212521712352  0.4084544017841798   T   T   T
  0.4556466807366236  0.2973509176788609  0.4288703795617383   T   T   T
 
  0.00000000E+00  0.00000000E+00  0.00000000E+00
  0.00000000E+00  0.00000000E+00  0.00000000E+00
  0.00000000E+00  0.00000000E+00  0.00000000E+00
  0.00000000E+00  0.00000000E+00  0.00000000E+00
  0.00000000E+00  0.00000000E+00  0.00000000E+00
  0.00000000E+00  0.00000000E+00  0.00000000E+00
  0.00000000E+00  0.00000000E+00  0.00000000E+00
  0.00000000E+00  0.00000000E+00  0.00000000E+00
  0.00000000E+00  0.00000000E+00  0.00000000E+00
  0.00000000E+00  0.00000000E+00  0.00000000E+00
  0.00000000E+00  0.00000000E+00  0.00000000E+00
  0.00000000E+00  0.00000000E+00  0.00000000E+00
  0.00000000E+00  0.00000000E+00  0.00000000E+00
  0.00000000E+00  0.00000000E+00  0.00000000E+00
  0.00000000E+00  0.00000000E+00  0.00000000E+00
  0.00000000E+00  0.00000000E+00  0.00000000E+00
  0.00000000E+00  0.00000000E+00  0.00000000E+00
  0.00000000E+00  0.00000000E+00  0.00000000E+00
  0.00000000E+00  0.00000000E+00  0.00000000E+00
  0.00000000E+00  0.00000000E+00  0.00000000E+00
  0.00000000E+00  0.00000000E+00  0.00000000E+00
  0.00000000E+00  0.00000000E+00  0.00000000E+00
  0.00000000E+00  0.00000000E+00  0.00000000E+00
  0.00000000E+00  0.00000000E+00  0.00000000E+00
  0.00000000E+00  0.00000000E+00  0.00000000E+00
  0.00000000E+00  0.00000000E+00  0.00000000E+00
  0.00000000E+00  0.00000000E+00  0.00000000E+00
  0.00000000E+00  0.00000000E+00  0.00000000E+00
  0.00000000E+00  0.00000000E+00  0.00000000E+00
  0.00000000E+00  0.00000000E+00  0.00000000E+00
  0.00000000E+00  0.00000000E+00  0.00000000E+00
  0.00000000E+00  0.00000000E+00  0.00000000E+00
  0.00000000E+00  0.00000000E+00  0.00000000E+00
  0.00000000E+00  0.00000000E+00  0.00000000E+00
  0.00000000E+00  0.00000000E+00  0.00000000E+00
  0.00000000E+00  0.00000000E+00  0.00000000E+00
  0.00000000E+00  0.00000000E+00  0.00000000E+00
  0.00000000E+00  0.00000000E+00  0.00000000E+00
  0.00000000E+00  0.00000000E+00  0.00000000E+00
  0.00000000E+00  0.00000000E+00  0.00000000E+00
  0.00000000E+00  0.00000000E+00  0.00000000E+00
  0.00000000E+00  0.00000000E+00  0.00000000E+00
  0.00000000E+00  0.00000000E+00  0.00000000E+00
  0.00000000E+00  0.00000000E+00  0.00000000E+00
  0.00000000E+00  0.00000000E+00  0.00000000E+00
  0.00000000E+00  0.00000000E+00  0.00000000E+00
  0.00000000E+00  0.00000000E+00  0.00000000E+00
  0.00000000E+00  0.00000000E+00  0.00000000E+00
  0.00000000E+00  0.00000000E+00  0.00000000E+00
  0.00000000E+00  0.00000000E+00  0.00000000E+00
  0.00000000E+00  0.00000000E+00  0.00000000E+00
  0.00000000E+00  0.00000000E+00  0.00000000E+00
  0.00000000E+00  0.00000000E+00  0.00000000E+00
  0.00000000E+00  0.00000000E+00  0.00000000E+00
  0.00000000E+00  0.00000000E+00  0.00000000E+00
  0.00000000E+00  0.00000000E+00  0.00000000E+00
  0.00000000E+00  0.00000000E+00  0.00000000E+00
  0.00000000E+00  0.00000000E+00  0.00000000E+00
  0.00000000E+00  0.00000000E+00  0.00000000E+00
  0.00000000E+00  0.00000000E+00  0.00000000E+00
  0.00000000E+00  0.00000000E+00  0.00000000E+00
  0.00000000E+00  0.00000000E+00  0.00000000E+00
  0.00000000E+00  0.00000000E+00  0.00000000E+00
  0.00000000E+00  0.00000000E+00  0.00000000E+00
  0.00000000E+00  0.00000000E+00  0.00000000E+00
  0.00000000E+00  0.00000000E+00  0.00000000E+00
  0.00000000E+00  0.00000000E+00  0.00000000E+00
  0.00000000E+00  0.00000000E+00  0.00000000E+00
  0.00000000E+00  0.00000000E+00  0.00000000E+00
  0.00000000E+00  0.00000000E+00  0.00000000E+00
  0.00000000E+00  0.00000000E+00  0.00000000E+00
  0.00000000E+00  0.00000000E+00  0.00000000E+00
  0.00000000E+00  0.00000000E+00  0.00000000E+00
  0.00000000E+00  0.00000000E+00  0.00000000E+00
  0.00000000E+00  0.00000000E+00  0.00000000E+00
  0.00000000E+00  0.00000000E+00  0.00000000E+00
  0.00000000E+00  0.00000000E+00  0.00000000E+00
  0.00000000E+00  0.00000000E+00  0.00000000E+00
  0.00000000E+00  0.00000000E+00  0.00000000E+00
  0.00000000E+00  0.00000000E+00  0.00000000E+00
  0.00000000E+00  0.00000000E+00  0.00000000E+00
  0.00000000E+00  0.00000000E+00  0.00000000E+00
