CeO2-you-111-you-Os                     
   1.00000000000000     
     9.8947516156391817   -5.7186499690715484   -0.0130697962616688
    -0.0051200245062741   11.4284297832956447    0.0130697941341233
    -0.0147824618020047    0.0256039738158727   21.0100051232745599
   O    Os   Ce   H 
    53     1    26     1
Selective dynamics
Direct
  0.9997119940949577 -0.0004478303693632  0.9952368699512811   T   T   T
  0.1149779404880664  0.2215601034545702  0.1471385035636852   T   T   T
  0.2604030790341156  0.1311800787176214  0.3019872994322648   T   T   T
  0.1623877478827078  0.2588750370821939  0.3674450347642889   T   T   T
  0.0082310774643304  0.0029938273472245  0.2297739297394422   T   T   T
  0.2225458235294321  0.1089788656807009  0.0738940873314568   T   T   T
  0.3352364854714931  0.0012545976652449  0.9956888751884516   T   T   T
  0.4380367845926324  0.2286558600803517  0.1535174544233011   T   T   T
  0.5494966139855331  0.1164367323652089  0.3067923401848706   T   T   T
  0.4211700637193936  0.2470926400366350  0.4036171088772713   T   T   T
  0.3337098788560564  0.9957591446826840  0.2258472017354370   T   T   T
  0.5533008503632773  0.1125344612080424  0.0785204080075002   T   T   T
  0.6655538007723324  0.0017303481714972  0.9977481613305644   T   T   T
  0.7836798223081941  0.2225909403492098  0.1506907039929288   T   T   T
  0.8854545636723552  0.1087186659484312  0.3030776102962431   T   T   T
  0.7700233786479420  0.2184300384894987  0.3871478367115573   T   T   T
  0.6642799648068316  0.0020763296068044  0.2292032492558991   T   T   T
  0.8901052386116038  0.1095280321540050  0.0751500531339687   T   T   T
  0.9971601629138613  0.3315062851305300  0.9950623436903123   T   T   T
  0.1106922309981030  0.5569791815046793  0.1440206146422114   T   T   T
  0.1082749051362384  0.5585567152156714  0.3824217373899316   T   T   T
  0.0165589874836019  0.3429878528418598  0.2303219204775620   T   T   T
  0.2217265932965341  0.4440379251929717  0.0699166764908097   T   T   T
  0.3339878538263901  0.3318246016080036  0.9950313815852313   T   T   T
  0.4442947885728414  0.5508246657797712  0.1468950280285431   T   T   T
  0.5357961643307217  0.4070553630844616  0.3020009952561896   T   T   T
  0.4081796747888701  0.5038668974983953  0.3684160163308671   T   T   T
  0.3117344613686684  0.3556372887874467  0.2455847650334691   T   T   T
  0.5574204868146829  0.4437499113747656  0.0737067127087957   T   T   T
  0.6651436017411286  0.3307432930459109  0.9956518722837028   T   T   T
  0.7777171845563723  0.5551916873605155  0.1495132464282997   T   T   T
  0.8857992235461151  0.4422086258201086  0.3010657247199136   T   T   T
  0.7808571215568847  0.5432557819626351  0.3849525170950998   T   T   T
  0.6706077113359156  0.3326245127914625  0.2260915806180319   T   T   T
  0.8875865656615525  0.4439067692459398  0.0733639756097397   T   T   T
  0.9989652183909247  0.6670838272456668  0.9947248423381272   T   T   T
  0.1111862791807096  0.8886553511456650  0.1494010760669431   T   T   T
  0.2246623590037403  0.7806062038979692  0.3008139134258738   T   T   T
  0.1239110995260995  0.8862504419904057  0.3849811732070172   T   T   T
  0.0023696341743914  0.6643237091298652  0.2272284464546136   T   T   T
  0.2223628153197263  0.7787854073079693  0.0728506674673304   T   T   T
  0.3358488222798804  0.6693750480799678  0.9950654721911498   T   T   T
  0.4439294033940807  0.8827364244710146  0.1504521454079524   T   T   T
  0.5582157118165336  0.7807609138485914  0.3030564817850522   T   T   T
  0.4482491908988659  0.8954923108962808  0.3869830924220227   T   T   T
  0.3244374515535088  0.6499950400094909  0.2302708193522957   T   T   T
  0.5575240540286284  0.7767290912811455  0.0754086945930926   T   T   T
  0.6675642377147429  0.6675725379317208  0.9954282618792761   T   T   T
  0.7788661493711668  0.8887625231152758  0.1534150693760792   T   T   T
  0.8929926311078749  0.7740617667114833  0.3037359925696413   T   T   T
  0.7737727485660810  0.8931174669410413  0.3879121517063098   T   T   T
  0.6635454743614254  0.6583855205315206  0.2296531555076847   T   T   T
  0.8888678347908051  0.7781861512923727  0.0753429221745634   T   T   T
  0.3428650250629588  0.3242355526621416  0.3341558681948799   T   T   T
  0.0031587525289025 -0.0006585635442233  0.3464231287787834   T   T   T
  0.2204476781909506  0.1074128950783862  0.1890717118392864   T   T   T
  0.1098215673762959  0.2192470394817247  0.0335010389681431   T   T   T
  0.3307946147521283  0.9882557723481565  0.3430975451252960   T   T   T
  0.5556951039945569  0.1107637318394606  0.1909257122715453   T   T   T
  0.4441338100532249  0.2220131100005435  0.0349824626925860   T   T   T
  0.6690986891973461  0.9970823939911475  0.3454796812910498   T   T   T
  0.8916651579341935  0.1120478323850879  0.1925208337062283   T   T   T
  0.7776541426145506  0.2217277047224534  0.0364111573616462   T   T   T
  0.9941582121951138  0.3302749987081516  0.3484929531152448   T   T   T
  0.2199432110154597  0.4464725870722602  0.1795056516556006   T   T   T
  0.1099230144271569  0.5563185287879884  0.0316795790566281   T   T   T
  0.5589367325920074  0.4460115281088405  0.1891675100400021   T   T   T
  0.4472153104840890  0.5566427458428030  0.0335446344756985   T   T   T
  0.6778517272118970  0.3357289407132272  0.3432672768142810   T   T   T
  0.8909415907765196  0.4439221505394840  0.1886655296049194   T   T   T
  0.7774524087550052  0.5551120609627581  0.0352371512040205   T   T   T
  0.0024254006823774  0.6643424815562565  0.3431773319453448   T   T   T
  0.2227915308057878  0.7755829779466979  0.1884734459700219   T   T   T
  0.1113684818125201  0.8890465218222552  0.0350386941089371   T   T   T
  0.3364156495389451  0.6717211931740664  0.3483452982892667   T   T   T
  0.5547315334962882  0.7749374558377417  0.1924548785765896   T   T   T
  0.4449084124098013  0.8887616772810790  0.0363643501708914   T   T   T
  0.6675571814121437  0.6634498364758057  0.3465169168505162   T   T   T
  0.8901447848684689  0.7766923214521110  0.1913570156332588   T   T   T
  0.7781191679142132  0.8888546891638982  0.0376553984916918   T   T   T
  0.4050431661882106  0.2617908688465574  0.4476030295335856   T   T   T
 
  0.00000000E+00  0.00000000E+00  0.00000000E+00
  0.00000000E+00  0.00000000E+00  0.00000000E+00
  0.00000000E+00  0.00000000E+00  0.00000000E+00
  0.00000000E+00  0.00000000E+00  0.00000000E+00
  0.00000000E+00  0.00000000E+00  0.00000000E+00
  0.00000000E+00  0.00000000E+00  0.00000000E+00
  0.00000000E+00  0.00000000E+00  0.00000000E+00
  0.00000000E+00  0.00000000E+00  0.00000000E+00
  0.00000000E+00  0.00000000E+00  0.00000000E+00
  0.00000000E+00  0.00000000E+00  0.00000000E+00
  0.00000000E+00  0.00000000E+00  0.00000000E+00
  0.00000000E+00  0.00000000E+00  0.00000000E+00
  0.00000000E+00  0.00000000E+00  0.00000000E+00
  0.00000000E+00  0.00000000E+00  0.00000000E+00
  0.00000000E+00  0.00000000E+00  0.00000000E+00
  0.00000000E+00  0.00000000E+00  0.00000000E+00
  0.00000000E+00  0.00000000E+00  0.00000000E+00
  0.00000000E+00  0.00000000E+00  0.00000000E+00
  0.00000000E+00  0.00000000E+00  0.00000000E+00
  0.00000000E+00  0.00000000E+00  0.00000000E+00
  0.00000000E+00  0.00000000E+00  0.00000000E+00
  0.00000000E+00  0.00000000E+00  0.00000000E+00
  0.00000000E+00  0.00000000E+00  0.00000000E+00
  0.00000000E+00  0.00000000E+00  0.00000000E+00
  0.00000000E+00  0.00000000E+00  0.00000000E+00
  0.00000000E+00  0.00000000E+00  0.00000000E+00
  0.00000000E+00  0.00000000E+00  0.00000000E+00
  0.00000000E+00  0.00000000E+00  0.00000000E+00
  0.00000000E+00  0.00000000E+00  0.00000000E+00
  0.00000000E+00  0.00000000E+00  0.00000000E+00
  0.00000000E+00  0.00000000E+00  0.00000000E+00
  0.00000000E+00  0.00000000E+00  0.00000000E+00
  0.00000000E+00  0.00000000E+00  0.00000000E+00
  0.00000000E+00  0.00000000E+00  0.00000000E+00
  0.00000000E+00  0.00000000E+00  0.00000000E+00
  0.00000000E+00  0.00000000E+00  0.00000000E+00
  0.00000000E+00  0.00000000E+00  0.00000000E+00
  0.00000000E+00  0.00000000E+00  0.00000000E+00
  0.00000000E+00  0.00000000E+00  0.00000000E+00
  0.00000000E+00  0.00000000E+00  0.00000000E+00
  0.00000000E+00  0.00000000E+00  0.00000000E+00
  0.00000000E+00  0.00000000E+00  0.00000000E+00
  0.00000000E+00  0.00000000E+00  0.00000000E+00
  0.00000000E+00  0.00000000E+00  0.00000000E+00
  0.00000000E+00  0.00000000E+00  0.00000000E+00
  0.00000000E+00  0.00000000E+00  0.00000000E+00
  0.00000000E+00  0.00000000E+00  0.00000000E+00
  0.00000000E+00  0.00000000E+00  0.00000000E+00
  0.00000000E+00  0.00000000E+00  0.00000000E+00
  0.00000000E+00  0.00000000E+00  0.00000000E+00
  0.00000000E+00  0.00000000E+00  0.00000000E+00
  0.00000000E+00  0.00000000E+00  0.00000000E+00
  0.00000000E+00  0.00000000E+00  0.00000000E+00
  0.00000000E+00  0.00000000E+00  0.00000000E+00
  0.00000000E+00  0.00000000E+00  0.00000000E+00
  0.00000000E+00  0.00000000E+00  0.00000000E+00
  0.00000000E+00  0.00000000E+00  0.00000000E+00
  0.00000000E+00  0.00000000E+00  0.00000000E+00
  0.00000000E+00  0.00000000E+00  0.00000000E+00
  0.00000000E+00  0.00000000E+00  0.00000000E+00
  0.00000000E+00  0.00000000E+00  0.00000000E+00
  0.00000000E+00  0.00000000E+00  0.00000000E+00
  0.00000000E+00  0.00000000E+00  0.00000000E+00
  0.00000000E+00  0.00000000E+00  0.00000000E+00
  0.00000000E+00  0.00000000E+00  0.00000000E+00
  0.00000000E+00  0.00000000E+00  0.00000000E+00
  0.00000000E+00  0.00000000E+00  0.00000000E+00
  0.00000000E+00  0.00000000E+00  0.00000000E+00
  0.00000000E+00  0.00000000E+00  0.00000000E+00
  0.00000000E+00  0.00000000E+00  0.00000000E+00
  0.00000000E+00  0.00000000E+00  0.00000000E+00
  0.00000000E+00  0.00000000E+00  0.00000000E+00
  0.00000000E+00  0.00000000E+00  0.00000000E+00
  0.00000000E+00  0.00000000E+00  0.00000000E+00
  0.00000000E+00  0.00000000E+00  0.00000000E+00
  0.00000000E+00  0.00000000E+00  0.00000000E+00
  0.00000000E+00  0.00000000E+00  0.00000000E+00
  0.00000000E+00  0.00000000E+00  0.00000000E+00
  0.00000000E+00  0.00000000E+00  0.00000000E+00
  0.00000000E+00  0.00000000E+00  0.00000000E+00
  0.00000000E+00  0.00000000E+00  0.00000000E+00
