CeO2-you-111-you-Fe                     
   1.00000000000000     
     9.8885049813099108   -5.7091313869885925   -0.0000000009276013
    -0.0339219555875994   11.3595062178783586   -0.0177316629572133
    -0.0197352008691768   -0.0341823647912599   20.4304266234275822
   O    Fe   Ce H
    53     1    26 1
Selective dynamics
Direct
 -0.0004766994792066  0.0003150932743938  0.9890458687321043   T   T   T
  0.1093649119554551  0.2211293718411170  0.1465613760520235   T   T   T
  0.2367665824036653  0.1402001648136184  0.3128494263726954   T   T   T
  0.0624349256507610  0.2006558786654454  0.4013594549050490   T   T   T
  0.0071301061578399  0.0039330623577600  0.2306070187688538   T   T   T
  0.2219888901400708  0.1106447802799220  0.0705020553522871   T   T   T
  0.3341247927535452  0.0003150932747435  0.9890458687322068   T   T   T
  0.4450974598870800  0.2211293718406413  0.1465613760519240   T   T   T
  0.5587348153768016  0.1104824799233526  0.3036044505046035   T   T   T
  0.4715539530214500  0.2006558786696733  0.4013594549067154   T   T   T
  0.3301359561994127  0.0039330623563082  0.2306070187684388   T   T   T
  0.5573546510236107  0.1110325274516851  0.0715949247002410   T   T   T
  0.6664418152404902 -0.0004503695195357  0.9889951779127472   T   T   T
  0.7775996968463257  0.2218653936935448  0.1523764285061954   T   T   T
  0.8850816645485611  0.1104824799238999  0.3036044505045516   T   T   T
  0.7759842087880521  0.2186344175756539  0.3901281069298217   T   T   T
  0.6622565179405712 -0.0088209641196626  0.2313432476206150   T   T   T
  0.8870118764273581  0.1110325274506926  0.0715949246998611   T   T   T
 -0.0001835418731623  0.3328910306637761  0.9893228604237684   T   T   T
  0.1096769075475165  0.5564678578156818  0.1476612811386446   T   T   T
  0.2452160982074378  0.4371203185886167  0.3203334954188610   T   T   T
  0.1065227679718539  0.5564478444357090  0.3892101957425551   T   T   T
  0.0109324030147177  0.3390523346035128  0.2325138721044955   T   T   T
  0.2215378442151418  0.4449466217324602  0.0715356650549147   T   T   T
  0.3337648347230088  0.3341966694461919  0.9899969247667479   T   T   T
  0.4458354116996133  0.5583388234013522  0.1468252520517179   T   T   T
  0.5252382203803624  0.4371203185852697  0.3203334954180471   T   T   T
  0.3350769384978982  0.3368208769983040  0.2222601922234111   T   T   T
  0.5567427775167046  0.4449466217321469  0.0715356650548878   T   T   T
  0.6664085725363524  0.3328910306636452  0.9893228604237637   T   T   T
  0.7801239502674626  0.5564678578154030  0.1476612811386749   T   T   T
  0.8872477835683896  0.4411615671364346  0.3069433548650572   T   T   T
  0.7832580764637762  0.5564478444349682  0.3892101957422318   T   T   T
  0.6614539315873498  0.3390523346023750  0.2325138721043219   T   T   T
  0.8876876253422649  0.4420412506847441  0.0718610142897517   T   T   T
 -0.0006999423342078  0.6652671153307558  0.9893925222855079   T   T   T
  0.1109118892523110  0.8884907785035160  0.1467565621323695   T   T   T
  0.2222717145966050  0.7812978141153815  0.3058456674827255   T   T   T
  0.1136016616790401  0.8938703233585809  0.3875958400208596   T   T   T
  0.0004867347686309  0.6676404695373561  0.2301459486753660   T   T   T
  0.2225075076381499  0.7788413810564476  0.0705891592355790   T   T   T
  0.3334295427311403  0.6661628698668544  0.9897044341092580   T   T   T
  0.4430095100882715  0.8877695630165904  0.1492451483124394   T   T   T
  0.5480075772604156  0.7626811545224039  0.3132036958542255   T   T   T
  0.4470701249457976  0.8942827159505640  0.3900446592297995   T   T   T
  0.3289091573748484  0.6627482097262436  0.2303883351669848   T   T   T
  0.5564045455134824  0.7794750910274633  0.0717699917790496   T   T   T
  0.6660663271357797  0.6661628698666558  0.9897044341092515   T   T   T
  0.7780930529287683  0.8877695630163046  0.1492451483123022   T   T   T
  0.8923590995203083  0.7812978141175732  0.3058456674833109   T   T   T
  0.7805455910048907  0.8942827159511050  0.3900446592298233   T   T   T
  0.6671720523519824  0.6627482097261336  0.2303883351668394   T   T   T
  0.8896668734185289  0.7788413810558643  0.0705891592354482   T   T   T
  0.3339011075162310  0.3344692150423033  0.3178028199033303   T   T   T
  0.0035133313268334  0.0093875919294042  0.3518182381978989   T   T   T
  0.2219507877412979  0.1105685754829654  0.1876176121338346   T   T   T
  0.1101186296702220  0.2214904028718351  0.0299995510255287   T   T   T
  0.3392072606042673  0.0093875919329494  0.3518182381984390   T   T   T
  0.5545993828520912  0.1107732198179842  0.1906809810099863   T   T   T
  0.4447047732020622  0.2214904028719936  0.0299995510255584   T   T   T
  0.6658642260690735 -0.0016055478621211  0.3495635398597083   T   T   T
  0.8895078369652687  0.1107732198167686  0.1906809810099164   T   T   T
  0.7773785654380385  0.2214231308761880  0.0308865319978693   T   T   T
 -0.0018836299819194  0.3281641471375649  0.3525249517473898   T   T   T
  0.2212179090881697  0.4457438324816480  0.1866569410320669   T   T   T
  0.1098324672582256  0.5548826377317639  0.0305909113731429   T   T   T
  0.5578599233945812  0.4457438324837116  0.1866569410323272   T   T   T
  0.4448839606524719  0.5564359213054347  0.0297911352601791   T   T   T
  0.6633817771193350  0.3281641471363119  0.3525249517474025   T   T   T
  0.8887228717969664  0.4441117435934674  0.1920939745460086   T   T   T
  0.7783831704735866  0.5548826377319521  0.0305909113731711   T   T   T
  0.0005891662999720  0.6678453326004347  0.3478475960627166   T   T   T
  0.2220846647749792  0.7795752094204237  0.1890271814850334   T   T   T
  0.1109959901531322  0.8886589803057099  0.0295459742391960   T   T   T
  0.3247246660901696  0.6728677103161260  0.3469429730623906   T   T   T
  0.5546606897120611  0.7759873794235459  0.1905498777048863   T   T   T
  0.4448846263366482  0.8887841364889745  0.0306065023108508   T   T   T
  0.6814760442256836  0.6728677103143941  0.3469429730617358   T   T   T
  0.8908235446448517  0.7795752094201970  0.1890271814849983   T   T   T
  0.7772325101524277  0.8887841364884262  0.0306065023106118   T   T   T
0.446598 0.216020 0.433410 T T T 
 
  0.00000000E+00  0.00000000E+00  0.00000000E+00
  0.00000000E+00  0.00000000E+00  0.00000000E+00
  0.00000000E+00  0.00000000E+00  0.00000000E+00
  0.00000000E+00  0.00000000E+00  0.00000000E+00
  0.00000000E+00  0.00000000E+00  0.00000000E+00
  0.00000000E+00  0.00000000E+00  0.00000000E+00
  0.00000000E+00  0.00000000E+00  0.00000000E+00
  0.00000000E+00  0.00000000E+00  0.00000000E+00
  0.00000000E+00  0.00000000E+00  0.00000000E+00
  0.00000000E+00  0.00000000E+00  0.00000000E+00
  0.00000000E+00  0.00000000E+00  0.00000000E+00
  0.00000000E+00  0.00000000E+00  0.00000000E+00
  0.00000000E+00  0.00000000E+00  0.00000000E+00
  0.00000000E+00  0.00000000E+00  0.00000000E+00
  0.00000000E+00  0.00000000E+00  0.00000000E+00
  0.00000000E+00  0.00000000E+00  0.00000000E+00
  0.00000000E+00  0.00000000E+00  0.00000000E+00
  0.00000000E+00  0.00000000E+00  0.00000000E+00
  0.00000000E+00  0.00000000E+00  0.00000000E+00
  0.00000000E+00  0.00000000E+00  0.00000000E+00
  0.00000000E+00  0.00000000E+00  0.00000000E+00
  0.00000000E+00  0.00000000E+00  0.00000000E+00
  0.00000000E+00  0.00000000E+00  0.00000000E+00
  0.00000000E+00  0.00000000E+00  0.00000000E+00
  0.00000000E+00  0.00000000E+00  0.00000000E+00
  0.00000000E+00  0.00000000E+00  0.00000000E+00
  0.00000000E+00  0.00000000E+00  0.00000000E+00
  0.00000000E+00  0.00000000E+00  0.00000000E+00
  0.00000000E+00  0.00000000E+00  0.00000000E+00
  0.00000000E+00  0.00000000E+00  0.00000000E+00
  0.00000000E+00  0.00000000E+00  0.00000000E+00
  0.00000000E+00  0.00000000E+00  0.00000000E+00
  0.00000000E+00  0.00000000E+00  0.00000000E+00
  0.00000000E+00  0.00000000E+00  0.00000000E+00
  0.00000000E+00  0.00000000E+00  0.00000000E+00
  0.00000000E+00  0.00000000E+00  0.00000000E+00
  0.00000000E+00  0.00000000E+00  0.00000000E+00
  0.00000000E+00  0.00000000E+00  0.00000000E+00
  0.00000000E+00  0.00000000E+00  0.00000000E+00
  0.00000000E+00  0.00000000E+00  0.00000000E+00
  0.00000000E+00  0.00000000E+00  0.00000000E+00
  0.00000000E+00  0.00000000E+00  0.00000000E+00
  0.00000000E+00  0.00000000E+00  0.00000000E+00
  0.00000000E+00  0.00000000E+00  0.00000000E+00
  0.00000000E+00  0.00000000E+00  0.00000000E+00
  0.00000000E+00  0.00000000E+00  0.00000000E+00
  0.00000000E+00  0.00000000E+00  0.00000000E+00
  0.00000000E+00  0.00000000E+00  0.00000000E+00
  0.00000000E+00  0.00000000E+00  0.00000000E+00
  0.00000000E+00  0.00000000E+00  0.00000000E+00
  0.00000000E+00  0.00000000E+00  0.00000000E+00
  0.00000000E+00  0.00000000E+00  0.00000000E+00
  0.00000000E+00  0.00000000E+00  0.00000000E+00
  0.00000000E+00  0.00000000E+00  0.00000000E+00
  0.00000000E+00  0.00000000E+00  0.00000000E+00
  0.00000000E+00  0.00000000E+00  0.00000000E+00
  0.00000000E+00  0.00000000E+00  0.00000000E+00
  0.00000000E+00  0.00000000E+00  0.00000000E+00
  0.00000000E+00  0.00000000E+00  0.00000000E+00
  0.00000000E+00  0.00000000E+00  0.00000000E+00
  0.00000000E+00  0.00000000E+00  0.00000000E+00
  0.00000000E+00  0.00000000E+00  0.00000000E+00
  0.00000000E+00  0.00000000E+00  0.00000000E+00
  0.00000000E+00  0.00000000E+00  0.00000000E+00
  0.00000000E+00  0.00000000E+00  0.00000000E+00
  0.00000000E+00  0.00000000E+00  0.00000000E+00
  0.00000000E+00  0.00000000E+00  0.00000000E+00
  0.00000000E+00  0.00000000E+00  0.00000000E+00
  0.00000000E+00  0.00000000E+00  0.00000000E+00
  0.00000000E+00  0.00000000E+00  0.00000000E+00
  0.00000000E+00  0.00000000E+00  0.00000000E+00
  0.00000000E+00  0.00000000E+00  0.00000000E+00
  0.00000000E+00  0.00000000E+00  0.00000000E+00
  0.00000000E+00  0.00000000E+00  0.00000000E+00
  0.00000000E+00  0.00000000E+00  0.00000000E+00
  0.00000000E+00  0.00000000E+00  0.00000000E+00
  0.00000000E+00  0.00000000E+00  0.00000000E+00
  0.00000000E+00  0.00000000E+00  0.00000000E+00
  0.00000000E+00  0.00000000E+00  0.00000000E+00
  0.00000000E+00  0.00000000E+00  0.00000000E+00
