CeO2-you-111-you-W                      
   1.00000000000000     
     9.8817992460907984   -5.7052598251521411    0.0000000000000000
    -0.0000000037524835   11.4105176357957063    0.0000000000000000
     0.0000000000000000    0.0000000000000000   21.0187239744701095
   O    W    Ce   H 
    54     1    26     1
Selective dynamics
Direct
  0.9997252780454534 -0.0001032345536964  0.9961631222626787   T   T   T
  0.1184778839546468  0.2259054419765576  0.1525704228493652   F   F   F
  0.2374997427454394  0.1329909815147291  0.3030242902182053   T   T   T
  0.1689257436286725  0.2490636840220689  0.3827227081652708   T   T   T
  0.0008600611087637  0.9978860607869668  0.2296261032921602   T   T   T
  0.2219948234596032  0.1106566469192458  0.0748123372726468   F   F   F
  0.3338840180509799  0.0000299791771170  0.9960677414461777   T   T   T
  0.4407605580219069  0.2259054419758826  0.1525704228493652   F   F   F
  0.5576922141270860  0.1181970375965087  0.3056876694509613   T   T   T
  0.4232605413469889  0.2459829378757376  0.3951569645523904   T   T   T
  0.3321963679607841  0.9979784806261414  0.2275148072915066   T   T   T
  0.5539365139351489  0.1127304860647413  0.0764997761581157   F   F   F
  0.6671905580355438 -0.0001265256478047  0.9979890634474268   T   T   T
  0.7761836858853570  0.2190333717705713  0.1496704371644526   F   F   F
  0.8954348132371548  0.1096011330012515  0.3068271797097896   T   T   T
  0.7684868170136262  0.2169122881156314  0.3868858725686398   T   T   T
  0.6671111617967521 -0.0007915966863500  0.2319267398516139   T   T   T
  0.8921279721296287  0.1127304860647769  0.0764997761581157   F   F   F
  0.9994257006943982  0.3323648463157957  0.9961095008565398   T   T   T
  0.1114867119366707  0.5551802880635321  0.1489316934423854   F   F   F
  0.2332654193473306  0.4430982523047692  0.3040760369160175   T   T   T
  0.1218041153081209  0.5696479029476540  0.3853948518975798   T   T   T
  0.0002556578281780  0.3336723616762138  0.2284983791310884   T   T   T
  0.2219948234595037  0.4446711765403535  0.0748123372726468   F   F   F
  0.3333315853385981  0.3333284095955288  0.9961559142155135   T   T   T
  0.4407605580234417  0.5481891160475669  0.1525704228493652   F   F   F
  0.5330247524811045  0.4157161731595062  0.3037396962095376   T   T   T
  0.4188347545058325  0.4972942686184590  0.3828443465356179   T   T   T
  0.3299336862771961  0.3388388260878716  0.2375317414383938   T   T   T
  0.5560103530809002  0.4446711765403961  0.0748123372726468   F   F   F
  0.6665898051850524  0.3324737740823582  0.9962250542262318   T   T   T
  0.7770265761267936  0.5551802880634682  0.1489316934423854   F   F   F
  0.8907055761577487  0.4464560615090793  0.3034211310769487   T   T   T
  0.7813183401434609  0.5453658406412951  0.3847413208843884   T   T   T
  0.6715057807378801  0.3358871590003655  0.2283202682395343   T   T   T
  0.8887832963187350  0.4442325926373698  0.0747724619892693   F   F   F
 -0.0001036039503961  0.6668241877134836  0.9958071064829660   T   T   T
  0.1114867119365357  0.8896404238730042  0.1489316934423854   F   F   F
  0.2211692519025284  0.7773232426470204  0.3036484600783649   T   T   T
  0.0979307710544214  0.8865286463956482  0.3849256221507411   T   T   T
  0.0003786847220212  0.6672062033574037  0.2273304400797722   T   T   T
  0.2224334073622884  0.7778837036812618  0.0747724619892693   F   F   F
  0.3340688796241882  0.6675136641301748  0.9962451359282580   T   T   T
  0.4476326282289733  0.8904833141146398  0.1496704371644526   F   F   F
  0.5475267631286778  0.7704424438097313  0.3063978162697505   T   T   T
  0.4496118661809699  0.8830932252261302  0.3872304635627065   T   T   T
  0.3312566060563276  0.6675311772449090  0.2293658187316394   T   T   T
  0.5539365139352270  0.7745390278704818  0.0764997761581157   F   F   F
  0.6670672100821987  0.6676608795682079  0.9961413097195648   T   T   T
  0.7761836858856697  0.8904833141147819  0.1496704371644526   F   F   F
  0.8906815731557743  0.7772496108156375  0.3028719359742019   T   T   T
  0.7839708591048109  0.8962691409600470  0.3859421383033044   T   T   T
  0.6663021415826426  0.6639001259400643  0.2289454441822020   T   T   T
  0.8887832963189766  0.7778837036813684  0.0747724619892693   F   F   F
  0.3242401506655420  0.3425210365257368  0.3327211078129128   T   T   T
  0.9968843644344880  0.9927121754363375  0.3429132468435157   T   T   T
  0.2202051560179115  0.1070773120359974  0.1907306339840815   F   F   F
  0.1117457231723904  0.2225393615858806  0.0363614090120663   F   F   F
  0.3307497255198434  0.0013152864045266  0.3471845178391065   T   T   T
  0.5553782833609802  0.1112887166379579  0.1909409509691216   F   F   F
  0.4441266384134863  0.2225393615855964  0.0363614090120663   F   F   F
  0.6678551375168047 -0.0011251085302102  0.3464435492636765   T   T   T
  0.8892444332773053  0.1112887166382848  0.1909409509691216   F   F   F
  0.7776718512532454  0.2220097025062913  0.0365303095288141   F   F   F
  0.0013838553049250  0.3361014901712917  0.3485106776930336   T   T   T
  0.2202051560175207  0.4464608439819102  0.1907306339840815   F   F   F
  0.1114243269040358  0.5552426730961528  0.0349779783015265   F   F   F
  0.5595896879645679  0.4464608439820879  0.1907306339840815   F   F   F
  0.4441266384141187  0.5549212768285372  0.0363614090120663   F   F   F
  0.6743212035581926  0.3351492459974060  0.3426549300299626   T   T   T
  0.8891588341927488  0.4449836683855395  0.1881485062232500   F   F   F
  0.7771513461920492  0.5552426730960960  0.0349779783015265   F   F   F
 -0.0001049025797798  0.6667331330224590  0.3431550541156945   T   T   T
  0.2216823316146090  0.7775081658072480  0.1881485062232500   F   F   F
  0.1114243269039079  0.8895156538077558  0.0349779783015265   F   F   F
  0.3312798153085326  0.6750208619393334  0.3438126515780999   T   T   T
  0.5553782833617191  0.7774225667237573  0.1909409509691216   F   F   F
  0.4446562974930615  0.8889951487467513  0.0365303095288141   F   F   F
  0.6654854895164171  0.6596252220767886  0.3469450839343518   T   T   T
  0.8891588341926422  0.7775081658072054  0.1881485062232500   F   F   F
  0.7776718512536931  0.8889951487469503  0.0365303095288141   F   F   F
  0.4157716642406139  0.2658298738288715  0.4395650955686697   T   T   T
 
  0.00000000E+00  0.00000000E+00  0.00000000E+00
  0.00000000E+00  0.00000000E+00  0.00000000E+00
  0.00000000E+00  0.00000000E+00  0.00000000E+00
  0.00000000E+00  0.00000000E+00  0.00000000E+00
  0.00000000E+00  0.00000000E+00  0.00000000E+00
  0.00000000E+00  0.00000000E+00  0.00000000E+00
  0.00000000E+00  0.00000000E+00  0.00000000E+00
  0.00000000E+00  0.00000000E+00  0.00000000E+00
  0.00000000E+00  0.00000000E+00  0.00000000E+00
  0.00000000E+00  0.00000000E+00  0.00000000E+00
  0.00000000E+00  0.00000000E+00  0.00000000E+00
  0.00000000E+00  0.00000000E+00  0.00000000E+00
  0.00000000E+00  0.00000000E+00  0.00000000E+00
  0.00000000E+00  0.00000000E+00  0.00000000E+00
  0.00000000E+00  0.00000000E+00  0.00000000E+00
  0.00000000E+00  0.00000000E+00  0.00000000E+00
  0.00000000E+00  0.00000000E+00  0.00000000E+00
  0.00000000E+00  0.00000000E+00  0.00000000E+00
  0.00000000E+00  0.00000000E+00  0.00000000E+00
  0.00000000E+00  0.00000000E+00  0.00000000E+00
  0.00000000E+00  0.00000000E+00  0.00000000E+00
  0.00000000E+00  0.00000000E+00  0.00000000E+00
  0.00000000E+00  0.00000000E+00  0.00000000E+00
  0.00000000E+00  0.00000000E+00  0.00000000E+00
  0.00000000E+00  0.00000000E+00  0.00000000E+00
  0.00000000E+00  0.00000000E+00  0.00000000E+00
  0.00000000E+00  0.00000000E+00  0.00000000E+00
  0.00000000E+00  0.00000000E+00  0.00000000E+00
  0.00000000E+00  0.00000000E+00  0.00000000E+00
  0.00000000E+00  0.00000000E+00  0.00000000E+00
  0.00000000E+00  0.00000000E+00  0.00000000E+00
  0.00000000E+00  0.00000000E+00  0.00000000E+00
  0.00000000E+00  0.00000000E+00  0.00000000E+00
  0.00000000E+00  0.00000000E+00  0.00000000E+00
  0.00000000E+00  0.00000000E+00  0.00000000E+00
  0.00000000E+00  0.00000000E+00  0.00000000E+00
  0.00000000E+00  0.00000000E+00  0.00000000E+00
  0.00000000E+00  0.00000000E+00  0.00000000E+00
  0.00000000E+00  0.00000000E+00  0.00000000E+00
  0.00000000E+00  0.00000000E+00  0.00000000E+00
  0.00000000E+00  0.00000000E+00  0.00000000E+00
  0.00000000E+00  0.00000000E+00  0.00000000E+00
  0.00000000E+00  0.00000000E+00  0.00000000E+00
  0.00000000E+00  0.00000000E+00  0.00000000E+00
  0.00000000E+00  0.00000000E+00  0.00000000E+00
  0.00000000E+00  0.00000000E+00  0.00000000E+00
  0.00000000E+00  0.00000000E+00  0.00000000E+00
  0.00000000E+00  0.00000000E+00  0.00000000E+00
  0.00000000E+00  0.00000000E+00  0.00000000E+00
  0.00000000E+00  0.00000000E+00  0.00000000E+00
  0.00000000E+00  0.00000000E+00  0.00000000E+00
  0.00000000E+00  0.00000000E+00  0.00000000E+00
  0.00000000E+00  0.00000000E+00  0.00000000E+00
  0.00000000E+00  0.00000000E+00  0.00000000E+00
  0.00000000E+00  0.00000000E+00  0.00000000E+00
  0.00000000E+00  0.00000000E+00  0.00000000E+00
  0.00000000E+00  0.00000000E+00  0.00000000E+00
  0.00000000E+00  0.00000000E+00  0.00000000E+00
  0.00000000E+00  0.00000000E+00  0.00000000E+00
  0.00000000E+00  0.00000000E+00  0.00000000E+00
  0.00000000E+00  0.00000000E+00  0.00000000E+00
  0.00000000E+00  0.00000000E+00  0.00000000E+00
  0.00000000E+00  0.00000000E+00  0.00000000E+00
  0.00000000E+00  0.00000000E+00  0.00000000E+00
  0.00000000E+00  0.00000000E+00  0.00000000E+00
  0.00000000E+00  0.00000000E+00  0.00000000E+00
  0.00000000E+00  0.00000000E+00  0.00000000E+00
  0.00000000E+00  0.00000000E+00  0.00000000E+00
  0.00000000E+00  0.00000000E+00  0.00000000E+00
  0.00000000E+00  0.00000000E+00  0.00000000E+00
  0.00000000E+00  0.00000000E+00  0.00000000E+00
  0.00000000E+00  0.00000000E+00  0.00000000E+00
  0.00000000E+00  0.00000000E+00  0.00000000E+00
  0.00000000E+00  0.00000000E+00  0.00000000E+00
  0.00000000E+00  0.00000000E+00  0.00000000E+00
  0.00000000E+00  0.00000000E+00  0.00000000E+00
  0.00000000E+00  0.00000000E+00  0.00000000E+00
  0.00000000E+00  0.00000000E+00  0.00000000E+00
  0.00000000E+00  0.00000000E+00  0.00000000E+00
  0.00000000E+00  0.00000000E+00  0.00000000E+00
  0.00000000E+00  0.00000000E+00  0.00000000E+00
  0.00000000E+00  0.00000000E+00  0.00000000E+00
