CeO2-you-111-you-W                      
   1.00000000000000     
     9.9047966376175278   -5.7076643520298251    0.0082102682896322
    -0.0000000066427706   11.4153266837879279   -0.0000000009964223
     0.0195761561402028   -0.0000000020893177   20.5823851357906555
   O    W    Ce   H 
    53     1    26     2
Selective dynamics
Direct
  0.9979045617401747  0.0008548648199356  0.9929959628861565   T   T   T
  0.1232062203286972  0.2282696101638066  0.1519686256542698   F   F   F
  0.2490260025029158  0.1377571111216790  0.3126776104511375   T   T   T
  0.1328446282128046  0.2392863082186388  0.3831263906781594   T   T   T
  0.0056659917728826  0.0029241794327345  0.2299956709607565   T   T   T
  0.2206945866345293  0.1097330698500656  0.0713021189741596   F   F   F
  0.3339180268821499  0.0000662686999786  0.9913209205302970   T   T   T
  0.4407225943090580  0.2229430772206555  0.1474189640150314   F   F   F
  0.5483988986344782  0.1037312884936449  0.3061747659957422   T   T   T
  0.4641182951011049  0.1732414102896678  0.4193654728506456   T   T   T
  0.3278051294221709  0.0001224253080295  0.2297333878181250   T   T   T
  0.5531793230113067  0.1100330202144306  0.0735308520073801   F   F   F
  0.6693333258904332  0.0013556786922430  0.9948695567675336   T   T   T
  0.7711702705735988  0.2229747637030570  0.1520133977934677   F   F   F
  0.8832474621095919  0.1081194878677798  0.3047106893382345   T   T   T
  0.7705930840809161  0.2089873670546674  0.3927511460185100   T   T   T
  0.6626797179529879  0.9947393229838295  0.2304956206061767   T   T   T
  0.8907012602485622  0.1120171301239452  0.0775102705927750   F   F   F
  0.9977122299862778  0.3299457016593580  0.9930218096274911   T   T   T
  0.1109292345926036  0.5555852589431041  0.1475914249483239   F   F   F
  0.2525710850690626  0.4513271855841215  0.3144209685448104   T   T   T
  0.1211513816669594  0.5709284542044846  0.3882785435900701   T   T   T
  0.0064182888067393  0.3373376083291968  0.2298287160265468   T   T   T
  0.2206945866341314  0.4442945167840762  0.0713021189742449   F   F   F
  0.3324786593736556  0.3329188144484375  0.9916390630601245   T   T   T
  0.4407225943095625  0.5511135170920340  0.1474189640149035   F   F   F
  0.4858593763305963  0.4372122267222849  0.3455166338477604   T   T   T
  0.3373875969252396  0.3342774766784644  0.2357164076201967   T   T   T
  0.5564016713592395  0.4448668356796404  0.0696990647273807   F   F   F
  0.6673057993117176  0.3321028906129747  0.9923518351845633   T   T   T
  0.7792868603183720  0.5563104301588595  0.1463270754440131   F   F   F
  0.8891496677030576  0.4486301813182647  0.3043302640364903   T   T   T
  0.7926507600376683  0.5629277949764577  0.3925171773572861   T   T   T
  0.6560100846154664  0.3405280701681884  0.2329281900803647   T   T   T
  0.8890509616400379  0.4439324054346088  0.0723260222067168   F   F   F
  0.9996919236670152  0.6663290488439789  0.9910620048622609   T   T   T
  0.1109292345920139  0.8886779756482710  0.1475914249484305   F   F   F
  0.2234893092880112  0.7791504845409665  0.3025183945118708   T   T   T
  0.1228759339803319  0.8878450845388334  0.3875351089916521   T   T   T
 -0.0000134046814888  0.6675764792857994  0.2279107169289522   T   T   T
  0.2220620320672353  0.7776980160338027  0.0714244096217911   F   F   F
  0.3338139543454292  0.6668841451602938  0.9914624430572391   T   T   T
  0.4437196542913213  0.8885268271458528  0.1502600371317229   F   F   F
  0.5421920342121186  0.7664330947840325  0.3104782602428290   T   T   T
  0.4366872052128807  0.8810244140213996  0.3908527944888590   T   T   T
  0.3274805555402043  0.6623541445603232  0.2294500952809659   T   T   T
  0.5531793230115696  0.7764793027974122  0.0735308520073303   F   F   F
  0.6672582201718926  0.6689554836180321  0.9921176166790800   T   T   T
  0.7711702705735064  0.8815285068703957  0.1520133977932048   F   F   F
  0.8909861271658589  0.7786509597300002  0.3048167557794195   T   T   T
  0.7708294908335122  0.8943522855114847  0.3940288526417442   T   T   T
  0.6601717132047654  0.6530349346301799  0.2314943430645943   T   T   T
  0.8890509616407485  0.7784515562053684  0.0723260222067168   F   F   F
  0.2994135152026968  0.3164944747776468  0.3364987517043161   T   T   T
  0.9966036779163755 -0.0021111206033219  0.3525372265040594   T   T   T
  0.2197777577406583  0.1078619969437824  0.1892854525825030   F   F   F
  0.1108198267880240  0.2220764133945110  0.0332263249871332   F   F   F
  0.3345843875430319  0.9923288755433740  0.3504858701329576   T   T   T
  0.5531684032064703  0.1116523447236446  0.1919443143996986   F   F   F
  0.4432732486601907  0.2202400626364920  0.0308532368763395   F   F   F
  0.6676937180038008 -0.0002541914387346  0.3496797075578386   T   T   T
  0.8874948671816227  0.1104139335910688  0.1931130852553267   F   F   F
  0.7771765040039327  0.2220175914090916  0.0348163878183243   F   F   F
  0.9925908338231862  0.3340818466933614  0.3512974851187712   T   T   T
  0.2197777577384699  0.4452487607972699  0.1892854525824603   F   F   F
  0.1100218528891261  0.5541549472803950  0.0317300470819433   F   F   F
  0.5593243653521327  0.4463281826737102  0.1815375099915286   F   F   F
  0.4432732486581159  0.5563671860228752  0.0308532368764318   F   F   F
  0.6668449861898708  0.3300837826584204  0.3566983769668965   T   T   T
  0.8877451777171146  0.4444345465981527  0.1912540174494737   F   F   F
  0.7797243164928602  0.5565291582457732  0.0306206191261893   F   F   F
 -0.0024165375295773  0.6661009773977230  0.3470313617153721   T   T   T
  0.2201676758650919  0.7767508379331787  0.1868541111949540   F   F   F
  0.1100218528885719  0.8892009056092860  0.0317300470819859   F   F   F
  0.3260124061076279  0.6777392251570348  0.3443460246446323   T   T   T
  0.5531684032101509  0.7748490584820829  0.1919443143996560   F   F   F
  0.4450099158738610  0.8891719579365969  0.0334035191166535   F   F   F
  0.6783328365808405  0.6728105159749861  0.3518948914363602   T   T   T
  0.8877451777186280  0.7766436311234557  0.1912540174493955   F   F   F
  0.7771765040038261  0.8884919125947022  0.0348163878182248   F   F   F
  0.3331456121538746  0.2864433006285149  0.4151182253661933   T   T   T
  0.4138259792516685  0.2153697031722993  0.4368010446436522   T   T   T
 
  0.00000000E+00  0.00000000E+00  0.00000000E+00
  0.00000000E+00  0.00000000E+00  0.00000000E+00
  0.00000000E+00  0.00000000E+00  0.00000000E+00
  0.00000000E+00  0.00000000E+00  0.00000000E+00
  0.00000000E+00  0.00000000E+00  0.00000000E+00
  0.00000000E+00  0.00000000E+00  0.00000000E+00
  0.00000000E+00  0.00000000E+00  0.00000000E+00
  0.00000000E+00  0.00000000E+00  0.00000000E+00
  0.00000000E+00  0.00000000E+00  0.00000000E+00
  0.00000000E+00  0.00000000E+00  0.00000000E+00
  0.00000000E+00  0.00000000E+00  0.00000000E+00
  0.00000000E+00  0.00000000E+00  0.00000000E+00
  0.00000000E+00  0.00000000E+00  0.00000000E+00
  0.00000000E+00  0.00000000E+00  0.00000000E+00
  0.00000000E+00  0.00000000E+00  0.00000000E+00
  0.00000000E+00  0.00000000E+00  0.00000000E+00
  0.00000000E+00  0.00000000E+00  0.00000000E+00
  0.00000000E+00  0.00000000E+00  0.00000000E+00
  0.00000000E+00  0.00000000E+00  0.00000000E+00
  0.00000000E+00  0.00000000E+00  0.00000000E+00
  0.00000000E+00  0.00000000E+00  0.00000000E+00
  0.00000000E+00  0.00000000E+00  0.00000000E+00
  0.00000000E+00  0.00000000E+00  0.00000000E+00
  0.00000000E+00  0.00000000E+00  0.00000000E+00
  0.00000000E+00  0.00000000E+00  0.00000000E+00
  0.00000000E+00  0.00000000E+00  0.00000000E+00
  0.00000000E+00  0.00000000E+00  0.00000000E+00
  0.00000000E+00  0.00000000E+00  0.00000000E+00
  0.00000000E+00  0.00000000E+00  0.00000000E+00
  0.00000000E+00  0.00000000E+00  0.00000000E+00
  0.00000000E+00  0.00000000E+00  0.00000000E+00
  0.00000000E+00  0.00000000E+00  0.00000000E+00
  0.00000000E+00  0.00000000E+00  0.00000000E+00
  0.00000000E+00  0.00000000E+00  0.00000000E+00
  0.00000000E+00  0.00000000E+00  0.00000000E+00
  0.00000000E+00  0.00000000E+00  0.00000000E+00
  0.00000000E+00  0.00000000E+00  0.00000000E+00
  0.00000000E+00  0.00000000E+00  0.00000000E+00
  0.00000000E+00  0.00000000E+00  0.00000000E+00
  0.00000000E+00  0.00000000E+00  0.00000000E+00
  0.00000000E+00  0.00000000E+00  0.00000000E+00
  0.00000000E+00  0.00000000E+00  0.00000000E+00
  0.00000000E+00  0.00000000E+00  0.00000000E+00
  0.00000000E+00  0.00000000E+00  0.00000000E+00
  0.00000000E+00  0.00000000E+00  0.00000000E+00
  0.00000000E+00  0.00000000E+00  0.00000000E+00
  0.00000000E+00  0.00000000E+00  0.00000000E+00
  0.00000000E+00  0.00000000E+00  0.00000000E+00
  0.00000000E+00  0.00000000E+00  0.00000000E+00
  0.00000000E+00  0.00000000E+00  0.00000000E+00
  0.00000000E+00  0.00000000E+00  0.00000000E+00
  0.00000000E+00  0.00000000E+00  0.00000000E+00
  0.00000000E+00  0.00000000E+00  0.00000000E+00
  0.00000000E+00  0.00000000E+00  0.00000000E+00
  0.00000000E+00  0.00000000E+00  0.00000000E+00
  0.00000000E+00  0.00000000E+00  0.00000000E+00
  0.00000000E+00  0.00000000E+00  0.00000000E+00
  0.00000000E+00  0.00000000E+00  0.00000000E+00
  0.00000000E+00  0.00000000E+00  0.00000000E+00
  0.00000000E+00  0.00000000E+00  0.00000000E+00
  0.00000000E+00  0.00000000E+00  0.00000000E+00
  0.00000000E+00  0.00000000E+00  0.00000000E+00
  0.00000000E+00  0.00000000E+00  0.00000000E+00
  0.00000000E+00  0.00000000E+00  0.00000000E+00
  0.00000000E+00  0.00000000E+00  0.00000000E+00
  0.00000000E+00  0.00000000E+00  0.00000000E+00
  0.00000000E+00  0.00000000E+00  0.00000000E+00
  0.00000000E+00  0.00000000E+00  0.00000000E+00
  0.00000000E+00  0.00000000E+00  0.00000000E+00
  0.00000000E+00  0.00000000E+00  0.00000000E+00
  0.00000000E+00  0.00000000E+00  0.00000000E+00
  0.00000000E+00  0.00000000E+00  0.00000000E+00
  0.00000000E+00  0.00000000E+00  0.00000000E+00
  0.00000000E+00  0.00000000E+00  0.00000000E+00
  0.00000000E+00  0.00000000E+00  0.00000000E+00
  0.00000000E+00  0.00000000E+00  0.00000000E+00
  0.00000000E+00  0.00000000E+00  0.00000000E+00
  0.00000000E+00  0.00000000E+00  0.00000000E+00
  0.00000000E+00  0.00000000E+00  0.00000000E+00
  0.00000000E+00  0.00000000E+00  0.00000000E+00
  0.00000000E+00  0.00000000E+00  0.00000000E+00
  0.00000000E+00  0.00000000E+00  0.00000000E+00
