CeO2-you-111-you-Hg                     
   1.00000000000000     
     9.8402607806631082   -5.6812775815487750   -0.0000000000000000
     0.0000000004581029   11.3625531643226552    0.0000000000000000
     0.0000000000000000    0.0000000000000000   21.2525489196966006
   O    Hg   Ce
    54     1    26
Selective dynamics
Direct
  0.0003245517571197  0.0001134225614697  0.9971323568882491   T   T   T
  0.1050752776687222  0.2192041388348615  0.1486021693101215   T   T   T
  0.2267783889133987  0.1202237778266577  0.3043456769099714   T   T   T
  0.1062784554659552  0.2198057277334240  0.3857317825267704   T   T   T
  0.0025018884450162  0.0006737189951185  0.2300088814579777   T   T   T
  0.2227109831127902  0.1120889662255205  0.0757163298247342   T   T   T
  0.3331218708043488  0.0001134225614982  0.9971323568882491   T   T   T
  0.4474618611661355  0.2192041388353044  0.1486021693101215   T   T   T
  0.5551737999589015  0.1114932000411192  0.3037691741057338   T   T   T
  0.4468602722674649  0.2198057277338187  0.3857317825267704   T   T   T
  0.3315048305500664  0.0006737189949982  0.2300088814579777   T   T   T
  0.5570343790162671  0.1096326209836549  0.0754574129596827   T   T   T
  0.6666669999999968  0.0000000000000000  0.9954087747669436   T   T   T
  0.7779474698298984  0.2225609396598156  0.1510647210161775   T   T   T
  0.8896534000822134  0.1114932000411141  0.3037691741057338   T   T   T
  0.7778614649086123  0.2223889298172399  0.3817346946638322   T   T   T
  0.6666669999999968  0.0000000000000000  0.2298865101534728   T   T   T
  0.8859322419674138  0.1096326209836801  0.0754574129596827   T   T   T
  0.0003245517571099  0.3335441291957176  0.9971323568882491   T   T   T
  0.1107440953722587  0.5559229046276828  0.1497484937991776   T   T   T
  0.2267783889137067  0.4398876110867371  0.3043456769099714   T   T   T
  0.1117586372034654  0.5549083627960442  0.3800270004025376   T   T   T
  0.0025018884449281  0.3351611694496298  0.2300088814579777   T   T   T
  0.2227109831129180  0.4439550168872659  0.0757163298247342   T   T   T
  0.3333330000000032  0.3333330000000032  0.9966415277908623   T   T   T
  0.4474618611651377  0.5615917223298414  0.1486021693101215   T   T   T
  0.5464432221729016  0.4398876110866006  0.3043456769099714   T   T   T
  0.4468602722665752  0.5603885445327644  0.3857317825267704   T   T   T
  0.3333330000000032  0.3333330000000032  0.2171964846811830   T   T   T
  0.5545780337742989  0.4439550168872091  0.0757163298247342   T   T   T
  0.6665535774386055  0.3335441291957504  0.9971323568882491   T   T   T
  0.7785118092554394  0.5559229046277019  0.1497484937991776   T   T   T
  0.8887637391114065  0.4441934782227689  0.3031640483158731   T   T   T
  0.7764827255927268  0.5549083627961960  0.3800270004025376   T   T   T
  0.6659932810047341  0.3351611694495485  0.2300088814579777   T   T   T
  0.8884309966241437  0.4435279932483359  0.0760190999331882   T   T   T
  0.0000000000000000  0.6666669999999968  0.9976542430896226   T   T   T
  0.1107440953723019  0.8881551907446197  0.1497484937991776   T   T   T
  0.2224725217770890  0.7779032608885903  0.3031640483158731   T   T   T
  0.1117586372038079  0.8901842744077647  0.3800270004025376   T   T   T
  0.0000000000000000  0.6666669999999968  0.2292491040400691   T   T   T
  0.2231380067518242  0.7782360033758531  0.0760190999331882   T   T   T
  0.3331218708042746  0.6663424482427797  0.9971323568882491   T   T   T
  0.4441050603402241  0.8887195301700984  0.1510647210161775   T   T   T
  0.5551737999588897  0.7770135999177665  0.3037691741057338   T   T   T
  0.4442770701827900  0.8888055350913845  0.3817346946638322   T   T   T
  0.3315048305502493  0.6641651115553329  0.2300088814579777   T   T   T
  0.5570343790163238  0.7807347580326652  0.0754574129596827   T   T   T
  0.6665535774385412  0.6663424482427841  0.9971323568882491   T   T   T
  0.7779474698298706  0.8887195301700859  0.1510647210161775   T   T   T
  0.8887637391115043  0.7779032608886335  0.3031640483158731   T   T   T
  0.7778614649085909  0.8888055350913753  0.3817346946638322   T   T   T
  0.6659932810050057  0.6641651115553718  0.2300088814579777   T   T   T
  0.8884309966240321  0.7782360033758039  0.0760190999331882   T   T   T
  0.3333330000000032  0.3333330000000032  0.3506493904777834   T   T   T
  0.0005418212706458  0.0005962151803279  0.3424249776759581   T   T   T
  0.2235177812897995  0.1137025625793049  0.1885129522748443   T   T   T
  0.1106840147459994  0.2220085073730124  0.0360900231893856   T   T   T
  0.3333873939095447  0.0005962151803886  0.3424249776759581   T   T   T
  0.5555546683203072  0.1111123316795224  0.1898267481222012   T   T   T
  0.4446574926270090  0.2220085073730222  0.0360900231893856   T   T   T
  0.6666669999999968  0.0000000000000000  0.3429235332720119   T   T   T
  0.8888916633592694  0.1111123316795760  0.1898267481222012   T   T   T
  0.7774406473123873  0.2215472946248161  0.0361638411471378   T   T   T
  0.0005418212703289  0.3332786060904577  0.3424249776759581   T   T   T
  0.2235177812904543  0.4431482187104907  0.1885129522748443   T   T   T
  0.1111150044841304  0.5555519955161006  0.0368515557336697   T   T   T
  0.5529644374197533  0.4431482187101999  0.1885129522748443   T   T   T
  0.4446574926269868  0.5559829852539725  0.0360900231893856   T   T   T
  0.6660707848202633  0.3332786060906591  0.3424249776759581   T   T   T
  0.8889353863043931  0.4445367726087205  0.1895530696808193   T   T   T
  0.7777699910318965  0.5555519955160310  0.0368515557336697   T   T   T
  0.0000000000000000  0.6666669999999968  0.3412427538474771   T   T   T
  0.2221292273910676  0.7777316136956037  0.1895530696808193   T   T   T
  0.1111150044839730  0.8888970089678732  0.0368515557336697   T   T   T
  0.3333873939090911  0.6661251787290128  0.3424249776759581   T   T   T
  0.5555546683204278  0.7777753366409017  0.1898267481222012   T   T   T
  0.4451187053752984  0.8892263526876095  0.0361638411471378   T   T   T
  0.6660707848201263  0.6661251787291534  0.3424249776759581   T   T   T
  0.8889353863045389  0.7777316136956687  0.1895530696808193   T   T   T
  0.7774406473123074  0.8892263526875741  0.0361638411471378   T   T   T
 
  0.00000000E+00  0.00000000E+00  0.00000000E+00
  0.00000000E+00  0.00000000E+00  0.00000000E+00
  0.00000000E+00  0.00000000E+00  0.00000000E+00
  0.00000000E+00  0.00000000E+00  0.00000000E+00
  0.00000000E+00  0.00000000E+00  0.00000000E+00
  0.00000000E+00  0.00000000E+00  0.00000000E+00
  0.00000000E+00  0.00000000E+00  0.00000000E+00
  0.00000000E+00  0.00000000E+00  0.00000000E+00
  0.00000000E+00  0.00000000E+00  0.00000000E+00
  0.00000000E+00  0.00000000E+00  0.00000000E+00
  0.00000000E+00  0.00000000E+00  0.00000000E+00
  0.00000000E+00  0.00000000E+00  0.00000000E+00
  0.00000000E+00  0.00000000E+00  0.00000000E+00
  0.00000000E+00  0.00000000E+00  0.00000000E+00
  0.00000000E+00  0.00000000E+00  0.00000000E+00
  0.00000000E+00  0.00000000E+00  0.00000000E+00
  0.00000000E+00  0.00000000E+00  0.00000000E+00
  0.00000000E+00  0.00000000E+00  0.00000000E+00
  0.00000000E+00  0.00000000E+00  0.00000000E+00
  0.00000000E+00  0.00000000E+00  0.00000000E+00
  0.00000000E+00  0.00000000E+00  0.00000000E+00
  0.00000000E+00  0.00000000E+00  0.00000000E+00
  0.00000000E+00  0.00000000E+00  0.00000000E+00
  0.00000000E+00  0.00000000E+00  0.00000000E+00
  0.00000000E+00  0.00000000E+00  0.00000000E+00
  0.00000000E+00  0.00000000E+00  0.00000000E+00
  0.00000000E+00  0.00000000E+00  0.00000000E+00
  0.00000000E+00  0.00000000E+00  0.00000000E+00
  0.00000000E+00  0.00000000E+00  0.00000000E+00
  0.00000000E+00  0.00000000E+00  0.00000000E+00
  0.00000000E+00  0.00000000E+00  0.00000000E+00
  0.00000000E+00  0.00000000E+00  0.00000000E+00
  0.00000000E+00  0.00000000E+00  0.00000000E+00
  0.00000000E+00  0.00000000E+00  0.00000000E+00
  0.00000000E+00  0.00000000E+00  0.00000000E+00
  0.00000000E+00  0.00000000E+00  0.00000000E+00
  0.00000000E+00  0.00000000E+00  0.00000000E+00
  0.00000000E+00  0.00000000E+00  0.00000000E+00
  0.00000000E+00  0.00000000E+00  0.00000000E+00
  0.00000000E+00  0.00000000E+00  0.00000000E+00
  0.00000000E+00  0.00000000E+00  0.00000000E+00
  0.00000000E+00  0.00000000E+00  0.00000000E+00
  0.00000000E+00  0.00000000E+00  0.00000000E+00
  0.00000000E+00  0.00000000E+00  0.00000000E+00
  0.00000000E+00  0.00000000E+00  0.00000000E+00
  0.00000000E+00  0.00000000E+00  0.00000000E+00
  0.00000000E+00  0.00000000E+00  0.00000000E+00
  0.00000000E+00  0.00000000E+00  0.00000000E+00
  0.00000000E+00  0.00000000E+00  0.00000000E+00
  0.00000000E+00  0.00000000E+00  0.00000000E+00
  0.00000000E+00  0.00000000E+00  0.00000000E+00
  0.00000000E+00  0.00000000E+00  0.00000000E+00
  0.00000000E+00  0.00000000E+00  0.00000000E+00
  0.00000000E+00  0.00000000E+00  0.00000000E+00
  0.00000000E+00  0.00000000E+00  0.00000000E+00
  0.00000000E+00  0.00000000E+00  0.00000000E+00
  0.00000000E+00  0.00000000E+00  0.00000000E+00
  0.00000000E+00  0.00000000E+00  0.00000000E+00
  0.00000000E+00  0.00000000E+00  0.00000000E+00
  0.00000000E+00  0.00000000E+00  0.00000000E+00
  0.00000000E+00  0.00000000E+00  0.00000000E+00
  0.00000000E+00  0.00000000E+00  0.00000000E+00
  0.00000000E+00  0.00000000E+00  0.00000000E+00
  0.00000000E+00  0.00000000E+00  0.00000000E+00
  0.00000000E+00  0.00000000E+00  0.00000000E+00
  0.00000000E+00  0.00000000E+00  0.00000000E+00
  0.00000000E+00  0.00000000E+00  0.00000000E+00
  0.00000000E+00  0.00000000E+00  0.00000000E+00
  0.00000000E+00  0.00000000E+00  0.00000000E+00
  0.00000000E+00  0.00000000E+00  0.00000000E+00
  0.00000000E+00  0.00000000E+00  0.00000000E+00
  0.00000000E+00  0.00000000E+00  0.00000000E+00
  0.00000000E+00  0.00000000E+00  0.00000000E+00
  0.00000000E+00  0.00000000E+00  0.00000000E+00
  0.00000000E+00  0.00000000E+00  0.00000000E+00
  0.00000000E+00  0.00000000E+00  0.00000000E+00
  0.00000000E+00  0.00000000E+00  0.00000000E+00
  0.00000000E+00  0.00000000E+00  0.00000000E+00
  0.00000000E+00  0.00000000E+00  0.00000000E+00
  0.00000000E+00  0.00000000E+00  0.00000000E+00
  0.00000000E+00  0.00000000E+00  0.00000000E+00
