CeO2-you-111-you-Nb                     
   1.00000000000000     
     9.8785384935704208   -5.6895714531972557   -0.0163022250235876
     0.0119561460113382   11.3998495547891121    0.0163022222147260
    -0.0180484713549104    0.0312608674732001   20.8988297668117013
   O    Nb   Ce   H 
    53     1    26     1
Selective dynamics
Direct
 -0.0001444429727340 -0.0001343622539765  0.9941155705140874   T   T   T
  0.1098845909506663  0.2135648770305327  0.1465142165303107   T   T   T
  0.2428406741489901  0.1165226442750418  0.3034024302670902   T   T   T
  0.1580671103095701  0.2532097432771118  0.3698893422715557   T   T   T
  0.0070962555180070  0.0003837487760880  0.2305718769083873   T   T   T
  0.2243743354179459  0.1099296344077746  0.0723588696559982   T   T   T
  0.3354746647338854  0.0009598313497063  0.9931208381150796   T   T   T
  0.4393266593339298  0.2274193091738759  0.1533968662179794   T   T   T
  0.5472485063298320  0.1089808575935797  0.3056161066478243   T   T   T
  0.4228809856157302  0.2375642642491955  0.3986207558856580   T   T   T
  0.3331737019912489  0.9955572829996728  0.2260782352681563   T   T   T
  0.5541768912023742  0.1128863857098515  0.0768237164013907   T   T   T
  0.6656312435632079  0.0002725640949176  0.9952034079731429   T   T   T
  0.7813572848494221  0.2205445198663011  0.1506015362532963   T   T   T
  0.8924654717985682  0.1019276489713718  0.3063477092456339   T   T   T
  0.7735655156140229  0.2051899945308665  0.3894780279639439   T   T   T
  0.6665411760839867 -0.0005734078067205  0.2318949158124904   T   T   T
  0.8879455138652229  0.1091612041433567  0.0741443381070222   T   T   T
  0.9968175244531590  0.3313424282244753  0.9938203745087087   T   T   T
  0.1062154768399302  0.5604994597435200  0.1450121401620017   T   T   T
  0.1077410201260590  0.5604958964182329  0.3865054644045303   T   T   T
  0.0041380387480846  0.3347135220496978  0.2332232646731237   T   T   T
  0.2224556972089891  0.4449275935421584  0.0684924549644964   T   T   T
  0.3349868655124331  0.3324428531999251  0.9933573091865693   T   T   T
  0.4542918533616365  0.5567652250200773  0.1479203365565054   T   T   T
  0.5444322379721354  0.4301501800403928  0.3052952717912139   T   T   T
  0.3934777661653768  0.4997302729362999  0.3715856518376446   T   T   T
  0.3173828062325558  0.3425648273061981  0.2456686657888221   T   T   T
  0.5575747982176092  0.4424974338960703  0.0732192861349228   T   T   T
  0.6658898045636475  0.3316766107236158  0.9929569352942673   T   T   T
  0.7773464648227291  0.5556941448310221  0.1494131975386138   T   T   T
  0.8887635654916248  0.4505249459790636  0.3047353264622876   T   T   T
  0.7807267676279349  0.5697024579822666  0.3876286765622484   T   T   T
  0.6683327841331618  0.3320115846088625  0.2267343159438708   T   T   T
  0.8857138833991609  0.4425651196420876  0.0731546267308226   T   T   T
  0.9998650685130634  0.6663333837350079  0.9928810820454804   T   T   T
  0.1112971271627924  0.8892301084367760  0.1475794564253169   T   T   T
  0.2195676792027345  0.7820190670684162  0.3040870787697165   T   T   T
  0.1129831458107809  0.8945782197711855  0.3848456358965401   T   T   T
  0.0013484938743225  0.6680953204424804  0.2284722249051944   T   T   T
  0.2235912538215583  0.7798522927658749  0.0723015661752573   T   T   T
  0.3360142672393512  0.6698323692296417  0.9937523115703354   T   T   T
  0.4459730850000073  0.8851091504303842  0.1500390047125068   T   T   T
  0.5645247706835894  0.7752983990650198  0.3094838796267534   T   T   T
  0.4493833755913048  0.8977179951860664  0.3882969959987181   T   T   T
  0.3326204189222670  0.6632700957762639  0.2334154023822119   T   T   T
  0.5574937014962567  0.7781628617636075  0.0747220259931014   T   T   T
  0.6665861291815853  0.6673153406298798  0.9940094214188911   T   T   T
  0.7787714071361136  0.8884849021235141  0.1521270763285533   T   T   T
  0.8918697500235667  0.7799045452061754  0.3032713586157358   T   T   T
  0.7872411643527659  0.8861878836593282  0.3867518926246436   T   T   T
  0.6688178290161675  0.6630534598747133  0.2315168474426737   T   T   T
  0.8887719456199041  0.7771163464623535  0.0733746084919597   T   T   T
  0.3383138626355511  0.3285374688974581  0.3359821743775305   T   T   T
  0.0049831072542327  0.9979132869964388  0.3423333763104890   T   T   T
  0.2212874797580908  0.1076054842381146  0.1880792223444394   T   T   T
  0.1102022828000977  0.2202525658410769  0.0327473472728159   T   T   T
  0.3321202818794501  0.9920192313171022  0.3416911985335248   T   T   T
  0.5566661973301665  0.1108082343476579  0.1905989021934018   T   T   T
  0.4447713709672371  0.2226589576992392  0.0332614597203918   T   T   T
  0.6704838661381167 -0.0014395212099016  0.3466430425299399   T   T   T
  0.8919197440071094  0.1123229617849247  0.1911601184334015   T   T   T
  0.7775349452034799  0.2219448570057732  0.0348818044144251   T   T   T
  0.9920583180906652  0.3306077017075429  0.3500085003395198   T   T   T
  0.2202251869262954  0.4466290869196307  0.1811593792538142   T   T   T
  0.1099187613156937  0.5561991716728756  0.0317782115440022   T   T   T
  0.5595170025879391  0.4455559863240037  0.1903895038851372   T   T   T
  0.4469796142151451  0.5565503136569994  0.0332196258956665   T   T   T
  0.6721075970305938  0.3350257667292101  0.3477710969124279   T   T   T
  0.8899931362499027  0.4436190432101090  0.1904435568456868   T   T   T
  0.7770090648459177  0.5538391085679190  0.0336524027292685   T   T   T
  0.0010882811957365  0.6653840065063126  0.3447410263578788   T   T   T
  0.2227368319565100  0.7754398402078649  0.1882804875909099   T   T   T
  0.1124712239299084  0.8893936938861740  0.0327601441517416   T   T   T
  0.3347695072363849  0.6757323986414456  0.3503648956654725   T   T   T
  0.5547914392495172  0.7750756255604050  0.1916330366267526   T   T   T
  0.4450349348765196  0.8889295831510294  0.0345205306359667   T   T   T
  0.6762594850006743  0.6684489393847823  0.3431954582027115   T   T   T
  0.8909372580166269  0.7766687515264433  0.1877773579100869   T   T   T
  0.7773625376095656  0.8890012765386085  0.0353982250171341   T   T   T
  0.4079185758146237  0.2436191407315891  0.4440319863022804   T   T   T
 
  0.00000000E+00  0.00000000E+00  0.00000000E+00
  0.00000000E+00  0.00000000E+00  0.00000000E+00
  0.00000000E+00  0.00000000E+00  0.00000000E+00
  0.00000000E+00  0.00000000E+00  0.00000000E+00
  0.00000000E+00  0.00000000E+00  0.00000000E+00
  0.00000000E+00  0.00000000E+00  0.00000000E+00
  0.00000000E+00  0.00000000E+00  0.00000000E+00
  0.00000000E+00  0.00000000E+00  0.00000000E+00
  0.00000000E+00  0.00000000E+00  0.00000000E+00
  0.00000000E+00  0.00000000E+00  0.00000000E+00
  0.00000000E+00  0.00000000E+00  0.00000000E+00
  0.00000000E+00  0.00000000E+00  0.00000000E+00
  0.00000000E+00  0.00000000E+00  0.00000000E+00
  0.00000000E+00  0.00000000E+00  0.00000000E+00
  0.00000000E+00  0.00000000E+00  0.00000000E+00
  0.00000000E+00  0.00000000E+00  0.00000000E+00
  0.00000000E+00  0.00000000E+00  0.00000000E+00
  0.00000000E+00  0.00000000E+00  0.00000000E+00
  0.00000000E+00  0.00000000E+00  0.00000000E+00
  0.00000000E+00  0.00000000E+00  0.00000000E+00
  0.00000000E+00  0.00000000E+00  0.00000000E+00
  0.00000000E+00  0.00000000E+00  0.00000000E+00
  0.00000000E+00  0.00000000E+00  0.00000000E+00
  0.00000000E+00  0.00000000E+00  0.00000000E+00
  0.00000000E+00  0.00000000E+00  0.00000000E+00
  0.00000000E+00  0.00000000E+00  0.00000000E+00
  0.00000000E+00  0.00000000E+00  0.00000000E+00
  0.00000000E+00  0.00000000E+00  0.00000000E+00
  0.00000000E+00  0.00000000E+00  0.00000000E+00
  0.00000000E+00  0.00000000E+00  0.00000000E+00
  0.00000000E+00  0.00000000E+00  0.00000000E+00
  0.00000000E+00  0.00000000E+00  0.00000000E+00
  0.00000000E+00  0.00000000E+00  0.00000000E+00
  0.00000000E+00  0.00000000E+00  0.00000000E+00
  0.00000000E+00  0.00000000E+00  0.00000000E+00
  0.00000000E+00  0.00000000E+00  0.00000000E+00
  0.00000000E+00  0.00000000E+00  0.00000000E+00
  0.00000000E+00  0.00000000E+00  0.00000000E+00
  0.00000000E+00  0.00000000E+00  0.00000000E+00
  0.00000000E+00  0.00000000E+00  0.00000000E+00
  0.00000000E+00  0.00000000E+00  0.00000000E+00
  0.00000000E+00  0.00000000E+00  0.00000000E+00
  0.00000000E+00  0.00000000E+00  0.00000000E+00
  0.00000000E+00  0.00000000E+00  0.00000000E+00
  0.00000000E+00  0.00000000E+00  0.00000000E+00
  0.00000000E+00  0.00000000E+00  0.00000000E+00
  0.00000000E+00  0.00000000E+00  0.00000000E+00
  0.00000000E+00  0.00000000E+00  0.00000000E+00
  0.00000000E+00  0.00000000E+00  0.00000000E+00
  0.00000000E+00  0.00000000E+00  0.00000000E+00
  0.00000000E+00  0.00000000E+00  0.00000000E+00
  0.00000000E+00  0.00000000E+00  0.00000000E+00
  0.00000000E+00  0.00000000E+00  0.00000000E+00
  0.00000000E+00  0.00000000E+00  0.00000000E+00
  0.00000000E+00  0.00000000E+00  0.00000000E+00
  0.00000000E+00  0.00000000E+00  0.00000000E+00
  0.00000000E+00  0.00000000E+00  0.00000000E+00
  0.00000000E+00  0.00000000E+00  0.00000000E+00
  0.00000000E+00  0.00000000E+00  0.00000000E+00
  0.00000000E+00  0.00000000E+00  0.00000000E+00
  0.00000000E+00  0.00000000E+00  0.00000000E+00
  0.00000000E+00  0.00000000E+00  0.00000000E+00
  0.00000000E+00  0.00000000E+00  0.00000000E+00
  0.00000000E+00  0.00000000E+00  0.00000000E+00
  0.00000000E+00  0.00000000E+00  0.00000000E+00
  0.00000000E+00  0.00000000E+00  0.00000000E+00
  0.00000000E+00  0.00000000E+00  0.00000000E+00
  0.00000000E+00  0.00000000E+00  0.00000000E+00
  0.00000000E+00  0.00000000E+00  0.00000000E+00
  0.00000000E+00  0.00000000E+00  0.00000000E+00
  0.00000000E+00  0.00000000E+00  0.00000000E+00
  0.00000000E+00  0.00000000E+00  0.00000000E+00
  0.00000000E+00  0.00000000E+00  0.00000000E+00
  0.00000000E+00  0.00000000E+00  0.00000000E+00
  0.00000000E+00  0.00000000E+00  0.00000000E+00
  0.00000000E+00  0.00000000E+00  0.00000000E+00
  0.00000000E+00  0.00000000E+00  0.00000000E+00
  0.00000000E+00  0.00000000E+00  0.00000000E+00
  0.00000000E+00  0.00000000E+00  0.00000000E+00
  0.00000000E+00  0.00000000E+00  0.00000000E+00
  0.00000000E+00  0.00000000E+00  0.00000000E+00
