CeO2-you-111-you-Cr                     
   1.00000000000000     
     9.8407395898070504   -5.6815540223244039    0.0000000000000000
     0.0000000007887307   11.3631060463492783    0.0000000000000000
     0.0000000000000000    0.0000000000000000   20.3225591016438401
   O    Cr   Ce   H 
    54     1    26     2
Selective dynamics
Direct
 -0.0000182987703349  0.0000226710262742  0.9874545546495286   T   T   T
  0.1069389245211578  0.2190504774714945  0.1454476702005957   T   T   T
  0.2463673533047037  0.1491561573703832  0.3159064322041349   T   T   T
  0.0523068184878782  0.1910814677902060  0.4036982314762073   T   T   T
  0.0092841330546969  0.0036574624820692  0.2332596113327902   T   T   T
  0.2218135763016118  0.1100622633144411  0.0700561338112588   T   T   T
  0.3339295520414390  0.0000884813558553  0.9877081969522173   T   T   T
  0.4468358815181085  0.2190363809805491  0.1461912462026322   T   T   T
  0.5538087298225804  0.1129754551615881  0.3076455106108728   T   T   T
  0.4706102430428983  0.1974841544288408  0.4135775483141919   T   T   T
  0.3281756424309838  0.0005732466253490  0.2333305176850675   T   T   T
  0.5572856206134787  0.1091572785886599  0.0706351468504059   T   T   T
  0.6664643702937432 -0.0001479590718929  0.9866586945054395   T   T   T
  0.7794652539402348  0.2252853237909991  0.1494547885023119   T   T   T
  0.8843716852126212  0.1088325439289463  0.3037996977584437   T   T   T
  0.7760500914812422  0.2212628643161680  0.3899284775347888   T   T   T
  0.6653369829018728  0.0025521141979495  0.2290603805889380   T   T   T
  0.8863481862068312  0.1097381469064470  0.0697321913321349   T   T   T
  0.0004032812366474  0.3334836258759443  0.9875429041439427   T   T   T
  0.1101978864052546  0.5566857814617300  0.1474134952050103   T   T   T
  0.2421578057337884  0.4226873139576660  0.3162884350976272   T   T   T
  0.1139553605785920  0.5522539778152876  0.3882668697853734   T   T   T
  0.0094854338959623  0.3382145018298058  0.2323796141451537   T   T   T
  0.2221724310127562  0.4444845090789939  0.0702237763329922   T   T   T
  0.3334061640055132  0.3328976791500031  0.9880265532857581   T   T   T
  0.4477473524033477  0.5603249185685635  0.1457857432113693   T   T   T
  0.5177644574296918  0.4206360918233085  0.3153196066866238   T   T   T
  0.4744526336157047  0.6124536705590853  0.4029028147379466   T   T   T
  0.3336833795820354  0.3329236807797816  0.2193798828370482   T   T   T
  0.5560401975948864  0.4439617858377984  0.0702259946989477   T   T   T
  0.6655756568377367  0.3318547322022275  0.9877518429882558   T   T   T
  0.7802518198877733  0.5569754717763942  0.1476177751758321   T   T   T
  0.8898496975049277  0.4428504352271968  0.3085671442405825   T   T   T
  0.7731103983926869  0.5502119883790341  0.3876308764296263   T   T   T
  0.6658061572356682  0.3382664658451811  0.2324821367548370   T   T   T
  0.8885331434140469  0.4438760652234868  0.0698069721451989   T   T   T
  0.0000265728110929  0.6667243332478602  0.9878089113580485   T   T   T
  0.1100327517469763  0.8860269880008013  0.1480518211918631   T   T   T
  0.2228929802082381  0.7762857989065167  0.3086245256227515   T   T   T
  0.1165752142812240  0.8934811735189261  0.3879665612644364   T   T   T
 -0.0002036828467092  0.6662382122107176  0.2322160778421199   T   T   T
  0.2229981851862310  0.7780160980538616  0.0701939420074568   T   T   T
  0.3341965684364263  0.6661771783658123  0.9880609304693747   T   T   T
  0.4417193881765842  0.8864172111724898  0.1498485517432435   T   T   T
  0.5581008625472573  0.7829757489718397  0.3038848351754627   T   T   T
  0.4445530553190804  0.8898747345668363  0.3901124926553848   T   T   T
  0.3282785317976402  0.6568063247215650  0.2333350677995638   T   T   T
  0.5582343763151562  0.7808369937906443  0.0701781975878366   T   T   T
  0.6665897414280529  0.6662756738204335  0.9877001164029340   T   T   T
  0.7799037019035394  0.8885931617057629  0.1504869057762424   T   T   T
  0.8887288169579657  0.7787665458618962  0.3102577967072596   T   T   T
  0.7754070471343276  0.8908199690726324  0.3906374583575157   T   T   T
  0.6634297669175117  0.6580223128232515  0.2333385843960445   T   T   T
  0.8889748020943508  0.7787636586673558  0.0702096110148396   T   T   T
  0.3346237015643866  0.3320200038704168  0.3254328447766975   T   T   T
  0.9968792344999307  0.0037497411930654  0.3532401609650900   T   T   T
  0.2222822243479059  0.1107242845174446  0.1869603271088145   T   T   T
  0.1102785908639686  0.2215821612769682  0.0281843672682900   T   T   T
  0.3334114668381821 -0.0043164508403260  0.3510672899866778   T   T   T
  0.5551513723068212  0.1114037554951695  0.1898123379400909   T   T   T
  0.4448727486604193  0.2210655034035472  0.0283006016688806   T   T   T
  0.6662196303107669  0.0003911407312944  0.3484606518698359   T   T   T
  0.8900493735880377  0.1120577993547461  0.1895898639037132   T   T   T
  0.7775738231297029  0.2217319273370069  0.0287935419097037   T   T   T
  0.0000430025735609  0.3266474275011745  0.3530603379211572   T   T   T
  0.2229014649262587  0.4437375214922622  0.1868998243392576   T   T   T
  0.1109202298394192  0.5557724860026219  0.0291471542832231   T   T   T
  0.5557456799317320  0.4442651208882035  0.1868913949890622   T   T   T
  0.4452197813519079  0.5562440412663072  0.0284782322062786   T   T   T
  0.6708055220174491  0.3330927307132007  0.3507209051391265   T   T   T
  0.8898266711487116  0.4443296001867073  0.1903492884250406   T   T   T
  0.7786140213386832  0.5560372549579433  0.0293430070708889   T   T   T
  0.0008634284058684  0.6654063592499619  0.3483241217667475   T   T   T
  0.2222173923628938  0.7765414729183382  0.1907203597230195   T   T   T
  0.1106272513059571  0.8879015970478493  0.0293592524930075   T   T   T
  0.3393137384942693  0.6661377872318180  0.3530727245079356   T   T   T
  0.5553718354486054  0.7771863490444849  0.1898077025800824   T   T   T
  0.4450746706085318  0.8888184299543836  0.0291146318760279   T   T   T
  0.6628631421377528  0.6697610547500035  0.3529701157554335   T   T   T
  0.8890479130499734  0.7781218175960288  0.1917440446726256   T   T   T
  0.7780671988022595  0.8891114206394781  0.0289015194342599   T   T   T
  0.3393611156852684  0.3277599912498904  0.4045212543730941   T   T   T
  0.4212980908730501  0.2460573274350051  0.4248552852595747   T   T   T
 
  0.00000000E+00  0.00000000E+00  0.00000000E+00
  0.00000000E+00  0.00000000E+00  0.00000000E+00
  0.00000000E+00  0.00000000E+00  0.00000000E+00
  0.00000000E+00  0.00000000E+00  0.00000000E+00
  0.00000000E+00  0.00000000E+00  0.00000000E+00
  0.00000000E+00  0.00000000E+00  0.00000000E+00
  0.00000000E+00  0.00000000E+00  0.00000000E+00
  0.00000000E+00  0.00000000E+00  0.00000000E+00
  0.00000000E+00  0.00000000E+00  0.00000000E+00
  0.00000000E+00  0.00000000E+00  0.00000000E+00
  0.00000000E+00  0.00000000E+00  0.00000000E+00
  0.00000000E+00  0.00000000E+00  0.00000000E+00
  0.00000000E+00  0.00000000E+00  0.00000000E+00
  0.00000000E+00  0.00000000E+00  0.00000000E+00
  0.00000000E+00  0.00000000E+00  0.00000000E+00
  0.00000000E+00  0.00000000E+00  0.00000000E+00
  0.00000000E+00  0.00000000E+00  0.00000000E+00
  0.00000000E+00  0.00000000E+00  0.00000000E+00
  0.00000000E+00  0.00000000E+00  0.00000000E+00
  0.00000000E+00  0.00000000E+00  0.00000000E+00
  0.00000000E+00  0.00000000E+00  0.00000000E+00
  0.00000000E+00  0.00000000E+00  0.00000000E+00
  0.00000000E+00  0.00000000E+00  0.00000000E+00
  0.00000000E+00  0.00000000E+00  0.00000000E+00
  0.00000000E+00  0.00000000E+00  0.00000000E+00
  0.00000000E+00  0.00000000E+00  0.00000000E+00
  0.00000000E+00  0.00000000E+00  0.00000000E+00
  0.00000000E+00  0.00000000E+00  0.00000000E+00
  0.00000000E+00  0.00000000E+00  0.00000000E+00
  0.00000000E+00  0.00000000E+00  0.00000000E+00
  0.00000000E+00  0.00000000E+00  0.00000000E+00
  0.00000000E+00  0.00000000E+00  0.00000000E+00
  0.00000000E+00  0.00000000E+00  0.00000000E+00
  0.00000000E+00  0.00000000E+00  0.00000000E+00
  0.00000000E+00  0.00000000E+00  0.00000000E+00
  0.00000000E+00  0.00000000E+00  0.00000000E+00
  0.00000000E+00  0.00000000E+00  0.00000000E+00
  0.00000000E+00  0.00000000E+00  0.00000000E+00
  0.00000000E+00  0.00000000E+00  0.00000000E+00
  0.00000000E+00  0.00000000E+00  0.00000000E+00
  0.00000000E+00  0.00000000E+00  0.00000000E+00
  0.00000000E+00  0.00000000E+00  0.00000000E+00
  0.00000000E+00  0.00000000E+00  0.00000000E+00
  0.00000000E+00  0.00000000E+00  0.00000000E+00
  0.00000000E+00  0.00000000E+00  0.00000000E+00
  0.00000000E+00  0.00000000E+00  0.00000000E+00
  0.00000000E+00  0.00000000E+00  0.00000000E+00
  0.00000000E+00  0.00000000E+00  0.00000000E+00
  0.00000000E+00  0.00000000E+00  0.00000000E+00
  0.00000000E+00  0.00000000E+00  0.00000000E+00
  0.00000000E+00  0.00000000E+00  0.00000000E+00
  0.00000000E+00  0.00000000E+00  0.00000000E+00
  0.00000000E+00  0.00000000E+00  0.00000000E+00
  0.00000000E+00  0.00000000E+00  0.00000000E+00
  0.00000000E+00  0.00000000E+00  0.00000000E+00
  0.00000000E+00  0.00000000E+00  0.00000000E+00
  0.00000000E+00  0.00000000E+00  0.00000000E+00
  0.00000000E+00  0.00000000E+00  0.00000000E+00
  0.00000000E+00  0.00000000E+00  0.00000000E+00
  0.00000000E+00  0.00000000E+00  0.00000000E+00
  0.00000000E+00  0.00000000E+00  0.00000000E+00
  0.00000000E+00  0.00000000E+00  0.00000000E+00
  0.00000000E+00  0.00000000E+00  0.00000000E+00
  0.00000000E+00  0.00000000E+00  0.00000000E+00
  0.00000000E+00  0.00000000E+00  0.00000000E+00
  0.00000000E+00  0.00000000E+00  0.00000000E+00
  0.00000000E+00  0.00000000E+00  0.00000000E+00
  0.00000000E+00  0.00000000E+00  0.00000000E+00
  0.00000000E+00  0.00000000E+00  0.00000000E+00
  0.00000000E+00  0.00000000E+00  0.00000000E+00
  0.00000000E+00  0.00000000E+00  0.00000000E+00
  0.00000000E+00  0.00000000E+00  0.00000000E+00
  0.00000000E+00  0.00000000E+00  0.00000000E+00
  0.00000000E+00  0.00000000E+00  0.00000000E+00
  0.00000000E+00  0.00000000E+00  0.00000000E+00
  0.00000000E+00  0.00000000E+00  0.00000000E+00
  0.00000000E+00  0.00000000E+00  0.00000000E+00
  0.00000000E+00  0.00000000E+00  0.00000000E+00
  0.00000000E+00  0.00000000E+00  0.00000000E+00
  0.00000000E+00  0.00000000E+00  0.00000000E+00
  0.00000000E+00  0.00000000E+00  0.00000000E+00
  0.00000000E+00  0.00000000E+00  0.00000000E+00
  0.00000000E+00  0.00000000E+00  0.00000000E+00
