CeO2-you-111-you-Pd                     
   1.00000000000000     
     9.8190258224034288   -5.6690175720206017    0.0000000005384357
     0.0100070328233557   11.3553658369564161    0.0100923443991119
     0.0104990367008895    0.0181848618904444   21.2674952597521951
   O    Pd   Ce   H 
    53     1    26     2
Selective dynamics
Direct
  0.0000905653385018  0.0003643749013621  0.9972074181402570   T   T   T
  0.1041137531406093  0.2198073727628937  0.1487779992194334   F   F   F
  0.2347241280859495  0.1216212542967251  0.3042997138766735   T   T   T
  0.1139860785343658  0.2238254058963684  0.3838972197739396   T   T   T
  0.0029646756220560  0.0003305781870433  0.2288886811171821   T   T   T
  0.2226002569651868  0.1118675139302425  0.0754768365050253   F   F   F
  0.3337528498757127  0.0004634480149520  0.9968495787344108   T   T   T
  0.4490266196219395  0.2198073727625740  0.1487779992194334   F   F   F
  0.5499581440327636  0.1066711073246771  0.3044099708118827   T   T   T
  0.4509559517487255  0.1845711375547660  0.4104819523347990   T   T   T
  0.3308095552804137  0.9972871262626096  0.2277071520857786   T   T   T
  0.5586514261966968  0.1104302489820412  0.0758942665665359   F   F   F
  0.6669379397039925 -0.0000452537315213  0.9955101204199677   T   T   T
  0.7785326677049369  0.2237313354100650  0.1546497335940344   F   F   F
  0.8923953634199162  0.1106572078836874  0.3028097419295545   T   T   T
  0.7847474004894823  0.2126267180091481  0.3842204466020794   T   T   T
  0.6637388554549931  0.9927168314720944  0.2328507225992176   T   T   T
  0.8851128227854019  0.1104302489822757  0.0758942665665217   F   F   F
  0.0006069465681243  0.3333644959778996  0.9968541450536961   T   T   T
  0.1094494548160654  0.5540657773330935  0.1500102099061849   F   F   F
  0.2328308405284618  0.4498118864566126  0.3047258707389537   T   T   T
  0.1138860333506447  0.5578334458627441  0.3835083965386615   T   T   T
  0.0044692849461163  0.3349655880620205  0.2310611010411653   T   T   T
  0.2232474921545773  0.4443630785836703  0.0764188544182360   F   F   F
  0.3334274878137705  0.3335072345631409  0.9966818517254463   T   T   T
  0.4478042136282667  0.5622764272564709  0.1493915530195054   F   F   F
  0.5222884335439542  0.4455336470719506  0.3240061615634539   T   T   T
  0.3336011005672455  0.3324787323043379  0.2172914203572794   T   T   T
  0.5544495864286461  0.4443630785832582  0.0764188544182360   F   F   F
  0.6661898568647918  0.3339790165468095  0.9969052561666031   T   T   T
  0.7779493225168679  0.5540657773327240  0.1500102099062275   F   F   F
  0.8938003801515438  0.4469204525740777  0.3049366473976890   T   T   T
  0.7878678130648000  0.5711414820158495  0.3848444428672701   T   T   T
  0.6612551317640829  0.3388903119776328  0.2324638091613979   T   T   T
  0.8877184504849254  0.4421029009700490  0.0765962986596449   F   F   F
 -0.0000301293776617  0.6664055882457809  0.9973205171633173   T   T   T
  0.1104097701317741  0.8874865402629766  0.1486868312115135   F   F   F
  0.2200875774952519  0.7763892108928723  0.3016950713835540   T   T   T
  0.1138121594157149  0.8907077856412736  0.3815935929017507   T   T   T
 -0.0000430397515623  0.6678507495393655  0.2286405708554645   T   T   T
  0.2230445250095414  0.7777941056402682  0.0756033288509599   F   F   F
  0.3327068690355745  0.6660109263642316  0.9967106448610239   T   T   T
  0.4468944978851042  0.8883091885321193  0.1495983710145481   F   F   F
  0.5474724754166542  0.7590590268103061  0.3112596221969847   T   T   T
  0.4393956026663297  0.8819564314382712  0.3816848975130639   T   T   T
  0.3332881832741466  0.6686934603134582  0.2289075461365311   T   T   T
  0.5560151610658508  0.7786963221318217  0.0748129463054710   F   F   F
  0.6667927418611479  0.6662850127619054  0.9964834851920814   T   T   T
  0.7747476906472883  0.8883091885324248  0.1495983710145268   F   F   F
  0.8931196659535466  0.7810531225460527  0.3015117810070604   T   T   T
  0.7818279543936707  0.8904664444377114  0.3815063276266535   T   T   T
  0.6675744986740939  0.6627414721422754  0.2304592530392011   T   T   T
  0.8880825806309431  0.7777941056402327  0.0756033288509812   F   F   F
  0.3161837945799379  0.3325621630945109  0.3530631637006216   T   T   T
  0.0097208431562805  0.0072525738642026  0.3415551690212328   T   T   T
  0.2218973941989617  0.1104617883986023  0.1886196848474455   F   F   F
  0.1106866702825826  0.2224623609382164  0.0367841324773082   F   F   F
  0.3311314214842050 -0.0025397938448173  0.3417478523233802   T   T   T
  0.5549493374633556  0.1104610982305587  0.1907064865732622   F   F   F
  0.4451086906556014  0.2224623609385716  0.0367841324773437   F   F   F
  0.6681511422738589 -0.0007160264026145  0.3448194918786365   T   T   T
  0.8888457607656335  0.1104610982286971  0.1907064865732977   F   F   F
  0.7778276912611375  0.2223213825220967  0.0367456990352863   F   F   F
  0.0014517836184999  0.3321963629131671  0.3431552251477930   T   T   T
  0.2250762023019064  0.4428115175347571  0.1892145272416599   F   F   F
  0.1107857011303821  0.5550300628056348  0.0371281241288415   F   F   F
  0.5510693152348978  0.4428115175361569  0.1892145272418375   F   F   F
  0.4446570401912950  0.5559820803822930  0.0357719418161153   F   F   F
  0.6636209581563135  0.3330765667500867  0.3493577827679243   T   T   T
  0.8892869483394819  0.4452398966784727  0.1920867129652137   F   F   F
  0.7775773616756112  0.5550300628061180  0.0371281241288557   F   F   F
 -0.0001765200734168  0.6663251108453505  0.3426587746604081   T   T   T
  0.2219510665600808  0.7777212273730143  0.1876390184172223   F   F   F
  0.1113347370108642  0.8893364740218885  0.0359384244419232   F   F   F
  0.3240620747637639  0.6687248904498702  0.3393375911836599   T   T   T
  0.5554685017895409  0.7776030035785837  0.1894689813456552   F   F   F
  0.4458190422982682  0.8894074661010407  0.0359813153770574   F   F   F
  0.6806795885338914  0.6711024318834045  0.3406933626264599   T   T   T
  0.8891031608116222  0.7777212273724459  0.1876390184171797   F   F   F
  0.7769214238028326  0.8894074661011118  0.0359813153770361   F   F   F
  0.3588264537982715  0.4403923702413733  0.4052363468487393   T   T   T
  0.4113833065483649  0.2017095370539995  0.4474204772381634   T   T   T
 
  0.00000000E+00  0.00000000E+00  0.00000000E+00
  0.00000000E+00  0.00000000E+00  0.00000000E+00
  0.00000000E+00  0.00000000E+00  0.00000000E+00
  0.00000000E+00  0.00000000E+00  0.00000000E+00
  0.00000000E+00  0.00000000E+00  0.00000000E+00
  0.00000000E+00  0.00000000E+00  0.00000000E+00
  0.00000000E+00  0.00000000E+00  0.00000000E+00
  0.00000000E+00  0.00000000E+00  0.00000000E+00
  0.00000000E+00  0.00000000E+00  0.00000000E+00
  0.00000000E+00  0.00000000E+00  0.00000000E+00
  0.00000000E+00  0.00000000E+00  0.00000000E+00
  0.00000000E+00  0.00000000E+00  0.00000000E+00
  0.00000000E+00  0.00000000E+00  0.00000000E+00
  0.00000000E+00  0.00000000E+00  0.00000000E+00
  0.00000000E+00  0.00000000E+00  0.00000000E+00
  0.00000000E+00  0.00000000E+00  0.00000000E+00
  0.00000000E+00  0.00000000E+00  0.00000000E+00
  0.00000000E+00  0.00000000E+00  0.00000000E+00
  0.00000000E+00  0.00000000E+00  0.00000000E+00
  0.00000000E+00  0.00000000E+00  0.00000000E+00
  0.00000000E+00  0.00000000E+00  0.00000000E+00
  0.00000000E+00  0.00000000E+00  0.00000000E+00
  0.00000000E+00  0.00000000E+00  0.00000000E+00
  0.00000000E+00  0.00000000E+00  0.00000000E+00
  0.00000000E+00  0.00000000E+00  0.00000000E+00
  0.00000000E+00  0.00000000E+00  0.00000000E+00
  0.00000000E+00  0.00000000E+00  0.00000000E+00
  0.00000000E+00  0.00000000E+00  0.00000000E+00
  0.00000000E+00  0.00000000E+00  0.00000000E+00
  0.00000000E+00  0.00000000E+00  0.00000000E+00
  0.00000000E+00  0.00000000E+00  0.00000000E+00
  0.00000000E+00  0.00000000E+00  0.00000000E+00
  0.00000000E+00  0.00000000E+00  0.00000000E+00
  0.00000000E+00  0.00000000E+00  0.00000000E+00
  0.00000000E+00  0.00000000E+00  0.00000000E+00
  0.00000000E+00  0.00000000E+00  0.00000000E+00
  0.00000000E+00  0.00000000E+00  0.00000000E+00
  0.00000000E+00  0.00000000E+00  0.00000000E+00
  0.00000000E+00  0.00000000E+00  0.00000000E+00
  0.00000000E+00  0.00000000E+00  0.00000000E+00
  0.00000000E+00  0.00000000E+00  0.00000000E+00
  0.00000000E+00  0.00000000E+00  0.00000000E+00
  0.00000000E+00  0.00000000E+00  0.00000000E+00
  0.00000000E+00  0.00000000E+00  0.00000000E+00
  0.00000000E+00  0.00000000E+00  0.00000000E+00
  0.00000000E+00  0.00000000E+00  0.00000000E+00
  0.00000000E+00  0.00000000E+00  0.00000000E+00
  0.00000000E+00  0.00000000E+00  0.00000000E+00
  0.00000000E+00  0.00000000E+00  0.00000000E+00
  0.00000000E+00  0.00000000E+00  0.00000000E+00
  0.00000000E+00  0.00000000E+00  0.00000000E+00
  0.00000000E+00  0.00000000E+00  0.00000000E+00
  0.00000000E+00  0.00000000E+00  0.00000000E+00
  0.00000000E+00  0.00000000E+00  0.00000000E+00
  0.00000000E+00  0.00000000E+00  0.00000000E+00
  0.00000000E+00  0.00000000E+00  0.00000000E+00
  0.00000000E+00  0.00000000E+00  0.00000000E+00
  0.00000000E+00  0.00000000E+00  0.00000000E+00
  0.00000000E+00  0.00000000E+00  0.00000000E+00
  0.00000000E+00  0.00000000E+00  0.00000000E+00
  0.00000000E+00  0.00000000E+00  0.00000000E+00
  0.00000000E+00  0.00000000E+00  0.00000000E+00
  0.00000000E+00  0.00000000E+00  0.00000000E+00
  0.00000000E+00  0.00000000E+00  0.00000000E+00
  0.00000000E+00  0.00000000E+00  0.00000000E+00
  0.00000000E+00  0.00000000E+00  0.00000000E+00
  0.00000000E+00  0.00000000E+00  0.00000000E+00
  0.00000000E+00  0.00000000E+00  0.00000000E+00
  0.00000000E+00  0.00000000E+00  0.00000000E+00
  0.00000000E+00  0.00000000E+00  0.00000000E+00
  0.00000000E+00  0.00000000E+00  0.00000000E+00
  0.00000000E+00  0.00000000E+00  0.00000000E+00
  0.00000000E+00  0.00000000E+00  0.00000000E+00
  0.00000000E+00  0.00000000E+00  0.00000000E+00
  0.00000000E+00  0.00000000E+00  0.00000000E+00
  0.00000000E+00  0.00000000E+00  0.00000000E+00
  0.00000000E+00  0.00000000E+00  0.00000000E+00
  0.00000000E+00  0.00000000E+00  0.00000000E+00
  0.00000000E+00  0.00000000E+00  0.00000000E+00
  0.00000000E+00  0.00000000E+00  0.00000000E+00
  0.00000000E+00  0.00000000E+00  0.00000000E+00
  0.00000000E+00  0.00000000E+00  0.00000000E+00
