CeO2-you-111-you-V                      
   1.00000000000000     
     9.8584634594416496   -5.7224825479709525    0.0377904399137240
    -0.0000000012051932   11.4449630797986188   -0.0000000044097182
     0.0825018270130831   -0.0000000084047274   20.9168348555509453
   O    V    Ce H
    53     1    26 2
Selective dynamics
Direct
 -0.0001641313396138  0.0013015812132828  0.9961800172054862   T   T   T
  0.1218495806032586  0.2275912903014193  0.1532114666870607   F   F   F
  0.2077350193192855  0.0907570603469469  0.2984555260506254   T   T   T
  0.1683230547806227  0.2508280273907478  0.3764056874967154   T   T   T
 -0.0073240446430428 -0.0034699176723537  0.2261117831874389   T   T   T
  0.2212682534015853  0.1096404956864433  0.0743102756124682   F   F   F
  0.3344160586880411  0.0004448717549989  0.9953427864709130   T   T   T
  0.4408338736226679  0.2238579263979560  0.1496688619024174   F   F   F
  0.5535816844311517  0.1089649928631289  0.3058776651236210   T   T   T
  0.4269757527365499  0.2634811628083171  0.3646140299042033   T   T   T
  0.3342481103600825 -0.0023354569834448  0.2274045941247000   T   T   T
  0.5535691367354013  0.1115754093690409  0.0754250368092819   F   F   F
  0.6694617678780567  0.0013973839392396  0.9972733318566825   T   T   T
  0.7717617679379103  0.2233812568498881  0.1512530258319112   F   F   F
  0.9022257266108273  0.1177793633056346  0.3065034112554516   T   T   T
  0.7846758999055862  0.2175879622833951  0.3872613566095908   T   T   T
  0.6697487912403247  0.0015408956207970  0.2312904609482975   T   T   T
  0.8905771025481964  0.1119550512742269  0.0783335845847275   F   F   F
 -0.0001641313393567  0.3318672874468339  0.9961800172054258   T   T   T
  0.1101426048317080  0.5549918579163681  0.1499397615891072   F   F   F
  0.2077350193240547  0.4503109589677717  0.2984555260529503   T   T   T
  0.1044733791315360  0.5533984134980575  0.3873731268788401   T   T   T
 -0.0073240446415278  0.3294788730253930  0.2261117831871513   T   T   T
  0.2212682534011457  0.4449607577138716  0.0743102756124265   F   F   F
  0.3325966701286316  0.3329648350636910  0.9955750176024956   T   T   T
  0.4408338736202605  0.5503099472266461  0.1496688619020433   F   F   F
  0.4269757527410100  0.4968285899333644  0.3646140299026402   T   T   T
  0.3499939603522010  0.3416634801727921  0.2484908660230246   T   T   T
  0.5559231736385246  0.4446275868198449  0.0725871573982686   F   F   F
  0.6687042908664150  0.3329596029104928  0.9953521305277755   T   T   T
  0.7774418223046031  0.5553879111514333  0.1464183024740305   F   F   F
  0.8938843635464165  0.4438104062542457  0.3033272891409399   T   T   T
  0.7837323905125984  0.5585331952619217  0.3852413287599158   T   T   T
  0.6586787220533533  0.3441379385407100  0.2335011317890443   T   T   T
  0.8899619660675774  0.4446043085533143  0.0744011728842398   F   F   F
  0.0019465650843471  0.6676402825422563  0.9950130839645052   T   T   T
  0.1101426048301936  0.8884847469129112  0.1499397615888366   F   F   F
  0.2186667589590641  0.7760003794789945  0.3037026376976710   T   T   T
  0.1044733791297972  0.8844089656304467  0.3873731268789805   T   T   T
 -0.0035221902227388  0.6649059048868909  0.2284015896444440   T   T   T
  0.2233228696846127  0.7783284348420050  0.0750675039360682   F   F   F
  0.3344160586879167  0.6673051869331956  0.9953427864709535   T   T   T
  0.4485762388417575  0.8909551194213619  0.1507427421789432   F   F   F
  0.5535816844249734  0.7779496915682932  0.3058776651233238   T   T   T
  0.4460740356410703  0.8897040178206257  0.3864127550250886   T   T   T
  0.3342481103606592  0.6699175673449160  0.2274045941248752   T   T   T
  0.5535691367351206  0.7753267273667110  0.0754250368091296   F   F   F
  0.6687042908670541  0.6690776879575782  0.9953521305281633   T   T   T
  0.7717617679368558  0.8817135110864007  0.1512530258315884   F   F   F
  0.8938843635431648  0.7834069572820924  0.3033272891407663   T   T   T
  0.7846758998986765  0.9004209376170503  0.3872613566102605   T   T   T
  0.6586787220586192  0.6478737835226028  0.2335011317896144   T   T   T
  0.8899619660675294  0.7786906575140934  0.0744011728844296   F   F   F
  0.3282152465102988  0.3307741232693834  0.3380912576756365   T   T   T
  0.0025625989017142 -0.0033477368058125  0.3424547814781576   T   T   T
  0.2194181404731924  0.1065964209468266  0.1910931793992126   F   F   F
  0.1121690498685314  0.2227510249343682  0.0363038337351044   F   F   F
  0.3268069298228920 -0.0064300259441905  0.3429122835420168   T   T   T
  0.5545764260859759  0.1119857196042376  0.1925132615259696   F   F   F
  0.4439977863981652  0.2207645200515148  0.0343736998387525   F   F   F
  0.6658117957180567 -0.0004276021382749  0.3461774812955037   T   T   T
  0.8880796248339301  0.1107063124189920  0.1911255968054138   F   F   F
  0.7781402701374686  0.2229028523944207  0.0365055431982885   F   F   F
  0.0025625988970822  0.3392433357047977  0.3424547814785484   T   T   T
  0.2194181404735538  0.4461547195219212  0.1910931793993098   F   F   F
  0.1119455002727226  0.5553721102537876  0.0350417218805716   F   F   F
  0.5554994335602008  0.4444157167761087  0.1832956956478209   F   F   F
  0.4439977863979233  0.5565672663467373  0.0343736998384583   F   F   F
  0.6751450923220802  0.3311406445374528  0.3506186059919205   T   T   T
  0.8861911514500541  0.4449486438300906  0.1901074009063876   F   F   F
  0.7803031987159726  0.5568185993573125  0.0331394802307081   F   F   F
 -0.0027069808746737  0.6653135095697613  0.3458171004501686   T   T   T
  0.2214202854552268  0.7773771427288655  0.1887552652456798   F   F   F
  0.1119455002720948  0.8899073900201296  0.0350417218806684   F   F   F
  0.3268069298275912  0.6665709557600161  0.3429122835428460   T   T   T
  0.5545764260919271  0.7759237064802943  0.1925132615259649   F   F   F
  0.4463008205825754  0.8898174102910272  0.0367072625715925   F   F   F
  0.6751450923265750  0.6773374477815334  0.3506186059910600   T   T   T
  0.8861911514551135  0.7745755076297770  0.1901074009063695   F   F   F
  0.7781402701390383  0.8885704177440834  0.0365055431984262   F   F   F
0.3282152465102988 0.3307741232693834 0.438091 T T T
0.446598 0.216020 0.433410 T T T 
 
  0.00000000E+00  0.00000000E+00  0.00000000E+00
  0.00000000E+00  0.00000000E+00  0.00000000E+00
  0.00000000E+00  0.00000000E+00  0.00000000E+00
  0.00000000E+00  0.00000000E+00  0.00000000E+00
  0.00000000E+00  0.00000000E+00  0.00000000E+00
  0.00000000E+00  0.00000000E+00  0.00000000E+00
  0.00000000E+00  0.00000000E+00  0.00000000E+00
  0.00000000E+00  0.00000000E+00  0.00000000E+00
  0.00000000E+00  0.00000000E+00  0.00000000E+00
  0.00000000E+00  0.00000000E+00  0.00000000E+00
  0.00000000E+00  0.00000000E+00  0.00000000E+00
  0.00000000E+00  0.00000000E+00  0.00000000E+00
  0.00000000E+00  0.00000000E+00  0.00000000E+00
  0.00000000E+00  0.00000000E+00  0.00000000E+00
  0.00000000E+00  0.00000000E+00  0.00000000E+00
  0.00000000E+00  0.00000000E+00  0.00000000E+00
  0.00000000E+00  0.00000000E+00  0.00000000E+00
  0.00000000E+00  0.00000000E+00  0.00000000E+00
  0.00000000E+00  0.00000000E+00  0.00000000E+00
  0.00000000E+00  0.00000000E+00  0.00000000E+00
  0.00000000E+00  0.00000000E+00  0.00000000E+00
  0.00000000E+00  0.00000000E+00  0.00000000E+00
  0.00000000E+00  0.00000000E+00  0.00000000E+00
  0.00000000E+00  0.00000000E+00  0.00000000E+00
  0.00000000E+00  0.00000000E+00  0.00000000E+00
  0.00000000E+00  0.00000000E+00  0.00000000E+00
  0.00000000E+00  0.00000000E+00  0.00000000E+00
  0.00000000E+00  0.00000000E+00  0.00000000E+00
  0.00000000E+00  0.00000000E+00  0.00000000E+00
  0.00000000E+00  0.00000000E+00  0.00000000E+00
  0.00000000E+00  0.00000000E+00  0.00000000E+00
  0.00000000E+00  0.00000000E+00  0.00000000E+00
  0.00000000E+00  0.00000000E+00  0.00000000E+00
  0.00000000E+00  0.00000000E+00  0.00000000E+00
  0.00000000E+00  0.00000000E+00  0.00000000E+00
  0.00000000E+00  0.00000000E+00  0.00000000E+00
  0.00000000E+00  0.00000000E+00  0.00000000E+00
  0.00000000E+00  0.00000000E+00  0.00000000E+00
  0.00000000E+00  0.00000000E+00  0.00000000E+00
  0.00000000E+00  0.00000000E+00  0.00000000E+00
  0.00000000E+00  0.00000000E+00  0.00000000E+00
  0.00000000E+00  0.00000000E+00  0.00000000E+00
  0.00000000E+00  0.00000000E+00  0.00000000E+00
  0.00000000E+00  0.00000000E+00  0.00000000E+00
  0.00000000E+00  0.00000000E+00  0.00000000E+00
  0.00000000E+00  0.00000000E+00  0.00000000E+00
  0.00000000E+00  0.00000000E+00  0.00000000E+00
  0.00000000E+00  0.00000000E+00  0.00000000E+00
  0.00000000E+00  0.00000000E+00  0.00000000E+00
  0.00000000E+00  0.00000000E+00  0.00000000E+00
  0.00000000E+00  0.00000000E+00  0.00000000E+00
  0.00000000E+00  0.00000000E+00  0.00000000E+00
  0.00000000E+00  0.00000000E+00  0.00000000E+00
  0.00000000E+00  0.00000000E+00  0.00000000E+00
  0.00000000E+00  0.00000000E+00  0.00000000E+00
  0.00000000E+00  0.00000000E+00  0.00000000E+00
  0.00000000E+00  0.00000000E+00  0.00000000E+00
  0.00000000E+00  0.00000000E+00  0.00000000E+00
  0.00000000E+00  0.00000000E+00  0.00000000E+00
  0.00000000E+00  0.00000000E+00  0.00000000E+00
  0.00000000E+00  0.00000000E+00  0.00000000E+00
  0.00000000E+00  0.00000000E+00  0.00000000E+00
  0.00000000E+00  0.00000000E+00  0.00000000E+00
  0.00000000E+00  0.00000000E+00  0.00000000E+00
  0.00000000E+00  0.00000000E+00  0.00000000E+00
  0.00000000E+00  0.00000000E+00  0.00000000E+00
  0.00000000E+00  0.00000000E+00  0.00000000E+00
  0.00000000E+00  0.00000000E+00  0.00000000E+00
  0.00000000E+00  0.00000000E+00  0.00000000E+00
  0.00000000E+00  0.00000000E+00  0.00000000E+00
  0.00000000E+00  0.00000000E+00  0.00000000E+00
  0.00000000E+00  0.00000000E+00  0.00000000E+00
  0.00000000E+00  0.00000000E+00  0.00000000E+00
  0.00000000E+00  0.00000000E+00  0.00000000E+00
  0.00000000E+00  0.00000000E+00  0.00000000E+00
  0.00000000E+00  0.00000000E+00  0.00000000E+00
  0.00000000E+00  0.00000000E+00  0.00000000E+00
  0.00000000E+00  0.00000000E+00  0.00000000E+00
  0.00000000E+00  0.00000000E+00  0.00000000E+00
  0.00000000E+00  0.00000000E+00  0.00000000E+00
