CeO2-you-111-you-Cd                     
   1.00000000000000     
     9.8357034854278265   -5.6881016909493534    0.0061944160380808
     0.0000000010299278   11.3762013816842167   -0.0000000007226126
     0.0128798806111637   -0.0000000012878579   21.1702882241084396
   O    Cd   Ce H
    53     1    26 1
Selective dynamics
Direct
 -0.0007387582754636  0.0008283205562367  0.9976063271072322   T   T   T
  0.1142990818640876  0.2238160409317582  0.1513985569245338   T   T   T
  0.2179121374126002  0.1034089997367943  0.3021700599101842   T   T   T
  0.0977854171242647  0.2155592085624510  0.3858830312570493   T   T   T
 -0.0014556565152072  0.0002173180328751  0.2286736685080475   T   T   T
  0.2223784295825009  0.1107647017386958  0.0757375080496076   T   T   T
  0.3325621551033069 -0.0005001965632873  0.9961399499714797   T   T   T
  0.4459540781624336  0.2202057996233473  0.1470105110612479   T   T   T
  0.5591153948801144  0.1081415960665153  0.3026504869960313   T   T   T
  0.4571252177896223  0.2340316142969670  0.3744175853906239   T   T   T
  0.3359888291622833  0.0013707273470591  0.2290888942993973   T   T   T
  0.5557407409141016  0.1096091559699825  0.0746483766922808   T   T   T
  0.6698864686288192  0.0016097343144470  0.9962597918232451   T   T   T
  0.7747656490974042  0.2264770519235222  0.1520916436141691   T   T   T
  0.8875972442596232  0.1104651221293928  0.3035286875564580   T   T   T
  0.7774551886522653  0.2198497466851602  0.3854686146891481   T   T   T
  0.6677430670492307  0.0005380335246259  0.2271969135050098   T   T   T
  0.8875219940396246  0.1104274970197666  0.0785916047172046   T   T   T
 -0.0007387582754364  0.3317659211681293  0.9976063271072280   T   T   T
  0.1106721922689961  0.5559551059973047  0.1513354158539877   T   T   T
  0.2179121374108029  0.4478361376750710  0.3021700599104467   T   T   T
  0.1127526182172741  0.5603205044083638  0.3832749196064152   T   T   T
 -0.0014556565141104  0.3316600254516117  0.2286736685080606   T   T   T
  0.2223784295823945  0.4449467278438234  0.0757375080496277   T   T   T
  0.3309866903868108  0.3321598451934082  0.9959254213675696   T   T   T
  0.4459540781606782  0.5590822785398022  0.1470105110611634   T   T   T
  0.4571252177900609  0.5564276034930277  0.3744175853906291   T   T   T
  0.3474685783254889  0.3404007891629652  0.2284823509923053   T   T   T
  0.5546857017417360  0.4440088508711512  0.0724277412097321   T   T   T
  0.6680497943932342  0.3329178731944902  0.9961441820706523   T   T   T
  0.7780761851303227  0.5557050925644801  0.1479702859550304   T   T   T
  0.8910451457283270  0.4423608298554860  0.3043130767021330   T   T   T
  0.7605188930852746  0.5469264465433987  0.3745367316332838   T   T   T
  0.6572062080390064  0.3426843282668863  0.2354028011878467   T   T   T
  0.8895355119580817  0.4448513040042430  0.0758718377276334   T   T   T
  0.0005747904368329  0.6669543952182518  0.9965317196955299   T   T   T
  0.1106721922685703  0.8880510862706412  0.1513354158539685   T   T   T
  0.2210962976524350  0.7772151488258621  0.3017471894157859   T   T   T
  0.1127526182164683  0.8857661138076028  0.3832749196063613   T   T   T
 -0.0026461345620587  0.6653439327184154  0.2300532173056873   T   T   T
  0.2226820832502524  0.7780080416250676  0.0757031558823570   T   T   T
  0.3325621551032109  0.6663963516665659  0.9961399499714587   T   T   T
  0.4446285942404568  0.8889812971203916  0.1499829171651166   T   T   T
  0.5591153948783626  0.7843067988138805  0.3026504869959309   T   T   T
  0.4423275396726504  0.8878307698365134  0.3816539800374443   T   T   T
  0.3359888291622390  0.6679521018155770  0.2290888942994014   T   T   T
  0.5557407409140592  0.7794645849443116  0.0746483766922487   T   T   T
  0.6680497943933383  0.6684649211989115  0.9961441820706149   T   T   T
  0.7747656490968616  0.8816215971736551  0.1520916436142181   T   T   T
  0.8910451457270888  0.7820173158699374  0.3043130767020789   T   T   T
  0.7774551886509997  0.8909384419655563  0.3854686146888949   T   T   T
  0.6572062080411623  0.6478548797745829  0.2354028011875560   T   T   T
  0.8895355119578500  0.7780172079535649  0.0758718377275952   T   T   T
  0.3231282019920291  0.3282306009958704  0.3506599069115476   T   T   T
  0.0043976185410471  0.0048435624817010  0.3439286963409478   T   T   T
  0.2240953445631694  0.1135528648968894  0.1918707516644562   T   T   T
  0.1113667149744807  0.2223498574871894  0.0375235564572435   T   T   T
  0.3328358319371989  0.0013988406656477  0.3415645217016923   T   T   T
  0.5551575192555782  0.1112926187836696  0.1897761569568789   T   T   T
  0.4433507075312391  0.2202331086991465  0.0342194803417880   T   T   T
  0.6669192213094678  0.0001261106552468  0.3436149855293591   T   T   T
  0.8889459566310709  0.1111394783163372  0.1907156238627273   T   T   T
  0.7780652944364196  0.2224701321304562  0.0366317457003855   T   T   T
  0.0043976185392900  0.3328870560617328  0.3439286963407265   T   T   T
  0.2240953445632328  0.4438754796654040  0.1918707516644128   T   T   T
  0.1108701837015675  0.5548944118492883  0.0373213877093131   T   T   T
  0.5525863222372280  0.4429591611164577  0.1816837149320415   T   T   T
  0.4433507075311851  0.5564515988317428  0.0342194803418185   T   T   T
  0.6703999597026772  0.3249047549167401  0.3458451664024874   T   T   T
  0.8881402714263211  0.4448953255962143  0.1910888469118103   T   T   T
  0.7798682747678198  0.5566011373838662  0.0347756779738317   T   T   T
  0.0016552051576890  0.6674946025812707  0.3423742486016220   T   T   T
  0.2225488218380099  0.7779414109195765  0.1892106056537588   T   T   T
  0.1108701837014151  0.8893097718526881  0.0373213877093117   T   T   T
  0.3328358319373310  0.6647709912697420  0.3415645217013984   T   T   T
  0.5551575192581995  0.7771979004713153  0.1897761569569070   T   T   T
  0.4454375734375138  0.8893857867185743  0.0359071572993035   T   T   T
  0.6703999597017914  0.6788282047829997  0.3458451664032092   T   T   T
  0.8881402714288495  0.7765779458348324  0.1910888469117937   T   T   T
  0.7780652944368427  0.8889281623061621  0.0366317457003950   T   T   T
0.446598 0.216020 0.433410 T T T 
 
  0.00000000E+00  0.00000000E+00  0.00000000E+00
  0.00000000E+00  0.00000000E+00  0.00000000E+00
  0.00000000E+00  0.00000000E+00  0.00000000E+00
  0.00000000E+00  0.00000000E+00  0.00000000E+00
  0.00000000E+00  0.00000000E+00  0.00000000E+00
  0.00000000E+00  0.00000000E+00  0.00000000E+00
  0.00000000E+00  0.00000000E+00  0.00000000E+00
  0.00000000E+00  0.00000000E+00  0.00000000E+00
  0.00000000E+00  0.00000000E+00  0.00000000E+00
  0.00000000E+00  0.00000000E+00  0.00000000E+00
  0.00000000E+00  0.00000000E+00  0.00000000E+00
  0.00000000E+00  0.00000000E+00  0.00000000E+00
  0.00000000E+00  0.00000000E+00  0.00000000E+00
  0.00000000E+00  0.00000000E+00  0.00000000E+00
  0.00000000E+00  0.00000000E+00  0.00000000E+00
  0.00000000E+00  0.00000000E+00  0.00000000E+00
  0.00000000E+00  0.00000000E+00  0.00000000E+00
  0.00000000E+00  0.00000000E+00  0.00000000E+00
  0.00000000E+00  0.00000000E+00  0.00000000E+00
  0.00000000E+00  0.00000000E+00  0.00000000E+00
  0.00000000E+00  0.00000000E+00  0.00000000E+00
  0.00000000E+00  0.00000000E+00  0.00000000E+00
  0.00000000E+00  0.00000000E+00  0.00000000E+00
  0.00000000E+00  0.00000000E+00  0.00000000E+00
  0.00000000E+00  0.00000000E+00  0.00000000E+00
  0.00000000E+00  0.00000000E+00  0.00000000E+00
  0.00000000E+00  0.00000000E+00  0.00000000E+00
  0.00000000E+00  0.00000000E+00  0.00000000E+00
  0.00000000E+00  0.00000000E+00  0.00000000E+00
  0.00000000E+00  0.00000000E+00  0.00000000E+00
  0.00000000E+00  0.00000000E+00  0.00000000E+00
  0.00000000E+00  0.00000000E+00  0.00000000E+00
  0.00000000E+00  0.00000000E+00  0.00000000E+00
  0.00000000E+00  0.00000000E+00  0.00000000E+00
  0.00000000E+00  0.00000000E+00  0.00000000E+00
  0.00000000E+00  0.00000000E+00  0.00000000E+00
  0.00000000E+00  0.00000000E+00  0.00000000E+00
  0.00000000E+00  0.00000000E+00  0.00000000E+00
  0.00000000E+00  0.00000000E+00  0.00000000E+00
  0.00000000E+00  0.00000000E+00  0.00000000E+00
  0.00000000E+00  0.00000000E+00  0.00000000E+00
  0.00000000E+00  0.00000000E+00  0.00000000E+00
  0.00000000E+00  0.00000000E+00  0.00000000E+00
  0.00000000E+00  0.00000000E+00  0.00000000E+00
  0.00000000E+00  0.00000000E+00  0.00000000E+00
  0.00000000E+00  0.00000000E+00  0.00000000E+00
  0.00000000E+00  0.00000000E+00  0.00000000E+00
  0.00000000E+00  0.00000000E+00  0.00000000E+00
  0.00000000E+00  0.00000000E+00  0.00000000E+00
  0.00000000E+00  0.00000000E+00  0.00000000E+00
  0.00000000E+00  0.00000000E+00  0.00000000E+00
  0.00000000E+00  0.00000000E+00  0.00000000E+00
  0.00000000E+00  0.00000000E+00  0.00000000E+00
  0.00000000E+00  0.00000000E+00  0.00000000E+00
  0.00000000E+00  0.00000000E+00  0.00000000E+00
  0.00000000E+00  0.00000000E+00  0.00000000E+00
  0.00000000E+00  0.00000000E+00  0.00000000E+00
  0.00000000E+00  0.00000000E+00  0.00000000E+00
  0.00000000E+00  0.00000000E+00  0.00000000E+00
  0.00000000E+00  0.00000000E+00  0.00000000E+00
  0.00000000E+00  0.00000000E+00  0.00000000E+00
  0.00000000E+00  0.00000000E+00  0.00000000E+00
  0.00000000E+00  0.00000000E+00  0.00000000E+00
  0.00000000E+00  0.00000000E+00  0.00000000E+00
  0.00000000E+00  0.00000000E+00  0.00000000E+00
  0.00000000E+00  0.00000000E+00  0.00000000E+00
  0.00000000E+00  0.00000000E+00  0.00000000E+00
  0.00000000E+00  0.00000000E+00  0.00000000E+00
  0.00000000E+00  0.00000000E+00  0.00000000E+00
  0.00000000E+00  0.00000000E+00  0.00000000E+00
  0.00000000E+00  0.00000000E+00  0.00000000E+00
  0.00000000E+00  0.00000000E+00  0.00000000E+00
  0.00000000E+00  0.00000000E+00  0.00000000E+00
  0.00000000E+00  0.00000000E+00  0.00000000E+00
  0.00000000E+00  0.00000000E+00  0.00000000E+00
  0.00000000E+00  0.00000000E+00  0.00000000E+00
  0.00000000E+00  0.00000000E+00  0.00000000E+00
  0.00000000E+00  0.00000000E+00  0.00000000E+00
  0.00000000E+00  0.00000000E+00  0.00000000E+00
  0.00000000E+00  0.00000000E+00  0.00000000E+00
