CeO2-you-111-you-In                     
   1.00000000000000     
     9.8579053797287255   -5.6827748858264071    0.0018723913405497
    -0.0000000015072789   11.3655477689673603   -0.0000000002124968
     0.0042311696269989   -0.0000000004254832   21.1360586249102802
   O    In   Ce   H 
    53     1    26     2
Selective dynamics
Direct
  0.9992283686670874  0.0008886593462270  0.9969053718092895   T   T   T
  0.1182404758420148  0.2257867379208776  0.1518522390588330   F   F   F
  0.2243219110536102  0.1111879537892586  0.3044816198854515   T   T   T
  0.1055317393760521  0.2181366339473151  0.3862647890493158   T   T   T
  0.0015291961493762  0.0020918657886551  0.2283225593115705   T   T   T
  0.2216088821963851  0.1101232746102454  0.0750707213159600   F   F   F
  0.3335909898076008  0.0001696279287616  0.9958865654024128   T   T   T
  0.4437930204821825  0.2207681595519873  0.1476445152453607   F   F   F
  0.5480058174832230  0.1052695087034407  0.3067586584809780   T   T   T
  0.4376643322767767  0.2406088834135920  0.3900337989199466   T   T   T
  0.3323692037965030 -0.0005067748935155  0.2293376708356242   T   T   T
  0.5552690111535981  0.1101927043642092  0.0751998501807805   F   F   F
  0.6692772619084481  0.0012553619250838  0.9968064945345690   T   T   T
  0.7737273070319688  0.2249273168338490  0.1519207639176869   F   F   F
  0.8899843077519204  0.1105052173268578  0.3030199756132120   T   T   T
  0.7832727333619521  0.2158713347953289  0.3870809425409635   T   T   T
  0.6667837657289156  0.0017571011923635  0.2292246528195932   T   T   T
  0.8892465803033289  0.1112897901516163  0.0786937905388072   F   F   F
  0.9988356308957215  0.3310436145875235  0.9967659397156958   T   T   T
  0.1112249103671630  0.5559555443003248  0.1508879946191186   F   F   F
  0.2129189620709682  0.4410821576271102  0.3008459466005158   T   T   T
  0.1154747565146231  0.5560559787645405  0.3844924440696214   T   T   T
  0.9976021115953082  0.3304082935820755  0.2269269214778105   T   T   T
  0.2216088821962714  0.4448186075859937  0.0750707213159458   F   F   F
  0.3315679054102261  0.3324093524365996  0.9958822667420819   T   T   T
  0.4437930204807117  0.5563588609308781  0.1476445152454033   F   F   F
  0.4382298261907457  0.5330516774349886  0.3739770028955484   T   T   T
  0.3531608784546771  0.3423285438768844  0.2360646007713593   T   T   T
  0.5556317345940442  0.4444818672971564  0.0729013329582671   F   F   F
  0.6680537807967872  0.3326047782140564  0.9959606753357180   T   T   T
  0.7786053204941439  0.5559696602465110  0.1478237041109409   F   F   F
  0.8973007856612479  0.4442617794253015  0.3033902116195930   T   T   T
  0.7881627467847395  0.5593716967194666  0.3839497021199469   T   T   T
  0.6578867761267357  0.3412786724673332  0.2342425181957884   T   T   T
  0.8898752514548889  0.4445338479699998  0.0755501542721930   F   F   F
  0.0001035106323593  0.6671388319255401  0.9960316260753604   T   T   T
  0.1112249103668503  0.8886033660661852  0.1508879946191328   F   F   F
  0.2225123350231050  0.7750977532560613  0.3026463795338864   T   T   T
  0.1163780632132698  0.8878714302918800  0.3846268081024826   T   T   T
  0.9987028115008321  0.6659902349043142  0.2291992279928097   T   T   T
  0.2226044296020788  0.7779692148009545  0.0755737849196692   F   F   F
  0.3333052673972908  0.6670973721682322  0.9960138952525990   T   T   T
  0.4448145694960814  0.8890742847482329  0.1508314664137274   F   F   F
  0.5533750953304919  0.7824626408719130  0.3045024652398793   T   T   T
  0.4390037934038716  0.8840729078335628  0.3853529234662650   T   T   T
  0.3344619640127177  0.6654593218741475  0.2291600131799107   T   T   T
  0.5552690111533494  0.7784093067895625  0.0751998501808089   F   F   F
  0.6677534501095739  0.6685795027160625  0.9958914069177802   T   T   T
  0.7737273070316704  0.8821329901977819  0.1519207639175946   F   F   F
  0.8984070483180524  0.7859484734950444  0.3036085397206088   T   T   T
  0.7842546947721055  0.9017008077605357  0.3871134409356032   T   T   T
  0.6588832277257713  0.6497353728312009  0.2335440638367862   T   T   T
  0.8898752514547112  0.7786744034845157  0.0755501542722286   F   F   F
  0.3088368453640647  0.3249831881665271  0.3421062279361292   T   T   T
  0.0014421031967396  0.0010875237228951  0.3439540595950503   T   T   T
  0.2232836645767264  0.1121041599849946  0.1910927959771698   F   F   F
  0.1113136170598708  0.2223233085299512  0.0367939821771373   F   F   F
  0.3279242583780713 -0.0106433292191341  0.3423162966153526   T   T   T
  0.5550923058914847  0.1118493606793223  0.1909456897560560   F   F   F
  0.4434796839855508  0.2203333433342749  0.0343948145693957   F   F   F
  0.6661735307711657 -0.0011503732770628  0.3447567038749052   T   T   T
  0.8886359364080363  0.1109844682046202  0.1908009137931472   F   F   F
  0.7778812995853528  0.2223249224105928  0.0368300905397518   F   F   F
  0.0005845222793379  0.3316131674381644  0.3442024376406497   T   T   T
  0.2232836645774654  0.4445125045906906  0.1910927959771769   F   F   F
  0.1108112415265481  0.5548408247893732  0.0367106380657063   F   F   F
  0.5547962721409050  0.4440641360691089  0.1824178822392923   F   F   F
  0.4434796839857924  0.5564803406512553  0.0343948145693673   F   F   F
  0.6791097829411903  0.3318549130432750  0.3497746684393495   T   T   T
  0.8881953407719507  0.4447104980724674  0.1910220363407262   F   F   F
  0.7796949374752131  0.5565144687375323  0.0345939896055043   F   F   F
  0.0002757151804847  0.6652809645527950  0.3439835871138905   T   T   T
  0.2223719053216229  0.7778529526612132  0.1893508419287002   F   F   F
  0.1108112415262710  0.8893044167375237  0.0367106380657276   F   F   F
  0.3322912616806253  0.6609998768914553  0.3428043420019156   T   T   T
  0.5550923058941777  0.7765759452119099  0.1909456897560631   F   F   F
  0.4453365200212929  0.8893352600104762  0.0365971219754115   F   F   F
  0.6735836666713924  0.6766131157164686  0.3506787006414793   T   T   T
  0.8881953407737271  0.7768178427035721  0.1910220363407618   F   F   F
  0.7778812995857436  0.8888893771749480  0.0368300905397518   F   F   F
  0.3003561317165543  0.3482416219030237  0.4498164213505571   T   T   T
  0.4227779624113331  0.2548417861588462  0.4342126332768749   T   T   T
 
  0.00000000E+00  0.00000000E+00  0.00000000E+00
  0.00000000E+00  0.00000000E+00  0.00000000E+00
  0.00000000E+00  0.00000000E+00  0.00000000E+00
  0.00000000E+00  0.00000000E+00  0.00000000E+00
  0.00000000E+00  0.00000000E+00  0.00000000E+00
  0.00000000E+00  0.00000000E+00  0.00000000E+00
  0.00000000E+00  0.00000000E+00  0.00000000E+00
  0.00000000E+00  0.00000000E+00  0.00000000E+00
  0.00000000E+00  0.00000000E+00  0.00000000E+00
  0.00000000E+00  0.00000000E+00  0.00000000E+00
  0.00000000E+00  0.00000000E+00  0.00000000E+00
  0.00000000E+00  0.00000000E+00  0.00000000E+00
  0.00000000E+00  0.00000000E+00  0.00000000E+00
  0.00000000E+00  0.00000000E+00  0.00000000E+00
  0.00000000E+00  0.00000000E+00  0.00000000E+00
  0.00000000E+00  0.00000000E+00  0.00000000E+00
  0.00000000E+00  0.00000000E+00  0.00000000E+00
  0.00000000E+00  0.00000000E+00  0.00000000E+00
  0.00000000E+00  0.00000000E+00  0.00000000E+00
  0.00000000E+00  0.00000000E+00  0.00000000E+00
  0.00000000E+00  0.00000000E+00  0.00000000E+00
  0.00000000E+00  0.00000000E+00  0.00000000E+00
  0.00000000E+00  0.00000000E+00  0.00000000E+00
  0.00000000E+00  0.00000000E+00  0.00000000E+00
  0.00000000E+00  0.00000000E+00  0.00000000E+00
  0.00000000E+00  0.00000000E+00  0.00000000E+00
  0.00000000E+00  0.00000000E+00  0.00000000E+00
  0.00000000E+00  0.00000000E+00  0.00000000E+00
  0.00000000E+00  0.00000000E+00  0.00000000E+00
  0.00000000E+00  0.00000000E+00  0.00000000E+00
  0.00000000E+00  0.00000000E+00  0.00000000E+00
  0.00000000E+00  0.00000000E+00  0.00000000E+00
  0.00000000E+00  0.00000000E+00  0.00000000E+00
  0.00000000E+00  0.00000000E+00  0.00000000E+00
  0.00000000E+00  0.00000000E+00  0.00000000E+00
  0.00000000E+00  0.00000000E+00  0.00000000E+00
  0.00000000E+00  0.00000000E+00  0.00000000E+00
  0.00000000E+00  0.00000000E+00  0.00000000E+00
  0.00000000E+00  0.00000000E+00  0.00000000E+00
  0.00000000E+00  0.00000000E+00  0.00000000E+00
  0.00000000E+00  0.00000000E+00  0.00000000E+00
  0.00000000E+00  0.00000000E+00  0.00000000E+00
  0.00000000E+00  0.00000000E+00  0.00000000E+00
  0.00000000E+00  0.00000000E+00  0.00000000E+00
  0.00000000E+00  0.00000000E+00  0.00000000E+00
  0.00000000E+00  0.00000000E+00  0.00000000E+00
  0.00000000E+00  0.00000000E+00  0.00000000E+00
  0.00000000E+00  0.00000000E+00  0.00000000E+00
  0.00000000E+00  0.00000000E+00  0.00000000E+00
  0.00000000E+00  0.00000000E+00  0.00000000E+00
  0.00000000E+00  0.00000000E+00  0.00000000E+00
  0.00000000E+00  0.00000000E+00  0.00000000E+00
  0.00000000E+00  0.00000000E+00  0.00000000E+00
  0.00000000E+00  0.00000000E+00  0.00000000E+00
  0.00000000E+00  0.00000000E+00  0.00000000E+00
  0.00000000E+00  0.00000000E+00  0.00000000E+00
  0.00000000E+00  0.00000000E+00  0.00000000E+00
  0.00000000E+00  0.00000000E+00  0.00000000E+00
  0.00000000E+00  0.00000000E+00  0.00000000E+00
  0.00000000E+00  0.00000000E+00  0.00000000E+00
  0.00000000E+00  0.00000000E+00  0.00000000E+00
  0.00000000E+00  0.00000000E+00  0.00000000E+00
  0.00000000E+00  0.00000000E+00  0.00000000E+00
  0.00000000E+00  0.00000000E+00  0.00000000E+00
  0.00000000E+00  0.00000000E+00  0.00000000E+00
  0.00000000E+00  0.00000000E+00  0.00000000E+00
  0.00000000E+00  0.00000000E+00  0.00000000E+00
  0.00000000E+00  0.00000000E+00  0.00000000E+00
  0.00000000E+00  0.00000000E+00  0.00000000E+00
  0.00000000E+00  0.00000000E+00  0.00000000E+00
  0.00000000E+00  0.00000000E+00  0.00000000E+00
  0.00000000E+00  0.00000000E+00  0.00000000E+00
  0.00000000E+00  0.00000000E+00  0.00000000E+00
  0.00000000E+00  0.00000000E+00  0.00000000E+00
  0.00000000E+00  0.00000000E+00  0.00000000E+00
  0.00000000E+00  0.00000000E+00  0.00000000E+00
  0.00000000E+00  0.00000000E+00  0.00000000E+00
  0.00000000E+00  0.00000000E+00  0.00000000E+00
  0.00000000E+00  0.00000000E+00  0.00000000E+00
  0.00000000E+00  0.00000000E+00  0.00000000E+00
  0.00000000E+00  0.00000000E+00  0.00000000E+00
  0.00000000E+00  0.00000000E+00  0.00000000E+00
