CeO2-you-111-you-Mg                     
   1.00000000000000     
     9.8232278121244700   -5.6767089410028344   -0.0028396531369779
    -0.0045599216952601   11.3455178685279154    0.0028396526589569
    -0.0029274835483283    0.0050705500057764   21.0904913556552209
   O    Mg   Ce   H 
    53     1    26     1
Selective dynamics
Direct
 -0.0000028540963684 -0.0000544145064825  0.9944581253038612   T   T   T
  0.1093702841169140  0.2188981732123388  0.1463355664055426   T   T   T
  0.2329850458704159  0.1120934123633665  0.3035091623947627   T   T   T
  0.1285347216320287  0.2449111780926493  0.3676762338453271   T   T   T
  0.0031700825553843  0.0026543459539872  0.2296412370130910   T   T   T
  0.2231352780355488  0.1108589430236711  0.0741965226566803   T   T   T
  0.3349853426092901  0.0006375679145944  0.9955783251460056   T   T   T
  0.4420592390450346  0.2246911732099610  0.1524777996180720   T   T   T
  0.5488871066594195  0.1066157585952427  0.3070187665207493   T   T   T
  0.4292019853731759  0.2245347039005952  0.3983917858916079   T   T   T
  0.3335559602319432 -0.0036976148010850  0.2281627459743080   T   T   T
  0.5556395518685411  0.1107897472204715  0.0779672494068760   T   T   T
  0.6654025866403707  0.0006283951380911  0.9951212955143571   T   T   T
  0.7847150439342394  0.2247099654120302  0.1516475711243235   T   T   T
  0.8865169063536612  0.1074280976975821  0.3028939127727637   T   T   T
  0.7852397387351673  0.2130272329824644  0.3886035987677818   T   T   T
  0.6662292636888025  0.0012160855891850  0.2291731755673230   T   T   T
  0.8875327680498124  0.1099127665635539  0.0738418942269941   T   T   T
  0.9978840688112156  0.3326678270577249  0.9943384161662083   T   T   T
  0.1104418088337456  0.5551592118717794  0.1469363358026755   T   T   T
  0.1205211223654687  0.5476001721531135  0.3787973825471079   T   T   T
  0.0183621925375375  0.3407757432071422  0.2342524699703047   T   T   T
  0.2225663686847504  0.4436413225032687  0.0714624565401914   T   T   T
  0.3344821325994376  0.3323668295356678  0.9940327322558540   T   T   T
  0.4469476527949085  0.5578078218053870  0.1474025931835830   T   T   T
  0.5508624254570578  0.4400302837949248  0.3039267489177498   T   T   T
  0.4205411593806689  0.5419874334938920  0.3704324490885051   T   T   T
  0.3224126511337010  0.3407501861573761  0.2326931431163100   T   T   T
  0.5554941174752652  0.4441846928825579  0.0746624031927897   T   T   T
  0.6657531141229308  0.3313972339177214  0.9956736914850089   T   T   T
  0.7778913216159694  0.5558095272210065  0.1510850932289952   T   T   T
  0.8931710196204886  0.4466870964358982  0.3047440053768136   T   T   T
  0.7855897088205764  0.5717304121638326  0.3857293699783355   T   T   T
  0.6682823686274414  0.3313566690467852  0.2283236403367320   T   T   T
  0.8876309345016647  0.4441727079226572  0.0748492834356463   T   T   T
  0.9994217914952415  0.6668106184814234  0.9951715877603575   T   T   T
  0.1115058912497462  0.8887179944304373  0.1499651403604445   T   T   T
  0.2223352047408956  0.7790569582406296  0.3045298848372274   T   T   T
  0.1101843196573118  0.8902549018505658  0.3835202112260154   T   T   T
  0.0012422751903329  0.6665799059303761  0.2293226691555893   T   T   T
  0.2223471532992838  0.7780942446157810  0.0745708333931780   T   T   T
  0.3338783727315700  0.6680362239852010  0.9945134599805414   T   T   T
  0.4419489488582487  0.8816733598998446  0.1514962707669158   T   T   T
  0.5588485784748887  0.7819769336172461  0.3042187532155008   T   T   T
  0.4438851231783958  0.8872474851014023  0.3875501968229039   T   T   T
  0.3238189973207486  0.6477542043026596  0.2350551046362621   T   T   T
  0.5569127436238172  0.7786188369928153  0.0742772516351512   T   T   T
  0.6674620308259459  0.6669034155183922  0.9945724795573928   T   T   T
  0.7777710485881337  0.8894133339486491  0.1506277695238704   T   T   T
  0.8910022513596225  0.7804848856404480  0.3022249460400820   T   T   T
  0.7807140702084594  0.8896873900924355  0.3833403253514261   T   T   T
  0.6657753730431294  0.6665515299567180  0.2301036421390530   T   T   T
  0.8888827476776859  0.7786254890647526  0.0749215152110201   T   T   T
  0.3400629443541590  0.3279880386035945  0.3369570476424683   T   T   T
  0.0067606419887098  0.0059995984760040  0.3414682636561562   T   T   T
  0.2239645878164242  0.1134245847062436  0.1915766333535366   T   T   T
  0.1103865676546820  0.2199602092101351  0.0328173445512283   T   T   T
  0.3297857388155608 -0.0043817681521801  0.3427947554997499   T   T   T
  0.5561836430426730  0.1112896785811244  0.1916734077777636   T   T   T
  0.4446272644098517  0.2224896733330672  0.0360349283975465   T   T   T
  0.6687922389704187 -0.0003891700334623  0.3458108461097154   T   T   T
  0.8903764617874816  0.1116944597729612  0.1899185581663255   T   T   T
  0.7775405238580697  0.2222056576212379  0.0356334158535584   T   T   T
  0.9939223258703771  0.3260947970378810  0.3463618906911387   T   T   T
  0.2235575056481034  0.4424856067634927  0.1813296153639457   T   T   T
  0.1096982741634009  0.5560166352119744  0.0332747970901295   T   T   T
  0.5533561182139780  0.4431754731500098  0.1938461038027231   T   T   T
  0.4468057242223820  0.5561556585308297  0.0333345191637597   T   T   T
  0.6686023322223538  0.3366634484983062  0.3481214448805827   T   T   T
  0.8896039097921248  0.4444045766541604  0.1911522536946294   T   T   T
  0.7768048137871510  0.5545973308624397  0.0363635679211205   T   T   T
  0.9985126207254770  0.6674362705890227  0.3428643228783954   T   T   T
  0.2214612784337989  0.7752812560077024  0.1897350320123032   T   T   T
  0.1119290625734207  0.8894520537487669  0.0356425447306838   T   T   T
  0.3402747274256445  0.6734212045951157  0.3472416031210283   T   T   T
  0.5551434203271203  0.7766432447453825  0.1904496818435788   T   T   T
  0.4445663485572364  0.8887344507714628  0.0354793890826983   T   T   T
  0.6631998180647899  0.6623716595401180  0.3422382716523720   T   T   T
  0.8895060961333238  0.7779538069104434  0.1892069264772692   T   T   T
  0.7773444581865516  0.8891704800039301  0.0349901727851778   T   T   T
  0.4176774127450475  0.2267686838575225  0.4439974374143441   T   T   T
 
  0.00000000E+00  0.00000000E+00  0.00000000E+00
  0.00000000E+00  0.00000000E+00  0.00000000E+00
  0.00000000E+00  0.00000000E+00  0.00000000E+00
  0.00000000E+00  0.00000000E+00  0.00000000E+00
  0.00000000E+00  0.00000000E+00  0.00000000E+00
  0.00000000E+00  0.00000000E+00  0.00000000E+00
  0.00000000E+00  0.00000000E+00  0.00000000E+00
  0.00000000E+00  0.00000000E+00  0.00000000E+00
  0.00000000E+00  0.00000000E+00  0.00000000E+00
  0.00000000E+00  0.00000000E+00  0.00000000E+00
  0.00000000E+00  0.00000000E+00  0.00000000E+00
  0.00000000E+00  0.00000000E+00  0.00000000E+00
  0.00000000E+00  0.00000000E+00  0.00000000E+00
  0.00000000E+00  0.00000000E+00  0.00000000E+00
  0.00000000E+00  0.00000000E+00  0.00000000E+00
  0.00000000E+00  0.00000000E+00  0.00000000E+00
  0.00000000E+00  0.00000000E+00  0.00000000E+00
  0.00000000E+00  0.00000000E+00  0.00000000E+00
  0.00000000E+00  0.00000000E+00  0.00000000E+00
  0.00000000E+00  0.00000000E+00  0.00000000E+00
  0.00000000E+00  0.00000000E+00  0.00000000E+00
  0.00000000E+00  0.00000000E+00  0.00000000E+00
  0.00000000E+00  0.00000000E+00  0.00000000E+00
  0.00000000E+00  0.00000000E+00  0.00000000E+00
  0.00000000E+00  0.00000000E+00  0.00000000E+00
  0.00000000E+00  0.00000000E+00  0.00000000E+00
  0.00000000E+00  0.00000000E+00  0.00000000E+00
  0.00000000E+00  0.00000000E+00  0.00000000E+00
  0.00000000E+00  0.00000000E+00  0.00000000E+00
  0.00000000E+00  0.00000000E+00  0.00000000E+00
  0.00000000E+00  0.00000000E+00  0.00000000E+00
  0.00000000E+00  0.00000000E+00  0.00000000E+00
  0.00000000E+00  0.00000000E+00  0.00000000E+00
  0.00000000E+00  0.00000000E+00  0.00000000E+00
  0.00000000E+00  0.00000000E+00  0.00000000E+00
  0.00000000E+00  0.00000000E+00  0.00000000E+00
  0.00000000E+00  0.00000000E+00  0.00000000E+00
  0.00000000E+00  0.00000000E+00  0.00000000E+00
  0.00000000E+00  0.00000000E+00  0.00000000E+00
  0.00000000E+00  0.00000000E+00  0.00000000E+00
  0.00000000E+00  0.00000000E+00  0.00000000E+00
  0.00000000E+00  0.00000000E+00  0.00000000E+00
  0.00000000E+00  0.00000000E+00  0.00000000E+00
  0.00000000E+00  0.00000000E+00  0.00000000E+00
  0.00000000E+00  0.00000000E+00  0.00000000E+00
  0.00000000E+00  0.00000000E+00  0.00000000E+00
  0.00000000E+00  0.00000000E+00  0.00000000E+00
  0.00000000E+00  0.00000000E+00  0.00000000E+00
  0.00000000E+00  0.00000000E+00  0.00000000E+00
  0.00000000E+00  0.00000000E+00  0.00000000E+00
  0.00000000E+00  0.00000000E+00  0.00000000E+00
  0.00000000E+00  0.00000000E+00  0.00000000E+00
  0.00000000E+00  0.00000000E+00  0.00000000E+00
  0.00000000E+00  0.00000000E+00  0.00000000E+00
  0.00000000E+00  0.00000000E+00  0.00000000E+00
  0.00000000E+00  0.00000000E+00  0.00000000E+00
  0.00000000E+00  0.00000000E+00  0.00000000E+00
  0.00000000E+00  0.00000000E+00  0.00000000E+00
  0.00000000E+00  0.00000000E+00  0.00000000E+00
  0.00000000E+00  0.00000000E+00  0.00000000E+00
  0.00000000E+00  0.00000000E+00  0.00000000E+00
  0.00000000E+00  0.00000000E+00  0.00000000E+00
  0.00000000E+00  0.00000000E+00  0.00000000E+00
  0.00000000E+00  0.00000000E+00  0.00000000E+00
  0.00000000E+00  0.00000000E+00  0.00000000E+00
  0.00000000E+00  0.00000000E+00  0.00000000E+00
  0.00000000E+00  0.00000000E+00  0.00000000E+00
  0.00000000E+00  0.00000000E+00  0.00000000E+00
  0.00000000E+00  0.00000000E+00  0.00000000E+00
  0.00000000E+00  0.00000000E+00  0.00000000E+00
  0.00000000E+00  0.00000000E+00  0.00000000E+00
  0.00000000E+00  0.00000000E+00  0.00000000E+00
  0.00000000E+00  0.00000000E+00  0.00000000E+00
  0.00000000E+00  0.00000000E+00  0.00000000E+00
  0.00000000E+00  0.00000000E+00  0.00000000E+00
  0.00000000E+00  0.00000000E+00  0.00000000E+00
  0.00000000E+00  0.00000000E+00  0.00000000E+00
  0.00000000E+00  0.00000000E+00  0.00000000E+00
  0.00000000E+00  0.00000000E+00  0.00000000E+00
  0.00000000E+00  0.00000000E+00  0.00000000E+00
  0.00000000E+00  0.00000000E+00  0.00000000E+00
