CeO2-you-111-you-Mg                     
   1.00000000000000     
     9.8251922789720680   -5.6722943789780365   -0.0017360994406230
     0.0000000022307311   11.3445867654002708    0.0000000002024025
    -0.0039627959918697    0.0000000004081289   20.9225493105347766
   O    Mg   Ce   H 
    53     1    26     2
Selective dynamics
Direct
  0.9988799749763062  0.0004604434909237  0.9949837588264414   T   T   T
  0.1154566174157878  0.2243948087074514  0.1514206970516625   F   F   F
  0.2263693125890232  0.1154214409798611  0.3056349370501636   T   T   T
  0.1079485043834306  0.2200739217739452  0.3864302754139967   T   T   T
  0.0010297819332699  0.0021910565440765  0.2296579131947512   T   T   T
  0.2216125776705979  0.1100505686768400  0.0741856478555860   F   F   F
  0.3329232714421498  0.9993926579676767  0.9935463616090245   T   T   T
  0.4443060279269062  0.2204003888070147  0.1473477605945419   F   F   F
  0.5502708915497594  0.1086428462868735  0.3051366393272099   T   T   T
  0.4377248526954322  0.2206041561364099  0.3986912709750219   T   T   T
  0.3325502279765112 -0.0000396674393875  0.2297705814845503   T   T   T
  0.5551826295238271  0.1098198230506071  0.0741645989605928   F   F   F
  0.6686539096408758  0.0007313798516217  0.9946041308966874   T   T   T
  0.7741344274879793  0.2258969769063981  0.1515937271961860   F   F   F
  0.8873013212605204  0.1086215549701790  0.3051625403038761   T   T   T
  0.7798273230570074  0.2157179102183523  0.3889060149213890   T   T   T
  0.6651371397472114 -0.0015808263395838  0.2301801624612343   T   T   T
  0.8878029078775356  0.1105679539386273  0.0773859614417702   F   F   F
  0.9985391932591620  0.3307269682973245  0.9949137353884143   T   T   T
  0.1108907659061131  0.5557268785262508  0.1514377516127183   F   F   F
  0.2152475107860546  0.4371895833314655  0.3035558547329504   T   T   T
  0.0987181720643076  0.5518187863376041  0.3897587883238789   T   T   T
  0.9969289037941215  0.3299224336195359  0.2286910096813796   T   T   T
  0.2216125776706122  0.4448950089937682  0.0741856478555718   F   F   F
  0.3313452694493634  0.3325403175642664  0.9937692039706567   T   T   T
  0.4443060279249309  0.5572396391206098  0.1473477605944922   F   F   F
  0.4477842626486035  0.5033505126113804  0.3791320997345615   T   T   T
  0.3503176848513875  0.3417924195823734  0.2344316618682110   T   T   T
  0.5548210066924213  0.4440765033465368  0.0718006062835101   F   F   F
  0.6674215812239409  0.3326617682210458  0.9938384412849897   T   T   T
  0.7784353219369819  0.5558846609680046  0.1477182196388753   F   F   F
  0.8933894768043845  0.4455404003273372  0.3050468363763414   T   T   T
  0.7722358169539648  0.5651538463984704  0.3835494287819918   T   T   T
  0.6566329026550646  0.3430672997796330  0.2348473252727118   T   T   T
  0.8899308814298479  0.4449044433322626  0.0746432248238236   F   F   F
 -0.0001029117162032  0.6667117711670675  0.9941115654345014   T   T   T
  0.1108907659057081  0.8884978873787475  0.1514377516126970   F   F   F
  0.2184200112795926  0.7769235460077056  0.3048222573396880   T   T   T
  0.1133873114331784  0.8896862978009887  0.3872094632953563   T   T   T
  0.9971486982779483  0.6665305456006977  0.2305029114942282   T   T   T
  0.2220684808103641  0.7777012404050225  0.0747841287024684   F   F   F
  0.3329632503055681  0.6669650262171517  0.9934684558203709   T   T   T
  0.4444982753929096  0.8889161376966541  0.1505947891429287   F   F   F
  0.5620364325482807  0.7774141456682263  0.3088683279063328   T   T   T
  0.4478595376730224  0.8995057511142844  0.3879898269979574   T   T   T
  0.3366222445710453  0.6679444357431421  0.2295438730712052   T   T   T
  0.5551826295237916  0.7786958064735643  0.0741645989605928   F   F   F
  0.6671056184566876  0.6683790165155074  0.9940984234066962   T   T   T
  0.7741344274870414  0.8815704505813926  0.1515937271962287   F   F   F
  0.8941395561526772  0.7865093452024317  0.3052095144237695   T   T   T
  0.7812672454621234  0.8914198143261556  0.3907318753775330   T   T   T
  0.6600121925905466  0.6488347825127562  0.2369241476812515   T   T   T
  0.8899308814296631  0.7783594380972119  0.0746432248237738   F   F   F
  0.2916144718313656  0.3163834772224436  0.3339496700221189   T   T   T
  0.0082422903359516  0.0092712980536387  0.3473003031255160   T   T   T
  0.2236171310671864  0.1132818099052457  0.1923888316456512   F   F   F
  0.1107759920926696  0.2220544960462902  0.0355331571069470   F   F   F
  0.3295075010095802 -0.0049800438409160  0.3443926600639008   T   T   T
  0.5552037515553181  0.1115585627355813  0.1905668965440270   F   F   F
  0.4428718968209466  0.2200176824800266  0.0328688861608910   F   F   F
  0.6645163081404056  0.0012051386399232  0.3471117549054043   T   T   T
  0.8882335195093134  0.1107832597554861  0.1910742769291360   F   F   F
  0.7775415155741925  0.2223423637919666  0.0350380086847792   F   F   F
  0.0011107878910272  0.3321024104099919  0.3464006068530018   T   T   T
  0.2236171310677548  0.4436683211610344  0.1923888316456583   F   F   F
  0.1105369202031241  0.5547389405838814  0.0353778940500717   F   F   F
  0.5524720675665975  0.4429020337814222  0.1825838148248309   F   F   F
  0.4428718968210177  0.5561882143407004  0.0328688861609052   F   F   F
  0.6720520397605899  0.3297087548838023  0.3514132443220793   T   T   T
  0.8882649750960070  0.4449238210384650  0.1915325650317143   F   F   F
  0.7795934269051870  0.5564637134524730  0.0333756939941452   F   F   F
  0.0009524589719379  0.6657770540092411  0.3460505264286614   T   T   T
  0.2223014330785986  0.7778177165401559  0.1901048791788114   F   F   F
  0.1105369202028683  0.8891319796198616  0.0353778940500575   F   F   F
  0.3273223267677050  0.6619526478309655  0.3474924424375070   T   T   T
  0.5552037515584800  0.7769781888192639  0.1905668965440555   F   F   F
  0.4447445476624949  0.8890392738310666  0.0346654714717758   F   F   F
  0.6840335313578587  0.6870980975541129  0.3472209230504548   T   T   T
  0.8882649750991831  0.7766741540625333  0.1915325650317001   F   F   F
  0.7775415155747254  0.8885321517823286  0.0350380086847792   F   F   F
  0.4517227086180940  0.4754112493412317  0.4228186431124748   T   T   T
  0.4115550184421563  0.2210042941400639  0.4429143804884585   T   T   T
 
  0.00000000E+00  0.00000000E+00  0.00000000E+00
  0.00000000E+00  0.00000000E+00  0.00000000E+00
  0.00000000E+00  0.00000000E+00  0.00000000E+00
  0.00000000E+00  0.00000000E+00  0.00000000E+00
  0.00000000E+00  0.00000000E+00  0.00000000E+00
  0.00000000E+00  0.00000000E+00  0.00000000E+00
  0.00000000E+00  0.00000000E+00  0.00000000E+00
  0.00000000E+00  0.00000000E+00  0.00000000E+00
  0.00000000E+00  0.00000000E+00  0.00000000E+00
  0.00000000E+00  0.00000000E+00  0.00000000E+00
  0.00000000E+00  0.00000000E+00  0.00000000E+00
  0.00000000E+00  0.00000000E+00  0.00000000E+00
  0.00000000E+00  0.00000000E+00  0.00000000E+00
  0.00000000E+00  0.00000000E+00  0.00000000E+00
  0.00000000E+00  0.00000000E+00  0.00000000E+00
  0.00000000E+00  0.00000000E+00  0.00000000E+00
  0.00000000E+00  0.00000000E+00  0.00000000E+00
  0.00000000E+00  0.00000000E+00  0.00000000E+00
  0.00000000E+00  0.00000000E+00  0.00000000E+00
  0.00000000E+00  0.00000000E+00  0.00000000E+00
  0.00000000E+00  0.00000000E+00  0.00000000E+00
  0.00000000E+00  0.00000000E+00  0.00000000E+00
  0.00000000E+00  0.00000000E+00  0.00000000E+00
  0.00000000E+00  0.00000000E+00  0.00000000E+00
  0.00000000E+00  0.00000000E+00  0.00000000E+00
  0.00000000E+00  0.00000000E+00  0.00000000E+00
  0.00000000E+00  0.00000000E+00  0.00000000E+00
  0.00000000E+00  0.00000000E+00  0.00000000E+00
  0.00000000E+00  0.00000000E+00  0.00000000E+00
  0.00000000E+00  0.00000000E+00  0.00000000E+00
  0.00000000E+00  0.00000000E+00  0.00000000E+00
  0.00000000E+00  0.00000000E+00  0.00000000E+00
  0.00000000E+00  0.00000000E+00  0.00000000E+00
  0.00000000E+00  0.00000000E+00  0.00000000E+00
  0.00000000E+00  0.00000000E+00  0.00000000E+00
  0.00000000E+00  0.00000000E+00  0.00000000E+00
  0.00000000E+00  0.00000000E+00  0.00000000E+00
  0.00000000E+00  0.00000000E+00  0.00000000E+00
  0.00000000E+00  0.00000000E+00  0.00000000E+00
  0.00000000E+00  0.00000000E+00  0.00000000E+00
  0.00000000E+00  0.00000000E+00  0.00000000E+00
  0.00000000E+00  0.00000000E+00  0.00000000E+00
  0.00000000E+00  0.00000000E+00  0.00000000E+00
  0.00000000E+00  0.00000000E+00  0.00000000E+00
  0.00000000E+00  0.00000000E+00  0.00000000E+00
  0.00000000E+00  0.00000000E+00  0.00000000E+00
  0.00000000E+00  0.00000000E+00  0.00000000E+00
  0.00000000E+00  0.00000000E+00  0.00000000E+00
  0.00000000E+00  0.00000000E+00  0.00000000E+00
  0.00000000E+00  0.00000000E+00  0.00000000E+00
  0.00000000E+00  0.00000000E+00  0.00000000E+00
  0.00000000E+00  0.00000000E+00  0.00000000E+00
  0.00000000E+00  0.00000000E+00  0.00000000E+00
  0.00000000E+00  0.00000000E+00  0.00000000E+00
  0.00000000E+00  0.00000000E+00  0.00000000E+00
  0.00000000E+00  0.00000000E+00  0.00000000E+00
  0.00000000E+00  0.00000000E+00  0.00000000E+00
  0.00000000E+00  0.00000000E+00  0.00000000E+00
  0.00000000E+00  0.00000000E+00  0.00000000E+00
  0.00000000E+00  0.00000000E+00  0.00000000E+00
  0.00000000E+00  0.00000000E+00  0.00000000E+00
  0.00000000E+00  0.00000000E+00  0.00000000E+00
  0.00000000E+00  0.00000000E+00  0.00000000E+00
  0.00000000E+00  0.00000000E+00  0.00000000E+00
  0.00000000E+00  0.00000000E+00  0.00000000E+00
  0.00000000E+00  0.00000000E+00  0.00000000E+00
  0.00000000E+00  0.00000000E+00  0.00000000E+00
  0.00000000E+00  0.00000000E+00  0.00000000E+00
  0.00000000E+00  0.00000000E+00  0.00000000E+00
  0.00000000E+00  0.00000000E+00  0.00000000E+00
  0.00000000E+00  0.00000000E+00  0.00000000E+00
  0.00000000E+00  0.00000000E+00  0.00000000E+00
  0.00000000E+00  0.00000000E+00  0.00000000E+00
  0.00000000E+00  0.00000000E+00  0.00000000E+00
  0.00000000E+00  0.00000000E+00  0.00000000E+00
  0.00000000E+00  0.00000000E+00  0.00000000E+00
  0.00000000E+00  0.00000000E+00  0.00000000E+00
  0.00000000E+00  0.00000000E+00  0.00000000E+00
  0.00000000E+00  0.00000000E+00  0.00000000E+00
  0.00000000E+00  0.00000000E+00  0.00000000E+00
  0.00000000E+00  0.00000000E+00  0.00000000E+00
  0.00000000E+00  0.00000000E+00  0.00000000E+00
