CeO2-you-111-you-Tl                     
   1.00000000000000     
     9.8514611536192671   -5.6877441196628178    0.0000000000000000
    -0.0000000008085783   11.3754862360808389    0.0000000000000000
     0.0000000000000000    0.0000000000000000   20.3524612342697608
   O    Tl   Ce   H 
    54     1    26     2
Selective dynamics
Direct
  0.0001234967676375 -0.0001962571833212  0.9883163324429192   T   T   T
  0.1099580051046161  0.2207738445536044  0.1477733266571014   T   T   T
  0.2297691652118102  0.1134247478094409  0.3117315649917850   T   T   T
  0.0865596326991569  0.2093716161219046  0.3960699300465814   T   T   T
  0.0033719943185186  0.0005249494255380  0.2316511956667033   T   T   T
  0.2224571652174732  0.1112996267042438  0.0703932477408803   T   T   T
  0.3331750379805773  0.0000201240135421  0.9879522087646160   T   T   T
  0.4447098949027846  0.2216059577472072  0.1477695051300043   T   T   T
  0.5522365759001233  0.1142281044591057  0.3081161336883379   T   T   T
  0.4662821073912483  0.2012812296482185  0.4128568620567454   T   T   T
  0.3316691029865645  0.9982718523715386  0.2301137773312971   T   T   T
  0.5556178711739383  0.1110831156170582  0.0698086893968135   T   T   T
  0.6665093102288457 -0.0000752037578743  0.9876337181761445   T   T   T
  0.7773321535960177  0.2215789355238346  0.1474061589433159   T   T   T
  0.8882410272219302  0.1102868498156670  0.3067688834501432   T   T   T
  0.7784198636398912  0.2226242129387756  0.3888246249063228   T   T   T
  0.6658220361644287  0.0013060181829041  0.2307803419007848   T   T   T
  0.8883078033603021  0.1101299052463300  0.0701845093489873   T   T   T
  0.0003559317040284  0.3328753398282810  0.9881596942795526   T   T   T
  0.1111956973985058  0.5556594836838668  0.1468540558300194   T   T   T
  0.2197427386214995  0.4468925531874510  0.3072791197850315   T   T   T
  0.1103535100484720  0.5560956705862383  0.3904442502947149   T   T   T
 -0.0003611100431028  0.3330696506645757  0.2295412681023004   T   T   T
  0.2223514037200609  0.4438380476790263  0.0703692480874989   T   T   T
  0.3333362490467299  0.3331760585629088  0.9879020120271015   T   T   T
  0.4454464338676493  0.5569887045113751  0.1475997402156524   T   T   T
  0.5528314182400704  0.4365460032334262  0.3115569958831746   T   T   T
  0.4569219287627905  0.5803515928791764  0.3958751060848149   T   T   T
  0.3332337964613872  0.3336355999129399  0.2279946180146957   T   T   T
  0.5554992563802754  0.4440744453362032  0.0705602095117078   T   T   T
  0.6665033522005669  0.3334261522793210  0.9878891169940585   T   T   T
  0.7783352840823826  0.5557671866992228  0.1474383595731897   T   T   T
  0.8901479756627944  0.4454853317791435  0.3071333089790955   T   T   T
  0.7795408068456381  0.5545594813795309  0.3902348923840396   T   T   T
  0.6680882623279948  0.3343589929973186  0.2298242593436381   T   T   T
  0.8887789884985013  0.4440215507151221  0.0696664051398135   T   T   T
  0.0002287121820909  0.6672208713432336  0.9883045866596805   T   T   T
  0.1107701756707139  0.8883530400062066  0.1473721559463974   T   T   T
  0.2212302888306274  0.7767201598453510  0.3072788343196106   T   T   T
  0.1110501357798562  0.8869598599097803  0.3904095687854340   T   T   T
  0.0000777067852233  0.6669400179339408  0.2299625385238584   T   T   T
  0.2229584747400937  0.7779046455429774  0.0699953416523129   T   T   T
  0.3339538930788753  0.6661111482471689  0.9883536445483178   T   T   T
  0.4451847751977438  0.8891792908059308  0.1475040208622530   T   T   T
  0.5570811012802119  0.7791095114115515  0.3067036213993029   T   T   T
  0.4436582686312924  0.8878729835466362  0.3887794926639674   T   T   T
  0.3336384699344891  0.6673812528137867  0.2297896042152310   T   T   T
  0.5569763497863067  0.7788462072402471  0.0703799136046683   T   T   T
  0.6668133079479063  0.6666185075800782  0.9879720911135242   T   T   T
  0.7786028616617143  0.8887150616016263  0.1493933887531546   T   T   T
  0.8884956353428982  0.7770886015062431  0.3083413327755334   T   T   T
  0.7771650889021724  0.8893951928231720  0.3898709948082530   T   T   T
  0.6656365433597192  0.6626958824878502  0.2316600875481872   T   T   T
  0.8885562090669652  0.7783174147334120  0.0703658431843612   T   T   T
  0.3301082717641185  0.3365461153908655  0.3494561768597549   T   T   T
 -0.0007864518306698 -0.0009265285622515  0.3495679897836460   T   T   T
  0.2231666297677299  0.1119881286077720  0.1896725622493962   T   T   T
  0.1112792274162562  0.2219145768145746  0.0294067692091945   T   T   T
  0.3303489215633685  0.9936128347698409  0.3485453533539682   T   T   T
  0.5552575622096180  0.1113228123125108  0.1888642148963134   T   T   T
  0.4443301727163133  0.2221935798418247  0.0289775721109434   T   T   T
  0.6666273464486233  0.0001801106980630  0.3482185257702731   T   T   T
  0.8893677452749087  0.1112506868911677  0.1891110553749697   T   T   T
  0.7775651663698682  0.2218020112273390  0.0289150433016754   T   T   T
  0.0004115969447922  0.3339610388002835  0.3485859247622349   T   T   T
  0.2225333560151204  0.4442003950964573  0.1889768619234535   T   T   T
  0.1114456083578411  0.5552669824211240  0.0289697669369590   T   T   T
  0.5544504195543156  0.4432561160429658  0.1896357010038931   T   T   T
  0.4447566928242979  0.5553773175985632  0.0294624043018353   T   T   T
  0.6729411122622390  0.3360887742198386  0.3484339615588344   T   T   T
  0.8891872638269843  0.4444525690457409  0.1879666296463273   T   T   T
  0.7776592195304667  0.5555547869394341  0.0292488717289695   T   T   T
  0.0002788466946482  0.6661695382735136  0.3487849413529298   T   T   T
  0.2221530635632039  0.7774805094975843  0.1880764950906751   T   T   T
  0.1112268015937476  0.8890261088251052  0.0293542300846521   T   T   T
  0.3328494753044154  0.6664472204086063  0.3486416709698817   T   T   T
  0.5555313118842224  0.7774405843476556  0.1891848142321200   T   T   T
  0.4448808044719523  0.8890363399763999  0.0290705023656732   T   T   T
  0.6670324981543639  0.6670295664766905  0.3495714934926353   T   T   T
  0.8892445546904321  0.7772498962948601  0.1893065647332259   T   T   T
  0.7779455788492187  0.8888029685265966  0.0293039277618777   T   T   T
  0.3165675366219708  0.3487964366683868  0.4396271465148328   T   T   T
  0.4466285012846285  0.2200403980164553  0.4568390960953351   T   T   T
 
  0.00000000E+00  0.00000000E+00  0.00000000E+00
  0.00000000E+00  0.00000000E+00  0.00000000E+00
  0.00000000E+00  0.00000000E+00  0.00000000E+00
  0.00000000E+00  0.00000000E+00  0.00000000E+00
  0.00000000E+00  0.00000000E+00  0.00000000E+00
  0.00000000E+00  0.00000000E+00  0.00000000E+00
  0.00000000E+00  0.00000000E+00  0.00000000E+00
  0.00000000E+00  0.00000000E+00  0.00000000E+00
  0.00000000E+00  0.00000000E+00  0.00000000E+00
  0.00000000E+00  0.00000000E+00  0.00000000E+00
  0.00000000E+00  0.00000000E+00  0.00000000E+00
  0.00000000E+00  0.00000000E+00  0.00000000E+00
  0.00000000E+00  0.00000000E+00  0.00000000E+00
  0.00000000E+00  0.00000000E+00  0.00000000E+00
  0.00000000E+00  0.00000000E+00  0.00000000E+00
  0.00000000E+00  0.00000000E+00  0.00000000E+00
  0.00000000E+00  0.00000000E+00  0.00000000E+00
  0.00000000E+00  0.00000000E+00  0.00000000E+00
  0.00000000E+00  0.00000000E+00  0.00000000E+00
  0.00000000E+00  0.00000000E+00  0.00000000E+00
  0.00000000E+00  0.00000000E+00  0.00000000E+00
  0.00000000E+00  0.00000000E+00  0.00000000E+00
  0.00000000E+00  0.00000000E+00  0.00000000E+00
  0.00000000E+00  0.00000000E+00  0.00000000E+00
  0.00000000E+00  0.00000000E+00  0.00000000E+00
  0.00000000E+00  0.00000000E+00  0.00000000E+00
  0.00000000E+00  0.00000000E+00  0.00000000E+00
  0.00000000E+00  0.00000000E+00  0.00000000E+00
  0.00000000E+00  0.00000000E+00  0.00000000E+00
  0.00000000E+00  0.00000000E+00  0.00000000E+00
  0.00000000E+00  0.00000000E+00  0.00000000E+00
  0.00000000E+00  0.00000000E+00  0.00000000E+00
  0.00000000E+00  0.00000000E+00  0.00000000E+00
  0.00000000E+00  0.00000000E+00  0.00000000E+00
  0.00000000E+00  0.00000000E+00  0.00000000E+00
  0.00000000E+00  0.00000000E+00  0.00000000E+00
  0.00000000E+00  0.00000000E+00  0.00000000E+00
  0.00000000E+00  0.00000000E+00  0.00000000E+00
  0.00000000E+00  0.00000000E+00  0.00000000E+00
  0.00000000E+00  0.00000000E+00  0.00000000E+00
  0.00000000E+00  0.00000000E+00  0.00000000E+00
  0.00000000E+00  0.00000000E+00  0.00000000E+00
  0.00000000E+00  0.00000000E+00  0.00000000E+00
  0.00000000E+00  0.00000000E+00  0.00000000E+00
  0.00000000E+00  0.00000000E+00  0.00000000E+00
  0.00000000E+00  0.00000000E+00  0.00000000E+00
  0.00000000E+00  0.00000000E+00  0.00000000E+00
  0.00000000E+00  0.00000000E+00  0.00000000E+00
  0.00000000E+00  0.00000000E+00  0.00000000E+00
  0.00000000E+00  0.00000000E+00  0.00000000E+00
  0.00000000E+00  0.00000000E+00  0.00000000E+00
  0.00000000E+00  0.00000000E+00  0.00000000E+00
  0.00000000E+00  0.00000000E+00  0.00000000E+00
  0.00000000E+00  0.00000000E+00  0.00000000E+00
  0.00000000E+00  0.00000000E+00  0.00000000E+00
  0.00000000E+00  0.00000000E+00  0.00000000E+00
  0.00000000E+00  0.00000000E+00  0.00000000E+00
  0.00000000E+00  0.00000000E+00  0.00000000E+00
  0.00000000E+00  0.00000000E+00  0.00000000E+00
  0.00000000E+00  0.00000000E+00  0.00000000E+00
  0.00000000E+00  0.00000000E+00  0.00000000E+00
  0.00000000E+00  0.00000000E+00  0.00000000E+00
  0.00000000E+00  0.00000000E+00  0.00000000E+00
  0.00000000E+00  0.00000000E+00  0.00000000E+00
  0.00000000E+00  0.00000000E+00  0.00000000E+00
  0.00000000E+00  0.00000000E+00  0.00000000E+00
  0.00000000E+00  0.00000000E+00  0.00000000E+00
  0.00000000E+00  0.00000000E+00  0.00000000E+00
  0.00000000E+00  0.00000000E+00  0.00000000E+00
  0.00000000E+00  0.00000000E+00  0.00000000E+00
  0.00000000E+00  0.00000000E+00  0.00000000E+00
  0.00000000E+00  0.00000000E+00  0.00000000E+00
  0.00000000E+00  0.00000000E+00  0.00000000E+00
  0.00000000E+00  0.00000000E+00  0.00000000E+00
  0.00000000E+00  0.00000000E+00  0.00000000E+00
  0.00000000E+00  0.00000000E+00  0.00000000E+00
  0.00000000E+00  0.00000000E+00  0.00000000E+00
  0.00000000E+00  0.00000000E+00  0.00000000E+00
  0.00000000E+00  0.00000000E+00  0.00000000E+00
  0.00000000E+00  0.00000000E+00  0.00000000E+00
  0.00000000E+00  0.00000000E+00  0.00000000E+00
  0.00000000E+00  0.00000000E+00  0.00000000E+00
  0.00000000E+00  0.00000000E+00  0.00000000E+00
