CeO2-you-111-you-Rh                     
   1.00000000000000     
     9.8592337751549231   -5.6510315450753357   -0.0052103695414149
    -0.0000000014603464   11.3020610987174663    0.0000000006536288
    -0.0108483545421253    0.0000000011502282   21.1174367235843938
   O    Rh   Ce   H 
    53     1    26     2
Selective dynamics
Direct
  0.0000287009702477  0.0007023971577530  0.9961901406578494   T   T   T
  0.1115147926885456  0.2224238963440115  0.1506196457926663   F   F   F
  0.2205549392367238  0.1363389318918931  0.3107629766815950   T   T   T
  0.0402872453986477  0.1848066176469385  0.4031767865019100   T   T   T
  0.0022149366612638  0.0000292570177258  0.2296731473301326   T   T   T
  0.2223358504108646  0.1107494385241523  0.0755053547858040   F   F   F
  0.3334087278719683  0.0004277029034109  0.9954197619052042   T   T   T
  0.4460520997245254  0.2193394407099589  0.1469804887071007   F   F   F
  0.5587691560108790  0.1161093181332935  0.3065724261303869   T   T   T
  0.4565234177917184  0.2633125758038320  0.3858191301600006   T   T   T
  0.3303351471816444  0.0024501060161645  0.2304235331805448   T   T   T
  0.5561998841555607  0.1090329668555299  0.0751777710221830   F   F   F
  0.6690253103765672  0.0013062938283918  0.9954699015304705   T   T   T
  0.7747378996964898  0.2244640378429850  0.1528271385760576   F   F   F
  0.8815467969465857  0.1066011095435154  0.3018805476174068   T   T   T
  0.7752472124533377  0.2206353738326589  0.3880310129026601   T   T   T
  0.6621511807543112  0.9992459620941517  0.2289599688203998   T   T   T
  0.8877603659159874  0.1105466829578674  0.0774971597230660   F   F   F
  0.0000221189623768  0.3320033535155228  0.9961818180079981   T   T   T
  0.1100612019437719  0.5560704374915701  0.1506993285498552   F   F   F
  0.2218039679616977  0.4213261536936906  0.3067468211095472   T   T   T
  0.1171443830039415  0.5545959711838069  0.3837260535618163   T   T   T
  0.0020168344035199  0.3337028140656026  0.2294131920203817   T   T   T
  0.2223358504106088  0.4449194118854507  0.0755053547857187   F   F   F
  0.3323071423781598  0.3328052838698584  0.9954927774214585   T   T   T
  0.4460520997226993  0.5600466590165070  0.1469804887072428   F   F   F
  0.4552031542303990  0.5430339143983464  0.3707667914720811   T   T   T
  0.3501620149001120  0.3414505350178835  0.2253826265595479   T   T   T
  0.5563733003169560  0.4448526501590848  0.0727472844185257   F   F   F
  0.6678718627067823  0.3324249009577217  0.9955576161540890   T   T   T
  0.7797842120564269  0.5565591060279758  0.1479493326714092   F   F   F
  0.8934254341974159  0.4406994948462732  0.3053877778412836   T   T   T
  0.7660996301987441  0.5457733727150028  0.3785625759072423   T   T   T
  0.6612449373119356  0.3450927535431337  0.2359987648724450   T   T   T
  0.8897265959029639  0.4438402180709744  0.0754307304254667   F   F   F
  0.0002943815747647  0.6667749062436868  0.9957291377765601   T   T   T
  0.1100612019429335  0.8873247644505255  0.1506993285497344   F   F   F
  0.2201918550306760  0.7715712557186346  0.3035087096227393   T   T   T
  0.0995555915775352  0.8783644460668368  0.3861976135113890   T   T   T
  0.9974792845859561  0.6648919925597651  0.2307971228569825   T   T   T
  0.2225710829402701  0.7779525414696877  0.0753961862416261   F   F   F
  0.3340059343248506  0.6673858023395444  0.9951612603764173   T   T   T
  0.4419216680832818  0.8876278340413606  0.1515680904421473   F   F   F
  0.5574881155948729  0.7788395531812810  0.3025028831119876   T   T   T
  0.4479388892784437  0.8776867602756315  0.3851399094036919   T   T   T
  0.3308634190946548  0.6594842803957348  0.2314181040132385   T   T   T
  0.5561998841556175  0.7804999173013769  0.0751777710223038   F   F   F
  0.6679616178393915  0.6689065780588616  0.9956172255588170   T   T   T
  0.7747378996947347  0.8836068618529751  0.1528271385757307   F   F   F
  0.8881681166877525  0.7787598124514715  0.3045665573172159   T   T   T
  0.7701404031300981  0.8839347259213572  0.3865880921847588   T   T   T
  0.6586850307552806  0.6488885598344212  0.2345216126260449   T   T   T
  0.8897265959027223  0.7792193778314456  0.0754307304256159   F   F   F
  0.3376046916497910  0.3420788810785381  0.3401295959919513   T   T   T
 -0.0000924837881745  0.0046396070662272  0.3485100999617888   T   T   T
  0.2227219536686817  0.1138218874195260  0.1910097550157985   F   F   F
  0.1112035389064943  0.2222682694533802  0.0362912049046997   F   F   F
  0.3269844683997034 -0.0020972643482236  0.3462594469503568   T   T   T
  0.5540720388983829  0.1110141421444766  0.1906900281615904   F   F   F
  0.4437330442034906  0.2201705577465489  0.0341389562555392   F   F   F
  0.6626615305554195  0.9957249037665030  0.3455208937487587   T   T   T
  0.8880490079179992  0.1106910039596656  0.1912350700537360   F   F   F
  0.7777587892539941  0.2218996274316964  0.0361986852389222   F   F   F
  0.0032992754793837  0.3244598630382299  0.3492594291027205   T   T   T
  0.2227219536690157  0.4422330662471623  0.1910097550159122   F   F   F
  0.1107859631467676  0.5548592547855122  0.0365102068315437   F   F   F
  0.5551037884234873  0.4442178942104462  0.1820925955217660   F   F   F
  0.4437330442043077  0.5568964864569281  0.0341389562554397   F   F   F
  0.6823447603166701  0.3304150326469387  0.3446751958408548   T   T   T
  0.8890944644449092  0.4443999906781073  0.1913906151998006   F   F   F
  0.7801652603809188  0.5567496301901329  0.0346455326847348   F   F   F
  0.0037392815951963  0.6676299763997542  0.3437215575152635   T   T   T
  0.2210638435417209  0.7771989217719906  0.1900872512912528   F   F   F
  0.1107859631466255  0.8892607083628548  0.0365102068315863   F   F   F
  0.3335561072687400  0.6598715909973022  0.3434000788786044   T   T   T
  0.5540720389032430  0.7763908967538740  0.1906900281617325   F   F   F
  0.4447506896503910  0.8890423448250075  0.0358665302806642   F   F   F
  0.6713655820027125  0.6746109235677368  0.3450315573147301   T   T   T
  0.8890944644492862  0.7780274737744222  0.1913906152000067   F   F   F
  0.7777587892553655  0.8891921618227059  0.0361986852389293   F   F   F
  0.2816526338824311  0.3215802401628972  0.4072530427194688   T   T   T
  0.4484701122557083  0.2870847830721257  0.4292765754239679   T   T   T
 
  0.00000000E+00  0.00000000E+00  0.00000000E+00
  0.00000000E+00  0.00000000E+00  0.00000000E+00
  0.00000000E+00  0.00000000E+00  0.00000000E+00
  0.00000000E+00  0.00000000E+00  0.00000000E+00
  0.00000000E+00  0.00000000E+00  0.00000000E+00
  0.00000000E+00  0.00000000E+00  0.00000000E+00
  0.00000000E+00  0.00000000E+00  0.00000000E+00
  0.00000000E+00  0.00000000E+00  0.00000000E+00
  0.00000000E+00  0.00000000E+00  0.00000000E+00
  0.00000000E+00  0.00000000E+00  0.00000000E+00
  0.00000000E+00  0.00000000E+00  0.00000000E+00
  0.00000000E+00  0.00000000E+00  0.00000000E+00
  0.00000000E+00  0.00000000E+00  0.00000000E+00
  0.00000000E+00  0.00000000E+00  0.00000000E+00
  0.00000000E+00  0.00000000E+00  0.00000000E+00
  0.00000000E+00  0.00000000E+00  0.00000000E+00
  0.00000000E+00  0.00000000E+00  0.00000000E+00
  0.00000000E+00  0.00000000E+00  0.00000000E+00
  0.00000000E+00  0.00000000E+00  0.00000000E+00
  0.00000000E+00  0.00000000E+00  0.00000000E+00
  0.00000000E+00  0.00000000E+00  0.00000000E+00
  0.00000000E+00  0.00000000E+00  0.00000000E+00
  0.00000000E+00  0.00000000E+00  0.00000000E+00
  0.00000000E+00  0.00000000E+00  0.00000000E+00
  0.00000000E+00  0.00000000E+00  0.00000000E+00
  0.00000000E+00  0.00000000E+00  0.00000000E+00
  0.00000000E+00  0.00000000E+00  0.00000000E+00
  0.00000000E+00  0.00000000E+00  0.00000000E+00
  0.00000000E+00  0.00000000E+00  0.00000000E+00
  0.00000000E+00  0.00000000E+00  0.00000000E+00
  0.00000000E+00  0.00000000E+00  0.00000000E+00
  0.00000000E+00  0.00000000E+00  0.00000000E+00
  0.00000000E+00  0.00000000E+00  0.00000000E+00
  0.00000000E+00  0.00000000E+00  0.00000000E+00
  0.00000000E+00  0.00000000E+00  0.00000000E+00
  0.00000000E+00  0.00000000E+00  0.00000000E+00
  0.00000000E+00  0.00000000E+00  0.00000000E+00
  0.00000000E+00  0.00000000E+00  0.00000000E+00
  0.00000000E+00  0.00000000E+00  0.00000000E+00
  0.00000000E+00  0.00000000E+00  0.00000000E+00
  0.00000000E+00  0.00000000E+00  0.00000000E+00
  0.00000000E+00  0.00000000E+00  0.00000000E+00
  0.00000000E+00  0.00000000E+00  0.00000000E+00
  0.00000000E+00  0.00000000E+00  0.00000000E+00
  0.00000000E+00  0.00000000E+00  0.00000000E+00
  0.00000000E+00  0.00000000E+00  0.00000000E+00
  0.00000000E+00  0.00000000E+00  0.00000000E+00
  0.00000000E+00  0.00000000E+00  0.00000000E+00
  0.00000000E+00  0.00000000E+00  0.00000000E+00
  0.00000000E+00  0.00000000E+00  0.00000000E+00
  0.00000000E+00  0.00000000E+00  0.00000000E+00
  0.00000000E+00  0.00000000E+00  0.00000000E+00
  0.00000000E+00  0.00000000E+00  0.00000000E+00
  0.00000000E+00  0.00000000E+00  0.00000000E+00
  0.00000000E+00  0.00000000E+00  0.00000000E+00
  0.00000000E+00  0.00000000E+00  0.00000000E+00
  0.00000000E+00  0.00000000E+00  0.00000000E+00
  0.00000000E+00  0.00000000E+00  0.00000000E+00
  0.00000000E+00  0.00000000E+00  0.00000000E+00
  0.00000000E+00  0.00000000E+00  0.00000000E+00
  0.00000000E+00  0.00000000E+00  0.00000000E+00
  0.00000000E+00  0.00000000E+00  0.00000000E+00
  0.00000000E+00  0.00000000E+00  0.00000000E+00
  0.00000000E+00  0.00000000E+00  0.00000000E+00
  0.00000000E+00  0.00000000E+00  0.00000000E+00
  0.00000000E+00  0.00000000E+00  0.00000000E+00
  0.00000000E+00  0.00000000E+00  0.00000000E+00
  0.00000000E+00  0.00000000E+00  0.00000000E+00
  0.00000000E+00  0.00000000E+00  0.00000000E+00
  0.00000000E+00  0.00000000E+00  0.00000000E+00
  0.00000000E+00  0.00000000E+00  0.00000000E+00
  0.00000000E+00  0.00000000E+00  0.00000000E+00
  0.00000000E+00  0.00000000E+00  0.00000000E+00
  0.00000000E+00  0.00000000E+00  0.00000000E+00
  0.00000000E+00  0.00000000E+00  0.00000000E+00
  0.00000000E+00  0.00000000E+00  0.00000000E+00
  0.00000000E+00  0.00000000E+00  0.00000000E+00
  0.00000000E+00  0.00000000E+00  0.00000000E+00
  0.00000000E+00  0.00000000E+00  0.00000000E+00
  0.00000000E+00  0.00000000E+00  0.00000000E+00
  0.00000000E+00  0.00000000E+00  0.00000000E+00
  0.00000000E+00  0.00000000E+00  0.00000000E+00
