CeO2-you-111-you-Mn                     
   1.00000000000000     
     9.8938887960590822   -5.7122397346258298   -0.0000000012153931
    -0.0421129110995097   11.3515357618549722   -0.0232072284552211
    -0.0253516421245079   -0.0439103247587224   20.5703023012140704
   O    Mn   Ce   H 
    53     1    26     2
Selective dynamics
Direct
 -0.0000928453619122  0.0003140902978456  0.9907593460477537   T   T   T
  0.1081089042789927  0.2212869095299865  0.1477923507663235   F   F   F
  0.2380575947357925  0.1314663519030846  0.3137106824130166   T   T   T
  0.0687889643772300  0.2017693889408899  0.3976658663432523   T   T   T
  0.0068338047954895  0.0026308572917387  0.2310392428556087   T   T   T
  0.2224411900744556  0.1115493801488014  0.0714518757333877   F   F   F
  0.3340295804093805  0.0001011929806562  0.9906749329727615   T   T   T
  0.4465110052505352  0.2212869095291410  0.1477923507662879   F   F   F
  0.5513539466926454  0.1143371029140812  0.3071868789090954   T   T   T
  0.4698487124349682  0.2011304157114169  0.4126342868701630   T   T   T
  0.3294117239391550  0.0007902149227669  0.2301288534109577   T   T   T
  0.5573200772827960  0.1110649620597712  0.0723447781463875   F   F   F
  0.6662549687536590  0.9991317890311890  0.9904190894332013   T   T   T
  0.7773259658131622  0.2213179316263947  0.1526619200202575   F   F   F
  0.8850746314267603  0.1076439371009789  0.3035292832101180   T   T   T
  0.7764087154171732  0.2201603493992418  0.3864756680025490   T   T   T
  0.6615775252507200  0.9959212217293842  0.2317945047405220   T   T   T
  0.8870788847768551  0.1110649620594728  0.0723447781463165   F   F   F
  0.0001607663669138  0.3331954525728416  0.9911745009373599   T   T   T
  0.1095610914561789  0.5557656269349351  0.1482531948753802   F   F   F
  0.2337431148239942  0.4403672720701509  0.3122068471720670   T   T   T
  0.1125453798918484  0.5575406333283339  0.3876827064314534   T   T   T
  0.0055481573150808  0.3368995877520820  0.2318038186325205   T   T   T
  0.2223816007650683  0.4448963892357298  0.0729329173810598   F   F   F
  0.3338812779844899  0.3341209158043204  0.9911681773638774   T   T   T
  0.4460302140027324  0.5587284280065674  0.1481882224511040   F   F   F
  0.5413865514013690  0.4360361866018322  0.3144034400986985   T   T   T
  0.3343766034022638  0.3349722321038625  0.2227794341253825   T   T   T
  0.5558487884706764  0.4448963892359501  0.0729329173811024   F   F   F
  0.6663525649199330  0.3331248814823997  0.9912242564979528   T   T   T
  0.7795375354783545  0.5557656269346367  0.1482531948754300   F   F   F
  0.8897840770530683  0.4457478015178345  0.3074428815717375   T   T   T
  0.7795243606264375  0.5568806466235817  0.3885318665537986   T   T   T
  0.6661649484738613  0.3373023169220620  0.2318023771356098   T   T   T
  0.8875793953465703  0.4418247906929267  0.0728762790873603   F   F   F
  0.9990940371429508  0.6648113101381462  0.9908292886154316   T   T   T
  0.1112733860971105  0.8892137721935498  0.1465024865394042   F   F   F
  0.2204449193229822  0.7779427900973919  0.3057411707365636   T   T   T
  0.1134457655799695  0.8912542288443516  0.3879757511025663   T   T   T
  0.0007039485824442  0.6692450693448184  0.2296609121896677   T   T   T
  0.2222615597485245  0.7783390319251353  0.0713081260625543   F   F   F
  0.3333015120139725  0.6661076137170360  0.9911713766133472   T   T   T
  0.4435389082710941  0.8883485481492670  0.1488626640463337   F   F   F
  0.5507290657686059  0.7674835390340899  0.3077088701037291   T   T   T
  0.4422168175041621  0.8862942678879213  0.3857830859975867   T   T   T
  0.3306031280254479  0.6655821815925238  0.2300562552330655   T   T   T
  0.5561212472910242  0.7789084945822253  0.0725235927161734   F   F   F
  0.6658709689213463  0.6657784597114067  0.9910011095103752   T   T   T
  0.7781426398785314  0.8883485481493025  0.1488626640464545   F   F   F
  0.8900658646691424  0.7781764544511712  0.3066611695011399   T   T   T
  0.7746527214697301  0.8871617483838110  0.3869680716980057   T   T   T
  0.6680207545466974  0.6642996383801573  0.2305218668989118   T   T   T
  0.8894104721768059  0.7783390319249790  0.0713081260625401   F   F   F
  0.3361353715810219  0.3397447386024542  0.3232785736162820   T   T   T
  0.0027490015080025  0.0070601478580358  0.3496868573799614   T   T   T
  0.2227268706964480  0.1121207413938450  0.1888944626107687   F   F   F
  0.1104316010117259  0.2217739513188022  0.0317179258223206   F   F   F
  0.3297927773238688 -0.0008018083338561  0.3477021819100608   T   T   T
  0.5544140025741697  0.1104740793597543  0.1906078932254900   F   F   F
  0.4446753503072358  0.2217739513189301  0.0317179258223135   F   F   F
  0.6646352621985129  0.9978962332450569  0.3473516538157639   T   T   T
  0.8893940767846047  0.1104740793587453  0.1906078932254758   F   F   F
  0.7773685762823419  0.2214031525647044  0.0324905144086216   F   F   F
  0.0018501783865376  0.3293741767827813  0.3498589295511057   T   T   T
  0.2219439543740265  0.4449193156964597  0.1884568051155782   F   F   F
  0.1099727214162698  0.5543930425587646  0.0318752748994555   F   F   F
  0.5563093613235992  0.4449193156968647  0.1884568051156279   F   F   F
  0.4444558179513933  0.5555796359025607  0.0312991322366756   F   F   F
  0.6711160316788871  0.3361497222617178  0.3484100922551066   T   T   T
  0.8891155230712258  0.4448970461417829  0.1919366629973638   F   F   F
  0.7777533211425549  0.5543930425588215  0.0318752748994910   F   F   F
  0.0012861855891169  0.6682879261451714  0.3472060106634866   T   T   T
  0.2214286561924794  0.7797663841429028  0.1880331067347996   F   F   F
  0.1110458772269212  0.8887587544540239  0.0304363892571260   F   F   F
  0.3283361565983442  0.6654601521244053  0.3455964524251847   T   T   T
  0.5545453294373601  0.7757566588744709  0.1896317572464241   F   F   F
  0.4446191992883257  0.8884484836712616  0.0315728117698413   F   F   F
  0.6722645999064052  0.6682007791792570  0.3459146321245853   T   T   T
  0.8916707279498510  0.7797663841425333  0.1880331067347569   F   F   F
  0.7771622843825980  0.8884484836708353  0.0315728117697986   F   F   F
  0.4582405186286170  0.5810212248582579  0.3954811882986567   T   T   T
  0.4389617205161687  0.2320102056222977  0.4495710143807835   T   T   T
 
  0.00000000E+00  0.00000000E+00  0.00000000E+00
  0.00000000E+00  0.00000000E+00  0.00000000E+00
  0.00000000E+00  0.00000000E+00  0.00000000E+00
  0.00000000E+00  0.00000000E+00  0.00000000E+00
  0.00000000E+00  0.00000000E+00  0.00000000E+00
  0.00000000E+00  0.00000000E+00  0.00000000E+00
  0.00000000E+00  0.00000000E+00  0.00000000E+00
  0.00000000E+00  0.00000000E+00  0.00000000E+00
  0.00000000E+00  0.00000000E+00  0.00000000E+00
  0.00000000E+00  0.00000000E+00  0.00000000E+00
  0.00000000E+00  0.00000000E+00  0.00000000E+00
  0.00000000E+00  0.00000000E+00  0.00000000E+00
  0.00000000E+00  0.00000000E+00  0.00000000E+00
  0.00000000E+00  0.00000000E+00  0.00000000E+00
  0.00000000E+00  0.00000000E+00  0.00000000E+00
  0.00000000E+00  0.00000000E+00  0.00000000E+00
  0.00000000E+00  0.00000000E+00  0.00000000E+00
  0.00000000E+00  0.00000000E+00  0.00000000E+00
  0.00000000E+00  0.00000000E+00  0.00000000E+00
  0.00000000E+00  0.00000000E+00  0.00000000E+00
  0.00000000E+00  0.00000000E+00  0.00000000E+00
  0.00000000E+00  0.00000000E+00  0.00000000E+00
  0.00000000E+00  0.00000000E+00  0.00000000E+00
  0.00000000E+00  0.00000000E+00  0.00000000E+00
  0.00000000E+00  0.00000000E+00  0.00000000E+00
  0.00000000E+00  0.00000000E+00  0.00000000E+00
  0.00000000E+00  0.00000000E+00  0.00000000E+00
  0.00000000E+00  0.00000000E+00  0.00000000E+00
  0.00000000E+00  0.00000000E+00  0.00000000E+00
  0.00000000E+00  0.00000000E+00  0.00000000E+00
  0.00000000E+00  0.00000000E+00  0.00000000E+00
  0.00000000E+00  0.00000000E+00  0.00000000E+00
  0.00000000E+00  0.00000000E+00  0.00000000E+00
  0.00000000E+00  0.00000000E+00  0.00000000E+00
  0.00000000E+00  0.00000000E+00  0.00000000E+00
  0.00000000E+00  0.00000000E+00  0.00000000E+00
  0.00000000E+00  0.00000000E+00  0.00000000E+00
  0.00000000E+00  0.00000000E+00  0.00000000E+00
  0.00000000E+00  0.00000000E+00  0.00000000E+00
  0.00000000E+00  0.00000000E+00  0.00000000E+00
  0.00000000E+00  0.00000000E+00  0.00000000E+00
  0.00000000E+00  0.00000000E+00  0.00000000E+00
  0.00000000E+00  0.00000000E+00  0.00000000E+00
  0.00000000E+00  0.00000000E+00  0.00000000E+00
  0.00000000E+00  0.00000000E+00  0.00000000E+00
  0.00000000E+00  0.00000000E+00  0.00000000E+00
  0.00000000E+00  0.00000000E+00  0.00000000E+00
  0.00000000E+00  0.00000000E+00  0.00000000E+00
  0.00000000E+00  0.00000000E+00  0.00000000E+00
  0.00000000E+00  0.00000000E+00  0.00000000E+00
  0.00000000E+00  0.00000000E+00  0.00000000E+00
  0.00000000E+00  0.00000000E+00  0.00000000E+00
  0.00000000E+00  0.00000000E+00  0.00000000E+00
  0.00000000E+00  0.00000000E+00  0.00000000E+00
  0.00000000E+00  0.00000000E+00  0.00000000E+00
  0.00000000E+00  0.00000000E+00  0.00000000E+00
  0.00000000E+00  0.00000000E+00  0.00000000E+00
  0.00000000E+00  0.00000000E+00  0.00000000E+00
  0.00000000E+00  0.00000000E+00  0.00000000E+00
  0.00000000E+00  0.00000000E+00  0.00000000E+00
  0.00000000E+00  0.00000000E+00  0.00000000E+00
  0.00000000E+00  0.00000000E+00  0.00000000E+00
  0.00000000E+00  0.00000000E+00  0.00000000E+00
  0.00000000E+00  0.00000000E+00  0.00000000E+00
  0.00000000E+00  0.00000000E+00  0.00000000E+00
  0.00000000E+00  0.00000000E+00  0.00000000E+00
  0.00000000E+00  0.00000000E+00  0.00000000E+00
  0.00000000E+00  0.00000000E+00  0.00000000E+00
  0.00000000E+00  0.00000000E+00  0.00000000E+00
  0.00000000E+00  0.00000000E+00  0.00000000E+00
  0.00000000E+00  0.00000000E+00  0.00000000E+00
  0.00000000E+00  0.00000000E+00  0.00000000E+00
  0.00000000E+00  0.00000000E+00  0.00000000E+00
  0.00000000E+00  0.00000000E+00  0.00000000E+00
  0.00000000E+00  0.00000000E+00  0.00000000E+00
  0.00000000E+00  0.00000000E+00  0.00000000E+00
  0.00000000E+00  0.00000000E+00  0.00000000E+00
  0.00000000E+00  0.00000000E+00  0.00000000E+00
  0.00000000E+00  0.00000000E+00  0.00000000E+00
  0.00000000E+00  0.00000000E+00  0.00000000E+00
  0.00000000E+00  0.00000000E+00  0.00000000E+00
  0.00000000E+00  0.00000000E+00  0.00000000E+00
