CeO2-you-111-you-Nb                     
   1.00000000000000     
     9.8703502434844470   -5.7004729662073883   -0.0081075596446615
    -0.0000000025238452   11.4009439218023250    0.0000000009385530
    -0.0139863496229065    0.0000000013437395   20.1431291946427571
   O    Nb   Ce   H 
    53     1    26     1
Selective dynamics
Direct
  0.9976979546279312  0.0008536025120585  0.9871255939855114   T   T   T
  0.1193136341797791  0.2259925108063413  0.1489290535900258   T   T   T
  0.2367438784492494  0.1286849875278754  0.3077866492995882   T   T   T
  0.1523482470548274  0.2452848561325092  0.3953557853154474   T   T   T
  0.0044822961557622  0.0021017234081380  0.2287451073010664   T   T   T
  0.2208927533269682  0.1096517484064922  0.0684807704784751   T   T   T
  0.3333480870576739 -0.0000801940580456  0.9862269887029516   T   T   T
  0.4423571454570316  0.2219191145227165  0.1455518426704052   T   T   T
  0.5468161550061834  0.1073820218070056  0.3105154184229591   T   T   T
  0.4262311290458508  0.2313130576781077  0.3978902524691831   T   T   T
  0.3296612920786177  0.9990806851137095  0.2297247787264704   T   T   T
  0.5540316748261574  0.1099935114880848  0.0704999841953334   T   T   T
  0.6676818655446340  0.0002475882648015  0.9885307493201879   T   T   T
  0.7726875612111996  0.2231863538512683  0.1517615483101945   T   T   T
  0.8876937508356882  0.1113739557371409  0.3082476455417181   T   T   T
  0.7696944303354577  0.2095687769754337  0.3987008669588796   T   T   T
  0.6626060886694948  0.9967578106013029  0.2322914887882002   T   T   T
  0.8891554897518225  0.1111658890727933  0.0733831574168199   T   T   T
  0.9972467134461397  0.3305850209389264  0.9871495223291609   T   T   T
  0.1107450686408094  0.5552401128437546  0.1460417987378374   T   T   T
  0.2303948976407727  0.4399983076474663  0.3081648218949330   T   T   T
  0.1261974270684375  0.5716673913822138  0.3931850724521496   T   T   T
  0.0039104440620659  0.3354623270076750  0.2277910449552400   T   T   T
  0.2207511155396098  0.4444452826311070  0.0679229724942422   T   T   T
  0.3309471702285229  0.3321964603820464  0.9859117568699668   T   T   T
  0.4421256170819127  0.5535757091154313  0.1448415808235203   T   T   T
  0.4529199051457272  0.4792694944376813  0.3770635471390155   T   T   T
  0.3523292510580555  0.3443011205814982  0.2393788523033467   T   T   T
  0.5553769339843078  0.4437663497261491  0.0662388005836830   T   T   T
  0.6663544971024092  0.3308273166929785  0.9865159449295546   T   T   T
  0.7791908031518379  0.5567512846803824  0.1448914295278344   T   T   T
  0.8938696934071989  0.4470196699931115  0.3077675260721274   T   T   T
  0.7924850634610915  0.5614553195153190  0.3956649253440236   T   T   T
  0.6568130555983679  0.3427330602115580  0.2352791999326663   T   T   T
  0.8880788171721716  0.4433327137327901  0.0691547213618530   T   T   T
  0.9979463383142069  0.6656246463915760  0.9859517733798673   T   T   T
  0.1107658173598691  0.8885267216225912  0.1463149294910481   T   T   T
  0.2243558859113025  0.7777281053198971  0.3042897180537953   T   T   T
  0.1250508418227189  0.8871722022115482  0.3928353800424926   T   T   T
  0.0003040132348013  0.6664648885924428  0.2286422266850412   T   T   T
  0.2215883952270919  0.7774621657940615  0.0677787721646297   T   T   T
  0.3333788739768368  0.6667912644136157  0.9856830931803431   T   T   T
  0.4438682992936684  0.8879580461353118  0.1484492275976441   T   T   T
  0.5447711442572423  0.7706234102393491  0.3117231712309126   T   T   T
  0.4361151429280799  0.8845037260271645  0.3933328348239026   T   T   T
  0.3301856723610423  0.6628391755082786  0.2291867138983712   T   T   T
  0.5543315717232613  0.7771031868498622  0.0703647686997299   T   T   T
  0.6660856416701518  0.6679393057798434  0.9864868079301006   T   T   T
  0.7738371859558678  0.8836219591416701  0.1511823538339522   T   T   T
  0.8947824513530195  0.7794866271678822  0.3078552946047918   T   T   T
  0.7712538129430381  0.8960421269512013  0.3981183779551000   T   T   T
  0.6586067184397928  0.6501398736785132  0.2343834822086186   T   T   T
  0.8887423561842618  0.7787943555915764  0.0691247769974684   T   T   T
  0.3054234780111230  0.3248499330003558  0.3398360372612474   T   T   T
  0.0023966672596332  0.0009272475983354  0.3542563406106163   T   T   T
  0.2224917281824078  0.1103260191680349  0.1888499599345396   T   T   T
  0.1099029881904350  0.2214094940139882  0.0284509679869272   T   T   T
  0.3298097234090771  0.9938655994635496  0.3490597695562400   T   T   T
  0.5533402559202113  0.1112861531943211  0.1920457798208730   T   T   T
  0.4429461367516170  0.2196140410549677  0.0263483884747349   T   T   T
  0.6670037302062183 -0.0003506202564368  0.3530816571280905   T   T   T
  0.8889821565178206  0.1112339469701435  0.1931225872484453   T   T   T
  0.7766084196711844  0.2214987461271941  0.0303769839118563   T   T   T
 -0.0002290537447251  0.3339912016373593  0.3553459939214005   T   T   T
  0.2214924601295387  0.4448135721019035  0.1874510910494554   T   T   T
  0.1091479437178681  0.5538875177516450  0.0273853248117973   T   T   T
  0.5578034977766504  0.4460530943476203  0.1807901237093627   T   T   T
  0.4430290476855011  0.5563123591194677  0.0258392079539937   T   T   T
  0.6765284634179172  0.3329638154465507  0.3580132664125474   T   T   T
  0.8881561121412518  0.4445217389380512  0.1913149785334261   T   T   T
  0.7789303172073030  0.5560350370616998  0.0265740568007339   T   T   T
  0.0003514768822940  0.6665595927951804  0.3500814426488559   T   T   T
  0.2206526023094522  0.7769309694749227  0.1860881064167400   T   T   T
  0.1095077673592925  0.8890490006212144  0.0277873132720761   T   T   T
  0.3284257446066595  0.6721411652013437  0.3469929793480270   T   T   T
  0.5541900627895946  0.7750314685700873  0.1916386760701763   T   T   T
  0.4448928861790554  0.8888879505678831  0.0289751453263737   T   T   T
  0.6778128743678049  0.6757760224044616  0.3576358920604470   T   T   T
  0.8887164721422723  0.7773026782979336  0.1912266897089321   T   T   T
  0.7768474417115870  0.8885396535955161  0.0303198876434435   T   T   T
  0.4267305288409457  0.2621918729485173  0.4430304503563821   T   T   T
 
  0.00000000E+00  0.00000000E+00  0.00000000E+00
  0.00000000E+00  0.00000000E+00  0.00000000E+00
  0.00000000E+00  0.00000000E+00  0.00000000E+00
  0.00000000E+00  0.00000000E+00  0.00000000E+00
  0.00000000E+00  0.00000000E+00  0.00000000E+00
  0.00000000E+00  0.00000000E+00  0.00000000E+00
  0.00000000E+00  0.00000000E+00  0.00000000E+00
  0.00000000E+00  0.00000000E+00  0.00000000E+00
  0.00000000E+00  0.00000000E+00  0.00000000E+00
  0.00000000E+00  0.00000000E+00  0.00000000E+00
  0.00000000E+00  0.00000000E+00  0.00000000E+00
  0.00000000E+00  0.00000000E+00  0.00000000E+00
  0.00000000E+00  0.00000000E+00  0.00000000E+00
  0.00000000E+00  0.00000000E+00  0.00000000E+00
  0.00000000E+00  0.00000000E+00  0.00000000E+00
  0.00000000E+00  0.00000000E+00  0.00000000E+00
  0.00000000E+00  0.00000000E+00  0.00000000E+00
  0.00000000E+00  0.00000000E+00  0.00000000E+00
  0.00000000E+00  0.00000000E+00  0.00000000E+00
  0.00000000E+00  0.00000000E+00  0.00000000E+00
  0.00000000E+00  0.00000000E+00  0.00000000E+00
  0.00000000E+00  0.00000000E+00  0.00000000E+00
  0.00000000E+00  0.00000000E+00  0.00000000E+00
  0.00000000E+00  0.00000000E+00  0.00000000E+00
  0.00000000E+00  0.00000000E+00  0.00000000E+00
  0.00000000E+00  0.00000000E+00  0.00000000E+00
  0.00000000E+00  0.00000000E+00  0.00000000E+00
  0.00000000E+00  0.00000000E+00  0.00000000E+00
  0.00000000E+00  0.00000000E+00  0.00000000E+00
  0.00000000E+00  0.00000000E+00  0.00000000E+00
  0.00000000E+00  0.00000000E+00  0.00000000E+00
  0.00000000E+00  0.00000000E+00  0.00000000E+00
  0.00000000E+00  0.00000000E+00  0.00000000E+00
  0.00000000E+00  0.00000000E+00  0.00000000E+00
  0.00000000E+00  0.00000000E+00  0.00000000E+00
  0.00000000E+00  0.00000000E+00  0.00000000E+00
  0.00000000E+00  0.00000000E+00  0.00000000E+00
  0.00000000E+00  0.00000000E+00  0.00000000E+00
  0.00000000E+00  0.00000000E+00  0.00000000E+00
  0.00000000E+00  0.00000000E+00  0.00000000E+00
  0.00000000E+00  0.00000000E+00  0.00000000E+00
  0.00000000E+00  0.00000000E+00  0.00000000E+00
  0.00000000E+00  0.00000000E+00  0.00000000E+00
  0.00000000E+00  0.00000000E+00  0.00000000E+00
  0.00000000E+00  0.00000000E+00  0.00000000E+00
  0.00000000E+00  0.00000000E+00  0.00000000E+00
  0.00000000E+00  0.00000000E+00  0.00000000E+00
  0.00000000E+00  0.00000000E+00  0.00000000E+00
  0.00000000E+00  0.00000000E+00  0.00000000E+00
  0.00000000E+00  0.00000000E+00  0.00000000E+00
  0.00000000E+00  0.00000000E+00  0.00000000E+00
  0.00000000E+00  0.00000000E+00  0.00000000E+00
  0.00000000E+00  0.00000000E+00  0.00000000E+00
  0.00000000E+00  0.00000000E+00  0.00000000E+00
  0.00000000E+00  0.00000000E+00  0.00000000E+00
  0.00000000E+00  0.00000000E+00  0.00000000E+00
  0.00000000E+00  0.00000000E+00  0.00000000E+00
  0.00000000E+00  0.00000000E+00  0.00000000E+00
  0.00000000E+00  0.00000000E+00  0.00000000E+00
  0.00000000E+00  0.00000000E+00  0.00000000E+00
  0.00000000E+00  0.00000000E+00  0.00000000E+00
  0.00000000E+00  0.00000000E+00  0.00000000E+00
  0.00000000E+00  0.00000000E+00  0.00000000E+00
  0.00000000E+00  0.00000000E+00  0.00000000E+00
  0.00000000E+00  0.00000000E+00  0.00000000E+00
  0.00000000E+00  0.00000000E+00  0.00000000E+00
  0.00000000E+00  0.00000000E+00  0.00000000E+00
  0.00000000E+00  0.00000000E+00  0.00000000E+00
  0.00000000E+00  0.00000000E+00  0.00000000E+00
  0.00000000E+00  0.00000000E+00  0.00000000E+00
  0.00000000E+00  0.00000000E+00  0.00000000E+00
  0.00000000E+00  0.00000000E+00  0.00000000E+00
  0.00000000E+00  0.00000000E+00  0.00000000E+00
  0.00000000E+00  0.00000000E+00  0.00000000E+00
  0.00000000E+00  0.00000000E+00  0.00000000E+00
  0.00000000E+00  0.00000000E+00  0.00000000E+00
  0.00000000E+00  0.00000000E+00  0.00000000E+00
  0.00000000E+00  0.00000000E+00  0.00000000E+00
  0.00000000E+00  0.00000000E+00  0.00000000E+00
  0.00000000E+00  0.00000000E+00  0.00000000E+00
  0.00000000E+00  0.00000000E+00  0.00000000E+00
