CeO2-you-111-you-Fe                     
   1.00000000000000     
     9.8416082815900676   -5.6820555617039341    0.0000000000000000
     0.0000000006170993   11.3641091246345525    0.0000000000000000
     0.0000000000000000    0.0000000000000000   19.8948214410703947
   O    Fe   Ce   H 
    54     1    26     2
Selective dynamics
Direct
  0.0000539554199513  0.0001415981535484  0.9836108787464998   T   T   T
  0.1082176331335227  0.2198527360162309  0.1454665485396365   T   T   T
  0.2436119693682529  0.1418993081817933  0.3192969647402090   T   T   T
  0.0567219345950571  0.1934946977282613  0.4077858409566629   T   T   T
  0.0089407383748900  0.0035336463956567  0.2339226760905410   T   T   T
  0.2221930223132896  0.1103391883062089  0.0677296761887192   T   T   T
  0.3337810980730507  0.0004488096654607  0.9831282569003977   T   T   T
  0.4462475727846130  0.2206366479757891  0.1457709645965001   T   T   T
  0.5526342434287908  0.1138485789471540  0.3099982093280697   T   T   T
  0.4736739694753053  0.1929494377252443  0.4209386486780519   T   T   T
  0.3282971814879708  0.0002161788679978  0.2327815032268515   T   T   T
  0.5563536556199020  0.1097977577771570  0.0675935585167834   T   T   T
  0.6664478912871582 -0.0002250451868018  0.9828363707587221   T   T   T
  0.7786164565955555  0.2242464823055945  0.1480944612526145   T   T   T
  0.8849289823984559  0.1088340686093790  0.3066372697336028   T   T   T
  0.7766293935112856  0.2216765692583281  0.3935548748636744   T   T   T
  0.6647171693749353  0.0022342033372253  0.2298933172033948   T   T   T
  0.8870467544117864  0.1102480106895949  0.0673911557312958   T   T   T
  0.0000424800210464  0.3332385991263394  0.9831878153397928   T   T   T
  0.1100826726741503  0.5563367527186796  0.1464859195697851   T   T   T
  0.2378024616356027  0.4279945530963365  0.3166264162729051   T   T   T
  0.1136324471494559  0.5529902342591000  0.3928242698184080   T   T   T
  0.0070349181550994  0.3371083910448915  0.2324430458352610   T   T   T
  0.2218082621773007  0.4444598650957171  0.0674800404630727   T   T   T
  0.3331227406875918  0.3330388316698642  0.9835883461787560   T   T   T
  0.4466260000099669  0.5583829618307701  0.1453120118294021   T   T   T
  0.5257731463185672  0.4244919925450921  0.3187483067499427   T   T   T
  0.4733610956571426  0.6109655042594102  0.4077948545781889   T   T   T
  0.3339222037838127  0.3328552330759416  0.2224377443026520   T   T   T
  0.5563266161382997  0.4440243294961480  0.0677249259353837   T   T   T
  0.6663356457436960  0.3328882722368059  0.9831581527481055   T   T   T
  0.7799330053623145  0.5573438641994712  0.1469535681092749   T   T   T
  0.8894775733189645  0.4430064176331578  0.3107051883508919   T   T   T
  0.7754195855061384  0.5514764254181607  0.3929778489622791   T   T   T
  0.6660001522025808  0.3380226465130712  0.2327441095724478   T   T   T
  0.8882179669418410  0.4440529627948349  0.0673543044609120   T   T   T
 -0.0003591882024809  0.6663889080608277  0.9829075384287945   T   T   T
  0.1095660335242108  0.8864650000821002  0.1468634055879750   T   T   T
  0.2232431057617757  0.7765812280588522  0.3106272165109334   T   T   T
  0.1159562200650523  0.8911385060227888  0.3931760019136511   T   T   T
 -0.0000732559023767  0.6664007177707437  0.2326550432201087   T   T   T
  0.2221411256192538  0.7777722768083195  0.0670445340704533   T   T   T
  0.3336468673240737  0.6664883554159337  0.9833170385350313   T   T   T
  0.4418217119613186  0.8870891321755155  0.1479490821504597   T   T   T
  0.5581703281973628  0.7822490526003958  0.3063409453690435   T   T   T
  0.4451554089491775  0.8901181718960436  0.3934371079403327   T   T   T
  0.3290657650600106  0.6585394304369881  0.2325597652476869   T   T   T
  0.5570983052135734  0.7796489535617883  0.0674247225240353   T   T   T
  0.6661013080249809  0.6663759344059074  0.9832272647232264   T   T   T
  0.7792750870838899  0.8880773503015634  0.1493337235813031   T   T   T
  0.8887891895636778  0.7788716441169067  0.3124604057705854   T   T   T
  0.7759735544844270  0.8914573824316220  0.3951252817164975   T   T   T
  0.6638409762141816  0.6587855544003199  0.2338276152043870   T   T   T
  0.8885377732542590  0.7778562003785930  0.0674355484327481   T   T   T
  0.3339850425615234  0.3329742713696333  0.3219224069770300   T   T   T
  0.9980086927415635  0.0041771213430244  0.3567565039979150   T   T   T
  0.2214245670356730  0.1090826039103939  0.1871110038087319   T   T   T
  0.1103709592182409  0.2217372294642276  0.0251276331104262   T   T   T
  0.3323720594591482 -0.0044512135823382  0.3538859191242240   T   T   T
  0.5548458334988171  0.1114892053035967  0.1895803334021938   T   T   T
  0.4448593366039142  0.2215200103043126  0.0249312448564379   T   T   T
  0.6661528980122090  0.0007004159198809  0.3520407766144640   T   T   T
  0.8895938853354758  0.1117272961732042  0.1898004905887799   T   T   T
  0.7775318113754766  0.2219773236805941  0.0255125841123349   T   T   T
  0.0009982048170932  0.3275416470980335  0.3561170276117109   T   T   T
  0.2216815283493304  0.4445292299480976  0.1873026535971417   T   T   T
  0.1105815717753030  0.5556604924804539  0.0252026141913630   T   T   T
  0.5575692785363534  0.4454405657409926  0.1872267849220737   T   T   T
  0.4448949871199037  0.5560708524982537  0.0250926536510869   T   T   T
  0.6709725420766833  0.3344785304310451  0.3538080866044523   T   T   T
  0.8895070859323333  0.4442758885207634  0.1901674361942582   T   T   T
  0.7784900225479339  0.5560646889712940  0.0255945610447191   T   T   T
  0.0010759845232904  0.6655885334634060  0.3519184098267266   T   T   T
  0.2220499302464856  0.7766124452806775  0.1901709408652852   T   T   T
  0.1103660206619768  0.8878700370137236  0.0256049983855912   T   T   T
  0.3389541414125165  0.6655564520923256  0.3559905383271625   T   T   T
  0.5549883581095580  0.7770393153688365  0.1896996405815687   T   T   T
  0.4445351935260772  0.8887487358608427  0.0254606426160295   T   T   T
  0.6627721408651409  0.6691624328797229  0.3565987211340577   T   T   T
  0.8889184618157909  0.7780387770535430  0.1919464270757586   T   T   T
  0.7777685640522224  0.8887777577066889  0.0258084359203565   T   T   T
  0.3312063214856987  0.3358226852722689  0.3990259219094280   T   T   T
  0.4314726649705894  0.2339851577396895  0.4474343228918552   T   T   T
 
  0.00000000E+00  0.00000000E+00  0.00000000E+00
  0.00000000E+00  0.00000000E+00  0.00000000E+00
  0.00000000E+00  0.00000000E+00  0.00000000E+00
  0.00000000E+00  0.00000000E+00  0.00000000E+00
  0.00000000E+00  0.00000000E+00  0.00000000E+00
  0.00000000E+00  0.00000000E+00  0.00000000E+00
  0.00000000E+00  0.00000000E+00  0.00000000E+00
  0.00000000E+00  0.00000000E+00  0.00000000E+00
  0.00000000E+00  0.00000000E+00  0.00000000E+00
  0.00000000E+00  0.00000000E+00  0.00000000E+00
  0.00000000E+00  0.00000000E+00  0.00000000E+00
  0.00000000E+00  0.00000000E+00  0.00000000E+00
  0.00000000E+00  0.00000000E+00  0.00000000E+00
  0.00000000E+00  0.00000000E+00  0.00000000E+00
  0.00000000E+00  0.00000000E+00  0.00000000E+00
  0.00000000E+00  0.00000000E+00  0.00000000E+00
  0.00000000E+00  0.00000000E+00  0.00000000E+00
  0.00000000E+00  0.00000000E+00  0.00000000E+00
  0.00000000E+00  0.00000000E+00  0.00000000E+00
  0.00000000E+00  0.00000000E+00  0.00000000E+00
  0.00000000E+00  0.00000000E+00  0.00000000E+00
  0.00000000E+00  0.00000000E+00  0.00000000E+00
  0.00000000E+00  0.00000000E+00  0.00000000E+00
  0.00000000E+00  0.00000000E+00  0.00000000E+00
  0.00000000E+00  0.00000000E+00  0.00000000E+00
  0.00000000E+00  0.00000000E+00  0.00000000E+00
  0.00000000E+00  0.00000000E+00  0.00000000E+00
  0.00000000E+00  0.00000000E+00  0.00000000E+00
  0.00000000E+00  0.00000000E+00  0.00000000E+00
  0.00000000E+00  0.00000000E+00  0.00000000E+00
  0.00000000E+00  0.00000000E+00  0.00000000E+00
  0.00000000E+00  0.00000000E+00  0.00000000E+00
  0.00000000E+00  0.00000000E+00  0.00000000E+00
  0.00000000E+00  0.00000000E+00  0.00000000E+00
  0.00000000E+00  0.00000000E+00  0.00000000E+00
  0.00000000E+00  0.00000000E+00  0.00000000E+00
  0.00000000E+00  0.00000000E+00  0.00000000E+00
  0.00000000E+00  0.00000000E+00  0.00000000E+00
  0.00000000E+00  0.00000000E+00  0.00000000E+00
  0.00000000E+00  0.00000000E+00  0.00000000E+00
  0.00000000E+00  0.00000000E+00  0.00000000E+00
  0.00000000E+00  0.00000000E+00  0.00000000E+00
  0.00000000E+00  0.00000000E+00  0.00000000E+00
  0.00000000E+00  0.00000000E+00  0.00000000E+00
  0.00000000E+00  0.00000000E+00  0.00000000E+00
  0.00000000E+00  0.00000000E+00  0.00000000E+00
  0.00000000E+00  0.00000000E+00  0.00000000E+00
  0.00000000E+00  0.00000000E+00  0.00000000E+00
  0.00000000E+00  0.00000000E+00  0.00000000E+00
  0.00000000E+00  0.00000000E+00  0.00000000E+00
  0.00000000E+00  0.00000000E+00  0.00000000E+00
  0.00000000E+00  0.00000000E+00  0.00000000E+00
  0.00000000E+00  0.00000000E+00  0.00000000E+00
  0.00000000E+00  0.00000000E+00  0.00000000E+00
  0.00000000E+00  0.00000000E+00  0.00000000E+00
  0.00000000E+00  0.00000000E+00  0.00000000E+00
  0.00000000E+00  0.00000000E+00  0.00000000E+00
  0.00000000E+00  0.00000000E+00  0.00000000E+00
  0.00000000E+00  0.00000000E+00  0.00000000E+00
  0.00000000E+00  0.00000000E+00  0.00000000E+00
  0.00000000E+00  0.00000000E+00  0.00000000E+00
  0.00000000E+00  0.00000000E+00  0.00000000E+00
  0.00000000E+00  0.00000000E+00  0.00000000E+00
  0.00000000E+00  0.00000000E+00  0.00000000E+00
  0.00000000E+00  0.00000000E+00  0.00000000E+00
  0.00000000E+00  0.00000000E+00  0.00000000E+00
  0.00000000E+00  0.00000000E+00  0.00000000E+00
  0.00000000E+00  0.00000000E+00  0.00000000E+00
  0.00000000E+00  0.00000000E+00  0.00000000E+00
  0.00000000E+00  0.00000000E+00  0.00000000E+00
  0.00000000E+00  0.00000000E+00  0.00000000E+00
  0.00000000E+00  0.00000000E+00  0.00000000E+00
  0.00000000E+00  0.00000000E+00  0.00000000E+00
  0.00000000E+00  0.00000000E+00  0.00000000E+00
  0.00000000E+00  0.00000000E+00  0.00000000E+00
  0.00000000E+00  0.00000000E+00  0.00000000E+00
  0.00000000E+00  0.00000000E+00  0.00000000E+00
  0.00000000E+00  0.00000000E+00  0.00000000E+00
  0.00000000E+00  0.00000000E+00  0.00000000E+00
  0.00000000E+00  0.00000000E+00  0.00000000E+00
  0.00000000E+00  0.00000000E+00  0.00000000E+00
  0.00000000E+00  0.00000000E+00  0.00000000E+00
  0.00000000E+00  0.00000000E+00  0.00000000E+00
