CeO2-you-111-you-Zr                     
   1.00000000000000     
     9.8169881593313750   -5.6678411278461516    0.0000000000000000
     0.0000000031210471   11.3356802662588212    0.0000000000000000
     0.0000000000000000    0.0000000000000000   21.1694556899234918
   O    Zr   Ce   H 
    54     1    26     1
Selective dynamics
Direct
  0.9998073346501696  0.9998986921124658  0.9961921509000270   T   T   T
  0.1121154536687499  0.2227242268342451  0.1503159982051585   F   F   F
  0.2355253716259303  0.1217977651319502  0.3040275009155776   T   T   T
  0.1271646088283763  0.2311163223284084  0.3792430950687780   T   T   T
  0.0026491614224988  0.0012015133417056  0.2302039957274309   T   T   T
  0.2221177676526978  0.1109025353053852  0.0752919400904304   F   F   F
  0.3332247495098062 -0.0001486716144850  0.9959581896130055   T   T   T
  0.4439417731654913  0.2227242268341314  0.1503159982051585   F   F   F
  0.5473479512915410  0.1072447418312778  0.3071712720034571   T   T   T
  0.4237104312470482  0.2327372794020804  0.3968038979577624   T   T   T
  0.3315455156567658  0.9977915538529053  0.2292937762909209   T   T   T
  0.5554494393117508  0.1112175606881323  0.0760581694172657   F   F   F
  0.6668288695718204 -0.0002435820598828  0.9963277379531034   T   T   T
  0.7774007292069314  0.2214674584138407  0.1503182578257736   F   F   F
  0.8918027576529294  0.1103065350565518  0.3042952494634058   T   T   T
  0.7857282701388505  0.2142890268577434  0.3864743364758646   T   T   T
  0.6665571913205997  0.0003037688972202  0.2311358174686766   T   T   T
  0.8891021213764176  0.1112175606881749  0.0760581694172657   F   F   F
  0.9996987327022848  0.3329516125491814  0.9959443616072996   T   T   T
  0.1110948052553269  0.5555721947446628  0.1501925216725581   F   F   F
  0.2253897631709688  0.4424711912636475  0.3025398706292312   T   T   T
  0.1150158599388163  0.5552927373713278  0.3843794769940286   T   T   T
  0.0001017681958474  0.3323742734559387  0.2297619089735904   T   T   T
  0.2221177676527120  0.4445482323473087  0.0752919400904304   F   F   F
  0.3331534842736158  0.3332024808788450  0.9958873040770149   T   T   T
  0.4439417731657542  0.5545515463316306  0.1503159982051585   F   F   F
  0.5421819786095354  0.4361725009148001  0.3041716628500042   T   T   T
  0.4336014881370273  0.5391560838811598  0.3808938428740934   T   T   T
  0.3307694085222778  0.3342351432921103  0.2312563509847288   T   T   T
  0.5557644646945974  0.4445482323473016  0.0752919400904304   F   F   F
  0.6666825817535145  0.3325945835687739  0.9962336557088619   T   T   T
  0.7778103894893391  0.5555721947446699  0.1501925216725581   F   F   F
  0.8952788510311513  0.4471504775967014  0.3050872310291585   T   T   T
  0.7835335933492679  0.5694776593289710  0.3855413789397498   T   T   T
  0.6679641654541675  0.3332163155521156  0.2285477272631919   T   T   T
  0.8888951866279982  0.4444563732559885  0.0757698460085550   F   F   F
 -0.0000558242990247  0.6668944587630014  0.9959153122696905   T   T   T
  0.1110948052553340  0.8888566105106719  0.1501925216725581   F   F   F
  0.2221479131802222  0.7766286157637549  0.3043539984237547   T   T   T
  0.1147527573409590  0.8924544466234342  0.3830288759989017   T   T   T
 -0.0000010868191362  0.6673406742181575  0.2296994465050998   T   T   T
  0.2222096267440108  0.7777718133719986  0.0757698460085550   F   F   F
  0.3340460723765635  0.6675404117848858  0.9963752595194684   T   T   T
  0.4451985415860733  0.8892662707930654  0.1503182578257736   F   F   F
  0.5551392016207410  0.7756704760297627  0.3059259151705860   T   T   T
  0.4420394772929427  0.8857541689614962  0.3854291050674074   T   T   T
  0.3343177134343381  0.6672051776319595  0.2300187841593490   T   T   T
  0.5554494393118290  0.7775648786236928  0.0760581694172657   F   F   F
  0.6669529700171837  0.6670474358934996  0.9959808316657499   T   T   T
  0.7774007292069882  0.8892662707930938  0.1503182578257736   F   F   F
  0.8910579215185197  0.7805463704771254  0.3035852511058000   T   T   T
  0.7804997776589405  0.8898719815097845  0.3835368354970752   T   T   T
  0.6669318618946117  0.6658565213182537  0.2302576590585021   T   T   T
  0.8888951866279982  0.7777718133719986  0.0757698460085550   F   F   F
  0.3292446624409627  0.3421959468970667  0.3331933209659325   T   T   T
  0.0051531784547327  0.0040630543098814  0.3432391955241570   T   T   T
  0.2218331881703861  0.1103333763407122  0.1898048285934664   F   F   F
  0.1109953382367550  0.2221641691183649  0.0358612976255515   F   F   F
  0.3303707009701995 -0.0058508880196830  0.3423171612740582   T   T   T
  0.5555741152234290  0.1110928847764683  0.1902840384227318   F   F   F
  0.4445018308816060  0.2221641691183507  0.0358612976255515   F   F   F
  0.6685113086401689 -0.0002488078174450  0.3456747664725452   T   T   T
  0.8888527695530684  0.1110928847765038  0.1902840384227318   F   F   F
  0.7777632190888113  0.2221924381776148  0.0362935244459663   F   F   F
  0.0019551051277955  0.3321166469509819  0.3446785040726509   T   T   T
  0.2218331881705211  0.4448328118296700  0.1898048285934664   F   F   F
  0.1110269697052644  0.5556400302946969  0.0359698849292798   F   F   F
  0.5563336236590999  0.4448328118296132  0.1898048285934664   F   F   F
  0.4445018308816344  0.5556716617632915  0.0358612976255515   F   F   F
  0.6703778412270839  0.3364956705958234  0.3472389377397233   T   T   T
  0.8887861014291616  0.4442382028584007  0.1902363358013091   F   F   F
  0.7779460605894499  0.5556400302947111  0.0359698849292798   F   F   F
 -0.0004254326235739  0.6664336561794876  0.3437160191514821   T   T   T
  0.2224277971418545  0.7778808985708352  0.1902363358013091   F   F   F
  0.1110269697052928  0.8887209394105895  0.0359698849292798   F   F   F
  0.3337628546708279  0.6640743991598328  0.3452164790810898   T   T   T
  0.5555741152235001  0.7778142304470279  0.1902840384227318   F   F   F
  0.4444735618223135  0.8889037809111855  0.0362935244459663   F   F   F
  0.6656110194258875  0.6639962663444161  0.3439678084890846   T   T   T
  0.8887861014289840  0.7778808985707570  0.1902363358013091   F   F   F
  0.7777632190888610  0.8889037809112068  0.0362935244459663   F   F   F
  0.4102104951380052  0.2331971223981354  0.4421858155257544   T   T   T
 
  0.00000000E+00  0.00000000E+00  0.00000000E+00
  0.00000000E+00  0.00000000E+00  0.00000000E+00
  0.00000000E+00  0.00000000E+00  0.00000000E+00
  0.00000000E+00  0.00000000E+00  0.00000000E+00
  0.00000000E+00  0.00000000E+00  0.00000000E+00
  0.00000000E+00  0.00000000E+00  0.00000000E+00
  0.00000000E+00  0.00000000E+00  0.00000000E+00
  0.00000000E+00  0.00000000E+00  0.00000000E+00
  0.00000000E+00  0.00000000E+00  0.00000000E+00
  0.00000000E+00  0.00000000E+00  0.00000000E+00
  0.00000000E+00  0.00000000E+00  0.00000000E+00
  0.00000000E+00  0.00000000E+00  0.00000000E+00
  0.00000000E+00  0.00000000E+00  0.00000000E+00
  0.00000000E+00  0.00000000E+00  0.00000000E+00
  0.00000000E+00  0.00000000E+00  0.00000000E+00
  0.00000000E+00  0.00000000E+00  0.00000000E+00
  0.00000000E+00  0.00000000E+00  0.00000000E+00
  0.00000000E+00  0.00000000E+00  0.00000000E+00
  0.00000000E+00  0.00000000E+00  0.00000000E+00
  0.00000000E+00  0.00000000E+00  0.00000000E+00
  0.00000000E+00  0.00000000E+00  0.00000000E+00
  0.00000000E+00  0.00000000E+00  0.00000000E+00
  0.00000000E+00  0.00000000E+00  0.00000000E+00
  0.00000000E+00  0.00000000E+00  0.00000000E+00
  0.00000000E+00  0.00000000E+00  0.00000000E+00
  0.00000000E+00  0.00000000E+00  0.00000000E+00
  0.00000000E+00  0.00000000E+00  0.00000000E+00
  0.00000000E+00  0.00000000E+00  0.00000000E+00
  0.00000000E+00  0.00000000E+00  0.00000000E+00
  0.00000000E+00  0.00000000E+00  0.00000000E+00
  0.00000000E+00  0.00000000E+00  0.00000000E+00
  0.00000000E+00  0.00000000E+00  0.00000000E+00
  0.00000000E+00  0.00000000E+00  0.00000000E+00
  0.00000000E+00  0.00000000E+00  0.00000000E+00
  0.00000000E+00  0.00000000E+00  0.00000000E+00
  0.00000000E+00  0.00000000E+00  0.00000000E+00
  0.00000000E+00  0.00000000E+00  0.00000000E+00
  0.00000000E+00  0.00000000E+00  0.00000000E+00
  0.00000000E+00  0.00000000E+00  0.00000000E+00
  0.00000000E+00  0.00000000E+00  0.00000000E+00
  0.00000000E+00  0.00000000E+00  0.00000000E+00
  0.00000000E+00  0.00000000E+00  0.00000000E+00
  0.00000000E+00  0.00000000E+00  0.00000000E+00
  0.00000000E+00  0.00000000E+00  0.00000000E+00
  0.00000000E+00  0.00000000E+00  0.00000000E+00
  0.00000000E+00  0.00000000E+00  0.00000000E+00
  0.00000000E+00  0.00000000E+00  0.00000000E+00
  0.00000000E+00  0.00000000E+00  0.00000000E+00
  0.00000000E+00  0.00000000E+00  0.00000000E+00
  0.00000000E+00  0.00000000E+00  0.00000000E+00
  0.00000000E+00  0.00000000E+00  0.00000000E+00
  0.00000000E+00  0.00000000E+00  0.00000000E+00
  0.00000000E+00  0.00000000E+00  0.00000000E+00
  0.00000000E+00  0.00000000E+00  0.00000000E+00
  0.00000000E+00  0.00000000E+00  0.00000000E+00
  0.00000000E+00  0.00000000E+00  0.00000000E+00
  0.00000000E+00  0.00000000E+00  0.00000000E+00
  0.00000000E+00  0.00000000E+00  0.00000000E+00
  0.00000000E+00  0.00000000E+00  0.00000000E+00
  0.00000000E+00  0.00000000E+00  0.00000000E+00
  0.00000000E+00  0.00000000E+00  0.00000000E+00
  0.00000000E+00  0.00000000E+00  0.00000000E+00
  0.00000000E+00  0.00000000E+00  0.00000000E+00
  0.00000000E+00  0.00000000E+00  0.00000000E+00
  0.00000000E+00  0.00000000E+00  0.00000000E+00
  0.00000000E+00  0.00000000E+00  0.00000000E+00
  0.00000000E+00  0.00000000E+00  0.00000000E+00
  0.00000000E+00  0.00000000E+00  0.00000000E+00
  0.00000000E+00  0.00000000E+00  0.00000000E+00
  0.00000000E+00  0.00000000E+00  0.00000000E+00
  0.00000000E+00  0.00000000E+00  0.00000000E+00
  0.00000000E+00  0.00000000E+00  0.00000000E+00
  0.00000000E+00  0.00000000E+00  0.00000000E+00
  0.00000000E+00  0.00000000E+00  0.00000000E+00
  0.00000000E+00  0.00000000E+00  0.00000000E+00
  0.00000000E+00  0.00000000E+00  0.00000000E+00
  0.00000000E+00  0.00000000E+00  0.00000000E+00
  0.00000000E+00  0.00000000E+00  0.00000000E+00
  0.00000000E+00  0.00000000E+00  0.00000000E+00
  0.00000000E+00  0.00000000E+00  0.00000000E+00
  0.00000000E+00  0.00000000E+00  0.00000000E+00
  0.00000000E+00  0.00000000E+00  0.00000000E+00
