CeO2-you-111-you-Mg                     
   1.00000000000000     
     9.8828738044470139   -5.7058802256271139   -0.0000000010014606
    -0.0350296041297741   11.3510853928573763   -0.0192147653297935
    -0.0214788428026893   -0.0372024407191492   20.4152170502013242
   O    Mg   Ce   H 
    53     1    26     1
Selective dynamics
Direct
  0.0000538628883783  0.0002571185336474  0.9886218925964702   T   T   T
  0.1085804479647837  0.2214919457486904  0.1461960736009477   T   T   T
  0.2365310790010709  0.1262511776304907  0.3102165473859689   T   T   T
  0.0901397158508342  0.2130870365371716  0.3924836982537611   T   T   T
  0.0064408137114427  0.0038243349963495  0.2295512029145544   T   T   T
  0.2227402066040789  0.1113893186643700  0.0699576759678045   T   T   T
  0.3342592389753086  0.0000364544592164  0.9882834818043930   T   T   T
  0.4465447233239102  0.2212952921924786  0.1472330683478637   T   T   T
  0.5493459167077087  0.1079429998608157  0.3080344516339658   T   T   T
  0.4522146601235267  0.1930695823992369  0.4164040212209566   T   T   T
  0.3304649589320348 -0.0007497155334021  0.2289833978761054   T   T   T
  0.5573091883788568  0.1106231863156346  0.0711336325722998   T   T   T
  0.6669046514598100  0.9993850128609129  0.9879178372685209   T   T   T
  0.7772316788434491  0.2215807496587966  0.1521246384036728   T   T   T
  0.8875380169275057  0.1096110110362923  0.3039706557788381   T   T   T
  0.7824187648729899  0.2122458669071972  0.3910944838861956   T   T   T
  0.6608766080066737  0.9922918115534880  0.2330977227742929   T   T   T
  0.8869025889074390  0.1106734187284991  0.0707209853241025   T   T   T
  0.0001763052868807  0.3327136157534622  0.9884309686792260   T   T   T
  0.1096062219734771  0.5541943089307866  0.1469157403621232   T   T   T
  0.2420120438719909  0.4505811843513914  0.3156290120978253   T   T   T
  0.1132873558126277  0.5611354424113432  0.3904690158390360   T   T   T
  0.0091790313857630  0.3379490736747143  0.2321562693755925   T   T   T
  0.2231347192092702  0.4449126343795110  0.0705878322234150   T   T   T
  0.3338623826530412  0.3331022185454077  0.9885145471530723   T   T   T
  0.4466229169659828  0.5589595083723061  0.1473807758252006   T   T   T
  0.5310786996292501  0.4510344347162897  0.3247415231886607   T   T   T
  0.3339804767825943  0.3346997750635942  0.2233028082867334   T   T   T
  0.5555862672512911  0.4445252512544957  0.0713858807204911   T   T   T
  0.6662397598703194  0.3325996378855325  0.9888824566183472   T   T   T
  0.7789107539965031  0.5555578665207107  0.1471427806852845   T   T   T
  0.8936540463841913  0.4467672309512807  0.3079968196766800   T   T   T
  0.7910377524193003  0.5743372879765125  0.3922443000411633   T   T   T
  0.6622743618480431  0.3391377609832823  0.2322893852524918   T   T   T
  0.8878658201683489  0.4419594712336523  0.0710123158514194   T   T   T
  0.9991023419293880  0.6649065686301053  0.9885199608836381   T   T   T
  0.1109544021126715  0.8884698602580533  0.1454672118539208   T   T   T
  0.2199582901643075  0.7783148015761989  0.3048584501034802   T   T   T
  0.1156061991039689  0.8929703644621165  0.3888287889434074   T   T   T
  0.0005459299944000  0.6676015928374019  0.2287081799172848   T   T   T
  0.2224662441835156  0.7773656013622929  0.0694286438716384   T   T   T
  0.3343303197220207  0.6662596751404789  0.9885329821413403   T   T   T
  0.4447773191116933  0.8884377011372895  0.1478701835703098   T   T   T
  0.5450544544849234  0.7573249580558311  0.3152755647566732   T   T   T
  0.4394283266149014  0.8850648136508470  0.3887997039770134   T   T   T
  0.3313534000353289  0.6673823557000415  0.2290317433061032   T   T   T
  0.5571675305677266  0.7791348895571633  0.0709681241077905   T   T   T
  0.6661724158279372  0.6658236900598206  0.9885962606288450   T   T   T
  0.7781776870291081  0.8889827065372292  0.1489795232298043   T   T   T
  0.8944589976748323  0.7822201813856162  0.3046336447788924   T   T   T
  0.7811072227334099  0.8909318493613679  0.3879476559539159   T   T   T
  0.6692771207905364  0.6656747503395196  0.2302563959053890   T   T   T
  0.8890683465087604  0.7786579061151017  0.0697292567459847   T   T   T
  0.3250244731813900  0.3303807391880686  0.3227566227234633   T   T   T
  0.0077012150079445  0.0102077355942794  0.3486025978654238   T   T   T
  0.2236632340973363  0.1122741310580635  0.1881207970155112   T   T   T
  0.1110044261032420  0.2218380532097999  0.0295460828107711   T   T   T
  0.3306748381270125 -0.0003742992557013  0.3480181103297043   T   T   T
  0.5545841821551167  0.1114050850916494  0.1916919043544361   T   T   T
  0.4449264611453622  0.2215029135816087  0.0297327764412021   T   T   T
  0.6669325547193546  0.0001607829517431  0.3499975908647422   T   T   T
  0.8900649825498483  0.1115022901855479  0.1900726993977644   T   T   T
  0.7772066907816148  0.2213083582876635  0.0305944720513092   T   T   T
  0.0021156695199528  0.3305710353077572  0.3505226350467621   T   T   T
  0.2229685816326183  0.4447830945309160  0.1880106953354121   T   T   T
  0.1101249431320348  0.5539079130355090  0.0295864250164651   T   T   T
  0.5553524901642323  0.4444930934865124  0.1882033897159373   T   T   T
  0.4449022195327807  0.5555398737436220  0.0291302286845073   T   T   T
  0.6669185558852767  0.3367079337605704  0.3550430235484083   T   T   T
  0.8885766156242422  0.4445437158524527  0.1917999263425192   T   T   T
  0.7777396792738647  0.5543750482473002  0.0300335006848600   T   T   T
  0.0010402135364094  0.6682212592437814  0.3482436762996010   T   T   T
  0.2212472756821055  0.7780931691791010  0.1861788567654036   T   T   T
  0.1112237433272176  0.8888216192061197  0.0284537174800301   T   T   T
  0.3224224341867208  0.6702012847975722  0.3441543661358212   T   T   T
  0.5551521897836701  0.7769839767867344  0.1892863904855360   T   T   T
  0.4455674558125052  0.8889129010250096  0.0296453969317086   T   T   T
  0.6832712613578698  0.6731188751162929  0.3448239844085792   T   T   T
  0.8915044632087920  0.7793280544452131  0.1873869872367577   T   T   T
  0.7774261123576783  0.8887507127062326  0.0296067111194059   T   T   T
  0.4188044525356958  0.2089070779159717  0.4573032607451491   T   T   T
 
  0.00000000E+00  0.00000000E+00  0.00000000E+00
  0.00000000E+00  0.00000000E+00  0.00000000E+00
  0.00000000E+00  0.00000000E+00  0.00000000E+00
  0.00000000E+00  0.00000000E+00  0.00000000E+00
  0.00000000E+00  0.00000000E+00  0.00000000E+00
  0.00000000E+00  0.00000000E+00  0.00000000E+00
  0.00000000E+00  0.00000000E+00  0.00000000E+00
  0.00000000E+00  0.00000000E+00  0.00000000E+00
  0.00000000E+00  0.00000000E+00  0.00000000E+00
  0.00000000E+00  0.00000000E+00  0.00000000E+00
  0.00000000E+00  0.00000000E+00  0.00000000E+00
  0.00000000E+00  0.00000000E+00  0.00000000E+00
  0.00000000E+00  0.00000000E+00  0.00000000E+00
  0.00000000E+00  0.00000000E+00  0.00000000E+00
  0.00000000E+00  0.00000000E+00  0.00000000E+00
  0.00000000E+00  0.00000000E+00  0.00000000E+00
  0.00000000E+00  0.00000000E+00  0.00000000E+00
  0.00000000E+00  0.00000000E+00  0.00000000E+00
  0.00000000E+00  0.00000000E+00  0.00000000E+00
  0.00000000E+00  0.00000000E+00  0.00000000E+00
  0.00000000E+00  0.00000000E+00  0.00000000E+00
  0.00000000E+00  0.00000000E+00  0.00000000E+00
  0.00000000E+00  0.00000000E+00  0.00000000E+00
  0.00000000E+00  0.00000000E+00  0.00000000E+00
  0.00000000E+00  0.00000000E+00  0.00000000E+00
  0.00000000E+00  0.00000000E+00  0.00000000E+00
  0.00000000E+00  0.00000000E+00  0.00000000E+00
  0.00000000E+00  0.00000000E+00  0.00000000E+00
  0.00000000E+00  0.00000000E+00  0.00000000E+00
  0.00000000E+00  0.00000000E+00  0.00000000E+00
  0.00000000E+00  0.00000000E+00  0.00000000E+00
  0.00000000E+00  0.00000000E+00  0.00000000E+00
  0.00000000E+00  0.00000000E+00  0.00000000E+00
  0.00000000E+00  0.00000000E+00  0.00000000E+00
  0.00000000E+00  0.00000000E+00  0.00000000E+00
  0.00000000E+00  0.00000000E+00  0.00000000E+00
  0.00000000E+00  0.00000000E+00  0.00000000E+00
  0.00000000E+00  0.00000000E+00  0.00000000E+00
  0.00000000E+00  0.00000000E+00  0.00000000E+00
  0.00000000E+00  0.00000000E+00  0.00000000E+00
  0.00000000E+00  0.00000000E+00  0.00000000E+00
  0.00000000E+00  0.00000000E+00  0.00000000E+00
  0.00000000E+00  0.00000000E+00  0.00000000E+00
  0.00000000E+00  0.00000000E+00  0.00000000E+00
  0.00000000E+00  0.00000000E+00  0.00000000E+00
  0.00000000E+00  0.00000000E+00  0.00000000E+00
  0.00000000E+00  0.00000000E+00  0.00000000E+00
  0.00000000E+00  0.00000000E+00  0.00000000E+00
  0.00000000E+00  0.00000000E+00  0.00000000E+00
  0.00000000E+00  0.00000000E+00  0.00000000E+00
  0.00000000E+00  0.00000000E+00  0.00000000E+00
  0.00000000E+00  0.00000000E+00  0.00000000E+00
  0.00000000E+00  0.00000000E+00  0.00000000E+00
  0.00000000E+00  0.00000000E+00  0.00000000E+00
  0.00000000E+00  0.00000000E+00  0.00000000E+00
  0.00000000E+00  0.00000000E+00  0.00000000E+00
  0.00000000E+00  0.00000000E+00  0.00000000E+00
  0.00000000E+00  0.00000000E+00  0.00000000E+00
  0.00000000E+00  0.00000000E+00  0.00000000E+00
  0.00000000E+00  0.00000000E+00  0.00000000E+00
  0.00000000E+00  0.00000000E+00  0.00000000E+00
  0.00000000E+00  0.00000000E+00  0.00000000E+00
  0.00000000E+00  0.00000000E+00  0.00000000E+00
  0.00000000E+00  0.00000000E+00  0.00000000E+00
  0.00000000E+00  0.00000000E+00  0.00000000E+00
  0.00000000E+00  0.00000000E+00  0.00000000E+00
  0.00000000E+00  0.00000000E+00  0.00000000E+00
  0.00000000E+00  0.00000000E+00  0.00000000E+00
  0.00000000E+00  0.00000000E+00  0.00000000E+00
  0.00000000E+00  0.00000000E+00  0.00000000E+00
  0.00000000E+00  0.00000000E+00  0.00000000E+00
  0.00000000E+00  0.00000000E+00  0.00000000E+00
  0.00000000E+00  0.00000000E+00  0.00000000E+00
  0.00000000E+00  0.00000000E+00  0.00000000E+00
  0.00000000E+00  0.00000000E+00  0.00000000E+00
  0.00000000E+00  0.00000000E+00  0.00000000E+00
  0.00000000E+00  0.00000000E+00  0.00000000E+00
  0.00000000E+00  0.00000000E+00  0.00000000E+00
  0.00000000E+00  0.00000000E+00  0.00000000E+00
  0.00000000E+00  0.00000000E+00  0.00000000E+00
  0.00000000E+00  0.00000000E+00  0.00000000E+00
