CeO2-you-111-you-Sn                     
   1.00000000000000     
     9.8567427025389236   -5.6786255167014632   -0.0015081522987052
    -0.0000000010787721   11.3572490328982187    0.0000000001820396
    -0.0032607052526110    0.0000000003423368   21.3221879377239993
   O    Sn   Ce   H 
    53     1    26     1
Selective dynamics
Direct
  0.0000728490114804  0.0006702185653377  0.9975429567526385   T   T   T
  0.1214610161641348  0.2261172873588644  0.1520090832673507   T   T   T
  0.2236633329630366  0.1220756331523066  0.3032766763868912   T   T   T
  0.1203690191258120  0.2293911250742239  0.3836726681150276   T   T   T
  0.0022110665133908  0.0010018230222027  0.2279408245979843   T   T   T
  0.2224110202637951  0.1096557312404884  0.0752519403486020   T   T   T
  0.3340192431250132  0.9992901623992851  0.9965719601289322   T   T   T
  0.4430123458322768  0.2207991967323332  0.1481480381711866   T   T   T
  0.5564358965244633  0.1070628111546179  0.3048648368729385   T   T   T
  0.4323518032203279  0.2575150489175315  0.3866888694054567   T   T   T
  0.3313180536766084 -0.0008142086856775  0.2288679820157719   T   T   T
  0.5546274998530714  0.1100565952599270  0.0760771019647411   T   T   T
  0.6694158484631977  0.0010122693340993  0.9984410264283228   T   T   T
  0.7725298398569068  0.2230989740998682  0.1521657782098230   T   T   T
  0.8915046589671485  0.1111970396799291  0.3027752250985479   T   T   T
  0.7853892072555291  0.2163114453241248  0.3865711699394282   T   T   T
  0.6682730976830132 -0.0009239627176823  0.2289639038336027   T   T   T
  0.8909039048835332  0.1112254072532699  0.0791322457398942   T   T   T
  0.9992955783295847  0.3302762105070466  0.9973820966053275   T   T   T
  0.1109808952229019  0.5551827612472183  0.1499085981818517   T   T   T
  0.2137643547883781  0.4364864464349163  0.2985469344975377   T   T   T
  0.1150817988882261  0.5530161194676545  0.3824602884275289   T   T   T
 -0.0018225442894416  0.3305294829229095  0.2259002404655869   T   T   T
  0.2213187008863172  0.4445396684053597  0.0745794691792440   T   T   T
  0.3324257992909063  0.3322798851889066  0.9962795005373740   T   T   T
  0.4421000148086443  0.5534144289761133  0.1467265456715199   T   T   T
  0.4342391639657828  0.5153414388799313  0.3692594907400693   T   T   T
  0.3594349470147790  0.3462011305253332  0.2387174843596160   T   T   T
  0.5566372254458029  0.4440486001807140  0.0721062311299331   T   T   T
  0.6683299248932205  0.3318691350807209  0.9963960396881589   T   T   T
  0.7801955888060276  0.5557198927405859  0.1462743200189519   T   T   T
  0.8955888986003508  0.4419149618184207  0.3017551094025980   T   T   T
  0.7869352319275466  0.5576770253160565  0.3821761772991544   T   T   T
  0.6589737850659094  0.3431599716701808  0.2332249318441481   T   T   T
  0.8905323939685597  0.4438148670690182  0.0751094496188792   T   T   T
  0.0009511352404937  0.6664762455890121  0.9963336666729936   T   T   T
  0.1110632369739325  0.8882690589390704  0.1505136969754939   T   T   T
  0.2198715218854325  0.7702727595106444  0.3020902339060538   T   T   T
  0.0984547004149096  0.8822209306609744  0.3834666863300318   T   T   T
  0.9977338508522292  0.6642468844645608  0.2283104517205649   T   T   T
  0.2229013181548095  0.7776732884931508  0.0760920018721566   T   T   T
  0.3345128058782434  0.6677737002128372  0.9968195562041980   T   T   T
  0.4449381253727973  0.8884357629255514  0.1519354305122042   T   T   T
  0.5526719318090584  0.7771595351088887  0.3026099768409025   T   T   T
  0.4451782114757255  0.8730970744440221  0.3855275203022705   T   T   T
  0.3328379791523562  0.6633261105366780  0.2285235457863700   T   T   T
  0.5558933585628756  0.7777489004005826  0.0762292492113421   T   T   T
  0.6678621415322505  0.6690466489976559  0.9963746739300753   T   T   T
  0.7754630822337643  0.8828178369915002  0.1520725517435068   T   T   T
  0.8925330578408257  0.7821004788252955  0.3005271681564853   T   T   T
  0.7835311015567499  0.8983957109002033  0.3851895626255915   T   T   T
  0.6588349942914712  0.6487816312830972  0.2313990918993260   T   T   T
  0.8902749914598882  0.7785729050518160  0.0750232391942650   T   T   T
  0.3039848340719504  0.3247737950181970  0.3356472760073649   T   T   T
 -0.0010152645116991 -0.0023734401051122  0.3425621791760233   T   T   T
  0.2242107041752321  0.1101291231668898  0.1907197334320269   T   T   T
  0.1120582468387436  0.2217527395372015  0.0367922722831441   T   T   T
  0.3282685130646414 -0.0090947452295900  0.3453409932008196   T   T   T
  0.5542910176595517  0.1106794578834294  0.1929106432736360   T   T   T
  0.4439474530240803  0.2194526062931592  0.0349133320907155   T   T   T
  0.6654267992648132 -0.0038391318608517  0.3437661616723121   T   T   T
  0.8893187577387468  0.1104167166416778  0.1906989086305288   T   T   T
  0.7778171947153449  0.2217189243856403  0.0377861642573001   T   T   T
 -0.0003723908229469  0.3315279856489842  0.3432409302851675   T   T   T
  0.2221064106225171  0.4452717736701808  0.1883461650941321   T   T   T
  0.1111020335191701  0.5548009992447540  0.0363878213335345   T   T   T
  0.5577102405932246  0.4451444613266170  0.1809420736982909   T   T   T
  0.4442586232693062  0.5566975890318067  0.0345065623250915   T   T   T
  0.6799451138783876  0.3305914131285244  0.3475993213213261   T   T   T
  0.8879558143407907  0.4437585096934252  0.1900419685959021   T   T   T
  0.7804258219852759  0.5562979942960168  0.0344356098595091   T   T   T
 -0.0010517833252266  0.6653644032387961  0.3423168026945710   T   T   T
  0.2216864347572311  0.7769439531630900  0.1895873584967490   T   T   T
  0.1115455402850261  0.8891713653229920  0.0370190314697423   T   T   T
  0.3318528852119579  0.6625249579668098  0.3409606087908538   T   T   T
  0.5553746714501939  0.7751461343979452  0.1913045302842983   T   T   T
  0.4456431385770451  0.8892984944170903  0.0380669848723874   T   T   T
  0.6723668218441499  0.6729525004224443  0.3483121903268089   T   T   T
  0.8884508750189805  0.7759363888393874  0.1905035497153875   T   T   T
  0.7783473685989684  0.8885947353787715  0.0376980964339877   T   T   T
  0.4358971184704777  0.2913062081500688  0.4291232315500714   T   T   T
 
  0.00000000E+00  0.00000000E+00  0.00000000E+00
  0.00000000E+00  0.00000000E+00  0.00000000E+00
  0.00000000E+00  0.00000000E+00  0.00000000E+00
  0.00000000E+00  0.00000000E+00  0.00000000E+00
  0.00000000E+00  0.00000000E+00  0.00000000E+00
  0.00000000E+00  0.00000000E+00  0.00000000E+00
  0.00000000E+00  0.00000000E+00  0.00000000E+00
  0.00000000E+00  0.00000000E+00  0.00000000E+00
  0.00000000E+00  0.00000000E+00  0.00000000E+00
  0.00000000E+00  0.00000000E+00  0.00000000E+00
  0.00000000E+00  0.00000000E+00  0.00000000E+00
  0.00000000E+00  0.00000000E+00  0.00000000E+00
  0.00000000E+00  0.00000000E+00  0.00000000E+00
  0.00000000E+00  0.00000000E+00  0.00000000E+00
  0.00000000E+00  0.00000000E+00  0.00000000E+00
  0.00000000E+00  0.00000000E+00  0.00000000E+00
  0.00000000E+00  0.00000000E+00  0.00000000E+00
  0.00000000E+00  0.00000000E+00  0.00000000E+00
  0.00000000E+00  0.00000000E+00  0.00000000E+00
  0.00000000E+00  0.00000000E+00  0.00000000E+00
  0.00000000E+00  0.00000000E+00  0.00000000E+00
  0.00000000E+00  0.00000000E+00  0.00000000E+00
  0.00000000E+00  0.00000000E+00  0.00000000E+00
  0.00000000E+00  0.00000000E+00  0.00000000E+00
  0.00000000E+00  0.00000000E+00  0.00000000E+00
  0.00000000E+00  0.00000000E+00  0.00000000E+00
  0.00000000E+00  0.00000000E+00  0.00000000E+00
  0.00000000E+00  0.00000000E+00  0.00000000E+00
  0.00000000E+00  0.00000000E+00  0.00000000E+00
  0.00000000E+00  0.00000000E+00  0.00000000E+00
  0.00000000E+00  0.00000000E+00  0.00000000E+00
  0.00000000E+00  0.00000000E+00  0.00000000E+00
  0.00000000E+00  0.00000000E+00  0.00000000E+00
  0.00000000E+00  0.00000000E+00  0.00000000E+00
  0.00000000E+00  0.00000000E+00  0.00000000E+00
  0.00000000E+00  0.00000000E+00  0.00000000E+00
  0.00000000E+00  0.00000000E+00  0.00000000E+00
  0.00000000E+00  0.00000000E+00  0.00000000E+00
  0.00000000E+00  0.00000000E+00  0.00000000E+00
  0.00000000E+00  0.00000000E+00  0.00000000E+00
  0.00000000E+00  0.00000000E+00  0.00000000E+00
  0.00000000E+00  0.00000000E+00  0.00000000E+00
  0.00000000E+00  0.00000000E+00  0.00000000E+00
  0.00000000E+00  0.00000000E+00  0.00000000E+00
  0.00000000E+00  0.00000000E+00  0.00000000E+00
  0.00000000E+00  0.00000000E+00  0.00000000E+00
  0.00000000E+00  0.00000000E+00  0.00000000E+00
  0.00000000E+00  0.00000000E+00  0.00000000E+00
  0.00000000E+00  0.00000000E+00  0.00000000E+00
  0.00000000E+00  0.00000000E+00  0.00000000E+00
  0.00000000E+00  0.00000000E+00  0.00000000E+00
  0.00000000E+00  0.00000000E+00  0.00000000E+00
  0.00000000E+00  0.00000000E+00  0.00000000E+00
  0.00000000E+00  0.00000000E+00  0.00000000E+00
  0.00000000E+00  0.00000000E+00  0.00000000E+00
  0.00000000E+00  0.00000000E+00  0.00000000E+00
  0.00000000E+00  0.00000000E+00  0.00000000E+00
  0.00000000E+00  0.00000000E+00  0.00000000E+00
  0.00000000E+00  0.00000000E+00  0.00000000E+00
  0.00000000E+00  0.00000000E+00  0.00000000E+00
  0.00000000E+00  0.00000000E+00  0.00000000E+00
  0.00000000E+00  0.00000000E+00  0.00000000E+00
  0.00000000E+00  0.00000000E+00  0.00000000E+00
  0.00000000E+00  0.00000000E+00  0.00000000E+00
  0.00000000E+00  0.00000000E+00  0.00000000E+00
  0.00000000E+00  0.00000000E+00  0.00000000E+00
  0.00000000E+00  0.00000000E+00  0.00000000E+00
  0.00000000E+00  0.00000000E+00  0.00000000E+00
  0.00000000E+00  0.00000000E+00  0.00000000E+00
  0.00000000E+00  0.00000000E+00  0.00000000E+00
  0.00000000E+00  0.00000000E+00  0.00000000E+00
  0.00000000E+00  0.00000000E+00  0.00000000E+00
  0.00000000E+00  0.00000000E+00  0.00000000E+00
  0.00000000E+00  0.00000000E+00  0.00000000E+00
  0.00000000E+00  0.00000000E+00  0.00000000E+00
  0.00000000E+00  0.00000000E+00  0.00000000E+00
  0.00000000E+00  0.00000000E+00  0.00000000E+00
  0.00000000E+00  0.00000000E+00  0.00000000E+00
  0.00000000E+00  0.00000000E+00  0.00000000E+00
  0.00000000E+00  0.00000000E+00  0.00000000E+00
  0.00000000E+00  0.00000000E+00  0.00000000E+00
