CeO2-you-111-you-Sb                     
   1.00000000000000     
     9.8301458603809895   -5.6754377298018950    0.0000000000000000
     0.0000000015935088   11.3508734648508529    0.0000000000000000
     0.0000000000000000    0.0000000000000000   21.0755387088355342
   O    Sb   Ce   H 
    54     1    26     2
Selective dynamics
Direct
 -0.0002513361861604  0.0006078033125305  0.9941599506416837   T   T   T
  0.1031276529845341  0.2194036007729648  0.1459703515350356   T   T   T
  0.2550345218039528  0.1543872122017855  0.3139880881041793   T   T   T
  0.1108563623939675  0.2307631962731189  0.3849624191283401   T   T   T
  0.0121582448218385  0.0066872740145902  0.2320340275851948   T   T   T
  0.2225632587233477  0.1129108968446008  0.0734186253225037   T   T   T
  0.3327692865546973  0.0011777673565132  0.9942108763057753   T   T   T
  0.4478467658560031  0.2185826053524907  0.1465834850152418   T   T   T
  0.5491671458048665  0.1058740210661366  0.3033201874394874   T   T   T
  0.4671182511207711  0.1723275744447853  0.4145714797487399   T   T   T
  0.3263916108036341  0.0012873409790287  0.2296635069282860   T   T   T
  0.5571426402136082  0.1099796553535921  0.0736467310602304   T   T   T
  0.6658590503056940  0.0000500938015435  0.9925482141600006   T   T   T
  0.7779045668569142  0.2235079364625615  0.1508387041085614   T   T   T
  0.8907123592825076  0.1106452247586320  0.3029756209612601   T   T   T
  0.7848733542592341  0.2159915362338191  0.3843389781632876   T   T   T
  0.6679094480275106  0.0012082226859374  0.2296073551101036   T   T   T
  0.8842022686945229  0.1086458315930040  0.0737947379659342   T   T   T
 -0.0014037525373044  0.3329589849397148  0.9943052307608578   T   T   T
  0.1095261977308012  0.5575500688021224  0.1482753198140255   T   T   T
  0.2368272236420542  0.4311702509156543  0.3032910478845161   T   T   T
  0.1134409375324494  0.5552207425907771  0.3806431365865710   T   T   T
  0.0039321471499963  0.3374946875620700  0.2299342802258954   T   T   T
  0.2219593408590844  0.4454708386573936  0.0732604680425672   T   T   T
  0.3328574190482900  0.3347434601583104  0.9941283493252538   T   T   T
  0.4483255721397584  0.5641500798372721  0.1469424697938180   T   T   T
  0.5108858176410772  0.4182564489465670  0.3131573488030088   T   T   T
  0.4364069341716704  0.5602357881040811  0.3865455524082888   T   T   T
  0.3314538535260062  0.3332943559123009  0.2124780038128118   T   T   T
  0.5544800310022194  0.4448032996750670  0.0742665867839484   T   T   T
  0.6658300789025074  0.3338916878503465  0.9940723898041771   T   T   T
  0.7784569510917364  0.5576417761010011  0.1485690212268951   T   T   T
  0.8916265073270226  0.4490519402127708  0.3043454019034714   T   T   T
  0.7778362050093303  0.5694482237379589  0.3830444134394203   T   T   T
  0.6642072158125548  0.3376554921010451  0.2294254788631165   T   T   T
  0.8872635478092337  0.4438122629596236  0.0740650250801580   T   T   T
 -0.0002531179548661  0.6673540613070355  0.9948418142193970   T   T   T
  0.1086648719462734  0.8883983121136444  0.1474305550016502   T   T   T
  0.2209195615038208  0.7785642406400358  0.3034865487951721   T   T   T
  0.1131564064526429  0.8964305889904826  0.3800640516072547   T   T   T
 -0.0008187952322918  0.6686907236382131  0.2290721080402741   T   T   T
  0.2232742145643495  0.7792721440017436  0.0739234759507520   T   T   T
  0.3334472540440651  0.6679111108995767  0.9942287589542500   T   T   T
  0.4437383825259697  0.8891651415512722  0.1509425139072439   T   T   T
  0.5570834888321536  0.7786275899830536  0.3037480808639306   T   T   T
  0.4430871923894705  0.8843689204569258  0.3832028143219568   T   T   T
  0.3297471907300953  0.6629716742233497  0.2299747868633539   T   T   T
  0.5581460631960189  0.7825631827420321  0.0740242150676137   T   T   T
  0.6652696334673284  0.6672746091889745  0.9940593878069705   T   T   T
  0.7793354785209301  0.8885491554972774  0.1525227141100121   T   T   T
  0.8892154531001537  0.7825746461352567  0.3029931995925516   T   T   T
  0.7806547516857479  0.8911136191234268  0.3835161648235955   T   T   T
  0.6620760543435745  0.6566608373618832  0.2325609482957576   T   T   T
  0.8867567318867355  0.7783023586364195  0.0737513747339626   T   T   T
  0.3232604689245057  0.3446156251870744  0.3527087813059562   T   T   T
  0.0023666139742861  0.0060045573075443  0.3438243139546469   T   T   T
  0.2245278423360053  0.1150499910137930  0.1860981460237086   T   T   T
  0.1095719227260150  0.2222859620358948  0.0332284894716196   T   T   T
  0.3340139562803462 -0.0033018584683550  0.3436600069677814   T   T   T
  0.5554374518141996  0.1121983883495986  0.1904289088974428   T   T   T
  0.4447646866563213  0.2225753702776639  0.0333889083443891   T   T   T
  0.6675350977238725  0.0013169499587451  0.3443862856908342   T   T   T
  0.8895112088278803  0.1125683451375483  0.1895084659767600   T   T   T
  0.7766193400982987  0.2218002778389238  0.0342294235572491   T   T   T
 -0.0026294658612037  0.3333487498955666  0.3433713198163221   T   T   T
  0.2228150557830745  0.4445338809245969  0.1857718902280198   T   T   T
  0.1101647604085512  0.5564958893673825  0.0343579401388473   T   T   T
  0.5520444934005913  0.4420524530744512  0.1876996960341641   T   T   T
  0.4448068243615544  0.5573682405499302  0.0335672938202124   T   T   T
  0.6651878048705461  0.3331491371942594  0.3487089529681018   T   T   T
  0.8869288943500735  0.4449580032425831  0.1899020565316262   T   T   T
  0.7771559496226144  0.5561055952475971  0.0348068942020469   T   T   T
 -0.0024015280768227  0.6682376075675924  0.3417518750755377   T   T   T
  0.2214753478512483  0.7787414411609157  0.1886378925142093   T   T   T
  0.1103227526815510  0.8892419036082182  0.0342498684680425   T   T   T
  0.3339416319698087  0.6685243599806170  0.3437526192208800   T   T   T
  0.5551546621947947  0.7778836791008805  0.1899680649570870   T   T   T
  0.4451872065645114  0.8901027522932951  0.0340705483497451   T   T   T
  0.6639908154469104  0.6681927776207243  0.3450008022315144   T   T   T
  0.8887097783759442  0.7783713084768805  0.1899178886823794   T   T   T
  0.7768498795780161  0.8894523734634506  0.0338666065808741   T   T   T
  0.3579105218872282  0.3140116659467772  0.4280369464733882   T   T   T
  0.4319085290471836  0.1937864735835735  0.4521957367184204   T   T   T
 
  0.00000000E+00  0.00000000E+00  0.00000000E+00
  0.00000000E+00  0.00000000E+00  0.00000000E+00
  0.00000000E+00  0.00000000E+00  0.00000000E+00
  0.00000000E+00  0.00000000E+00  0.00000000E+00
  0.00000000E+00  0.00000000E+00  0.00000000E+00
  0.00000000E+00  0.00000000E+00  0.00000000E+00
  0.00000000E+00  0.00000000E+00  0.00000000E+00
  0.00000000E+00  0.00000000E+00  0.00000000E+00
  0.00000000E+00  0.00000000E+00  0.00000000E+00
  0.00000000E+00  0.00000000E+00  0.00000000E+00
  0.00000000E+00  0.00000000E+00  0.00000000E+00
  0.00000000E+00  0.00000000E+00  0.00000000E+00
  0.00000000E+00  0.00000000E+00  0.00000000E+00
  0.00000000E+00  0.00000000E+00  0.00000000E+00
  0.00000000E+00  0.00000000E+00  0.00000000E+00
  0.00000000E+00  0.00000000E+00  0.00000000E+00
  0.00000000E+00  0.00000000E+00  0.00000000E+00
  0.00000000E+00  0.00000000E+00  0.00000000E+00
  0.00000000E+00  0.00000000E+00  0.00000000E+00
  0.00000000E+00  0.00000000E+00  0.00000000E+00
  0.00000000E+00  0.00000000E+00  0.00000000E+00
  0.00000000E+00  0.00000000E+00  0.00000000E+00
  0.00000000E+00  0.00000000E+00  0.00000000E+00
  0.00000000E+00  0.00000000E+00  0.00000000E+00
  0.00000000E+00  0.00000000E+00  0.00000000E+00
  0.00000000E+00  0.00000000E+00  0.00000000E+00
  0.00000000E+00  0.00000000E+00  0.00000000E+00
  0.00000000E+00  0.00000000E+00  0.00000000E+00
  0.00000000E+00  0.00000000E+00  0.00000000E+00
  0.00000000E+00  0.00000000E+00  0.00000000E+00
  0.00000000E+00  0.00000000E+00  0.00000000E+00
  0.00000000E+00  0.00000000E+00  0.00000000E+00
  0.00000000E+00  0.00000000E+00  0.00000000E+00
  0.00000000E+00  0.00000000E+00  0.00000000E+00
  0.00000000E+00  0.00000000E+00  0.00000000E+00
  0.00000000E+00  0.00000000E+00  0.00000000E+00
  0.00000000E+00  0.00000000E+00  0.00000000E+00
  0.00000000E+00  0.00000000E+00  0.00000000E+00
  0.00000000E+00  0.00000000E+00  0.00000000E+00
  0.00000000E+00  0.00000000E+00  0.00000000E+00
  0.00000000E+00  0.00000000E+00  0.00000000E+00
  0.00000000E+00  0.00000000E+00  0.00000000E+00
  0.00000000E+00  0.00000000E+00  0.00000000E+00
  0.00000000E+00  0.00000000E+00  0.00000000E+00
  0.00000000E+00  0.00000000E+00  0.00000000E+00
  0.00000000E+00  0.00000000E+00  0.00000000E+00
  0.00000000E+00  0.00000000E+00  0.00000000E+00
  0.00000000E+00  0.00000000E+00  0.00000000E+00
  0.00000000E+00  0.00000000E+00  0.00000000E+00
  0.00000000E+00  0.00000000E+00  0.00000000E+00
  0.00000000E+00  0.00000000E+00  0.00000000E+00
  0.00000000E+00  0.00000000E+00  0.00000000E+00
  0.00000000E+00  0.00000000E+00  0.00000000E+00
  0.00000000E+00  0.00000000E+00  0.00000000E+00
  0.00000000E+00  0.00000000E+00  0.00000000E+00
  0.00000000E+00  0.00000000E+00  0.00000000E+00
  0.00000000E+00  0.00000000E+00  0.00000000E+00
  0.00000000E+00  0.00000000E+00  0.00000000E+00
  0.00000000E+00  0.00000000E+00  0.00000000E+00
  0.00000000E+00  0.00000000E+00  0.00000000E+00
  0.00000000E+00  0.00000000E+00  0.00000000E+00
  0.00000000E+00  0.00000000E+00  0.00000000E+00
  0.00000000E+00  0.00000000E+00  0.00000000E+00
  0.00000000E+00  0.00000000E+00  0.00000000E+00
  0.00000000E+00  0.00000000E+00  0.00000000E+00
  0.00000000E+00  0.00000000E+00  0.00000000E+00
  0.00000000E+00  0.00000000E+00  0.00000000E+00
  0.00000000E+00  0.00000000E+00  0.00000000E+00
  0.00000000E+00  0.00000000E+00  0.00000000E+00
  0.00000000E+00  0.00000000E+00  0.00000000E+00
  0.00000000E+00  0.00000000E+00  0.00000000E+00
  0.00000000E+00  0.00000000E+00  0.00000000E+00
  0.00000000E+00  0.00000000E+00  0.00000000E+00
  0.00000000E+00  0.00000000E+00  0.00000000E+00
  0.00000000E+00  0.00000000E+00  0.00000000E+00
  0.00000000E+00  0.00000000E+00  0.00000000E+00
  0.00000000E+00  0.00000000E+00  0.00000000E+00
  0.00000000E+00  0.00000000E+00  0.00000000E+00
  0.00000000E+00  0.00000000E+00  0.00000000E+00
  0.00000000E+00  0.00000000E+00  0.00000000E+00
  0.00000000E+00  0.00000000E+00  0.00000000E+00
  0.00000000E+00  0.00000000E+00  0.00000000E+00
  0.00000000E+00  0.00000000E+00  0.00000000E+00
