CeO2-you-111-you-Fe                     
   1.00000000000000     
     9.8885049813099108   -5.7091313869885925   -0.0000000009276013
    -0.0339219555875994   11.3595062178783586   -0.0177316629572133
    -0.0197352008691768   -0.0341823647912599   20.4304266234275822
   O    Fe   Ce   H 
    53     1    26     1
Selective dynamics
Direct
  0.0001397507068367  0.0004448184517811  0.9892390671668979   T   T   T
  0.1092748425550650  0.2206503510124975  0.1457441802869396   T   T   T
  0.2402186925890131  0.1380490268841503  0.3149336197387133   T   T   T
  0.0627944552588599  0.1994365436603022  0.4021147776948192   T   T   T
  0.0089731428999495  0.0043780964115659  0.2311845110069441   T   T   T
  0.2221158021414660  0.1103478893439232  0.0701344155781875   T   T   T
  0.3343525171506999  0.0004291435936373  0.9884573966454688   T   T   T
  0.4459478880916777  0.2209423984644688  0.1459912103558171   T   T   T
  0.5528254632444255  0.1171446859094262  0.3065320619743233   T   T   T
  0.4722258043046645  0.1968043662132327  0.4155812166762877   T   T   T
  0.3288562161998017  0.0011321416247830  0.2303135679954297   T   T   T
  0.5571534878376818  0.1100232714663858  0.0711292154326973   T   T   T
  0.6671655776766242  0.9994621217825743  0.9883798923974659   T   T   T
  0.7783530153831454  0.2234719486699842  0.1507652152474449   T   T   T
  0.8862739594893762  0.1104409959450772  0.3032636589290995   T   T   T
  0.7770220112706605  0.2218619252968474  0.3888745014393168   T   T   T
  0.6623277089103574  0.9983454395992878  0.2309159705727653   T   T   T
  0.8870180088179638  0.1106894459285010  0.0710295460798153   T   T   T
  0.0001731356520205  0.3323651976058856  0.9883055875022727   T   T   T
  0.1091202059961050  0.5555736738309714  0.1458786798404847   T   T   T
  0.2434842932597285  0.4321390944873584  0.3197653245578685   T   T   T
  0.0983525780392142  0.5498396488614842  0.3901065919707452   T   T   T
  0.0118474418061376  0.3398250657346610  0.2313074960586093   T   T   T
  0.2224698354109413  0.4452375441710172  0.0702697674360241   T   T   T
  0.3337322854398838  0.3332236052100815  0.9889692169097094   T   T   T
  0.4464719270457119  0.5586642163619785  0.1464538629473796   T   T   T
  0.5225608131290667  0.4273163630534286  0.3232896368253285   T   T   T
  0.3354744866455319  0.3349705842492218  0.2211862310932487   T   T   T
  0.5569860549327011  0.4453331220023107  0.0703864022864554   T   T   T
  0.6658430850523265  0.3321065768753345  0.9886612721149426   T   T   T
  0.7805622020033677  0.5565487239337891  0.1462265999493292   T   T   T
  0.8877388168016097  0.4409049948734797  0.3047715520307019   T   T   T
  0.7837266398992430  0.5473488644027207  0.3908869497633705   T   T   T
  0.6634309579122754  0.3403942139511308  0.2313310401218796   T   T   T
  0.8884654064386583  0.4432982408293859  0.0696092635145806   T   T   T
  0.9994691398063253  0.6666680008292266  0.9878882243243172   T   T   T
  0.1106602442722589  0.8875335862156625  0.1462481833506639   T   T   T
  0.2191163059402570  0.7799036975793371  0.3058650179229579   T   T   T
  0.1174420211173876  0.8949290616846217  0.3899399713264218   T   T   T
 -0.0004200921545647  0.6664606866043111  0.2292365730502491   T   T   T
  0.2224956360415924  0.7778438867519860  0.0696311796695592   T   T   T
  0.3343455814610938  0.6664868298470144  0.9887052420606361   T   T   T
  0.4428690764640975  0.8877014789038352  0.1492794966154102   T   T   T
  0.5529689205819883  0.7731111557333759  0.3097178259183720   T   T   T
  0.4476532492839921  0.9006744075534496  0.3901947661629185   T   T   T
  0.3271916466512492  0.6606215400955170  0.2289962182284684   T   T   T
  0.5571410547851926  0.7801880624478243  0.0715473200371904   T   T   T
  0.6665170000079724  0.6672420290624173  0.9887499143171594   T   T   T
  0.7789270797155243  0.8891251265715809  0.1505585071009775   T   T   T
  0.8956540359912479  0.7815723102529456  0.3077379129277627   T   T   T
  0.7820939400794777  0.9013158367504258  0.3919581759860584   T   T   T
  0.6667540103765143  0.6603514189432422  0.2299706591550329   T   T   T
  0.8891705179179558  0.7788935444048667  0.0703511614098423   T   T   T
  0.3326596514969021  0.3313506768278491  0.3159380130741865   T   T   T
  0.0015388860330175  0.0085477971647631  0.3529437464373520   T   T   T
  0.2213956727090545  0.1089969894561465  0.1865029706197167   T   T   T
  0.1103509779116238  0.2213771789073122  0.0292063363473161   T   T   T
  0.3317532810072399 -0.0006837749227293  0.3501374050361886   T   T   T
  0.5543002324668846  0.1115319004427723  0.1903237034636036   T   T   T
  0.4447761790367765  0.2210393837379544  0.0289931851655342   T   T   T
  0.6653978470279630  0.9995738601710099  0.3491765964889044   T   T   T
  0.8902373468121082  0.1118979275134627  0.1903825024421502   T   T   T
  0.7774363367149351  0.2211988061514525  0.0301476732832308   T   T   T
 -0.0001635699380764  0.3283549876943221  0.3519380793912854   T   T   T
  0.2216955224239726  0.4456528730171118  0.1855308425544229   T   T   T
  0.1103408633374929  0.5550972076360461  0.0289235611684855   T   T   T
  0.5587576098885737  0.4464485087739056  0.1849788987695818   T   T   T
  0.4453937643838191  0.5569216771125436  0.0292683646334475   T   T   T
  0.6718066616575020  0.3346375894962031  0.3500484159932750   T   T   T
  0.8896376512489249  0.4446938999036044  0.1899578744250066   T   T   T
  0.7788129614962274  0.5558289299350485  0.0293005567138915   T   T   T
  0.0001228387148884  0.6649840116871691  0.3482692370326924   T   T   T
  0.2213926817864174  0.7776026164518348  0.1883846559853700   T   T   T
  0.1107628499619008  0.8882922004300913  0.0289786652737801   T   T   T
  0.3253062425958748  0.6704021258140549  0.3481267781199060   T   T   T
  0.5548389657536608  0.7768589141929878  0.1919796754925810   T   T   T
  0.4453058896221962  0.8886116181561605  0.0304366439195653   T   T   T
  0.6797080969630107  0.6731258858380967  0.3491392027903008   T   T   T
  0.8906207788553214  0.7790312487138912  0.1899461813567357   T   T   T
  0.7773219730373824  0.8888405335165447  0.0308265121869915   T   T   T
  0.4371179286620260  0.2304814252561022  0.4497348721292449   T   T   T
 
  0.00000000E+00  0.00000000E+00  0.00000000E+00
  0.00000000E+00  0.00000000E+00  0.00000000E+00
  0.00000000E+00  0.00000000E+00  0.00000000E+00
  0.00000000E+00  0.00000000E+00  0.00000000E+00
  0.00000000E+00  0.00000000E+00  0.00000000E+00
  0.00000000E+00  0.00000000E+00  0.00000000E+00
  0.00000000E+00  0.00000000E+00  0.00000000E+00
  0.00000000E+00  0.00000000E+00  0.00000000E+00
  0.00000000E+00  0.00000000E+00  0.00000000E+00
  0.00000000E+00  0.00000000E+00  0.00000000E+00
  0.00000000E+00  0.00000000E+00  0.00000000E+00
  0.00000000E+00  0.00000000E+00  0.00000000E+00
  0.00000000E+00  0.00000000E+00  0.00000000E+00
  0.00000000E+00  0.00000000E+00  0.00000000E+00
  0.00000000E+00  0.00000000E+00  0.00000000E+00
  0.00000000E+00  0.00000000E+00  0.00000000E+00
  0.00000000E+00  0.00000000E+00  0.00000000E+00
  0.00000000E+00  0.00000000E+00  0.00000000E+00
  0.00000000E+00  0.00000000E+00  0.00000000E+00
  0.00000000E+00  0.00000000E+00  0.00000000E+00
  0.00000000E+00  0.00000000E+00  0.00000000E+00
  0.00000000E+00  0.00000000E+00  0.00000000E+00
  0.00000000E+00  0.00000000E+00  0.00000000E+00
  0.00000000E+00  0.00000000E+00  0.00000000E+00
  0.00000000E+00  0.00000000E+00  0.00000000E+00
  0.00000000E+00  0.00000000E+00  0.00000000E+00
  0.00000000E+00  0.00000000E+00  0.00000000E+00
  0.00000000E+00  0.00000000E+00  0.00000000E+00
  0.00000000E+00  0.00000000E+00  0.00000000E+00
  0.00000000E+00  0.00000000E+00  0.00000000E+00
  0.00000000E+00  0.00000000E+00  0.00000000E+00
  0.00000000E+00  0.00000000E+00  0.00000000E+00
  0.00000000E+00  0.00000000E+00  0.00000000E+00
  0.00000000E+00  0.00000000E+00  0.00000000E+00
  0.00000000E+00  0.00000000E+00  0.00000000E+00
  0.00000000E+00  0.00000000E+00  0.00000000E+00
  0.00000000E+00  0.00000000E+00  0.00000000E+00
  0.00000000E+00  0.00000000E+00  0.00000000E+00
  0.00000000E+00  0.00000000E+00  0.00000000E+00
  0.00000000E+00  0.00000000E+00  0.00000000E+00
  0.00000000E+00  0.00000000E+00  0.00000000E+00
  0.00000000E+00  0.00000000E+00  0.00000000E+00
  0.00000000E+00  0.00000000E+00  0.00000000E+00
  0.00000000E+00  0.00000000E+00  0.00000000E+00
  0.00000000E+00  0.00000000E+00  0.00000000E+00
  0.00000000E+00  0.00000000E+00  0.00000000E+00
  0.00000000E+00  0.00000000E+00  0.00000000E+00
  0.00000000E+00  0.00000000E+00  0.00000000E+00
  0.00000000E+00  0.00000000E+00  0.00000000E+00
  0.00000000E+00  0.00000000E+00  0.00000000E+00
  0.00000000E+00  0.00000000E+00  0.00000000E+00
  0.00000000E+00  0.00000000E+00  0.00000000E+00
  0.00000000E+00  0.00000000E+00  0.00000000E+00
  0.00000000E+00  0.00000000E+00  0.00000000E+00
  0.00000000E+00  0.00000000E+00  0.00000000E+00
  0.00000000E+00  0.00000000E+00  0.00000000E+00
  0.00000000E+00  0.00000000E+00  0.00000000E+00
  0.00000000E+00  0.00000000E+00  0.00000000E+00
  0.00000000E+00  0.00000000E+00  0.00000000E+00
  0.00000000E+00  0.00000000E+00  0.00000000E+00
  0.00000000E+00  0.00000000E+00  0.00000000E+00
  0.00000000E+00  0.00000000E+00  0.00000000E+00
  0.00000000E+00  0.00000000E+00  0.00000000E+00
  0.00000000E+00  0.00000000E+00  0.00000000E+00
  0.00000000E+00  0.00000000E+00  0.00000000E+00
  0.00000000E+00  0.00000000E+00  0.00000000E+00
  0.00000000E+00  0.00000000E+00  0.00000000E+00
  0.00000000E+00  0.00000000E+00  0.00000000E+00
  0.00000000E+00  0.00000000E+00  0.00000000E+00
  0.00000000E+00  0.00000000E+00  0.00000000E+00
  0.00000000E+00  0.00000000E+00  0.00000000E+00
  0.00000000E+00  0.00000000E+00  0.00000000E+00
  0.00000000E+00  0.00000000E+00  0.00000000E+00
  0.00000000E+00  0.00000000E+00  0.00000000E+00
  0.00000000E+00  0.00000000E+00  0.00000000E+00
  0.00000000E+00  0.00000000E+00  0.00000000E+00
  0.00000000E+00  0.00000000E+00  0.00000000E+00
  0.00000000E+00  0.00000000E+00  0.00000000E+00
  0.00000000E+00  0.00000000E+00  0.00000000E+00
  0.00000000E+00  0.00000000E+00  0.00000000E+00
  0.00000000E+00  0.00000000E+00  0.00000000E+00
