CeO2-you-111-you-Co                     
   1.00000000000000     
     9.8416727189801669   -5.6820927648320723    0.0000000000000000
     0.0000000009706465   11.3641835314900934    0.0000000000000000
     0.0000000000000000    0.0000000000000000   20.9900504919653379
   O    Co   Ce   H 
    54     1    26     1
Selective dynamics
Direct
  0.9996539094891539  0.0001941205956508  0.9944114832409888   T   T   T
  0.1086017311749572  0.2209673655860485  0.1465418423408451   F   F   F
  0.2440373658364521  0.1411285345631921  0.3125039414505312   T   T   T
  0.0566942247264869  0.1937835896942802  0.3964855097925720   T   T   T
  0.0085425847194228  0.0037636096810218  0.2307768248476659   T   T   T
  0.2210877910341154  0.1088425820682843  0.0734934450640807   F   F   F
  0.3340642748593903  0.0004708115074823  0.9943384256830671   T   T   T
  0.4456986344110803  0.2209673655847695  0.1465418423408451   F   F   F
  0.5513200484249879  0.1143887308973104  0.3038341043197159   T   T   T
  0.4734297942296567  0.1927837642729835  0.4099206003683028   T   T   T
  0.3284086774750101  0.0005229374250469  0.2299352045298810   T   T   T
  0.5569610462580457  0.1097059537419298  0.0743355108436177   F   F   F
  0.6667297308787783 -0.0000194324833373  0.9940228311058419   T   T   T
  0.7797771969096274  0.2262203938201708  0.1514680873896879   F   F   F
  0.8848006305808805  0.1094880807408901  0.3003200475542053   T   T   T
  0.7759171602724824  0.2215571460794632  0.3829523557059060   T   T   T
  0.6650016980944514  0.0023378883093429  0.2277407078111311   T   T   T
  0.8860789074838920  0.1097059537419369  0.0743355108436177   F   F   F
  0.9992329378541195  0.3320374544348796  0.9943701830269661   T   T   T
  0.1093349263448076  0.5573320736572285  0.1488838399553316   F   F   F
  0.2391806670511340  0.4257101786559728  0.3123150618600978   T   T   T
  0.1136316062020205  0.5527424476801280  0.3822811821586019   T   T   T
  0.0086225879968138  0.3386908228707704  0.2309130768292462   T   T   T
  0.2210877910339661  0.4455782089658200  0.0734934450640807   F   F   F
  0.3331512333953935  0.3331441015580106  0.9950145324596682   T   T   T
  0.4456986344139580  0.5580652688291892  0.1465418423408451   F   F   F
  0.5253483436295364  0.4227065854225307  0.3124931267836967   T   T   T
  0.4721587973699162  0.6094349851168457  0.3961614917143459   T   T   T
  0.3338337732152961  0.3330784455752741  0.2183142691406463   T   T   T
  0.5578244179319256  0.4455782089658840  0.0734934450640807   F   F   F
  0.6662876410625523  0.3323380943708276  0.9940606593831310   T   T   T
  0.7813301473117917  0.5573320736566032  0.1488838399553316   F   F   F
  0.8882992301555964  0.4432959191352887  0.3050209834081116   T   T   T
  0.7753869413608763  0.5519956105608840  0.3828137162810169   T   T   T
  0.6655774574288786  0.3381207157801921  0.2301773525573028   T   T   T
  0.8890091689011044  0.4446843378026770  0.0737548557787591   F   F   F
 -0.0001125215095456  0.6667182846479081  0.9930271952702888   T   T   T
  0.1093349263434007  0.8853368526861729  0.1488838399553316   F   F   F
  0.2233438792186768  0.7778065402548894  0.3049235116738108   T   T   T
  0.1151016720783225  0.8915501738599907  0.3830655047573204   T   T   T
 -0.0001035931158479  0.6668451921964276  0.2315190804864113   T   T   T
  0.2219816621988571  0.7776578310988924  0.0737548557787591   F   F   F
  0.3344312260300916  0.6673897592803336  0.9940590927924267   T   T   T
  0.4404456061827986  0.8868898030903694  0.1514680873896879   F   F   F
  0.5568500085036258  0.7819197944264309  0.3001672447066829   T   T   T
  0.4452158556400849  0.8904956649487045  0.3831672018038130   T   T   T
  0.3282094383975066  0.6573866612061560  0.2306846568968632   T   T   T
  0.5569610462580670  0.7805880925161333  0.0743355108436177   F   F   F
  0.6663129924721675  0.6676231178114859  0.9942929948925980   T   T   T
  0.7797771969075669  0.8868898030894599  0.1514680873896879   F   F   F
  0.8888374208060741  0.7789182053797058  0.3056361935219530   T   T   T
  0.7749573815098488  0.8909103564632515  0.3834536466304167   T   T   T
  0.6631661920867263  0.6586103661645613  0.2308315395444547   T   T   T
  0.8890091689000386  0.7776578310984164  0.0737548557787591   F   F   F
  0.3322941928732400  0.3351098510426110  0.3108737165402784   T   T   T
 -0.0005084718840960  0.0055370594320390  0.3473851629563479   T   T   T
  0.2201664102138849  0.1069998204274469  0.1849570882078311   F   F   F
  0.1095060725664254  0.2214195362823119  0.0333466630335195   F   F   F
  0.3312645999888088 -0.0017749546161899  0.3452443017027526   T   T   T
  0.5551908261458252  0.1114761738558556  0.1898951940824034   F   F   F
  0.4452464637158826  0.2214195362815090  0.0333466630335195   F   F   F
  0.6656329214827770  0.0008151427727923  0.3439141551405150   T   T   T
  0.8896193477095196  0.1114761738553440  0.1898951940824034   F   F   F
  0.7777027781966268  0.2220715563928124  0.0346779964017188   F   F   F
 -0.0004356927842186  0.3269245175273766  0.3480365492633155   T   T   T
  0.2201664102146239  0.4464995897864412  0.1849570882078311   F   F   F
  0.1102454724346842  0.5564215275672169  0.0340024466476336   F   F   F
  0.5596671795714911  0.4464995897861144  0.1849570882078311   F   F   F
  0.4452464637176874  0.5571609274361862  0.0333466630335195   F   F   F
  0.6683280699485660  0.3352752962309065  0.3452461314362671   T   T   T
  0.8887012700022012  0.4440685400029665  0.1921777073177680   F   F   F
  0.7795090551319461  0.5564215275666342  0.0340024466476336   F   F   F
  0.0005572821487631  0.6661183633889786  0.3442068141803364   T   T   T
  0.2225974599923788  0.7779657299977956  0.1921777073177680   F   F   F
  0.1102454724333697  0.8871579448661535  0.0340024466476336   F   F   F
  0.3394420697966992  0.6669661817499084  0.3479794628993439   T   T   T
  0.5551908261446599  0.7770476522888075  0.1898951940824034   F   F   F
  0.4445944436057161  0.8889642218033700  0.0346779964017188   F   F   F
  0.6613354683783124  0.6677340706492584  0.3473224204736124   T   T   T
  0.8887012700054200  0.7779657299992309  0.1921777073177680   F   F   F
  0.7777027781976429  0.8889642218038176  0.0346779964017188   F   F   F
  0.4380073563102190  0.2274629717069569  0.4426419555049540   T   T   T
 
  0.00000000E+00  0.00000000E+00  0.00000000E+00
  0.00000000E+00  0.00000000E+00  0.00000000E+00
  0.00000000E+00  0.00000000E+00  0.00000000E+00
  0.00000000E+00  0.00000000E+00  0.00000000E+00
  0.00000000E+00  0.00000000E+00  0.00000000E+00
  0.00000000E+00  0.00000000E+00  0.00000000E+00
  0.00000000E+00  0.00000000E+00  0.00000000E+00
  0.00000000E+00  0.00000000E+00  0.00000000E+00
  0.00000000E+00  0.00000000E+00  0.00000000E+00
  0.00000000E+00  0.00000000E+00  0.00000000E+00
  0.00000000E+00  0.00000000E+00  0.00000000E+00
  0.00000000E+00  0.00000000E+00  0.00000000E+00
  0.00000000E+00  0.00000000E+00  0.00000000E+00
  0.00000000E+00  0.00000000E+00  0.00000000E+00
  0.00000000E+00  0.00000000E+00  0.00000000E+00
  0.00000000E+00  0.00000000E+00  0.00000000E+00
  0.00000000E+00  0.00000000E+00  0.00000000E+00
  0.00000000E+00  0.00000000E+00  0.00000000E+00
  0.00000000E+00  0.00000000E+00  0.00000000E+00
  0.00000000E+00  0.00000000E+00  0.00000000E+00
  0.00000000E+00  0.00000000E+00  0.00000000E+00
  0.00000000E+00  0.00000000E+00  0.00000000E+00
  0.00000000E+00  0.00000000E+00  0.00000000E+00
  0.00000000E+00  0.00000000E+00  0.00000000E+00
  0.00000000E+00  0.00000000E+00  0.00000000E+00
  0.00000000E+00  0.00000000E+00  0.00000000E+00
  0.00000000E+00  0.00000000E+00  0.00000000E+00
  0.00000000E+00  0.00000000E+00  0.00000000E+00
  0.00000000E+00  0.00000000E+00  0.00000000E+00
  0.00000000E+00  0.00000000E+00  0.00000000E+00
  0.00000000E+00  0.00000000E+00  0.00000000E+00
  0.00000000E+00  0.00000000E+00  0.00000000E+00
  0.00000000E+00  0.00000000E+00  0.00000000E+00
  0.00000000E+00  0.00000000E+00  0.00000000E+00
  0.00000000E+00  0.00000000E+00  0.00000000E+00
  0.00000000E+00  0.00000000E+00  0.00000000E+00
  0.00000000E+00  0.00000000E+00  0.00000000E+00
  0.00000000E+00  0.00000000E+00  0.00000000E+00
  0.00000000E+00  0.00000000E+00  0.00000000E+00
  0.00000000E+00  0.00000000E+00  0.00000000E+00
  0.00000000E+00  0.00000000E+00  0.00000000E+00
  0.00000000E+00  0.00000000E+00  0.00000000E+00
  0.00000000E+00  0.00000000E+00  0.00000000E+00
  0.00000000E+00  0.00000000E+00  0.00000000E+00
  0.00000000E+00  0.00000000E+00  0.00000000E+00
  0.00000000E+00  0.00000000E+00  0.00000000E+00
  0.00000000E+00  0.00000000E+00  0.00000000E+00
  0.00000000E+00  0.00000000E+00  0.00000000E+00
  0.00000000E+00  0.00000000E+00  0.00000000E+00
  0.00000000E+00  0.00000000E+00  0.00000000E+00
  0.00000000E+00  0.00000000E+00  0.00000000E+00
  0.00000000E+00  0.00000000E+00  0.00000000E+00
  0.00000000E+00  0.00000000E+00  0.00000000E+00
  0.00000000E+00  0.00000000E+00  0.00000000E+00
  0.00000000E+00  0.00000000E+00  0.00000000E+00
  0.00000000E+00  0.00000000E+00  0.00000000E+00
  0.00000000E+00  0.00000000E+00  0.00000000E+00
  0.00000000E+00  0.00000000E+00  0.00000000E+00
  0.00000000E+00  0.00000000E+00  0.00000000E+00
  0.00000000E+00  0.00000000E+00  0.00000000E+00
  0.00000000E+00  0.00000000E+00  0.00000000E+00
  0.00000000E+00  0.00000000E+00  0.00000000E+00
  0.00000000E+00  0.00000000E+00  0.00000000E+00
  0.00000000E+00  0.00000000E+00  0.00000000E+00
  0.00000000E+00  0.00000000E+00  0.00000000E+00
  0.00000000E+00  0.00000000E+00  0.00000000E+00
  0.00000000E+00  0.00000000E+00  0.00000000E+00
  0.00000000E+00  0.00000000E+00  0.00000000E+00
  0.00000000E+00  0.00000000E+00  0.00000000E+00
  0.00000000E+00  0.00000000E+00  0.00000000E+00
  0.00000000E+00  0.00000000E+00  0.00000000E+00
  0.00000000E+00  0.00000000E+00  0.00000000E+00
  0.00000000E+00  0.00000000E+00  0.00000000E+00
  0.00000000E+00  0.00000000E+00  0.00000000E+00
  0.00000000E+00  0.00000000E+00  0.00000000E+00
  0.00000000E+00  0.00000000E+00  0.00000000E+00
  0.00000000E+00  0.00000000E+00  0.00000000E+00
  0.00000000E+00  0.00000000E+00  0.00000000E+00
  0.00000000E+00  0.00000000E+00  0.00000000E+00
  0.00000000E+00  0.00000000E+00  0.00000000E+00
  0.00000000E+00  0.00000000E+00  0.00000000E+00
  0.00000000E+00  0.00000000E+00  0.00000000E+00
