CeO2-you-111-you-Hf                     
   1.00000000000000     
     9.8147577887802679   -5.6665534228435650    0.0000000000000000
     0.0000000033542455   11.3331048571107811    0.0000000000000000
     0.0000000000000000    0.0000000000000000   21.1959671819540567
   O    Hf   Ce H
    54     1    26 2
Selective dynamics
Direct
 -0.0004966667366283 -0.0000700723802306  0.9964569383084046   T   T   T
  0.1121689001721898  0.2227509500860700  0.1504157057984840   T   T   T
  0.2246953812560191  0.1160577625132714  0.3014237082995345   T   T   T
  0.1321781549871972  0.2327555774950160  0.3777604245697078   T   T   T
 -0.0006260982753121 -0.0004359266224909  0.2297274977128030   T   T   T
  0.2220963140643670  0.1108596281287189  0.0754534509536762   T   T   T
  0.3337595943564146 -0.0000700723802308  0.9964569383084046   T   T   T
  0.4439150499138762  0.2227509500860464  0.1504157057984840   T   T   T
  0.5541256556733049  0.1125413443264377  0.3049939962485022   T   T   T
  0.4339104225078151  0.2327555774962729  0.3777604245697078   T   T   T
  0.3335231716528193 -0.0004359266225226  0.2297274977128030   T   T   T
  0.5554588751102933  0.1112081248896170  0.0762455506485763   T   T   T
  0.6666669999999968 -0.0000000000000000  0.9967169441896806   T   T   T
  0.7774342635992199  0.2215345271984106  0.1505078429588271   T   T   T
  0.8917496886532136  0.1125413443265179  0.3049939962485022   T   T   T
  0.7775574352286648  0.2217808704573645  0.3829819242136605   T   T   T
  0.6666669999999968 -0.0000000000000000  0.2308638616411017   T   T   T
  0.8890832497793532  0.1112081248896458  0.0762455506485763   T   T   T
 -0.0004966667365976  0.3329064056436049  0.9964569383084046   T   T   T
  0.1110595814849346  0.5556074185149786  0.1502845905630056   T   T   T
  0.2246953812532337  0.4419706187427439  0.3014237082995345   T   T   T
  0.1125233696827020  0.5541436303175858  0.3822190799919688   T   T   T
 -0.0006260982753235  0.3331428283471106  0.2297274977128030   T   T   T
  0.2220963140643941  0.4445696859356443  0.0754534509536762   T   T   T
  0.3333330000000032  0.3333330000000032  0.9962968914817619   T   T   T
  0.4439150499139293  0.5544980998278907  0.1504157057984840   T   T   T
  0.5506092374907544  0.4419706187439802  0.3014237082995345   T   T   T
  0.4339104225049833  0.5344888450087180  0.3777604245697078   T   T   T
  0.3333330000000032  0.3333330000000032  0.2329286140376715   T   T   T
  0.5558073718712457  0.4445696859356323  0.0754534509536762   T   T   T
  0.6667370723801825  0.3329064056435911  0.9964569383084046   T   T   T
  0.7778808370300676  0.5556074185150062  0.1502845905630056   T   T   T
  0.8889258517625725  0.4445177035250941  0.3042788573581772   T   T   T
  0.7749532606347923  0.5541436303174985  0.3822190799919688   T   T   T
  0.6671029266224330  0.3331428283470839  0.2297274977128030   T   T   T
  0.8888443979887185  0.4443547959774363  0.0759118314312541   T   T   T
 -0.0000000000000000  0.6666669999999968  0.9964004260407806   T   T   T
  0.1110595814849976  0.8887861629700200  0.1502845905630056   T   T   T
  0.2221482964747408  0.7777411482374242  0.3042788573581772   T   T   T
  0.1125233696825055  0.8917137393649205  0.3822190799919688   T   T   T
 -0.0000000000000000  0.6666669999999968  0.2298005904596308   T   T   T
  0.2223112040225634  0.7778226020112783  0.0759118314312541   T   T   T
  0.3337595943564459  0.6671636667366394  0.9964569383084046   T   T   T
  0.4451314728014711  0.8892327364007769  0.1505078429588271   T   T   T
  0.5541256556734857  0.7749173113470444  0.3049939962485022   T   T   T
  0.4448851295427279  0.8891095647713320  0.3829819242136605   T   T   T
  0.3335231716528794  0.6672930982754067  0.2297274977128030   T   T   T
  0.5554588751103583  0.7775837502207373  0.0762455506485763   T   T   T
  0.6667370723801828  0.6671636667366261  0.9964569383084046   T   T   T
  0.7774342635993016  0.8892327364008129  0.1505078429588271   T   T   T
  0.8889258517626866  0.7777411482374745  0.3042788573581772   T   T   T
  0.7775574352286002  0.8891095647713040  0.3829819242136605   T   T   T
  0.6671029266225038  0.6672930982754119  0.2297274977128030   T   T   T
  0.8888443979887183  0.7778226020112785  0.0759118314312541   T   T   T
  0.3333330000000032  0.3333330000000032  0.3339134067477095   T   T   T
  0.0038432859705328  0.0033732497337256  0.3431141893367516   T   T   T
  0.2218753072108296  0.1104176144215770  0.1898782851289982   T   T   T
  0.1110315577535521  0.2221822788767942  0.0360697244264866   T   T   T
  0.3328629637633293  0.0033732497337885  0.3431141893367516   T   T   T
  0.5555618577052525  0.1111051422947182  0.1902919436503681   T   T   T
  0.4444837211232384  0.2221822788768090  0.0360697244264866   T   T   T
  0.6666669999999968 -0.0000000000000000  0.3450048975944024   T   T   T
  0.8888772845894765  0.1111051422947284  0.1902919436503681   T   T   T
  0.7777548663062532  0.2221757326124965  0.0364578972551323   T   T   T
  0.0038432859708328  0.3338030362369522  0.3431141893367516   T   T   T
  0.2218753072110077  0.4447906927892487  0.1898782851289982   T   T   T
  0.1110738825062064  0.5555931174936873  0.0362085539052111   T   T   T
  0.5562493855781696  0.4447906927891697  0.1898782851289982   T   T   T
  0.4444837211232051  0.5556354422464040  0.0360697244264866   T   T   T
  0.6632937502659799  0.3338030362368818  0.3431141893367516   T   T   T
  0.8888659866661579  0.4443979733324314  0.1902681479389349   T   T   T
  0.7778522349875110  0.5555931174937212  0.0362085539052111   T   T   T
 -0.0000000000000000  0.6666669999999968  0.3427140696380975   T   T   T
  0.2222680266679463  0.7778010133338389  0.1902681479389349   T   T   T
  0.1110738825062826  0.8888147650125958  0.0362085539052111   T   T   T
  0.3328629637634875  0.6628237140293926  0.3431141893367516   T   T   T
  0.5555618577052754  0.7777897154105534  0.1902919436503681   T   T   T
  0.4444902673874516  0.8889121336937436  0.0364578972551323   T   T   T
  0.6632937502658381  0.6628237140292594  0.3431141893367516   T   T   T
  0.8888659866658959  0.7778010133337228  0.1902681479389349   T   T   T
  0.7777548663062883  0.8889121336937598  0.0364578972551323   T   T   T
0.3333330000000032 0.3333330000000032 0.403913 T T T
0.446598 0.216020 0.433410 T T T 
 
  0.00000000E+00  0.00000000E+00  0.00000000E+00
  0.00000000E+00  0.00000000E+00  0.00000000E+00
  0.00000000E+00  0.00000000E+00  0.00000000E+00
  0.00000000E+00  0.00000000E+00  0.00000000E+00
  0.00000000E+00  0.00000000E+00  0.00000000E+00
  0.00000000E+00  0.00000000E+00  0.00000000E+00
  0.00000000E+00  0.00000000E+00  0.00000000E+00
  0.00000000E+00  0.00000000E+00  0.00000000E+00
  0.00000000E+00  0.00000000E+00  0.00000000E+00
  0.00000000E+00  0.00000000E+00  0.00000000E+00
  0.00000000E+00  0.00000000E+00  0.00000000E+00
  0.00000000E+00  0.00000000E+00  0.00000000E+00
  0.00000000E+00  0.00000000E+00  0.00000000E+00
  0.00000000E+00  0.00000000E+00  0.00000000E+00
  0.00000000E+00  0.00000000E+00  0.00000000E+00
  0.00000000E+00  0.00000000E+00  0.00000000E+00
  0.00000000E+00  0.00000000E+00  0.00000000E+00
  0.00000000E+00  0.00000000E+00  0.00000000E+00
  0.00000000E+00  0.00000000E+00  0.00000000E+00
  0.00000000E+00  0.00000000E+00  0.00000000E+00
  0.00000000E+00  0.00000000E+00  0.00000000E+00
  0.00000000E+00  0.00000000E+00  0.00000000E+00
  0.00000000E+00  0.00000000E+00  0.00000000E+00
  0.00000000E+00  0.00000000E+00  0.00000000E+00
  0.00000000E+00  0.00000000E+00  0.00000000E+00
  0.00000000E+00  0.00000000E+00  0.00000000E+00
  0.00000000E+00  0.00000000E+00  0.00000000E+00
  0.00000000E+00  0.00000000E+00  0.00000000E+00
  0.00000000E+00  0.00000000E+00  0.00000000E+00
  0.00000000E+00  0.00000000E+00  0.00000000E+00
  0.00000000E+00  0.00000000E+00  0.00000000E+00
  0.00000000E+00  0.00000000E+00  0.00000000E+00
  0.00000000E+00  0.00000000E+00  0.00000000E+00
  0.00000000E+00  0.00000000E+00  0.00000000E+00
  0.00000000E+00  0.00000000E+00  0.00000000E+00
  0.00000000E+00  0.00000000E+00  0.00000000E+00
  0.00000000E+00  0.00000000E+00  0.00000000E+00
  0.00000000E+00  0.00000000E+00  0.00000000E+00
  0.00000000E+00  0.00000000E+00  0.00000000E+00
  0.00000000E+00  0.00000000E+00  0.00000000E+00
  0.00000000E+00  0.00000000E+00  0.00000000E+00
  0.00000000E+00  0.00000000E+00  0.00000000E+00
  0.00000000E+00  0.00000000E+00  0.00000000E+00
  0.00000000E+00  0.00000000E+00  0.00000000E+00
  0.00000000E+00  0.00000000E+00  0.00000000E+00
  0.00000000E+00  0.00000000E+00  0.00000000E+00
  0.00000000E+00  0.00000000E+00  0.00000000E+00
  0.00000000E+00  0.00000000E+00  0.00000000E+00
  0.00000000E+00  0.00000000E+00  0.00000000E+00
  0.00000000E+00  0.00000000E+00  0.00000000E+00
  0.00000000E+00  0.00000000E+00  0.00000000E+00
  0.00000000E+00  0.00000000E+00  0.00000000E+00
  0.00000000E+00  0.00000000E+00  0.00000000E+00
  0.00000000E+00  0.00000000E+00  0.00000000E+00
  0.00000000E+00  0.00000000E+00  0.00000000E+00
  0.00000000E+00  0.00000000E+00  0.00000000E+00
  0.00000000E+00  0.00000000E+00  0.00000000E+00
  0.00000000E+00  0.00000000E+00  0.00000000E+00
  0.00000000E+00  0.00000000E+00  0.00000000E+00
  0.00000000E+00  0.00000000E+00  0.00000000E+00
  0.00000000E+00  0.00000000E+00  0.00000000E+00
  0.00000000E+00  0.00000000E+00  0.00000000E+00
  0.00000000E+00  0.00000000E+00  0.00000000E+00
  0.00000000E+00  0.00000000E+00  0.00000000E+00
  0.00000000E+00  0.00000000E+00  0.00000000E+00
  0.00000000E+00  0.00000000E+00  0.00000000E+00
  0.00000000E+00  0.00000000E+00  0.00000000E+00
  0.00000000E+00  0.00000000E+00  0.00000000E+00
  0.00000000E+00  0.00000000E+00  0.00000000E+00
  0.00000000E+00  0.00000000E+00  0.00000000E+00
  0.00000000E+00  0.00000000E+00  0.00000000E+00
  0.00000000E+00  0.00000000E+00  0.00000000E+00
  0.00000000E+00  0.00000000E+00  0.00000000E+00
  0.00000000E+00  0.00000000E+00  0.00000000E+00
  0.00000000E+00  0.00000000E+00  0.00000000E+00
  0.00000000E+00  0.00000000E+00  0.00000000E+00
  0.00000000E+00  0.00000000E+00  0.00000000E+00
  0.00000000E+00  0.00000000E+00  0.00000000E+00
  0.00000000E+00  0.00000000E+00  0.00000000E+00
  0.00000000E+00  0.00000000E+00  0.00000000E+00
  0.00000000E+00  0.00000000E+00  0.00000000E+00
