CeO2-you-111-you-Pd                     
   1.00000000000000     
     9.8190258224034288   -5.6690175720206017    0.0000000005384357
     0.0100070328233557   11.3553658369564161    0.0100923443991119
     0.0104990367008895    0.0181848618904444   21.2674952597521951
   O    Pd   Ce   H 
    53     1    26     2
Selective dynamics
Direct
  0.0000137787592828  0.0002768472952323  0.9972083196199352   T   T   T
  0.1041137531406093  0.2198073727628937  0.1487779992194334   F   F   F
  0.2328850496405439  0.1202103720500668  0.3033929457040724   T   T   T
  0.1149325828364167  0.2239046875285451  0.3834541953119540   T   T   T
  0.0020639916863874 -0.0001778576836941  0.2283359472581123   T   T   T
  0.2226002569651868  0.1118675139302425  0.0754768365050253   F   F   F
  0.3339502790629477  0.0004228689497032  0.9968611654521848   T   T   T
  0.4490266196219395  0.2198073727625740  0.1487779992194334   F   F   F
  0.5491685936462987  0.1069351199916535  0.3044882801546682   T   T   T
  0.4441572902171033  0.1929530112326148  0.4076887532392148   T   T   T
  0.3310119216843220  0.9969612833185787  0.2275269371431274   T   T   T
  0.5586514261966968  0.1104302489820412  0.0758942665665359   F   F   F
  0.6669279152400532 -0.0000980817167338  0.9955052713561187   T   T   T
  0.7785326677049369  0.2237313354100650  0.1546497335940344   F   F   F
  0.8921524193600450  0.1104538025037582  0.3028593305910897   T   T   T
  0.7834555271205583  0.2121613146863937  0.3839373895451899   T   T   T
  0.6633862560072985  0.9927253042005141  0.2330266505177256   T   T   T
  0.8851128227854019  0.1104302489822757  0.0758942665665217   F   F   F
  0.0006346669726028  0.3333958584891557  0.9968845874846763   T   T   T
  0.1094494548160654  0.5540657773330935  0.1500102099061849   F   F   F
  0.2327312052364673  0.4497345395105051  0.3046318294036295   T   T   T
  0.1137466895070420  0.5576512643561572  0.3836529369912237   T   T   T
  0.0041094045674672  0.3348845412609676  0.2312638366423127   T   T   T
  0.2232474921545773  0.4443630785836703  0.0764188544182360   F   F   F
  0.3334355256302039  0.3335453052827629  0.9966769225337891   T   T   T
  0.4478042136282667  0.5622764272564709  0.1493915530195054   F   F   F
  0.5242105384374193  0.4465834133930701  0.3214763286088804   T   T   T
  0.3334157804111241  0.3324263257143800  0.2170836765811020   T   T   T
  0.5544495864286461  0.4443630785832582  0.0764188544182360   F   F   F
  0.6661774168292544  0.3339613490403482  0.9968774400418295   T   T   T
  0.7779493225168679  0.5540657773327240  0.1500102099062275   F   F   F
  0.8939987701739576  0.4470194437955597  0.3050036275192909   T   T   T
  0.7874775182670961  0.5711662379781607  0.3848661228058178   T   T   T
  0.6613319289931308  0.3386380895090230  0.2322986876607724   T   T   T
  0.8877184504849254  0.4421029009700490  0.0765962986596449   F   F   F
 -0.0000554280021359  0.6663982223556961  0.9972877726641781   T   T   T
  0.1104097701317741  0.8874865402629766  0.1486868312115135   F   F   F
  0.2200070126178070  0.7762338540272312  0.3017824351756412   T   T   T
  0.1141809582821443  0.8907572405314192  0.3817458099213895   T   T   T
 -0.0003262874094534  0.6675322422867891  0.2287558483529440   T   T   T
  0.2230445250095414  0.7777941056402682  0.0756033288509599   F   F   F
  0.3326381234932312  0.6659992622289739  0.9966994260640455   T   T   T
  0.4468944978851042  0.8883091885321193  0.1495983710145481   F   F   F
  0.5467684926817951  0.7589961631373169  0.3117308236299588   T   T   T
  0.4389949520641648  0.8830844542855538  0.3820759508630137   T   T   T
  0.3332323664101909  0.6686989663166673  0.2289449278736752   T   T   T
  0.5560151610658508  0.7786963221318217  0.0748129463054710   F   F   F
  0.6668535874365139  0.6663094175039983  0.9964736833139430   T   T   T
  0.7747476906472883  0.8883091885324248  0.1495983710145268   F   F   F
  0.8938118684885731  0.7813844639003321  0.3017141521494950   T   T   T
  0.7818051651735164  0.8904821352061635  0.3814572406717143   T   T   T
  0.6679264429319696  0.6634320415631573  0.2303716159712441   T   T   T
  0.8880825806309431  0.7777941056402327  0.0756033288509812   F   F   F
  0.3180940178416758  0.3315907405945086  0.3525403942270396   T   T   T
  0.0092948758366451  0.0069985989490477  0.3414711968627970   T   T   T
  0.2218973941989617  0.1104617883986023  0.1886196848474455   F   F   F
  0.1106866702825826  0.2224623609382164  0.0367841324773082   F   F   F
  0.3307094165276045 -0.0024499972803437  0.3414887439720150   T   T   T
  0.5549493374633556  0.1104610982305587  0.1907064865732622   F   F   F
  0.4451086906556014  0.2224623609385716  0.0367841324773437   F   F   F
  0.6675014691268494 -0.0008230995424963  0.3448050686575271   T   T   T
  0.8888457607656335  0.1104610982286971  0.1907064865732977   F   F   F
  0.7778276912611375  0.2223213825220967  0.0367456990352863   F   F   F
  0.0017343118403968  0.3320401659611738  0.3430257602230168   T   T   T
  0.2250762023019064  0.4428115175347571  0.1892145272416599   F   F   F
  0.1107857011303821  0.5550300628056348  0.0371281241288415   F   F   F
  0.5510693152348978  0.4428115175361569  0.1892145272418375   F   F   F
  0.4446570401912950  0.5559820803822930  0.0357719418161153   F   F   F
  0.6641139125194976  0.3341046259154512  0.3486395798712744   T   T   T
  0.8892869483394819  0.4452398966784727  0.1920867129652137   F   F   F
  0.7775773616756112  0.5550300628061180  0.0371281241288557   F   F   F
 -0.0000054965168492  0.6663469824009929  0.3428845776242617   T   T   T
  0.2219510665600808  0.7777212273730143  0.1876390184172223   F   F   F
  0.1113347370108642  0.8893364740218885  0.0359384244419232   F   F   F
  0.3236446723737103  0.6683477397539631  0.3393275671035416   T   T   T
  0.5554685017895409  0.7776030035785837  0.1894689813456552   F   F   F
  0.4458190422982682  0.8894074661010407  0.0359813153770574   F   F   F
  0.6808180572829057  0.6712516926463804  0.3404026587059190   T   T   T
  0.8891031608116222  0.7777212273724459  0.1876390184171797   F   F   F
  0.7769214238028326  0.8894074661011118  0.0359813153770361   F   F   F
  0.3627652022855150  0.4412552020150722  0.4039964720571088   T   T   T
  0.4144414604123137  0.2033632430009957  0.4491032878557495   T   T   T
 
  0.00000000E+00  0.00000000E+00  0.00000000E+00
  0.00000000E+00  0.00000000E+00  0.00000000E+00
  0.00000000E+00  0.00000000E+00  0.00000000E+00
  0.00000000E+00  0.00000000E+00  0.00000000E+00
  0.00000000E+00  0.00000000E+00  0.00000000E+00
  0.00000000E+00  0.00000000E+00  0.00000000E+00
  0.00000000E+00  0.00000000E+00  0.00000000E+00
  0.00000000E+00  0.00000000E+00  0.00000000E+00
  0.00000000E+00  0.00000000E+00  0.00000000E+00
  0.00000000E+00  0.00000000E+00  0.00000000E+00
  0.00000000E+00  0.00000000E+00  0.00000000E+00
  0.00000000E+00  0.00000000E+00  0.00000000E+00
  0.00000000E+00  0.00000000E+00  0.00000000E+00
  0.00000000E+00  0.00000000E+00  0.00000000E+00
  0.00000000E+00  0.00000000E+00  0.00000000E+00
  0.00000000E+00  0.00000000E+00  0.00000000E+00
  0.00000000E+00  0.00000000E+00  0.00000000E+00
  0.00000000E+00  0.00000000E+00  0.00000000E+00
  0.00000000E+00  0.00000000E+00  0.00000000E+00
  0.00000000E+00  0.00000000E+00  0.00000000E+00
  0.00000000E+00  0.00000000E+00  0.00000000E+00
  0.00000000E+00  0.00000000E+00  0.00000000E+00
  0.00000000E+00  0.00000000E+00  0.00000000E+00
  0.00000000E+00  0.00000000E+00  0.00000000E+00
  0.00000000E+00  0.00000000E+00  0.00000000E+00
  0.00000000E+00  0.00000000E+00  0.00000000E+00
  0.00000000E+00  0.00000000E+00  0.00000000E+00
  0.00000000E+00  0.00000000E+00  0.00000000E+00
  0.00000000E+00  0.00000000E+00  0.00000000E+00
  0.00000000E+00  0.00000000E+00  0.00000000E+00
  0.00000000E+00  0.00000000E+00  0.00000000E+00
  0.00000000E+00  0.00000000E+00  0.00000000E+00
  0.00000000E+00  0.00000000E+00  0.00000000E+00
  0.00000000E+00  0.00000000E+00  0.00000000E+00
  0.00000000E+00  0.00000000E+00  0.00000000E+00
  0.00000000E+00  0.00000000E+00  0.00000000E+00
  0.00000000E+00  0.00000000E+00  0.00000000E+00
  0.00000000E+00  0.00000000E+00  0.00000000E+00
  0.00000000E+00  0.00000000E+00  0.00000000E+00
  0.00000000E+00  0.00000000E+00  0.00000000E+00
  0.00000000E+00  0.00000000E+00  0.00000000E+00
  0.00000000E+00  0.00000000E+00  0.00000000E+00
  0.00000000E+00  0.00000000E+00  0.00000000E+00
  0.00000000E+00  0.00000000E+00  0.00000000E+00
  0.00000000E+00  0.00000000E+00  0.00000000E+00
  0.00000000E+00  0.00000000E+00  0.00000000E+00
  0.00000000E+00  0.00000000E+00  0.00000000E+00
  0.00000000E+00  0.00000000E+00  0.00000000E+00
  0.00000000E+00  0.00000000E+00  0.00000000E+00
  0.00000000E+00  0.00000000E+00  0.00000000E+00
  0.00000000E+00  0.00000000E+00  0.00000000E+00
  0.00000000E+00  0.00000000E+00  0.00000000E+00
  0.00000000E+00  0.00000000E+00  0.00000000E+00
  0.00000000E+00  0.00000000E+00  0.00000000E+00
  0.00000000E+00  0.00000000E+00  0.00000000E+00
  0.00000000E+00  0.00000000E+00  0.00000000E+00
  0.00000000E+00  0.00000000E+00  0.00000000E+00
  0.00000000E+00  0.00000000E+00  0.00000000E+00
  0.00000000E+00  0.00000000E+00  0.00000000E+00
  0.00000000E+00  0.00000000E+00  0.00000000E+00
  0.00000000E+00  0.00000000E+00  0.00000000E+00
  0.00000000E+00  0.00000000E+00  0.00000000E+00
  0.00000000E+00  0.00000000E+00  0.00000000E+00
  0.00000000E+00  0.00000000E+00  0.00000000E+00
  0.00000000E+00  0.00000000E+00  0.00000000E+00
  0.00000000E+00  0.00000000E+00  0.00000000E+00
  0.00000000E+00  0.00000000E+00  0.00000000E+00
  0.00000000E+00  0.00000000E+00  0.00000000E+00
  0.00000000E+00  0.00000000E+00  0.00000000E+00
  0.00000000E+00  0.00000000E+00  0.00000000E+00
  0.00000000E+00  0.00000000E+00  0.00000000E+00
  0.00000000E+00  0.00000000E+00  0.00000000E+00
  0.00000000E+00  0.00000000E+00  0.00000000E+00
  0.00000000E+00  0.00000000E+00  0.00000000E+00
  0.00000000E+00  0.00000000E+00  0.00000000E+00
  0.00000000E+00  0.00000000E+00  0.00000000E+00
  0.00000000E+00  0.00000000E+00  0.00000000E+00
  0.00000000E+00  0.00000000E+00  0.00000000E+00
  0.00000000E+00  0.00000000E+00  0.00000000E+00
  0.00000000E+00  0.00000000E+00  0.00000000E+00
  0.00000000E+00  0.00000000E+00  0.00000000E+00
  0.00000000E+00  0.00000000E+00  0.00000000E+00
