CeO2-you-111-you-Ge                     
   1.00000000000000     
     9.9226737757821670   -5.7288587508534503   -0.0000000012377476
    -0.0512787102112422   11.3688981597340444   -0.0235440349574658
    -0.0259165893218115   -0.0448888418254432   20.2363011238330479
   O    Ge   Ce
    53     1    26
Selective dynamics
Direct
  0.0008520084810452  0.0004245442323941  0.9877714213524081   T   T   T
  0.1123632982655492  0.2236634074037180  0.1486014754347481   T   T   T
  0.2299489564617022  0.1265649129238846  0.3104022670653054   T   T   T
  0.0772529275905370  0.2081737139674336  0.3958586725961143   T   T   T
  0.0038990019635830  0.0022919659972918  0.2303024849975189   T   T   T
  0.2224307037034562  0.1115284074069650  0.0705292630819134   T   T   T
  0.3329055357514527  0.0004245442323282  0.9877714213524257   T   T   T
  0.4446331091378088  0.2236634074031589  0.1486014754347199   T   T   T
  0.5588161351285201  0.1079479715525274  0.3051057861887540   T   T   T
  0.4642537863772683  0.2081737139682453  0.3958586725963384   T   T   T
  0.3317259640339470  0.0022919659968384  0.2303024849975105   T   T   T
  0.5552544150738832  0.1115676087092639  0.0704774244110124   T   T   T
  0.6661812496014733 -0.0009715007969638  0.9888961273795058   T   T   T
  0.7760316444631092  0.2187292889260023  0.1497466970960047   T   T   T
  0.8824658364250986  0.1079479715533548  0.3051057861888322   T   T   T
  0.7748662580149952  0.2163985160294954  0.3907416693264000   T   T   T
  0.6606102205842338 -0.0121135588321318  0.2319458741577312   T   T   T
  0.8896471936354564  0.1115676087093961  0.0704774244110254   T   T   T
  0.0002947036995542  0.3326862557212190  0.9887284749118426   T   T   T
  0.1106291416326052  0.5552825270351940  0.1484921564946024   T   T   T
  0.2249160452792086  0.4517594477167675  0.3117002688009422   T   T   T
  0.1112269393348329  0.5629049280452679  0.3931693777691049   T   T   T
  0.0013791569051427  0.3342607457463662  0.2313217700750812   T   T   T
  0.2226474200769669  0.4452009860097688  0.0715295566561777   T   T   T
  0.3335161247212900  0.3336992494426887  0.9888556524600887   T   T   T
  0.4438348730373252  0.5543377460750984  0.1496523396941474   T   T   T
  0.5601774024360432  0.4517594477161804  0.3117002688006270   T   T   T
  0.3351855165750656  0.3370380331505522  0.2339345849587070   T   T   T
  0.5558875659328455  0.4452009860098256  0.0715295566562022   T   T   T
  0.6657255520215380  0.3326862557210470  0.9887284749118974   T   T   T
  0.7779863854022437  0.5552825270348518  0.1484921564946117   T   T   T
  0.8892314582554034  0.4451289165108868  0.3096138571803596   T   T   T
  0.7850109887096434  0.5629049280453714  0.3931693777690977   T   T   T
  0.6662155888411982  0.3342607457463571  0.2313217700750076   T   T   T
  0.8879089831320631  0.4424839662641183  0.0713599860284297   T   T   T
 -0.0010149794745730  0.6646370410508007  0.9885855159880013   T   T   T
  0.1115380099276158  0.8897430198550722  0.1462597161511072   T   T   T
  0.2205184145248646  0.7801642816467027  0.3066298713917509   T   T   T
  0.1133670593353353  0.8934011186703903  0.3892432204705977   T   T   T
  0.0006831914779230  0.6680333829558802  0.2296549094388448   T   T   T
  0.2215533393906211  0.7779645797921543  0.0696289944711135   T   T   T
  0.3333164039666509  0.6662928935818431  0.9888624251462064   T   T   T
  0.4431572628025998  0.8890888185311131  0.1468283698328595   T   T   T
  0.5420363637126915  0.7507387274242381  0.3188675512410991   T   T   T
  0.4422925844938229  0.8886849998247439  0.3897311021731275   T   T   T
  0.3334371963176019  0.6717593331314132  0.2300251636260371   T   T   T
  0.5552000897379804  0.7770661794759326  0.0716255808784787   T   T   T
  0.6663094896151431  0.6662928935817571  0.9888624251462310   T   T   T
  0.7792645557289113  0.8890888185314496  0.1468283698327807   T   T   T
  0.8929788671230005  0.7801642816478087  0.3066298713919206   T   T   T
  0.7797254153320458  0.8886849998250707  0.3897311021730854   T   T   T
  0.6716551368135272  0.6717593331316021  0.2300251636260806   T   T   T
  0.8897442404015945  0.7779645797922723  0.0696289944710877   T   T   T
  0.3278910964866785  0.3224491929722923  0.3357664837374467   T   T   T
  0.0032730646876802  0.0079907076014367  0.3510447988178018   T   T   T
  0.2231068543212942  0.1128807086431474  0.1891017679382042   T   T   T
  0.1114616384057941  0.2224878155629681  0.0298520297911929   T   T   T
  0.3380506429126938  0.0079907076026116  0.3510447988178552   T   T   T
  0.5543035861097625  0.1100047426772329  0.1897078083029746   T   T   T
  0.4443591771571402  0.2224878155629700  0.0298520297911456   T   T   T
  0.6653119031385800 -0.0027101937208119  0.3500130528950147   T   T   T
  0.8890351565666754  0.1100047426764447  0.1897078083029484   T   T   T
  0.7772727291531322  0.2212114583063202  0.0302156981878391   T   T   T
 -0.0016292725728092  0.3305541274919222  0.3512644128963776   T   T   T
  0.2215567317732217  0.4453770029329052  0.1917767462836165   T   T   T
  0.1104276658854563  0.5541210705356963  0.0299099828694400   T   T   T
  0.5571542711605408  0.4453770029328029  0.1917767462835321   T   T   T
  0.4439468617146307  0.5545617234292126  0.0303641000466534   T   T   T
  0.6655174000646580  0.3305541274910569  0.3512644128961357   T   T   T
  0.8888993168450042  0.4444646336896694  0.1908082489389276   T   T   T
  0.7770264046502475  0.5541210705356749  0.0299099828694638   T   T   T
  0.0015033993295589  0.6696737986590607  0.3506085821576989   T   T   T
  0.2210338988657388  0.7796755978964177  0.1874169920614632   T   T   T
  0.1111324187806262  0.8889318375614087  0.0278043353988605   T   T   T
  0.3201161760457694  0.6719568006924096  0.3458235571734392   T   T   T
  0.5544189760340754  0.7755039520680578  0.1886878289834325   T   T   T
  0.4437124717243323  0.8882298468924569  0.0291349200338327   T   T   T
  0.6851736246481885  0.6719568006933963  0.3458235571739726   T   T   T
  0.8919746990298973  0.7796755978957927  0.1874169920614467   T   T   T
  0.7778503751679877  0.8882298468924362  0.0291349200337822   T   T   T
 
  0.00000000E+00  0.00000000E+00  0.00000000E+00
  0.00000000E+00  0.00000000E+00  0.00000000E+00
  0.00000000E+00  0.00000000E+00  0.00000000E+00
  0.00000000E+00  0.00000000E+00  0.00000000E+00
  0.00000000E+00  0.00000000E+00  0.00000000E+00
  0.00000000E+00  0.00000000E+00  0.00000000E+00
  0.00000000E+00  0.00000000E+00  0.00000000E+00
  0.00000000E+00  0.00000000E+00  0.00000000E+00
  0.00000000E+00  0.00000000E+00  0.00000000E+00
  0.00000000E+00  0.00000000E+00  0.00000000E+00
  0.00000000E+00  0.00000000E+00  0.00000000E+00
  0.00000000E+00  0.00000000E+00  0.00000000E+00
  0.00000000E+00  0.00000000E+00  0.00000000E+00
  0.00000000E+00  0.00000000E+00  0.00000000E+00
  0.00000000E+00  0.00000000E+00  0.00000000E+00
  0.00000000E+00  0.00000000E+00  0.00000000E+00
  0.00000000E+00  0.00000000E+00  0.00000000E+00
  0.00000000E+00  0.00000000E+00  0.00000000E+00
  0.00000000E+00  0.00000000E+00  0.00000000E+00
  0.00000000E+00  0.00000000E+00  0.00000000E+00
  0.00000000E+00  0.00000000E+00  0.00000000E+00
  0.00000000E+00  0.00000000E+00  0.00000000E+00
  0.00000000E+00  0.00000000E+00  0.00000000E+00
  0.00000000E+00  0.00000000E+00  0.00000000E+00
  0.00000000E+00  0.00000000E+00  0.00000000E+00
  0.00000000E+00  0.00000000E+00  0.00000000E+00
  0.00000000E+00  0.00000000E+00  0.00000000E+00
  0.00000000E+00  0.00000000E+00  0.00000000E+00
  0.00000000E+00  0.00000000E+00  0.00000000E+00
  0.00000000E+00  0.00000000E+00  0.00000000E+00
  0.00000000E+00  0.00000000E+00  0.00000000E+00
  0.00000000E+00  0.00000000E+00  0.00000000E+00
  0.00000000E+00  0.00000000E+00  0.00000000E+00
  0.00000000E+00  0.00000000E+00  0.00000000E+00
  0.00000000E+00  0.00000000E+00  0.00000000E+00
  0.00000000E+00  0.00000000E+00  0.00000000E+00
  0.00000000E+00  0.00000000E+00  0.00000000E+00
  0.00000000E+00  0.00000000E+00  0.00000000E+00
  0.00000000E+00  0.00000000E+00  0.00000000E+00
  0.00000000E+00  0.00000000E+00  0.00000000E+00
  0.00000000E+00  0.00000000E+00  0.00000000E+00
  0.00000000E+00  0.00000000E+00  0.00000000E+00
  0.00000000E+00  0.00000000E+00  0.00000000E+00
  0.00000000E+00  0.00000000E+00  0.00000000E+00
  0.00000000E+00  0.00000000E+00  0.00000000E+00
  0.00000000E+00  0.00000000E+00  0.00000000E+00
  0.00000000E+00  0.00000000E+00  0.00000000E+00
  0.00000000E+00  0.00000000E+00  0.00000000E+00
  0.00000000E+00  0.00000000E+00  0.00000000E+00
  0.00000000E+00  0.00000000E+00  0.00000000E+00
  0.00000000E+00  0.00000000E+00  0.00000000E+00
  0.00000000E+00  0.00000000E+00  0.00000000E+00
  0.00000000E+00  0.00000000E+00  0.00000000E+00
  0.00000000E+00  0.00000000E+00  0.00000000E+00
  0.00000000E+00  0.00000000E+00  0.00000000E+00
  0.00000000E+00  0.00000000E+00  0.00000000E+00
  0.00000000E+00  0.00000000E+00  0.00000000E+00
  0.00000000E+00  0.00000000E+00  0.00000000E+00
  0.00000000E+00  0.00000000E+00  0.00000000E+00
  0.00000000E+00  0.00000000E+00  0.00000000E+00
  0.00000000E+00  0.00000000E+00  0.00000000E+00
  0.00000000E+00  0.00000000E+00  0.00000000E+00
  0.00000000E+00  0.00000000E+00  0.00000000E+00
  0.00000000E+00  0.00000000E+00  0.00000000E+00
  0.00000000E+00  0.00000000E+00  0.00000000E+00
  0.00000000E+00  0.00000000E+00  0.00000000E+00
  0.00000000E+00  0.00000000E+00  0.00000000E+00
  0.00000000E+00  0.00000000E+00  0.00000000E+00
  0.00000000E+00  0.00000000E+00  0.00000000E+00
  0.00000000E+00  0.00000000E+00  0.00000000E+00
  0.00000000E+00  0.00000000E+00  0.00000000E+00
  0.00000000E+00  0.00000000E+00  0.00000000E+00
  0.00000000E+00  0.00000000E+00  0.00000000E+00
  0.00000000E+00  0.00000000E+00  0.00000000E+00
  0.00000000E+00  0.00000000E+00  0.00000000E+00
  0.00000000E+00  0.00000000E+00  0.00000000E+00
  0.00000000E+00  0.00000000E+00  0.00000000E+00
  0.00000000E+00  0.00000000E+00  0.00000000E+00
  0.00000000E+00  0.00000000E+00  0.00000000E+00
  0.00000000E+00  0.00000000E+00  0.00000000E+00
