CeO2-you-111-you-Ga                     
   1.00000000000000     
     9.8876431343028308   -5.7086337991742777   -0.0000000010916693
    -0.0311152723953399   11.3633723600030585   -0.0213616081628288
    -0.0230628615661555   -0.0399460412993359   20.7297998887013506
   O    Ga   Ce   H 
    53     1    26     2
Selective dynamics
Direct
  0.9994169889866882  0.0000608311389666  0.9920013806316088   T   T   T
  0.1087364731061697  0.2210898015814990  0.1467998888258464   F   F   F
  0.2404083408274261  0.1374363755758315  0.3127051204541015   T   T   T
  0.0584043649692947  0.1972651960600590  0.3980360169490935   T   T   T
  0.0082434227030763  0.0039722744826447  0.2308857968223506   T   T   T
  0.2219074983286760  0.1104819966567945  0.0719820120504195   F   F   F
  0.3344029248847697  0.0003810848905456  0.9917823132951639   T   T   T
  0.4456863284773505  0.2210898015821527  0.1467998888259530   F   F   F
  0.5525648068476607  0.1158423837245764  0.3046247788734151   T   T   T
  0.4721189106030512  0.2034772076645757  0.4095669913522415   T   T   T
  0.3293553673778108  0.0017358470591161  0.2298423702592060   T   T   T
  0.5569551561047064  0.1104113692945177  0.0730828501939627   F   F   F
  0.6662601242912114  0.9991530504134380  0.9921509865236434   T   T   T
  0.7777738687412139  0.2222137374836066  0.1529499659868847   F   F   F
  0.8829335019538666  0.1069756817666461  0.3019775442796689   T   T   T
  0.7736207293001499  0.2204783429760759  0.3843741390583724   T   T   T
  0.6594494072994962  0.9928630876622460  0.2319557346298222   T   T   T
  0.8867902131893075  0.1104113692933524  0.0730828501933445   F   F   F
  0.9995598081212014  0.3322306685832118  0.9922496193285927   T   T   T
  0.1088956618199575  0.5563109350026920  0.1477472388929115   F   F   F
  0.2301061441538279  0.4313114287043092  0.3091518897057436   T   T   T
  0.0965279908566595  0.5496818233691138  0.3875739992014393   T   T   T
  0.0046917455938873  0.3366880291643788  0.2302513050460864   T   T   T
  0.2218792793379336  0.4452992116375256  0.0725872884485739   F   F   F
  0.3334399376156102  0.3336605585416511  0.9925084644994482   T   T   T
  0.4460723527874890  0.5588127055784256  0.1470197713624941   F   F   F
  0.5409772111679292  0.4417372692571659  0.3110327077164478   T   T   T
  0.3362552882521311  0.3349691597260030  0.2240599762495052   T   T   T
  0.5567539322997419  0.4452992116375967  0.0725872884486023   F   F   F
  0.6660745807675215  0.3325028237776441  0.9920992777619624   T   T   T
  0.7807482731824180  0.5563109350030118  0.1477472388929897   F   F   F
  0.8861500799433364  0.4442241040241722  0.3050775820491139   T   T   T
  0.7792612754484437  0.5583661185248826  0.3859759918746277   T   T   T
  0.6646590926637576  0.3379000906727697  0.2303942003896935   T   T   T
  0.8877462204070170  0.4421584408133583  0.0727264348696650   F   F   F
  0.9994759593828374  0.6649635715840770  0.9915244745352214   T   T   T
  0.1106552090176933  0.8879774180347013  0.1470458006937392   F   F   F
  0.2193958844713610  0.7804364974731641  0.3051434913461339   T   T   T
  0.1150342098748768  0.8936679312593314  0.3862373590867439   T   T   T
  0.0000625792453087  0.6683907967505480  0.2299956285995574   T   T   T
  0.2219912719579327  0.7780391032724125  0.0718366730382414   F   F   F
  0.3338034605728455  0.6666650815658163  0.9922252172845654   T   T   T
  0.4422089814093084  0.8877905642471760  0.1502614837154042   F   F   F
  0.5532656374997246  0.7609724622617917  0.3113258501551615   T   T   T
  0.4501087881508324  0.9006158167932975  0.3860039152928103   T   T   T
  0.3307437953438971  0.6652693757057931  0.2282812722471997   T   T   T
  0.5566068803573430  0.7798797607160424  0.0736130228319851   F   F   F
  0.6662398271655395  0.6667193822357963  0.9922718186044505   T   T   T
  0.7789145828383184  0.8877905642470694  0.1502614837155249   F   F   F
  0.8919196820766377  0.7803441547316641  0.3048922021568303   T   T   T
  0.7787185901055274  0.8873927521037978  0.3865967336392407   T   T   T
  0.6702897203134728  0.6657394008296238  0.2291821814552984   T   T   T
  0.8893808313148028  0.7780391032719862  0.0718366730380851   F   F   F
  0.3339761964714857  0.3376430215126358  0.3247511986929683   T   T   T
  0.0045057911128013  0.0100862674907064  0.3495221478843592   T   T   T
  0.2220372884361197  0.1107415768737425  0.1869818866675033   F   F   F
  0.1098626995668681  0.2211877832099631  0.0320157114025079   F   F   F
  0.3325365652602826  0.0014845003294940  0.3471109964465188   T   T   T
  0.5543282812204495  0.1107538678337576  0.1906721970144147   F   F   F
  0.4446580836436169  0.2211877832098921  0.0320157114025719   F   F   F
  0.6641976614702785 -0.0014708798169225  0.3470849948385918   T   T   T
  0.8897595866128469  0.1107538678332602  0.1906721970143579   F   F   F
  0.7772126267278949  0.2210912534556257  0.0333491089783919   F   F   F
 -0.0007637450129482  0.3284714000262910  0.3480472865470572   T   T   T
  0.2210128454688913  0.4457094464037823  0.1856602308678745   F   F   F
  0.1095940726400784  0.5548824859388546  0.0322576570109305   F   F   F
  0.5580306009346003  0.4457094464043792  0.1856602308681019   F   F   F
  0.4450075551902941  0.5566831103810941  0.0318366870409577   F   F   F
  0.6694463381010984  0.3355132218967847  0.3458442474019384   T   T   T
  0.8888211949546942  0.4443083899077394  0.1918917757675231   F   F   F
  0.7786214132991134  0.5548824859389541  0.0322576570109376   F   F   F
  0.0018711168370778  0.6674746450882810  0.3465189006326080   T   T   T
  0.2215099386122574  0.7793902727183735  0.1890998836592246   F   F   F
  0.1107947787150039  0.8882565574290666  0.0314998097130683   F   F   F
  0.3222872147568150  0.6654184348104063  0.3455545349919432   T   T   T
  0.5545362331841517  0.7757384663694253  0.1906715263460654   F   F   F
  0.4445879543104567  0.8884994750558093  0.0330994190897655   F   F   F
  0.6827948694675485  0.6732542014449175  0.3418300381803251   T   T   T
  0.8912133341059345  0.7793902727184303  0.1890998836592317   F   F   F
  0.7772445207453416  0.8884994750556103  0.0330994190895169   F   F   F
  0.3551103723634157  0.3628928365320937  0.4025973887961177   T   T   T
  0.4266638290998354  0.2517235347917754  0.4256907367892737   T   T   T
 
  0.00000000E+00  0.00000000E+00  0.00000000E+00
  0.00000000E+00  0.00000000E+00  0.00000000E+00
  0.00000000E+00  0.00000000E+00  0.00000000E+00
  0.00000000E+00  0.00000000E+00  0.00000000E+00
  0.00000000E+00  0.00000000E+00  0.00000000E+00
  0.00000000E+00  0.00000000E+00  0.00000000E+00
  0.00000000E+00  0.00000000E+00  0.00000000E+00
  0.00000000E+00  0.00000000E+00  0.00000000E+00
  0.00000000E+00  0.00000000E+00  0.00000000E+00
  0.00000000E+00  0.00000000E+00  0.00000000E+00
  0.00000000E+00  0.00000000E+00  0.00000000E+00
  0.00000000E+00  0.00000000E+00  0.00000000E+00
  0.00000000E+00  0.00000000E+00  0.00000000E+00
  0.00000000E+00  0.00000000E+00  0.00000000E+00
  0.00000000E+00  0.00000000E+00  0.00000000E+00
  0.00000000E+00  0.00000000E+00  0.00000000E+00
  0.00000000E+00  0.00000000E+00  0.00000000E+00
  0.00000000E+00  0.00000000E+00  0.00000000E+00
  0.00000000E+00  0.00000000E+00  0.00000000E+00
  0.00000000E+00  0.00000000E+00  0.00000000E+00
  0.00000000E+00  0.00000000E+00  0.00000000E+00
  0.00000000E+00  0.00000000E+00  0.00000000E+00
  0.00000000E+00  0.00000000E+00  0.00000000E+00
  0.00000000E+00  0.00000000E+00  0.00000000E+00
  0.00000000E+00  0.00000000E+00  0.00000000E+00
  0.00000000E+00  0.00000000E+00  0.00000000E+00
  0.00000000E+00  0.00000000E+00  0.00000000E+00
  0.00000000E+00  0.00000000E+00  0.00000000E+00
  0.00000000E+00  0.00000000E+00  0.00000000E+00
  0.00000000E+00  0.00000000E+00  0.00000000E+00
  0.00000000E+00  0.00000000E+00  0.00000000E+00
  0.00000000E+00  0.00000000E+00  0.00000000E+00
  0.00000000E+00  0.00000000E+00  0.00000000E+00
  0.00000000E+00  0.00000000E+00  0.00000000E+00
  0.00000000E+00  0.00000000E+00  0.00000000E+00
  0.00000000E+00  0.00000000E+00  0.00000000E+00
  0.00000000E+00  0.00000000E+00  0.00000000E+00
  0.00000000E+00  0.00000000E+00  0.00000000E+00
  0.00000000E+00  0.00000000E+00  0.00000000E+00
  0.00000000E+00  0.00000000E+00  0.00000000E+00
  0.00000000E+00  0.00000000E+00  0.00000000E+00
  0.00000000E+00  0.00000000E+00  0.00000000E+00
  0.00000000E+00  0.00000000E+00  0.00000000E+00
  0.00000000E+00  0.00000000E+00  0.00000000E+00
  0.00000000E+00  0.00000000E+00  0.00000000E+00
  0.00000000E+00  0.00000000E+00  0.00000000E+00
  0.00000000E+00  0.00000000E+00  0.00000000E+00
  0.00000000E+00  0.00000000E+00  0.00000000E+00
  0.00000000E+00  0.00000000E+00  0.00000000E+00
  0.00000000E+00  0.00000000E+00  0.00000000E+00
  0.00000000E+00  0.00000000E+00  0.00000000E+00
  0.00000000E+00  0.00000000E+00  0.00000000E+00
  0.00000000E+00  0.00000000E+00  0.00000000E+00
  0.00000000E+00  0.00000000E+00  0.00000000E+00
  0.00000000E+00  0.00000000E+00  0.00000000E+00
  0.00000000E+00  0.00000000E+00  0.00000000E+00
  0.00000000E+00  0.00000000E+00  0.00000000E+00
  0.00000000E+00  0.00000000E+00  0.00000000E+00
  0.00000000E+00  0.00000000E+00  0.00000000E+00
  0.00000000E+00  0.00000000E+00  0.00000000E+00
  0.00000000E+00  0.00000000E+00  0.00000000E+00
  0.00000000E+00  0.00000000E+00  0.00000000E+00
  0.00000000E+00  0.00000000E+00  0.00000000E+00
  0.00000000E+00  0.00000000E+00  0.00000000E+00
  0.00000000E+00  0.00000000E+00  0.00000000E+00
  0.00000000E+00  0.00000000E+00  0.00000000E+00
  0.00000000E+00  0.00000000E+00  0.00000000E+00
  0.00000000E+00  0.00000000E+00  0.00000000E+00
  0.00000000E+00  0.00000000E+00  0.00000000E+00
  0.00000000E+00  0.00000000E+00  0.00000000E+00
  0.00000000E+00  0.00000000E+00  0.00000000E+00
  0.00000000E+00  0.00000000E+00  0.00000000E+00
  0.00000000E+00  0.00000000E+00  0.00000000E+00
  0.00000000E+00  0.00000000E+00  0.00000000E+00
  0.00000000E+00  0.00000000E+00  0.00000000E+00
  0.00000000E+00  0.00000000E+00  0.00000000E+00
  0.00000000E+00  0.00000000E+00  0.00000000E+00
  0.00000000E+00  0.00000000E+00  0.00000000E+00
  0.00000000E+00  0.00000000E+00  0.00000000E+00
  0.00000000E+00  0.00000000E+00  0.00000000E+00
  0.00000000E+00  0.00000000E+00  0.00000000E+00
  0.00000000E+00  0.00000000E+00  0.00000000E+00
