CeO2-you-111-you-Ag                     
   1.00000000000000     
     9.8366048191090680   -5.6991367560319057    0.0058021261797699
    -0.0172944745444246   11.3683165995838547   -0.0058021251926906
     0.0064679586031458   -0.0112028322931616   21.1918380538180706
   O    Ag   Ce   H 
    53     1    26     1
Selective dynamics
Direct
  0.0001281874759326  0.9998154142020622  0.9953559917895718   T   T   T
  0.1066739108273098  0.2184691433201725  0.1463764196520390   T   T   T
  0.2231481718016465  0.1043001764558999  0.3041808891620139   T   T   T
  0.0931114298936410  0.2198896085283711  0.3805789353179874   T   T   T
  0.0003995481603532  0.0010826609737546  0.2293894587629555   T   T   T
  0.2219413993378594  0.1102625009663272  0.0752655889217080   T   T   T
  0.3344946771323561  0.0007614863077117  0.9962764210963033   T   T   T
  0.4439646797619376  0.2223153902298385  0.1509334538581819   T   T   T
  0.5507728876836639  0.1149600544359654  0.3042469133811841   T   T   T
  0.4655808870268520  0.2018117171293520  0.4053784470025993   T   T   T
  0.3336630996534345 -0.0023598538873379  0.2277953927651364   T   T   T
  0.5567795648688253  0.1099263227472553  0.0773024201166839   T   T   T
  0.6656167655709447  0.0004640281870720  0.9951121796401238   T   T   T
  0.7859335618743200  0.2262297481392654  0.1508850999996555   T   T   T
  0.8820897395621884  0.1076033790751648  0.3011822741802758   T   T   T
  0.7760808463599502  0.2210524703891026  0.3835941215359039   T   T   T
  0.6645086888805403  0.0027836522523030  0.2281053801038232   T   T   T
  0.8866717864965525  0.1091558046206805  0.0737311293958008   T   T   T
  0.9985687043839439  0.3322051096651772  0.9951383268085454   T   T   T
  0.1118429159645755  0.5558915241979799  0.1469081848155281   T   T   T
  0.1203379794892360  0.5457585024736614  0.3756152624814372   T   T   T
  0.0195273209879181  0.3426746777466925  0.2346485535961946   T   T   T
  0.2229540267086716  0.4441749691757523  0.0717065958491566   T   T   T
  0.3340937066726605  0.3317363251601879  0.9951945685091894   T   T   T
  0.4486346001791260  0.5603906624752037  0.1462402609982644   T   T   T
  0.5625435704574260  0.4430665277943321  0.3041521899891348   T   T   T
  0.4463567690889174  0.5736354713090472  0.3808796223945178   T   T   T
  0.3278011155252944  0.3387611304308080  0.2239919762044052   T   T   T
  0.5558677679076578  0.4445792444626641  0.0751564213825503   T   T   T
  0.6658797281985751  0.3318605792669913  0.9965886326974506   T   T   T
  0.7792934255087661  0.5558174908458307  0.1504748383680603   T   T   T
  0.8871113357925526  0.4435961124556536  0.3037306321413284   T   T   T
  0.7819424538009553  0.5577633596398573  0.3840363667445343   T   T   T
  0.6691319382288476  0.3328466409902707  0.2276948476087432   T   T   T
  0.8891554243939629  0.4448115805844379  0.0746518476112790   T   T   T
  0.9998195768313211  0.6671772362148759  0.9958117770628778   T   T   T
  0.1108645548866970  0.8872520300718765  0.1507757404208512   T   T   T
  0.2228832071230658  0.7796355107344788  0.3038199437486272   T   T   T
  0.1087328486278328  0.8846800584513359  0.3840727219030509   T   T   T
  0.0009931794748438  0.6656619229481308  0.2294353484910957   T   T   T
  0.2220621184553756  0.7781125594210181  0.0746750143108909   T   T   T
  0.3338186480673617  0.6680629650088900  0.9948541735643623   T   T   T
  0.4406819508621133  0.8809623213856127  0.1510178586915182   T   T   T
  0.5588803359034610  0.7847870448591489  0.3010993047486638   T   T   T
  0.4454215987522441  0.8905409090257200  0.3836313827899779   T   T   T
  0.3240489277029827  0.6466945493958685  0.2349277653158883   T   T   T
  0.5571502639647500  0.7794679891256057  0.0735843237299968   T   T   T
  0.6675564305908279  0.6662362284689839  0.9951132867651135   T   T   T
  0.7771183686663701  0.8892349370393317  0.1506150915023532   T   T   T
  0.8895214551633445  0.7769197886842493  0.3029975749784821   T   T   T
  0.7766931749394181  0.8894585523170179  0.3815777320661101   T   T   T
  0.6649767202636276  0.6659009503912304  0.2295421642074655   T   T   T
  0.8887390827604313  0.7788256583413280  0.0754902831275472   T   T   T
  0.3179404464140144  0.3488051421124178  0.3502033069760863   T   T   T
  0.0013478096295422  0.0021869916825681  0.3423865255914545   T   T   T
  0.2234204298747537  0.1131947055988138  0.1919378350387017   T   T   T
  0.1102539199316476  0.2195835341523167  0.0336549473821551   T   T   T
  0.3279765693548940 -0.0011816524295346  0.3426371278342882   T   T   T
  0.5553213523683778  0.1112673135595247  0.1898588754010689   T   T   T
  0.4443980784933311  0.2220190486325501  0.0366252906170769   T   T   T
  0.6654594987085656  0.0012203425799449  0.3425510081399163   T   T   T
  0.8898332377062079  0.1114592253774745  0.1894169576182531   T   T   T
  0.7780824684211349  0.2220084941966540  0.0354433382089077   T   T   T
  0.9890498579036155  0.3238665430670309  0.3456893868449269   T   T   T
  0.2244220610450064  0.4425076745916922  0.1807808244500487   T   T   T
  0.1104266360555579  0.5564842155455856  0.0335660087545260   T   T   T
  0.5534668533223931  0.4432037566009523  0.1919272258572271   T   T   T
  0.4470566471023008  0.5561964432596949  0.0335387066286617   T   T   T
  0.6680441790119984  0.3385288258055454  0.3426305921801625   T   T   T
  0.8911003479335764  0.4450402069371313  0.1897521552725620   T   T   T
  0.7775155202543917  0.5548888558927819  0.0365642653238201   T   T   T
 -0.0001980674566506  0.6667365970477717  0.3422019991871297   T   T   T
  0.2216757587253970  0.7757776415363411  0.1898162042515911   T   T   T
  0.1118944297151023  0.8894189627415428  0.0365854486083527   T   T   T
  0.3426389841081568  0.6777428003814804  0.3458848701254635   T   T   T
  0.5551741392739964  0.7768064338324595  0.1895004737673346   T   T   T
  0.4445199965194732  0.8885224350504559  0.0353660083506452   T   T   T
  0.6641754565044350  0.6651157246392045  0.3424879162122972   T   T   T
  0.8889319631924045  0.7777313040261949  0.1893421251584907   T   T   T
  0.7774613439295308  0.8891142982052604  0.0352059718425925   T   T   T
  0.4404210232633892  0.2256253107439154  0.4452374720692321   T   T   T
 
  0.00000000E+00  0.00000000E+00  0.00000000E+00
  0.00000000E+00  0.00000000E+00  0.00000000E+00
  0.00000000E+00  0.00000000E+00  0.00000000E+00
  0.00000000E+00  0.00000000E+00  0.00000000E+00
  0.00000000E+00  0.00000000E+00  0.00000000E+00
  0.00000000E+00  0.00000000E+00  0.00000000E+00
  0.00000000E+00  0.00000000E+00  0.00000000E+00
  0.00000000E+00  0.00000000E+00  0.00000000E+00
  0.00000000E+00  0.00000000E+00  0.00000000E+00
  0.00000000E+00  0.00000000E+00  0.00000000E+00
  0.00000000E+00  0.00000000E+00  0.00000000E+00
  0.00000000E+00  0.00000000E+00  0.00000000E+00
  0.00000000E+00  0.00000000E+00  0.00000000E+00
  0.00000000E+00  0.00000000E+00  0.00000000E+00
  0.00000000E+00  0.00000000E+00  0.00000000E+00
  0.00000000E+00  0.00000000E+00  0.00000000E+00
  0.00000000E+00  0.00000000E+00  0.00000000E+00
  0.00000000E+00  0.00000000E+00  0.00000000E+00
  0.00000000E+00  0.00000000E+00  0.00000000E+00
  0.00000000E+00  0.00000000E+00  0.00000000E+00
  0.00000000E+00  0.00000000E+00  0.00000000E+00
  0.00000000E+00  0.00000000E+00  0.00000000E+00
  0.00000000E+00  0.00000000E+00  0.00000000E+00
  0.00000000E+00  0.00000000E+00  0.00000000E+00
  0.00000000E+00  0.00000000E+00  0.00000000E+00
  0.00000000E+00  0.00000000E+00  0.00000000E+00
  0.00000000E+00  0.00000000E+00  0.00000000E+00
  0.00000000E+00  0.00000000E+00  0.00000000E+00
  0.00000000E+00  0.00000000E+00  0.00000000E+00
  0.00000000E+00  0.00000000E+00  0.00000000E+00
  0.00000000E+00  0.00000000E+00  0.00000000E+00
  0.00000000E+00  0.00000000E+00  0.00000000E+00
  0.00000000E+00  0.00000000E+00  0.00000000E+00
  0.00000000E+00  0.00000000E+00  0.00000000E+00
  0.00000000E+00  0.00000000E+00  0.00000000E+00
  0.00000000E+00  0.00000000E+00  0.00000000E+00
  0.00000000E+00  0.00000000E+00  0.00000000E+00
  0.00000000E+00  0.00000000E+00  0.00000000E+00
  0.00000000E+00  0.00000000E+00  0.00000000E+00
  0.00000000E+00  0.00000000E+00  0.00000000E+00
  0.00000000E+00  0.00000000E+00  0.00000000E+00
  0.00000000E+00  0.00000000E+00  0.00000000E+00
  0.00000000E+00  0.00000000E+00  0.00000000E+00
  0.00000000E+00  0.00000000E+00  0.00000000E+00
  0.00000000E+00  0.00000000E+00  0.00000000E+00
  0.00000000E+00  0.00000000E+00  0.00000000E+00
  0.00000000E+00  0.00000000E+00  0.00000000E+00
  0.00000000E+00  0.00000000E+00  0.00000000E+00
  0.00000000E+00  0.00000000E+00  0.00000000E+00
  0.00000000E+00  0.00000000E+00  0.00000000E+00
  0.00000000E+00  0.00000000E+00  0.00000000E+00
  0.00000000E+00  0.00000000E+00  0.00000000E+00
  0.00000000E+00  0.00000000E+00  0.00000000E+00
  0.00000000E+00  0.00000000E+00  0.00000000E+00
  0.00000000E+00  0.00000000E+00  0.00000000E+00
  0.00000000E+00  0.00000000E+00  0.00000000E+00
  0.00000000E+00  0.00000000E+00  0.00000000E+00
  0.00000000E+00  0.00000000E+00  0.00000000E+00
  0.00000000E+00  0.00000000E+00  0.00000000E+00
  0.00000000E+00  0.00000000E+00  0.00000000E+00
  0.00000000E+00  0.00000000E+00  0.00000000E+00
  0.00000000E+00  0.00000000E+00  0.00000000E+00
  0.00000000E+00  0.00000000E+00  0.00000000E+00
  0.00000000E+00  0.00000000E+00  0.00000000E+00
  0.00000000E+00  0.00000000E+00  0.00000000E+00
  0.00000000E+00  0.00000000E+00  0.00000000E+00
  0.00000000E+00  0.00000000E+00  0.00000000E+00
  0.00000000E+00  0.00000000E+00  0.00000000E+00
  0.00000000E+00  0.00000000E+00  0.00000000E+00
  0.00000000E+00  0.00000000E+00  0.00000000E+00
  0.00000000E+00  0.00000000E+00  0.00000000E+00
  0.00000000E+00  0.00000000E+00  0.00000000E+00
  0.00000000E+00  0.00000000E+00  0.00000000E+00
  0.00000000E+00  0.00000000E+00  0.00000000E+00
  0.00000000E+00  0.00000000E+00  0.00000000E+00
  0.00000000E+00  0.00000000E+00  0.00000000E+00
  0.00000000E+00  0.00000000E+00  0.00000000E+00
  0.00000000E+00  0.00000000E+00  0.00000000E+00
  0.00000000E+00  0.00000000E+00  0.00000000E+00
  0.00000000E+00  0.00000000E+00  0.00000000E+00
  0.00000000E+00  0.00000000E+00  0.00000000E+00
