CeO2-you-111-you-Hg                     
   1.00000000000000     
     9.8870981045714288   -5.7083191246888063   -0.0000000010907595
    -0.0212771082965533   11.3797832100701672   -0.0208275181647438
    -0.0229696929559311   -0.0397846684894554   20.5827210216179708
   O    Hg   Ce   H 
    53     1    26     2
Selective dynamics
Direct
  0.9998236146230800  0.9999993842625496  0.9908232557073838   T   T   T
  0.1062951411785065  0.2202355948070860  0.1480587743342241   F   F   F
  0.2158972287709399  0.1080135600568145  0.3030263349227445   T   T   T
  0.0965680257477604  0.2184370592914376  0.3931759054350410   T   T   T
  0.9964165348557827  0.9990681698440842  0.2287766185092549   T   T   T
  0.2222583509280085  0.1111837018559640  0.0715585145540842   F   F   F
  0.3338324553370806  0.9998994650385785  0.9909966702026719   T   T   T
  0.4472734536283198  0.2202355948069368  0.1480587743342525   F   F   F
  0.5650332043511468  0.1195760188341194  0.3061766230079963   T   T   T
  0.4574225972796970  0.2288427747750845  0.4025097726360287   T   T   T
  0.3347317913921088  0.9989115170615958  0.2270702232281092   T   T   T
  0.5577714244656349  0.1110533709078254  0.0721918426565722   F   F   F
  0.6662857067713803  0.9989712103351017  0.9899282355084974   T   T   T
  0.7771470999507457  0.2209601999015689  0.1522006611897737   F   F   F
  0.8871615718851047  0.1122843861175658  0.3066621701384645   T   T   T
  0.7799585996656961  0.2262161830416526  0.3891680863868415   T   T   T
  0.6619117424160371  0.9902912483294478  0.2334345426679404   T   T   T
  0.8866159464421699  0.1110533709078467  0.0721918426566006   F   F   F
  0.0000314820468094  0.3332663279870468  0.9914546566836235   T   T   T
  0.1103830898083942  0.5546809091076454  0.1488358510980916   F   F   F
  0.2331149856811566  0.4557598633634328  0.3108341937456278   T   T   T
  0.1110705237677250  0.5590886919994531  0.3894311736703772   T   T   T
  0.0062488341942785  0.3362403872458684  0.2328166897476101   T   T   T
  0.2227357033493504  0.4440075022160812  0.0733205070186926   F   F   F
  0.3332393673466063  0.3331704964590110  0.9913756808083383   T   T   T
  0.4461439737307842  0.5589559474619961  0.1489940853108251   F   F   F
  0.5500539803643439  0.4510699889006485  0.3134869398810550   T   T   T
  0.3341098592713571  0.3347513080243017  0.2212144350563776   T   T   T
  0.5546057988666178  0.4440075022159604  0.0733205070186784   F   F   F
  0.6663856449403263  0.3332966429122624  0.9915861199236706   T   T   T
  0.7776308192991337  0.5546809091075815  0.1488358510981058   F   F   F
  0.8931207857065560  0.4459502497881066  0.3066032374006826   T   T   T
  0.7821149571819680  0.5582221395039276  0.3876845755512284   T   T   T
  0.6675294162974498  0.3401659326730302  0.2319276985129225   T   T   T
  0.8875900579770430  0.4418461159541351  0.0735459149477435   F   F   F
  0.9992974926189954  0.6644070702786391  0.9916272612586026   T   T   T
  0.1110754292581149  0.8888178585158784  0.1469137479187452   F   F   F
  0.2168540640814371  0.7715865450345381  0.3038132410554849   T   T   T
  0.0965629843254842  0.8819483464467885  0.3903833828633516   T   T   T
 -0.0027063249353763  0.6670801076865980  0.2283441375339602   T   T   T
  0.2222643538275904  0.7777637491777227  0.0714811821022039   F   F   F
  0.3329836109111342  0.6654069183286154  0.9914425154386540   T   T   T
  0.4456435692841723  0.8890842751859864  0.1475351717184523   F   F   F
  0.5469980836304120  0.7551735705683597  0.3141000110784378   T   T   T
  0.4502787693970225  0.8822800056720201  0.3881871770510912   T   T   T
  0.3355798482432595  0.6703816786275344  0.2292020965822664   T   T   T
  0.5556903912639299  0.7780467825277526  0.0720200127451704   F   F   F
  0.6651733145970926  0.6646657548136108  0.9914090634392739   T   T   T
  0.7767737059021300  0.8890842751863133  0.1475351717184665   F   F   F
  0.8894837532245312  0.7794997283033053  0.3043423004864344   T   T   T
  0.7797650485134942  0.8891621464682459  0.3870257011206779   T   T   T
  0.6695319690650899  0.6684603294880422  0.2298022636809038   T   T   T
  0.8888323953501427  0.7777637491776375  0.0714811821022039   F   F   F
  0.3242544805238360  0.3260778603450698  0.3487578674605541   T   T   T
  0.0008446751408651  0.0030026312033228  0.3467090455066961   T   T   T
  0.2228012980832901  0.1122695961675149  0.1891069365609894   F   F   F
  0.1105870804514311  0.2218874800784789  0.0323607291447203   F   F   F
  0.3308535326575823  0.0007211569043641  0.3462799131406462   T   T   T
  0.5549500958755331  0.1104095203191093  0.1901624277120817   F   F   F
  0.4446333996270795  0.2218874800785500  0.0323607291446990   F   F   F
  0.6674813144834216  0.9988489147863985  0.3484000974053637   T   T   T
  0.8887934244428379  0.1104095203183704  0.1901624277121030   F   F   F
  0.7772852743360374  0.2212365486720529  0.0323796389744544   F   F   F
  0.0028672918913582  0.3341993056299300  0.3492857084353690   T   T   T
  0.2239255115412249  0.4434101300232385  0.1906842596108973   F   F   F
  0.1104009380157080  0.5538146591961493  0.0326291141167658   F   F   F
  0.5528186184833714  0.4434101300236577  0.1906842596108689   F   F   F
  0.4438091812065110  0.5542863624128600  0.0318861742189327   F   F   F
  0.6751215779551607  0.3368291476105468  0.3461758462418263   T   T   T
  0.8894105622859954  0.4454871245715566  0.1909560235736905   F   F   F
  0.7767467211805652  0.5538146591963056  0.0326291141167658   F   F   F
  0.0012921887542504  0.6689519352727492  0.3477398326920432   T   T   T
  0.2220095017543358  0.7789934135963890  0.1868670092016558   F   F   F
  0.1109480752285137  0.8885631504571876  0.0307124531421294   F   F   F
  0.3225104629094538  0.6719823181732937  0.3432314211054356   T   T   T
  0.5550704457910456  0.7768068915820976  0.1882903702022958   F   F   F
  0.4448203275488538  0.8884253693010109  0.0310898470225780   F   F   F
  0.6835995594427321  0.6736102798768787  0.3420223957675636   T   T   T
  0.8903169118413814  0.7789934135959911  0.1868670092016487   F   F   F
  0.7769380417520324  0.8884253693009541  0.0310898470225638   F   F   F
  0.4289045197511400  0.5255419771464392  0.4154462212590996   T   T   T
  0.4458881764638110  0.2204322978248116  0.4491644549577832   T   T   T
 
  0.00000000E+00  0.00000000E+00  0.00000000E+00
  0.00000000E+00  0.00000000E+00  0.00000000E+00
  0.00000000E+00  0.00000000E+00  0.00000000E+00
  0.00000000E+00  0.00000000E+00  0.00000000E+00
  0.00000000E+00  0.00000000E+00  0.00000000E+00
  0.00000000E+00  0.00000000E+00  0.00000000E+00
  0.00000000E+00  0.00000000E+00  0.00000000E+00
  0.00000000E+00  0.00000000E+00  0.00000000E+00
  0.00000000E+00  0.00000000E+00  0.00000000E+00
  0.00000000E+00  0.00000000E+00  0.00000000E+00
  0.00000000E+00  0.00000000E+00  0.00000000E+00
  0.00000000E+00  0.00000000E+00  0.00000000E+00
  0.00000000E+00  0.00000000E+00  0.00000000E+00
  0.00000000E+00  0.00000000E+00  0.00000000E+00
  0.00000000E+00  0.00000000E+00  0.00000000E+00
  0.00000000E+00  0.00000000E+00  0.00000000E+00
  0.00000000E+00  0.00000000E+00  0.00000000E+00
  0.00000000E+00  0.00000000E+00  0.00000000E+00
  0.00000000E+00  0.00000000E+00  0.00000000E+00
  0.00000000E+00  0.00000000E+00  0.00000000E+00
  0.00000000E+00  0.00000000E+00  0.00000000E+00
  0.00000000E+00  0.00000000E+00  0.00000000E+00
  0.00000000E+00  0.00000000E+00  0.00000000E+00
  0.00000000E+00  0.00000000E+00  0.00000000E+00
  0.00000000E+00  0.00000000E+00  0.00000000E+00
  0.00000000E+00  0.00000000E+00  0.00000000E+00
  0.00000000E+00  0.00000000E+00  0.00000000E+00
  0.00000000E+00  0.00000000E+00  0.00000000E+00
  0.00000000E+00  0.00000000E+00  0.00000000E+00
  0.00000000E+00  0.00000000E+00  0.00000000E+00
  0.00000000E+00  0.00000000E+00  0.00000000E+00
  0.00000000E+00  0.00000000E+00  0.00000000E+00
  0.00000000E+00  0.00000000E+00  0.00000000E+00
  0.00000000E+00  0.00000000E+00  0.00000000E+00
  0.00000000E+00  0.00000000E+00  0.00000000E+00
  0.00000000E+00  0.00000000E+00  0.00000000E+00
  0.00000000E+00  0.00000000E+00  0.00000000E+00
  0.00000000E+00  0.00000000E+00  0.00000000E+00
  0.00000000E+00  0.00000000E+00  0.00000000E+00
  0.00000000E+00  0.00000000E+00  0.00000000E+00
  0.00000000E+00  0.00000000E+00  0.00000000E+00
  0.00000000E+00  0.00000000E+00  0.00000000E+00
  0.00000000E+00  0.00000000E+00  0.00000000E+00
  0.00000000E+00  0.00000000E+00  0.00000000E+00
  0.00000000E+00  0.00000000E+00  0.00000000E+00
  0.00000000E+00  0.00000000E+00  0.00000000E+00
  0.00000000E+00  0.00000000E+00  0.00000000E+00
  0.00000000E+00  0.00000000E+00  0.00000000E+00
  0.00000000E+00  0.00000000E+00  0.00000000E+00
  0.00000000E+00  0.00000000E+00  0.00000000E+00
  0.00000000E+00  0.00000000E+00  0.00000000E+00
  0.00000000E+00  0.00000000E+00  0.00000000E+00
  0.00000000E+00  0.00000000E+00  0.00000000E+00
  0.00000000E+00  0.00000000E+00  0.00000000E+00
  0.00000000E+00  0.00000000E+00  0.00000000E+00
  0.00000000E+00  0.00000000E+00  0.00000000E+00
  0.00000000E+00  0.00000000E+00  0.00000000E+00
  0.00000000E+00  0.00000000E+00  0.00000000E+00
  0.00000000E+00  0.00000000E+00  0.00000000E+00
  0.00000000E+00  0.00000000E+00  0.00000000E+00
  0.00000000E+00  0.00000000E+00  0.00000000E+00
  0.00000000E+00  0.00000000E+00  0.00000000E+00
  0.00000000E+00  0.00000000E+00  0.00000000E+00
  0.00000000E+00  0.00000000E+00  0.00000000E+00
  0.00000000E+00  0.00000000E+00  0.00000000E+00
  0.00000000E+00  0.00000000E+00  0.00000000E+00
  0.00000000E+00  0.00000000E+00  0.00000000E+00
  0.00000000E+00  0.00000000E+00  0.00000000E+00
  0.00000000E+00  0.00000000E+00  0.00000000E+00
  0.00000000E+00  0.00000000E+00  0.00000000E+00
  0.00000000E+00  0.00000000E+00  0.00000000E+00
  0.00000000E+00  0.00000000E+00  0.00000000E+00
  0.00000000E+00  0.00000000E+00  0.00000000E+00
  0.00000000E+00  0.00000000E+00  0.00000000E+00
  0.00000000E+00  0.00000000E+00  0.00000000E+00
  0.00000000E+00  0.00000000E+00  0.00000000E+00
  0.00000000E+00  0.00000000E+00  0.00000000E+00
  0.00000000E+00  0.00000000E+00  0.00000000E+00
  0.00000000E+00  0.00000000E+00  0.00000000E+00
  0.00000000E+00  0.00000000E+00  0.00000000E+00
  0.00000000E+00  0.00000000E+00  0.00000000E+00
  0.00000000E+00  0.00000000E+00  0.00000000E+00
