CeO2-you-111-you-Al                     
   1.00000000000000     
     9.8167869533514764   -5.6835245312516198    0.0201492516547379
     0.0000000035196058   11.3670470683470644   -0.0000000023091253
     0.0446673836093700   -0.0000000045035073   20.9248234401578301
   O    Al   Ce   H 
    53     1    26     2
Selective dynamics
Direct
  0.9995084696547802  0.0009363102989114  0.9951145505414236   T   T   T
  0.1197956412001631  0.2265643205998984  0.1519743988371829   F   F   F
  0.2118157404935964  0.0808309998303504  0.2993808914872517   T   T   T
  0.1417727217895918  0.2372585227531490  0.3714914425147704   T   T   T
  0.9964032664894638  0.0009142160368166  0.2278587291212898   T   T   T
  0.2222061209675772  0.1099657544143540  0.0740390066322831   F   F   F
  0.3339054213383337 -0.0001043990260387  0.9941031363640754   T   T   T
  0.4424134553270989  0.2230925642188950  0.1494987151827090   F   F   F
  0.5471366809690800  0.1060834201699810  0.3101199167277159   T   T   T
  0.4230769758160213  0.2807757271189590  0.3716117731819122   T   T   T
  0.3376369918568076  0.9964681755621766  0.2276249359773398   T   T   T
  0.5547814022589321  0.1121333873801049  0.0746641535464292   F   F   F
  0.6694815640789993  0.0012091165186937  0.9956968022469291   T   T   T
  0.7732343061227951  0.2248518203241545  0.1514303159564534   F   F   F
  0.8912627329982591  0.1119767182590488  0.3052558588238831   T   T   T
  0.7842227491130921  0.2166430919011852  0.3895786466173021   T   T   T
  0.6671526799601466  0.0025453166163921  0.2305150294259611   T   T   T
  0.8894704100900128  0.1114017050446705  0.0779433077984564   F   F   F
  0.9990949902099551  0.3310616266919016  0.9952048169277795   T   T   T
  0.1108025266980377  0.5548792168792076  0.1508630686524413   F   F   F
  0.2170294924869283  0.4462368703480245  0.3006178821511667   T   T   T
  0.1134382600674048  0.5537528357137368  0.3864069227133561   T   T   T
  0.9972027662589489  0.3304642262974166  0.2285009142182360   T   T   T
  0.2222061209668666  0.4455733665528356  0.0740390066325034   F   F   F
  0.3327284211020632  0.3332309564942479  0.9943165721882220   T   T   T
  0.4424134553245693  0.5526548911091282  0.1494987151826876   F   F   F
  0.4262432874722667  0.5249193971961976  0.3703800662541037   T   T   T
  0.3488035685741553  0.3410503044404389  0.2469071953542182   T   T   T
  0.5552263708926404  0.4442791854466535  0.0734393411262033   F   F   F
  0.6681037957937438  0.3336759819506092  0.9943309823985623   T   T   T
  0.7769099612039767  0.5551219806013208  0.1486144004745427   F   F   F
  0.8944595305878150  0.4431335410216007  0.3051537102501934   T   T   T
  0.7846076760668690  0.5589177899078692  0.3871509508379311   T   T   T
  0.6577938058435658  0.3414803572874252  0.2356865526896596   T   T   T
  0.8901267965865429  0.4451399626309396  0.0748158238979997   F   F   F
  0.0013499279872508  0.6673378057697467  0.9942364648842500   T   T   T
  0.1108025266967587  0.8892573098180065  0.1508630686524128   F   F   F
  0.2193741076692590  0.7749802603100822  0.3039978221585145   T   T   T
  0.1129080261373407  0.8853303729363278  0.3896316193529877   T   T   T
  0.9974994021101304  0.6651470225054953  0.2298282344472875   T   T   T
  0.2224419362990702  0.7778879681492796  0.0748320053088563   F   F   F
  0.3341231336028416  0.6676180360664445  0.9939173483561702   T   T   T
  0.4482685914199962  0.8908012957107729  0.1488226320116866   F   F   F
  0.5540850857194924  0.7838464194443776  0.3061606498343870   T   T   T
  0.4357333675675084  0.8821081512079960  0.3881110590413826   T   T   T
  0.3346342347220371  0.6686591364907414  0.2293221577485973   T   T   T
  0.5547814022582784  0.7759810148779707  0.0746641535467134   F   F   F
  0.6685428690542010  0.6682618001187340  0.9945903226065684   T   T   T
  0.7732343061227880  0.8817154857970024  0.1514303159560697   F   F   F
  0.8968497407270164  0.7851966292558108  0.3052258446364885   T   T   T
  0.7842326517216732  0.9026871964222991  0.3895597560786644   T   T   T
  0.6581022878294933  0.6497592133430496  0.2350772086993966   T   T   T
  0.8901267965866779  0.7783198339558126  0.0748158238979357   F   F   F
  0.3120760305361981  0.3550396784165974  0.3345705776365728   T   T   T
  0.0065785028682776  0.0035836270722929  0.3444121286059503   T   T   T
  0.2217079646239952  0.1097166685047526  0.1916252185559060   F   F   F
  0.1118761201290823  0.2226045600645250  0.0357592144876122   F   F   F
  0.3237568397724342  0.9869377266105032  0.3428961412270488   T   T   T
  0.5555322509856353  0.1116672338354121  0.1915092615873277   F   F   F
  0.4440615178331555  0.2211358711109170  0.0336932939172812   F   F   F
  0.6667636940506707  0.0001442067957292  0.3476957286580051   T   T   T
  0.8879870899155833  0.1106600449577400  0.1912054051841565   F   F   F
  0.7780878870477892  0.2230231362658017  0.0357035933034098   F   F   F
  0.0030619660934001  0.3324964656937266  0.3447709600644036   T   T   T
  0.2217079646248479  0.4453242961167092  0.1916252185561405   F   F   F
  0.1114077703442433  0.5552721261420857  0.0348689357789240   F   F   F
  0.5524213553386872  0.4428766776675133  0.1853836003312921   F   F   F
  0.4440615178326439  0.5562596467225731  0.0336932939173948   F   F   F
  0.6758359175492913  0.3321494696439999  0.3513413362944248   T   T   T
  0.8875145701114562  0.4450833042461682  0.1917158578200002   F   F   F
  0.7796387411811949  0.5564863705904131  0.0341050392416875   F   F   F
 -0.0025383331899936  0.6649194400714893  0.3468125832426122   T   T   T
  0.2228581491061306  0.7780960745539645  0.1890083639862041   F   F   F
  0.1114077703441438  0.8894696442030963  0.0348689357789240   F   F   F
  0.3319713457697601  0.6633189931075189  0.3446583872267562   T   T   T
  0.5555322509887262  0.7771980171499493  0.1915092615871927   F   F   F
  0.4457561679942330  0.8895450839971986  0.0351396155744652   F   F   F
  0.6706658746079827  0.6763041551622345  0.3532637030792691   T   T   T
  0.8875145701146891  0.7757642658697605  0.1917158578198581   F   F   F
  0.7780878870489047  0.8883977507823957  0.0357035933034666   F   F   F
  0.3217305021457400  0.3722675509082399  0.4713721417895336   T   T   T
  0.4194150747262534  0.3023459084793515  0.4166480927267245   T   T   T
 
  0.00000000E+00  0.00000000E+00  0.00000000E+00
  0.00000000E+00  0.00000000E+00  0.00000000E+00
  0.00000000E+00  0.00000000E+00  0.00000000E+00
  0.00000000E+00  0.00000000E+00  0.00000000E+00
  0.00000000E+00  0.00000000E+00  0.00000000E+00
  0.00000000E+00  0.00000000E+00  0.00000000E+00
  0.00000000E+00  0.00000000E+00  0.00000000E+00
  0.00000000E+00  0.00000000E+00  0.00000000E+00
  0.00000000E+00  0.00000000E+00  0.00000000E+00
  0.00000000E+00  0.00000000E+00  0.00000000E+00
  0.00000000E+00  0.00000000E+00  0.00000000E+00
  0.00000000E+00  0.00000000E+00  0.00000000E+00
  0.00000000E+00  0.00000000E+00  0.00000000E+00
  0.00000000E+00  0.00000000E+00  0.00000000E+00
  0.00000000E+00  0.00000000E+00  0.00000000E+00
  0.00000000E+00  0.00000000E+00  0.00000000E+00
  0.00000000E+00  0.00000000E+00  0.00000000E+00
  0.00000000E+00  0.00000000E+00  0.00000000E+00
  0.00000000E+00  0.00000000E+00  0.00000000E+00
  0.00000000E+00  0.00000000E+00  0.00000000E+00
  0.00000000E+00  0.00000000E+00  0.00000000E+00
  0.00000000E+00  0.00000000E+00  0.00000000E+00
  0.00000000E+00  0.00000000E+00  0.00000000E+00
  0.00000000E+00  0.00000000E+00  0.00000000E+00
  0.00000000E+00  0.00000000E+00  0.00000000E+00
  0.00000000E+00  0.00000000E+00  0.00000000E+00
  0.00000000E+00  0.00000000E+00  0.00000000E+00
  0.00000000E+00  0.00000000E+00  0.00000000E+00
  0.00000000E+00  0.00000000E+00  0.00000000E+00
  0.00000000E+00  0.00000000E+00  0.00000000E+00
  0.00000000E+00  0.00000000E+00  0.00000000E+00
  0.00000000E+00  0.00000000E+00  0.00000000E+00
  0.00000000E+00  0.00000000E+00  0.00000000E+00
  0.00000000E+00  0.00000000E+00  0.00000000E+00
  0.00000000E+00  0.00000000E+00  0.00000000E+00
  0.00000000E+00  0.00000000E+00  0.00000000E+00
  0.00000000E+00  0.00000000E+00  0.00000000E+00
  0.00000000E+00  0.00000000E+00  0.00000000E+00
  0.00000000E+00  0.00000000E+00  0.00000000E+00
  0.00000000E+00  0.00000000E+00  0.00000000E+00
  0.00000000E+00  0.00000000E+00  0.00000000E+00
  0.00000000E+00  0.00000000E+00  0.00000000E+00
  0.00000000E+00  0.00000000E+00  0.00000000E+00
  0.00000000E+00  0.00000000E+00  0.00000000E+00
  0.00000000E+00  0.00000000E+00  0.00000000E+00
  0.00000000E+00  0.00000000E+00  0.00000000E+00
  0.00000000E+00  0.00000000E+00  0.00000000E+00
  0.00000000E+00  0.00000000E+00  0.00000000E+00
  0.00000000E+00  0.00000000E+00  0.00000000E+00
  0.00000000E+00  0.00000000E+00  0.00000000E+00
  0.00000000E+00  0.00000000E+00  0.00000000E+00
  0.00000000E+00  0.00000000E+00  0.00000000E+00
  0.00000000E+00  0.00000000E+00  0.00000000E+00
  0.00000000E+00  0.00000000E+00  0.00000000E+00
  0.00000000E+00  0.00000000E+00  0.00000000E+00
  0.00000000E+00  0.00000000E+00  0.00000000E+00
  0.00000000E+00  0.00000000E+00  0.00000000E+00
  0.00000000E+00  0.00000000E+00  0.00000000E+00
  0.00000000E+00  0.00000000E+00  0.00000000E+00
  0.00000000E+00  0.00000000E+00  0.00000000E+00
  0.00000000E+00  0.00000000E+00  0.00000000E+00
  0.00000000E+00  0.00000000E+00  0.00000000E+00
  0.00000000E+00  0.00000000E+00  0.00000000E+00
  0.00000000E+00  0.00000000E+00  0.00000000E+00
  0.00000000E+00  0.00000000E+00  0.00000000E+00
  0.00000000E+00  0.00000000E+00  0.00000000E+00
  0.00000000E+00  0.00000000E+00  0.00000000E+00
  0.00000000E+00  0.00000000E+00  0.00000000E+00
  0.00000000E+00  0.00000000E+00  0.00000000E+00
  0.00000000E+00  0.00000000E+00  0.00000000E+00
  0.00000000E+00  0.00000000E+00  0.00000000E+00
  0.00000000E+00  0.00000000E+00  0.00000000E+00
  0.00000000E+00  0.00000000E+00  0.00000000E+00
  0.00000000E+00  0.00000000E+00  0.00000000E+00
  0.00000000E+00  0.00000000E+00  0.00000000E+00
  0.00000000E+00  0.00000000E+00  0.00000000E+00
  0.00000000E+00  0.00000000E+00  0.00000000E+00
  0.00000000E+00  0.00000000E+00  0.00000000E+00
  0.00000000E+00  0.00000000E+00  0.00000000E+00
  0.00000000E+00  0.00000000E+00  0.00000000E+00
  0.00000000E+00  0.00000000E+00  0.00000000E+00
  0.00000000E+00  0.00000000E+00  0.00000000E+00
