CeO2-you-111-you-Ni                     
   1.00000000000000     
     9.8537059773642302   -5.6491484633217830   -0.0176746173259791
     0.0345472222366279   11.3581324787239115    0.0176746143438959
    -0.0191320432436546    0.0331376692421987   20.4496032211845140
   O    Ni   Ce   H 
    53     1    26     2
Selective dynamics
Direct
  0.9998746408917873  0.0002084887641958  0.9895217716452094   T   T   T
  0.1105600798539754  0.2216056960504531  0.1463946729642345   F   F   F
  0.2201762040200484  0.1259538054103939  0.3115435441706662   T   T   T
  0.0622655198514177  0.2004990402618364  0.4001331324156442   T   T   T
  0.0009165445941149  0.0007626952140381  0.2307642488839240   T   T   T
  0.2212868153831096  0.1096302283448551  0.0716443089531822   F   F   F
  0.3347505255227706  0.0007222181616754  0.9910445573406218   T   T   T
  0.4419547779807758  0.2247112220152303  0.1496606631207342   F   F   F
  0.5591554350623146  0.1184840049082868  0.3086511674016514   T   T   T
  0.4604294528792237  0.2227165830981550  0.4069868851472794   T   T   T
  0.3309293058662631  0.0007704363150150  0.2302371844622861   T   T   T
  0.5559719030721553  0.1106950969247791  0.0747122298366563   F   F   F
  0.6659969785290615  0.0009862899452679  0.9907850907153520   T   T   T
  0.7844061162860427  0.2276446173860620  0.1511851000914817   F   F   F
  0.8794148149172337  0.1075099303507050  0.3045496889967350   T   T   T
  0.7755210121748890  0.2232547983867370  0.3931954212593088   T   T   T
  0.6642631412751900  0.0017551135385499  0.2276880027837210   T   T   T
  0.8883777193431897  0.1107162790155130  0.0714411810205675   F   F   F
  0.9982274626652436  0.3325781647735045  0.9897128517912986   T   T   T
  0.1109271635585571  0.5557398364392228  0.1473753001018352   F   F   F
  0.1230209543120371  0.5424683551595778  0.3839842767716338   T   T   T
  0.0210747864846771  0.3416008662692465  0.2372965034564062   T   T   T
  0.2220223897048825  0.4446436102984350  0.0694403054211534   F   F   F
  0.3338518957144573  0.3323436579262888  0.9898552156721769   T   T   T
  0.4450603039541434  0.5561069201502917  0.1463946729634031   F   F   F
  0.5454876537266143  0.4389997869290556  0.3112717261799045   T   T   T
  0.4631441675185563  0.5959832187698471  0.3967446639543887   T   T   T
  0.3313308316629842  0.3375795577403802  0.2316512486535688   T   T   T
  0.5570367716536637  0.4453791846176500  0.0716443089538217   F   F   F
  0.6661903748237185  0.3321270088201041  0.9909104881961163   T   T   T
  0.7798729615085094  0.5564619437816560  0.1499866651254393   F   F   F
  0.8888526694896235  0.4421777754418220  0.3084131245303284   T   T   T
  0.7788038996010006  0.5535869181621955  0.3890888389167516   T   T   T
  0.6678108334044677  0.3369036074104126  0.2309782308506032   T   T   T
  0.8890352869303157  0.4451807468918503  0.0719170890243745   F   F   F
  0.9999324761191485  0.6672620375419382  0.9897508913584977   T   T   T
  0.1102050562174384  0.8867940384896542  0.1499866651244659   F   F   F
  0.2217109686583678  0.7736427706642145  0.3087976554647739   T   T   T
  0.0949709820232895  0.8773200039338809  0.3913623587727552   T   T   T
  0.0006392259038933  0.6656233326917331  0.2319133464753419   T   T   T
  0.2214852531085398  0.7776317130719335  0.0719170890237635   F   F   F
  0.3337163205117452  0.6681179642512423  0.9895030857958069   T   T   T
  0.4390213826154721  0.8822608837117727  0.1511851000915101   F   F   F
  0.5597770741760402  0.7856695321613629  0.3039470660086871   T   T   T
  0.4533095980428932  0.8883156004206917  0.3940995030562198   T   T   T
  0.3255377099997206  0.6455990218454190  0.2368838359747976   T   T   T
  0.5559507209825796  0.7782892806580008  0.0714411810206101   F   F   F
  0.6666121365658179  0.6672618500107677  0.9897163656315900   T   T   T
  0.7778935036619501  0.8887734963381178  0.1490959039047368   F   F   F
  0.8854034342552972  0.7757872888869567  0.3068605638003912   T   T   T
  0.7749807559853200  0.8888402812785283  0.3901612664340757   T   T   T
  0.6636433668744663  0.6628601707831089  0.2309347994415697   T   T   T
  0.8885985928567095  0.7780684071443176  0.0715022166156061   F   F   F
  0.3694044279027294  0.2964129141175244  0.3189517191451257   T   T   T
  0.9953392241786938  0.0010669319360857  0.3517525970812380   T   T   T
  0.2206133039704525  0.1105386181101764  0.1901583503735367   F   F   F
  0.1099494774340499  0.2207768372601890  0.0293285238424517   F   F   F
  0.3278690184789776 -0.0037820055371161  0.3536373348404359   T   T   T
  0.5550881162640238  0.1115788837369394  0.1910252386419060   F   F   F
  0.4443753710839360  0.2222906289189126  0.0319174873559191   F   F   F
  0.6646527199822332  0.0004993950178114  0.3490973347297446   T   T   T
  0.8896117841889080  0.1114497514970196  0.1901955502403254   F   F   F
  0.7778315558222317  0.2227718805275458  0.0318536183241491   F   F   F
  0.9891393943609776  0.3208261527442656  0.3557905113177660   T   T   T
  0.2228581164711798  0.4438078835223607  0.1832241629741489   F   F   F
  0.1100078794612358  0.5566591205389244  0.0296829944221813   F   F   F
  0.5561283818852729  0.4460526960270812  0.1901583503736219   F   F   F
  0.4458891627407340  0.5567175225638579  0.0293285238432262   F   F   F
  0.6734259976291924  0.3377682570286772  0.3489626929600503   T   T   T
  0.8912108840727839  0.4450123102032748  0.1917458443810673   F   F   F
  0.7779512388212453  0.5557336910185526  0.0317748945424725   F   F   F
  0.0004013848473227  0.6672810199313362  0.3480480490153595   T   T   T
  0.2216536898015917  0.7754561159371605  0.1917458443810460   F   F   F
  0.1109333089821050  0.8887157611788794  0.0317748945419538   F   F   F
  0.3457478196046338  0.6781404031702344  0.3548813254118460   T   T   T
  0.5552172484968878  0.7770552158098241  0.1901955502404746   F   F   F
  0.4438941194753525  0.8888354441770190  0.0318536183252291   F   F   F
  0.6629292942649272  0.6681098322190443  0.3508049538579775   T   T   T
  0.8884563782320782  0.7782106217702562  0.1909741043070596   F   F   F
  0.7773554666870623  0.8893115333097512  0.0311884424985749   F   F   F
  0.3252042635468531  0.3401908299273577  0.3757647394015785   T   T   T
  0.4325986959660895  0.2634227284798809  0.4410505356200214   T   T   T
 
  0.00000000E+00  0.00000000E+00  0.00000000E+00
  0.00000000E+00  0.00000000E+00  0.00000000E+00
  0.00000000E+00  0.00000000E+00  0.00000000E+00
  0.00000000E+00  0.00000000E+00  0.00000000E+00
  0.00000000E+00  0.00000000E+00  0.00000000E+00
  0.00000000E+00  0.00000000E+00  0.00000000E+00
  0.00000000E+00  0.00000000E+00  0.00000000E+00
  0.00000000E+00  0.00000000E+00  0.00000000E+00
  0.00000000E+00  0.00000000E+00  0.00000000E+00
  0.00000000E+00  0.00000000E+00  0.00000000E+00
  0.00000000E+00  0.00000000E+00  0.00000000E+00
  0.00000000E+00  0.00000000E+00  0.00000000E+00
  0.00000000E+00  0.00000000E+00  0.00000000E+00
  0.00000000E+00  0.00000000E+00  0.00000000E+00
  0.00000000E+00  0.00000000E+00  0.00000000E+00
  0.00000000E+00  0.00000000E+00  0.00000000E+00
  0.00000000E+00  0.00000000E+00  0.00000000E+00
  0.00000000E+00  0.00000000E+00  0.00000000E+00
  0.00000000E+00  0.00000000E+00  0.00000000E+00
  0.00000000E+00  0.00000000E+00  0.00000000E+00
  0.00000000E+00  0.00000000E+00  0.00000000E+00
  0.00000000E+00  0.00000000E+00  0.00000000E+00
  0.00000000E+00  0.00000000E+00  0.00000000E+00
  0.00000000E+00  0.00000000E+00  0.00000000E+00
  0.00000000E+00  0.00000000E+00  0.00000000E+00
  0.00000000E+00  0.00000000E+00  0.00000000E+00
  0.00000000E+00  0.00000000E+00  0.00000000E+00
  0.00000000E+00  0.00000000E+00  0.00000000E+00
  0.00000000E+00  0.00000000E+00  0.00000000E+00
  0.00000000E+00  0.00000000E+00  0.00000000E+00
  0.00000000E+00  0.00000000E+00  0.00000000E+00
  0.00000000E+00  0.00000000E+00  0.00000000E+00
  0.00000000E+00  0.00000000E+00  0.00000000E+00
  0.00000000E+00  0.00000000E+00  0.00000000E+00
  0.00000000E+00  0.00000000E+00  0.00000000E+00
  0.00000000E+00  0.00000000E+00  0.00000000E+00
  0.00000000E+00  0.00000000E+00  0.00000000E+00
  0.00000000E+00  0.00000000E+00  0.00000000E+00
  0.00000000E+00  0.00000000E+00  0.00000000E+00
  0.00000000E+00  0.00000000E+00  0.00000000E+00
  0.00000000E+00  0.00000000E+00  0.00000000E+00
  0.00000000E+00  0.00000000E+00  0.00000000E+00
  0.00000000E+00  0.00000000E+00  0.00000000E+00
  0.00000000E+00  0.00000000E+00  0.00000000E+00
  0.00000000E+00  0.00000000E+00  0.00000000E+00
  0.00000000E+00  0.00000000E+00  0.00000000E+00
  0.00000000E+00  0.00000000E+00  0.00000000E+00
  0.00000000E+00  0.00000000E+00  0.00000000E+00
  0.00000000E+00  0.00000000E+00  0.00000000E+00
  0.00000000E+00  0.00000000E+00  0.00000000E+00
  0.00000000E+00  0.00000000E+00  0.00000000E+00
  0.00000000E+00  0.00000000E+00  0.00000000E+00
  0.00000000E+00  0.00000000E+00  0.00000000E+00
  0.00000000E+00  0.00000000E+00  0.00000000E+00
  0.00000000E+00  0.00000000E+00  0.00000000E+00
  0.00000000E+00  0.00000000E+00  0.00000000E+00
  0.00000000E+00  0.00000000E+00  0.00000000E+00
  0.00000000E+00  0.00000000E+00  0.00000000E+00
  0.00000000E+00  0.00000000E+00  0.00000000E+00
  0.00000000E+00  0.00000000E+00  0.00000000E+00
  0.00000000E+00  0.00000000E+00  0.00000000E+00
  0.00000000E+00  0.00000000E+00  0.00000000E+00
  0.00000000E+00  0.00000000E+00  0.00000000E+00
  0.00000000E+00  0.00000000E+00  0.00000000E+00
  0.00000000E+00  0.00000000E+00  0.00000000E+00
  0.00000000E+00  0.00000000E+00  0.00000000E+00
  0.00000000E+00  0.00000000E+00  0.00000000E+00
  0.00000000E+00  0.00000000E+00  0.00000000E+00
  0.00000000E+00  0.00000000E+00  0.00000000E+00
  0.00000000E+00  0.00000000E+00  0.00000000E+00
  0.00000000E+00  0.00000000E+00  0.00000000E+00
  0.00000000E+00  0.00000000E+00  0.00000000E+00
  0.00000000E+00  0.00000000E+00  0.00000000E+00
  0.00000000E+00  0.00000000E+00  0.00000000E+00
  0.00000000E+00  0.00000000E+00  0.00000000E+00
  0.00000000E+00  0.00000000E+00  0.00000000E+00
  0.00000000E+00  0.00000000E+00  0.00000000E+00
  0.00000000E+00  0.00000000E+00  0.00000000E+00
  0.00000000E+00  0.00000000E+00  0.00000000E+00
  0.00000000E+00  0.00000000E+00  0.00000000E+00
  0.00000000E+00  0.00000000E+00  0.00000000E+00
  0.00000000E+00  0.00000000E+00  0.00000000E+00
