CeO2-you-111-you-Al                     
   1.00000000000000     
     9.8167869533514764   -5.6835245312516198    0.0201492516547379
     0.0000000035196058   11.3670470683470644   -0.0000000023091253
     0.0446673836093700   -0.0000000045035073   20.9248234401578301
   O    Al   Ce   H 
    53     1    26     1
Selective dynamics
Direct
  0.0002026897600866  0.0000703478500484  0.9951019229419954   T   T   T
  0.1216014058480745  0.2255580574717862  0.1521415918623366   T   T   T
  0.2123878029562117  0.0788203076061497  0.2998251436324498   T   T   T
  0.1423034085943172  0.2366453864123409  0.3713422844891182   T   T   T
  0.9973131635129715 -0.0002321548070195  0.2282655615800293   T   T   T
  0.2228066801613733  0.1084732050835207  0.0739039016079770   T   T   T
  0.3348228003373380 -0.0016856472133728  0.9936516283966542   T   T   T
  0.4425137708523826  0.2212192424622181  0.1494530008330449   T   T   T
  0.5474597087577294  0.1053758758236880  0.3104153491104936   T   T   T
  0.4221411238402881  0.2798574792313788  0.3716743340151345   T   T   T
  0.3382414958889090  0.9944735723722118  0.2277846276037787   T   T   T
  0.5551691442532635  0.1097434261536718  0.0750342771431769   T   T   T
  0.6700126820836166 -0.0000284585180993  0.9954221086393110   T   T   T
  0.7748798066727162  0.2240657939418011  0.1513561037538940   T   T   T
  0.8915999904833629  0.1106859979007156  0.3052309846026823   T   T   T
  0.7846455469172607  0.2162927448218425  0.3891062223716061   T   T   T
  0.6674539237426043  0.0021912089306487  0.2306368795864316   T   T   T
  0.8906280034231245  0.1100432634024515  0.0778569940100988   T   T   T
  0.9998145760737382  0.3299303276773149  0.9948963402344777   T   T   T
  0.1112373928286185  0.5531375388330511  0.1493824346553497   T   T   T
  0.2175666626755269  0.4446160872806432  0.2996248105603264   T   T   T
  0.1130011556627568  0.5515121643639259  0.3864823222396452   T   T   T
  0.9978959925812984  0.3299212634544138  0.2281719086166402   T   T   T
  0.2228264949138896  0.4437024422339351  0.0729416706404978   T   T   T
  0.3340650143460944  0.3316886271424501  0.9936132918790488   T   T   T
  0.4429681001318347  0.5519908724789447  0.1486952965896032   T   T   T
  0.4270847870654782  0.5242734215225415  0.3695052245379994   T   T   T
  0.3506926132727868  0.3398996105806122  0.2464937532451647   T   T   T
  0.5559427119614295  0.4428865941091981  0.0726716922052833   T   T   T
  0.6685267773618837  0.3312942618032440  0.9942158516070191   T   T   T
  0.7777843910259854  0.5542427598081781  0.1479243937798601   T   T   T
  0.8947099032107494  0.4421265380429117  0.3047519770029614   T   T   T
  0.7849041252787979  0.5572572617564713  0.3873638182513000   T   T   T
  0.6586934915368720  0.3402315853229821  0.2349604081553173   T   T   T
  0.8904519596186015  0.4438338483907146  0.0740061227676701   T   T   T
  0.0019846970403292  0.6662503279981753  0.9935216421596298   T   T   T
  0.1114923269592380  0.8876686995162822  0.1508978105349608   T   T   T
  0.2193726204572576  0.7721763762169577  0.3036453402338262   T   T   T
  0.1135091030696583  0.8833650139674654  0.3898452574629456   T   T   T
  0.9975021201013894  0.6630051006854663  0.2294251461459871   T   T   T
  0.2231451552601345  0.7763975017474202  0.0740440485335188   T   T   T
  0.3352724973016658  0.6663752576803849  0.9934332542572832   T   T   T
  0.4478673346493823  0.8869947179779432  0.1493297580037087   T   T   T
  0.5552784043524741  0.7829308356787419  0.3062506699324679   T   T   T
  0.4366028945138938  0.8797358249120311  0.3877663597635366   T   T   T
  0.3348839457433931  0.6665274783758116  0.2290782436810720   T   T   T
  0.5561466886905847  0.7749153899648358  0.0744213497812284   T   T   T
  0.6693287865766552  0.6670112807825771  0.9937571316778609   T   T   T
  0.7739863742707606  0.8811706654534656  0.1522625714918585   T   T   T
  0.8977316776646452  0.7838797210326917  0.3054505569219242   T   T   T
  0.7857921803570481  0.9019737990294044  0.3897505781238713   T   T   T
  0.6590151672937952  0.6479764049084485  0.2354080592333837   T   T   T
  0.8904847711626153  0.7769842966555364  0.0744524767961937   T   T   T
  0.3124684101225707  0.3543568840082419  0.3338799281782410   T   T   T
  0.0070716556038994  0.0026019981342350  0.3446314546050122   T   T   T
  0.2231784085624870  0.1077702893265362  0.1926479690005889   T   T   T
  0.1130591574912621  0.2209239110752284  0.0352939223512131   T   T   T
  0.3239900883492203  0.9838994793527986  0.3428931687016495   T   T   T
  0.5556656668573067  0.1106622919153177  0.1919263993793884   T   T   T
  0.4445316378056603  0.2191804028909229  0.0334411800301840   T   T   T
  0.6678216142308503 -0.0003554133517979  0.3476470190933840   T   T   T
  0.8891238809828054  0.1101358204899707  0.1910929906266945   T   T   T
  0.7787054783936479  0.2214055462991592  0.0355771715952188   T   T   T
  0.0036565018904651  0.3316643578834932  0.3441860845077631   T   T   T
  0.2224422327452002  0.4439078340093044  0.1897295718284031   T   T   T
  0.1119903158356621  0.5539304300422139  0.0337993209740489   T   T   T
  0.5542571905139374  0.4426582344441211  0.1847270668939236   T   T   T
  0.4454125300628517  0.5551767845509494  0.0327573015844526   T   T   T
  0.6761215564680575  0.3314078307708356  0.3509365547062861   T   T   T
  0.8876166467936272  0.4438808840529710  0.1910130917603198   T   T   T
  0.7803744388325519  0.5553303423320285  0.0334552554605909   T   T   T
 -0.0020883117857316  0.6631507779034022  0.3468713604493017   T   T   T
  0.2223064511264622  0.7749860024867926  0.1880975453713215   T   T   T
  0.1122244029075607  0.8883326518268538  0.0347936963710406   T   T   T
  0.3321358199955711  0.6607384857381542  0.3441275847718291   T   T   T
  0.5558023593637925  0.7754849631088753  0.1923268275306681   T   T   T
  0.4468532099667811  0.8880527525605793  0.0349846972481693   T   T   T
  0.6709535462229386  0.6749473393210594  0.3536787773071669   T   T   T
  0.8879059673015757  0.7745161985685026  0.1924263055589848   T   T   T
  0.7789106301364923  0.8871870555215949  0.0357976061037291   T   T   T
  0.4148044701256012  0.2961883184264844  0.4169496601268921   T   T   T
 
  0.00000000E+00  0.00000000E+00  0.00000000E+00
  0.00000000E+00  0.00000000E+00  0.00000000E+00
  0.00000000E+00  0.00000000E+00  0.00000000E+00
  0.00000000E+00  0.00000000E+00  0.00000000E+00
  0.00000000E+00  0.00000000E+00  0.00000000E+00
  0.00000000E+00  0.00000000E+00  0.00000000E+00
  0.00000000E+00  0.00000000E+00  0.00000000E+00
  0.00000000E+00  0.00000000E+00  0.00000000E+00
  0.00000000E+00  0.00000000E+00  0.00000000E+00
  0.00000000E+00  0.00000000E+00  0.00000000E+00
  0.00000000E+00  0.00000000E+00  0.00000000E+00
  0.00000000E+00  0.00000000E+00  0.00000000E+00
  0.00000000E+00  0.00000000E+00  0.00000000E+00
  0.00000000E+00  0.00000000E+00  0.00000000E+00
  0.00000000E+00  0.00000000E+00  0.00000000E+00
  0.00000000E+00  0.00000000E+00  0.00000000E+00
  0.00000000E+00  0.00000000E+00  0.00000000E+00
  0.00000000E+00  0.00000000E+00  0.00000000E+00
  0.00000000E+00  0.00000000E+00  0.00000000E+00
  0.00000000E+00  0.00000000E+00  0.00000000E+00
  0.00000000E+00  0.00000000E+00  0.00000000E+00
  0.00000000E+00  0.00000000E+00  0.00000000E+00
  0.00000000E+00  0.00000000E+00  0.00000000E+00
  0.00000000E+00  0.00000000E+00  0.00000000E+00
  0.00000000E+00  0.00000000E+00  0.00000000E+00
  0.00000000E+00  0.00000000E+00  0.00000000E+00
  0.00000000E+00  0.00000000E+00  0.00000000E+00
  0.00000000E+00  0.00000000E+00  0.00000000E+00
  0.00000000E+00  0.00000000E+00  0.00000000E+00
  0.00000000E+00  0.00000000E+00  0.00000000E+00
  0.00000000E+00  0.00000000E+00  0.00000000E+00
  0.00000000E+00  0.00000000E+00  0.00000000E+00
  0.00000000E+00  0.00000000E+00  0.00000000E+00
  0.00000000E+00  0.00000000E+00  0.00000000E+00
  0.00000000E+00  0.00000000E+00  0.00000000E+00
  0.00000000E+00  0.00000000E+00  0.00000000E+00
  0.00000000E+00  0.00000000E+00  0.00000000E+00
  0.00000000E+00  0.00000000E+00  0.00000000E+00
  0.00000000E+00  0.00000000E+00  0.00000000E+00
  0.00000000E+00  0.00000000E+00  0.00000000E+00
  0.00000000E+00  0.00000000E+00  0.00000000E+00
  0.00000000E+00  0.00000000E+00  0.00000000E+00
  0.00000000E+00  0.00000000E+00  0.00000000E+00
  0.00000000E+00  0.00000000E+00  0.00000000E+00
  0.00000000E+00  0.00000000E+00  0.00000000E+00
  0.00000000E+00  0.00000000E+00  0.00000000E+00
  0.00000000E+00  0.00000000E+00  0.00000000E+00
  0.00000000E+00  0.00000000E+00  0.00000000E+00
  0.00000000E+00  0.00000000E+00  0.00000000E+00
  0.00000000E+00  0.00000000E+00  0.00000000E+00
  0.00000000E+00  0.00000000E+00  0.00000000E+00
  0.00000000E+00  0.00000000E+00  0.00000000E+00
  0.00000000E+00  0.00000000E+00  0.00000000E+00
  0.00000000E+00  0.00000000E+00  0.00000000E+00
  0.00000000E+00  0.00000000E+00  0.00000000E+00
  0.00000000E+00  0.00000000E+00  0.00000000E+00
  0.00000000E+00  0.00000000E+00  0.00000000E+00
  0.00000000E+00  0.00000000E+00  0.00000000E+00
  0.00000000E+00  0.00000000E+00  0.00000000E+00
  0.00000000E+00  0.00000000E+00  0.00000000E+00
  0.00000000E+00  0.00000000E+00  0.00000000E+00
  0.00000000E+00  0.00000000E+00  0.00000000E+00
  0.00000000E+00  0.00000000E+00  0.00000000E+00
  0.00000000E+00  0.00000000E+00  0.00000000E+00
  0.00000000E+00  0.00000000E+00  0.00000000E+00
  0.00000000E+00  0.00000000E+00  0.00000000E+00
  0.00000000E+00  0.00000000E+00  0.00000000E+00
  0.00000000E+00  0.00000000E+00  0.00000000E+00
  0.00000000E+00  0.00000000E+00  0.00000000E+00
  0.00000000E+00  0.00000000E+00  0.00000000E+00
  0.00000000E+00  0.00000000E+00  0.00000000E+00
  0.00000000E+00  0.00000000E+00  0.00000000E+00
  0.00000000E+00  0.00000000E+00  0.00000000E+00
  0.00000000E+00  0.00000000E+00  0.00000000E+00
  0.00000000E+00  0.00000000E+00  0.00000000E+00
  0.00000000E+00  0.00000000E+00  0.00000000E+00
  0.00000000E+00  0.00000000E+00  0.00000000E+00
  0.00000000E+00  0.00000000E+00  0.00000000E+00
  0.00000000E+00  0.00000000E+00  0.00000000E+00
  0.00000000E+00  0.00000000E+00  0.00000000E+00
  0.00000000E+00  0.00000000E+00  0.00000000E+00
