CeO2-you-111-you-Pb                     
   1.00000000000000     
     9.8399228701425674   -5.6810824887695439    0.0000000000000000
     0.0000000003868692   11.3621629787094776    0.0000000000000000
     0.0000000000000000    0.0000000000000000   21.2961752251326111
   O    Pb   Ce   H 
    54     1    26     2
Selective dynamics
Direct
 -0.0001077638842782  0.0000836838716874  0.9959731471378802   T   T   T
  0.1056904765714618  0.2202520384076886  0.1482698352390333   T   T   T
  0.2413724992213301  0.1312375189919003  0.3096922350045149   T   T   T
  0.0868305066925577  0.2127297024862557  0.3846922924146230   T   T   T
  0.0064226024501988  0.0039020649740820  0.2311892812783222   T   T   T
  0.2221090956709824  0.1127026022073074  0.0758345291042566   T   T   T
  0.3322937402207729  0.0013477837422853  0.9965133831161149   T   T   T
  0.4461214020404906  0.2208658847111008  0.1487294102851011   T   T   T
  0.5513802356793220  0.1137971109402061  0.3018650995150005   T   T   T
  0.4790678127010199  0.1876117177750447  0.4075990484617599   T   T   T
  0.3286329590731156 -0.0000158117629843  0.2290902691821380   T   T   T
  0.5553384404577009  0.1105341046111111  0.0749749207199723   T   T   T
  0.6661790809218304  0.0005549433264574  0.9957292459066063   T   T   T
  0.7778812041201276  0.2237964811206009  0.1497938404871813   T   T   T
  0.8845666831682226  0.1094679808282963  0.3004497605178381   T   T   T
  0.7781855067897983  0.2227687116669496  0.3801017063561440   T   T   T
  0.6646250267138574  0.0024970297514296  0.2281048979110579   T   T   T
  0.8858204227086535  0.1097556895163740  0.0750732921229963   T   T   T
  0.9988607773891747  0.3332397764940551  0.9963737010735044   T   T   T
  0.1101643655483872  0.5570444221033467  0.1488693568206465   T   T   T
  0.2291900359564546  0.4374900491614536  0.3039784461575645   T   T   T
  0.1117594741674301  0.5556218870707580  0.3791672918297755   T   T   T
  0.0030723562343060  0.3369083410366968  0.2291367261234385   T   T   T
  0.2214626387769066  0.4447987065109551  0.0749219930792196   T   T   T
  0.3321248347884078  0.3336016865023460  0.9962998144975069   T   T   T
  0.4462707953232741  0.5606639425171965  0.1482764267486304   T   T   T
  0.5356607127628901  0.4253290720298824  0.3097969929741337   T   T   T
  0.4538830770581734  0.5793162227162685  0.3852758710824949   T   T   T
  0.3322010795507744  0.3341193600487543  0.2195523910606528   T   T   T
  0.5541241833341174  0.4449117928161394  0.0755422760611668   T   T   T
  0.6658093370907556  0.3340457878372990  0.9967277274648686   T   T   T
  0.7778430919501992  0.5569906187813806  0.1493511062832326   T   T   T
  0.8883011407290015  0.4454283215734219  0.3023110223461008   T   T   T
  0.7762921165490292  0.5545784950799941  0.3799269088057418   T   T   T
  0.6671049771453830  0.3369773690700664  0.2290211506166107   T   T   T
  0.8881969586061267  0.4449709348950828  0.0750682008956986   T   T   T
 -0.0010704886950208  0.6677906668060147  0.9967846506005601   T   T   T
  0.1092823720593754  0.8891230219131824  0.1493969135367846   T   T   T
  0.2211305470829858  0.7785949852463675  0.3023564483549056   T   T   T
  0.1113915260349939  0.8902857114610463  0.3803817560461371   T   T   T
 -0.0008336126909087  0.6676095964160356  0.2289755452470492   T   T   T
  0.2218544365060784  0.7786672849899046  0.0750981522300190   T   T   T
  0.3333502398454410  0.6678214651356034  0.9966626524851215   T   T   T
  0.4425287330040291  0.8887110578652609  0.1500281649889467   T   T   T
  0.5574947484067729  0.7819342980387657  0.3006370342347875   T   T   T
  0.4436242592752656  0.8878015539238268  0.3800964926086370   T   T   T
  0.3305194856237407  0.6641816677447608  0.2292085683002195   T   T   T
  0.5567721516890340  0.7810547387296847  0.0753433927648321   T   T   T
  0.6660241185075507  0.6676380301966374  0.9963575524783239   T   T   T
  0.7781401423739175  0.8889663714794489  0.1520880066405449   T   T   T
  0.8877416953976880  0.7792345724042181  0.3031300698736876   T   T   T
  0.7764978223559322  0.8905202325295104  0.3815437983122182   T   T   T
  0.6625897453436979  0.6598686680438486  0.2311248952653031   T   T   T
  0.8874180494829880  0.7790473838358914  0.0758516181326796   T   T   T
  0.3257587169479237  0.3408264910679888  0.3521290507611110   T   T   T
 -0.0012313627513464  0.0030140635859702  0.3429781013743979   T   T   T
  0.2234243055159043  0.1144248063233717  0.1891284262656397   T   T   T
  0.1099791248643408  0.2222448581284001  0.0356939294948984   T   T   T
  0.3307733144263715 -0.0041931450157643  0.3418356435584721   T   T   T
  0.5544846988978946  0.1119531209077950  0.1890006867204399   T   T   T
  0.4436552725958158  0.2227124592892939  0.0357300874853301   T   T   T
  0.6654949732160892  0.0009304198862743  0.3413012275800569   T   T   T
  0.8885798525192129  0.1123227947462275  0.1892576787033108   T   T   T
  0.7768125434940866  0.2223196403953810  0.0357465204317480   T   T   T
 -0.0024201782328505  0.3314906016462982  0.3418940909622919   T   T   T
  0.2227550291372098  0.4440636066002333  0.1875496755010308   T   T   T
  0.1102070649182496  0.5564073350310287  0.0359112994684834   T   T   T
  0.5521886974846618  0.4428639501173778  0.1891095487545592   T   T   T
  0.4442086357803829  0.5567469363680495  0.0358575739498891   T   T   T
  0.6706671983844624  0.3354109282624962  0.3417519697332354   T   T   T
  0.8885919092240822  0.4454992442478877  0.1885711959121760   T   T   T
  0.7770250719054540  0.5565070828931554  0.0364912512800862   T   T   T
 -0.0005981025151577  0.6673286451597439  0.3410875163878794   T   T   T
  0.2211323753614287  0.7783725237153862  0.1886330954233069   T   T   T
  0.1101649838265401  0.8898234470809453  0.0364709416750443   T   T   T
  0.3352018675573529  0.6689145805834625  0.3419888700548173   T   T   T
  0.5544688041028440  0.7781974497676478  0.1892650922672499   T   T   T
  0.4442130554464024  0.8899354913861734  0.0358219895006663   T   T   T
  0.6635071978118511  0.6677699953983317  0.3430353580238224   T   T   T
  0.8883665263600296  0.7783166662872755  0.1901988887836009   T   T   T
  0.7771028367491150  0.8894991005516643  0.0359196258914456   T   T   T
  0.3572400668280936  0.3097015062120779  0.4309707354511950   T   T   T
  0.4589886642620659  0.2071710692049712  0.4494516178216187   T   T   T
 
  0.00000000E+00  0.00000000E+00  0.00000000E+00
  0.00000000E+00  0.00000000E+00  0.00000000E+00
  0.00000000E+00  0.00000000E+00  0.00000000E+00
  0.00000000E+00  0.00000000E+00  0.00000000E+00
  0.00000000E+00  0.00000000E+00  0.00000000E+00
  0.00000000E+00  0.00000000E+00  0.00000000E+00
  0.00000000E+00  0.00000000E+00  0.00000000E+00
  0.00000000E+00  0.00000000E+00  0.00000000E+00
  0.00000000E+00  0.00000000E+00  0.00000000E+00
  0.00000000E+00  0.00000000E+00  0.00000000E+00
  0.00000000E+00  0.00000000E+00  0.00000000E+00
  0.00000000E+00  0.00000000E+00  0.00000000E+00
  0.00000000E+00  0.00000000E+00  0.00000000E+00
  0.00000000E+00  0.00000000E+00  0.00000000E+00
  0.00000000E+00  0.00000000E+00  0.00000000E+00
  0.00000000E+00  0.00000000E+00  0.00000000E+00
  0.00000000E+00  0.00000000E+00  0.00000000E+00
  0.00000000E+00  0.00000000E+00  0.00000000E+00
  0.00000000E+00  0.00000000E+00  0.00000000E+00
  0.00000000E+00  0.00000000E+00  0.00000000E+00
  0.00000000E+00  0.00000000E+00  0.00000000E+00
  0.00000000E+00  0.00000000E+00  0.00000000E+00
  0.00000000E+00  0.00000000E+00  0.00000000E+00
  0.00000000E+00  0.00000000E+00  0.00000000E+00
  0.00000000E+00  0.00000000E+00  0.00000000E+00
  0.00000000E+00  0.00000000E+00  0.00000000E+00
  0.00000000E+00  0.00000000E+00  0.00000000E+00
  0.00000000E+00  0.00000000E+00  0.00000000E+00
  0.00000000E+00  0.00000000E+00  0.00000000E+00
  0.00000000E+00  0.00000000E+00  0.00000000E+00
  0.00000000E+00  0.00000000E+00  0.00000000E+00
  0.00000000E+00  0.00000000E+00  0.00000000E+00
  0.00000000E+00  0.00000000E+00  0.00000000E+00
  0.00000000E+00  0.00000000E+00  0.00000000E+00
  0.00000000E+00  0.00000000E+00  0.00000000E+00
  0.00000000E+00  0.00000000E+00  0.00000000E+00
  0.00000000E+00  0.00000000E+00  0.00000000E+00
  0.00000000E+00  0.00000000E+00  0.00000000E+00
  0.00000000E+00  0.00000000E+00  0.00000000E+00
  0.00000000E+00  0.00000000E+00  0.00000000E+00
  0.00000000E+00  0.00000000E+00  0.00000000E+00
  0.00000000E+00  0.00000000E+00  0.00000000E+00
  0.00000000E+00  0.00000000E+00  0.00000000E+00
  0.00000000E+00  0.00000000E+00  0.00000000E+00
  0.00000000E+00  0.00000000E+00  0.00000000E+00
  0.00000000E+00  0.00000000E+00  0.00000000E+00
  0.00000000E+00  0.00000000E+00  0.00000000E+00
  0.00000000E+00  0.00000000E+00  0.00000000E+00
  0.00000000E+00  0.00000000E+00  0.00000000E+00
  0.00000000E+00  0.00000000E+00  0.00000000E+00
  0.00000000E+00  0.00000000E+00  0.00000000E+00
  0.00000000E+00  0.00000000E+00  0.00000000E+00
  0.00000000E+00  0.00000000E+00  0.00000000E+00
  0.00000000E+00  0.00000000E+00  0.00000000E+00
  0.00000000E+00  0.00000000E+00  0.00000000E+00
  0.00000000E+00  0.00000000E+00  0.00000000E+00
  0.00000000E+00  0.00000000E+00  0.00000000E+00
  0.00000000E+00  0.00000000E+00  0.00000000E+00
  0.00000000E+00  0.00000000E+00  0.00000000E+00
  0.00000000E+00  0.00000000E+00  0.00000000E+00
  0.00000000E+00  0.00000000E+00  0.00000000E+00
  0.00000000E+00  0.00000000E+00  0.00000000E+00
  0.00000000E+00  0.00000000E+00  0.00000000E+00
  0.00000000E+00  0.00000000E+00  0.00000000E+00
  0.00000000E+00  0.00000000E+00  0.00000000E+00
  0.00000000E+00  0.00000000E+00  0.00000000E+00
  0.00000000E+00  0.00000000E+00  0.00000000E+00
  0.00000000E+00  0.00000000E+00  0.00000000E+00
  0.00000000E+00  0.00000000E+00  0.00000000E+00
  0.00000000E+00  0.00000000E+00  0.00000000E+00
  0.00000000E+00  0.00000000E+00  0.00000000E+00
  0.00000000E+00  0.00000000E+00  0.00000000E+00
  0.00000000E+00  0.00000000E+00  0.00000000E+00
  0.00000000E+00  0.00000000E+00  0.00000000E+00
  0.00000000E+00  0.00000000E+00  0.00000000E+00
  0.00000000E+00  0.00000000E+00  0.00000000E+00
  0.00000000E+00  0.00000000E+00  0.00000000E+00
  0.00000000E+00  0.00000000E+00  0.00000000E+00
  0.00000000E+00  0.00000000E+00  0.00000000E+00
  0.00000000E+00  0.00000000E+00  0.00000000E+00
  0.00000000E+00  0.00000000E+00  0.00000000E+00
  0.00000000E+00  0.00000000E+00  0.00000000E+00
  0.00000000E+00  0.00000000E+00  0.00000000E+00
