CeO2-you-111-you-Ce                     
   1.00000000000000     
     9.8853507421611191   -5.6921985076704393    0.0078244422093997
    -0.0000000045765240   11.3843950040423110   -0.0000000009230409
     0.0172572080434381   -0.0000000017720765   20.8681875916679935
   O    Ce   Ce
    53     1    26
Selective dynamics
Direct
  0.0000423738107816  0.0010237796611647  0.9947570822964098   T   T   T
  0.1179352648138379  0.2256341324071956  0.1506207862128076   T   T   T
  0.2158780210555110  0.1098805603249289  0.3037123018381605   T   T   T
  0.1076644744000724  0.2204987372010374  0.3871277990024459   T   T   T
 -0.0004039913665625  0.0011416371997129  0.2277324718505496   T   T   T
  0.2222217169547676  0.1104842567208063  0.0733662362110954   T   T   T
  0.3343726802674988  0.0000553138272582  0.9939906454952576   T   T   T
  0.4432909709814764  0.2205070092052409  0.1465790821155461   T   T   T
  0.5521280074766037  0.1036921946181704  0.3047880316745750   T   T   T
  0.4371957921505670  0.2326479195807228  0.3789412834246798   T   T   T
  0.3319101442013813  0.0016186586061393  0.2294106502307867   T   T   T
  0.5557373911232013  0.1101468823583949  0.0742054526525881   T   T   T
  0.6697322332746406  0.0015326166371971  0.9949481464493251   T   T   T
  0.7739031999928613  0.2251521170094805  0.1514898866683746   T   T   T
  0.8895470695225394  0.1114400347615214  0.3035891594684408   T   T   T
  0.7833133417673754  0.2159147454256454  0.3881988064002485   T   T   T
  0.6682662395294028  0.0007996197644369  0.2285777296598624   T   T   T
  0.8895912498476554  0.1114621249238609  0.0767318084383635   T   T   T
  0.0000423738106604  0.3323515941495427  0.9947570822963478   T   T   T
  0.1107556391950480  0.5549363427356789  0.1496877269296029   T   T   T
  0.2158780210532771  0.4393304607313787  0.3037123018383371   T   T   T
  0.1144800370054467  0.5569531115777309  0.3850736031150471   T   T   T
 -0.0004039913663843  0.3317873714340089  0.2277324718504744   T   T   T
  0.2222217169546246  0.4450704602337345  0.0733662362111355   T   T   T
  0.3319723950290831  0.3326526975144325  0.9940728624240217   T   T   T
  0.4432909709807616  0.5561179617759868  0.1465790821156448   T   T   T
  0.4371957921473933  0.5378818725689809  0.3789412834247367   T   T   T
  0.3509411849375818  0.3421370924689434  0.2342379300982160   T   T   T
  0.5564119871522974  0.4448719935760954  0.0706642580143348   T   T   T
  0.6686697505530289  0.3322639811408782  0.9940677502024988   T   T   T
  0.7792228681216746  0.5562784340606042  0.1465923446586808   T   T   T
  0.8957537647128360  0.4444528408835745  0.3035367832190354   T   T   T
  0.7876908179784704  0.5605124089881284  0.3846888507884587   T   T   T
  0.6570802825700961  0.3424133776042814  0.2337414291138076   T   T   T
  0.8900519155193565  0.4448038838474593  0.0739818887714749   T   T   T
  0.0014495452575869  0.6673917726287505  0.9940778399131284   T   T   T
  0.1107556391951309  0.8891532964594406  0.1496877269295838   T   T   T
  0.2227006454005567  0.7780173227003419  0.3031900355298403   T   T   T
  0.1144800370054902  0.8908609254281881  0.3850736031150378   T   T   T
 -0.0007755431952538  0.6662792284023260  0.2288372045548017   T   T   T
  0.2228477445489372  0.7780908722745421  0.0740487876466987   T   T   T
  0.3343726802674813  0.6676513664402236  0.9939906454953080   T   T   T
  0.4442989964138777  0.8888164982071504  0.1507974434744951   T   T   T
  0.5521280074760156  0.7817688128582114  0.3047880316744591   T   T   T
  0.4388965512581985  0.8861152756288802  0.3860099117285756   T   T   T
  0.3319101442009489  0.6636254855952488  0.2294106502306151   T   T   T
  0.5557373911231734  0.7789235087648574  0.0742054526526112   T   T   T
  0.6686697505532407  0.6697387694123483  0.9940677502025652   T   T   T
  0.7739031999927865  0.8820840829831197  0.1514898866682366   T   T   T
  0.8957537647126543  0.7846339238280055  0.3035367832190469   T   T   T
  0.7833133417649043  0.9007315963392997  0.3881988064004698   T   T   T
  0.6570802825679579  0.6479999049642593  0.2337414291137848   T   T   T
  0.8900519155194853  0.7785810316718379  0.0739818887714751   T   T   T
  0.3160108626104466  0.3246719313034623  0.3477484254780717   T   T   T
 -0.0016339431292082 -0.0007983020687008  0.3445302332692960   T   T   T
  0.2229214042151238  0.1118529188152239  0.1896661001968811   T   T   T
  0.1119746623468075  0.2226538311734390  0.0344629474326806   T   T   T
  0.3316698621658440 -0.0007726856743845  0.3439010654114529   T   T   T
  0.5548669393019576  0.1122107355351539  0.1912998875310239   T   T   T
  0.4441517877237301  0.2200397371527149  0.0324887968871478   T   T   T
  0.6657076371969226 -0.0004796814009464  0.3451351705494337   T   T   T
  0.8885120706767888  0.1109225353381622  0.1902117017851003   T   T   T
  0.7781771496412651  0.2225579473045561  0.0350320124143120   T   T   T
 -0.0016339431290127  0.3324973589376085  0.3445302332690444   T   T   T
  0.2229214042174348  0.4444014853996154  0.1896661001967327   T   T   T
  0.1111846835627314  0.5550639499132369  0.0346993449007273   T   T   T
  0.5560608595229780  0.4446964297619908  0.1812066522691581   T   T   T
  0.4441517877236194  0.5574460505711858  0.0324887968871297   T   T   T
  0.6741149922074515  0.3294650034340572  0.3524259434432655   T   T   T
  0.8877205543108748  0.4446549313234922  0.1907264255679991   T   T   T
  0.7809169226234587  0.5571254613115921  0.0327084914624578   T   T   T
  0.0002470397476316  0.6667905198741853  0.3446443410594846   T   T   T
  0.2215657269097870  0.7774498634547262  0.1888252871229540   T   T   T
  0.1111846835623939  0.8894547336492328  0.0346993449007574   T   T   T
  0.3316698621681777  0.6657765478410910  0.3439010654115237   T   T   T
  0.5548669393038180  0.7759892037677349  0.1912998875309133   T   T   T
  0.4459455581310576  0.8896397790654467  0.0351062411153268   T   T   T
  0.6741149922138808  0.6779829887794380  0.3524259434428782   T   T   T
  0.8877205543108057  0.7763986229886086  0.1907264255679625   T   T   T
  0.7781771496411958  0.8889522023366908  0.0350320124142900   T   T   T
 
  0.00000000E+00  0.00000000E+00  0.00000000E+00
  0.00000000E+00  0.00000000E+00  0.00000000E+00
  0.00000000E+00  0.00000000E+00  0.00000000E+00
  0.00000000E+00  0.00000000E+00  0.00000000E+00
  0.00000000E+00  0.00000000E+00  0.00000000E+00
  0.00000000E+00  0.00000000E+00  0.00000000E+00
  0.00000000E+00  0.00000000E+00  0.00000000E+00
  0.00000000E+00  0.00000000E+00  0.00000000E+00
  0.00000000E+00  0.00000000E+00  0.00000000E+00
  0.00000000E+00  0.00000000E+00  0.00000000E+00
  0.00000000E+00  0.00000000E+00  0.00000000E+00
  0.00000000E+00  0.00000000E+00  0.00000000E+00
  0.00000000E+00  0.00000000E+00  0.00000000E+00
  0.00000000E+00  0.00000000E+00  0.00000000E+00
  0.00000000E+00  0.00000000E+00  0.00000000E+00
  0.00000000E+00  0.00000000E+00  0.00000000E+00
  0.00000000E+00  0.00000000E+00  0.00000000E+00
  0.00000000E+00  0.00000000E+00  0.00000000E+00
  0.00000000E+00  0.00000000E+00  0.00000000E+00
  0.00000000E+00  0.00000000E+00  0.00000000E+00
  0.00000000E+00  0.00000000E+00  0.00000000E+00
  0.00000000E+00  0.00000000E+00  0.00000000E+00
  0.00000000E+00  0.00000000E+00  0.00000000E+00
  0.00000000E+00  0.00000000E+00  0.00000000E+00
  0.00000000E+00  0.00000000E+00  0.00000000E+00
  0.00000000E+00  0.00000000E+00  0.00000000E+00
  0.00000000E+00  0.00000000E+00  0.00000000E+00
  0.00000000E+00  0.00000000E+00  0.00000000E+00
  0.00000000E+00  0.00000000E+00  0.00000000E+00
  0.00000000E+00  0.00000000E+00  0.00000000E+00
  0.00000000E+00  0.00000000E+00  0.00000000E+00
  0.00000000E+00  0.00000000E+00  0.00000000E+00
  0.00000000E+00  0.00000000E+00  0.00000000E+00
  0.00000000E+00  0.00000000E+00  0.00000000E+00
  0.00000000E+00  0.00000000E+00  0.00000000E+00
  0.00000000E+00  0.00000000E+00  0.00000000E+00
  0.00000000E+00  0.00000000E+00  0.00000000E+00
  0.00000000E+00  0.00000000E+00  0.00000000E+00
  0.00000000E+00  0.00000000E+00  0.00000000E+00
  0.00000000E+00  0.00000000E+00  0.00000000E+00
  0.00000000E+00  0.00000000E+00  0.00000000E+00
  0.00000000E+00  0.00000000E+00  0.00000000E+00
  0.00000000E+00  0.00000000E+00  0.00000000E+00
  0.00000000E+00  0.00000000E+00  0.00000000E+00
  0.00000000E+00  0.00000000E+00  0.00000000E+00
  0.00000000E+00  0.00000000E+00  0.00000000E+00
  0.00000000E+00  0.00000000E+00  0.00000000E+00
  0.00000000E+00  0.00000000E+00  0.00000000E+00
  0.00000000E+00  0.00000000E+00  0.00000000E+00
  0.00000000E+00  0.00000000E+00  0.00000000E+00
  0.00000000E+00  0.00000000E+00  0.00000000E+00
  0.00000000E+00  0.00000000E+00  0.00000000E+00
  0.00000000E+00  0.00000000E+00  0.00000000E+00
  0.00000000E+00  0.00000000E+00  0.00000000E+00
  0.00000000E+00  0.00000000E+00  0.00000000E+00
  0.00000000E+00  0.00000000E+00  0.00000000E+00
  0.00000000E+00  0.00000000E+00  0.00000000E+00
  0.00000000E+00  0.00000000E+00  0.00000000E+00
  0.00000000E+00  0.00000000E+00  0.00000000E+00
  0.00000000E+00  0.00000000E+00  0.00000000E+00
  0.00000000E+00  0.00000000E+00  0.00000000E+00
  0.00000000E+00  0.00000000E+00  0.00000000E+00
  0.00000000E+00  0.00000000E+00  0.00000000E+00
  0.00000000E+00  0.00000000E+00  0.00000000E+00
  0.00000000E+00  0.00000000E+00  0.00000000E+00
  0.00000000E+00  0.00000000E+00  0.00000000E+00
  0.00000000E+00  0.00000000E+00  0.00000000E+00
  0.00000000E+00  0.00000000E+00  0.00000000E+00
  0.00000000E+00  0.00000000E+00  0.00000000E+00
  0.00000000E+00  0.00000000E+00  0.00000000E+00
  0.00000000E+00  0.00000000E+00  0.00000000E+00
  0.00000000E+00  0.00000000E+00  0.00000000E+00
  0.00000000E+00  0.00000000E+00  0.00000000E+00
  0.00000000E+00  0.00000000E+00  0.00000000E+00
  0.00000000E+00  0.00000000E+00  0.00000000E+00
  0.00000000E+00  0.00000000E+00  0.00000000E+00
  0.00000000E+00  0.00000000E+00  0.00000000E+00
  0.00000000E+00  0.00000000E+00  0.00000000E+00
  0.00000000E+00  0.00000000E+00  0.00000000E+00
  0.00000000E+00  0.00000000E+00  0.00000000E+00
