CeO2-you-111-you-Al                     
   1.00000000000000     
     9.8308429117684941   -5.6758401728020598   -0.0000000000000000
     0.0000000019207148   11.3516783512762771    0.0000000000000000
    -0.0000000000000000   -0.0000000000000000   20.8176568843594829
   O    Al   Ce
    54     1    26
Selective dynamics
Direct
 -0.0005094264455431 -0.0006085483129059  0.9935747274739735   T   T   T
  0.1169581604333654  0.2251455802175107  0.1512019432832449   T   T   T
  0.2074375264768087  0.0815420529492967  0.3002751492981627   T   T   T
  0.1533089893113671  0.2433209946539461  0.3684911054964315   T   T   T
 -0.0060535685410842 -0.0014292596680655  0.2292465977665049   T   T   T
  0.2221680427915612  0.1110030855833014  0.0734562250721869   T   T   T
  0.3332338781324042 -0.0006085483127901  0.9935747274739735   T   T   T
  0.4415204197841415  0.2251455802182443  0.1512019432832449   T   T   T
  0.5535887438212705  0.1130782561806878  0.3102503558876690   T   T   T
  0.4233450053425751  0.2433209946524025  0.3684911054964315   T   T   T
  0.3379573088724513 -0.0014292596683721  0.2292465977665049   T   T   T
  0.5542697983940282  0.1123972016091422  0.0743610163369983   T   T   T
  0.6666669999999968  0.0000000000000000  0.9943403286386924   T   T   T
  0.7763085370967544  0.2192830741937669  0.1487111242401532   T   T   T
  0.8928235123588166  0.1130782561800868  0.3102503558876690   T   T   T
  0.7784183372686678  0.2235026745373056  0.3872820477486023   T   T   T
  0.6666669999999968  0.0000000000000000  0.2336562017429298   T   T   T
  0.8914614032141412  0.1123972016081689  0.0743610163369983   T   T   T
 -0.0005094264460752  0.3334321218676269  0.9935747274739735   T   T   T
  0.1119141390674577  0.5547528609330211  0.1500885784242398   T   T   T
  0.2074375264865368  0.4592284735275080  0.3002751492981627   T   T   T
  0.1101583790341971  0.5565086209656895  0.3896229152189807   T   T   T
 -0.0060535685423694  0.3287086911262937  0.2292465977665049   T   T   T
  0.2221680427911506  0.4444979572082560  0.0734562250721869   T   T   T
  0.3333330000000032  0.3333330000000032  0.9930797608073586   T   T   T
  0.4415204197824886  0.5497088395642523  0.1512019432832449   T   T   T
  0.5851249470366616  0.4592284735231905  0.3002751492981627   T   T   T
  0.4233450053460533  0.5133580106936585  0.3684911054964315   T   T   T
  0.3333330000000032  0.3333330000000032  0.2462288616143983   T   T   T
  0.5556639144172952  0.4444979572084380  0.0734562250721869   T   T   T
  0.6672755483139321  0.3334321218679790  0.9935747274739735   T   T   T
  0.7761717218654132  0.5547528609328750  0.1500885784242398   T   T   T
  0.8895079706897393  0.4456819413796100  0.3061988321537826   T   T   T
  0.7796832419315247  0.5565086209657253  0.3896229152189807   T   T   T
  0.6680962596692275  0.3287086911265577  0.2292465977665049   T   T   T
  0.8888671144255100  0.4444002288511704  0.0742190631003253   T   T   T
  0.0000000000000000  0.6666669999999968  0.9939414349584382   T   T   T
  0.1119141390671291  0.8904952781341093  0.1500885784242398   T   T   T
  0.2209840586208199  0.7771590293102575  0.3061988321537826   T   T   T
  0.1101583790342783  0.8869837580685895  0.3896229152189807   T   T   T
  0.0000000000000000  0.6666669999999968  0.2295602557005579   T   T   T
  0.2222657711493202  0.7777998855744868  0.0742190631003253   T   T   T
  0.3332338781316110  0.6671764264449273  0.9935747274739735   T   T   T
  0.4473829258070505  0.8903584629032424  0.1487111242401532   T   T   T
  0.5535887438199171  0.7738434876392251  0.3102503558876690   T   T   T
  0.4431633254625736  0.8882486627313290  0.3872820477486023   T   T   T
  0.3379573088718571  0.6727205685415077  0.2292465977665049   T   T   T
  0.5542697983918349  0.7752055967826892  0.0743610163369983   T   T   T
  0.6672755483136713  0.6671764264451631  0.9935747274739735   T   T   T
  0.7763085370961884  0.8903584629029909  0.1487111242401532   T   T   T
  0.8895079706894408  0.7771590293101249  0.3061988321537826   T   T   T
  0.7784183372687512  0.8882486627313658  0.3872820477486023   T   T   T
  0.6680962596699177  0.6727205685420784  0.2292465977665049   T   T   T
  0.8888671144251695  0.7777998855743360  0.0742190631003253   T   T   T
  0.3333330000000032  0.3333330000000032  0.3381459123440234   T   T   T
  0.0025499297074501 -0.0004864101714614  0.3453158803928336   T   T   T
  0.2222205541693759  0.1111081083389222  0.1914243067567763   T   T   T
  0.1116965834104158  0.2225147917060238  0.0338479398513719   T   T   T
  0.3302966601217077 -0.0004864101713289  0.3453158803928336   T   T   T
  0.5558653408905039  0.1108016591122421  0.1902582894868856   T   T   T
  0.4441512082956041  0.2225147917067467  0.0338479398513719   T   T   T
  0.6666669999999968  0.0000000000000000  0.3484989454902241   T   T   T
  0.8882703182208962  0.1108016591113993  0.1902582894868856   T   T   T
  0.7778397519026766  0.2223455038056424  0.0340083127563612   T   T   T
  0.0025499297088381  0.3363693398792134  0.3453158803928336   T   T   T
  0.2222205541689838  0.4444454458304497  0.1914243067567763   T   T   T
  0.1112810508067144  0.5553859491926370  0.0337974330083647   T   T   T
  0.5555588916616476  0.4444454458306236  0.1914243067567763   T   T   T
  0.4441512082939756  0.5549704165872366  0.0338479398513719   T   T   T
  0.6671534101697527  0.3363693398787300  0.3453158803928336   T   T   T
  0.8888567266693126  0.4443794533382560  0.1896096929226230   T   T   T
  0.7774378983861192  0.5553859491928377  0.0337974330083647   T   T   T
  0.0000000000000000  0.6666669999999968  0.3477980717741356   T   T   T
  0.2222865466605422  0.7778102733306842  0.1896096929226230   T   T   T
  0.1112810508071664  0.8892291016145297  0.0337974330083647   T   T   T
  0.3302966601227972  0.6641170702927313  0.3453158803928336   T   T   T
  0.5558653408886051  0.7783966817763586  0.1902582894868856   T   T   T
  0.4443204961952768  0.8888272480973202  0.0340083127563612   T   T   T
  0.6671534101694541  0.6641170702921154  0.3453158803928336   T   T   T
  0.8888567266701449  0.7778102733310531  0.1896096929226230   T   T   T
  0.7778397519020394  0.8888272480970376  0.0340083127563612   T   T   T
 
  0.00000000E+00  0.00000000E+00  0.00000000E+00
  0.00000000E+00  0.00000000E+00  0.00000000E+00
  0.00000000E+00  0.00000000E+00  0.00000000E+00
  0.00000000E+00  0.00000000E+00  0.00000000E+00
  0.00000000E+00  0.00000000E+00  0.00000000E+00
  0.00000000E+00  0.00000000E+00  0.00000000E+00
  0.00000000E+00  0.00000000E+00  0.00000000E+00
  0.00000000E+00  0.00000000E+00  0.00000000E+00
  0.00000000E+00  0.00000000E+00  0.00000000E+00
  0.00000000E+00  0.00000000E+00  0.00000000E+00
  0.00000000E+00  0.00000000E+00  0.00000000E+00
  0.00000000E+00  0.00000000E+00  0.00000000E+00
  0.00000000E+00  0.00000000E+00  0.00000000E+00
  0.00000000E+00  0.00000000E+00  0.00000000E+00
  0.00000000E+00  0.00000000E+00  0.00000000E+00
  0.00000000E+00  0.00000000E+00  0.00000000E+00
  0.00000000E+00  0.00000000E+00  0.00000000E+00
  0.00000000E+00  0.00000000E+00  0.00000000E+00
  0.00000000E+00  0.00000000E+00  0.00000000E+00
  0.00000000E+00  0.00000000E+00  0.00000000E+00
  0.00000000E+00  0.00000000E+00  0.00000000E+00
  0.00000000E+00  0.00000000E+00  0.00000000E+00
  0.00000000E+00  0.00000000E+00  0.00000000E+00
  0.00000000E+00  0.00000000E+00  0.00000000E+00
  0.00000000E+00  0.00000000E+00  0.00000000E+00
  0.00000000E+00  0.00000000E+00  0.00000000E+00
  0.00000000E+00  0.00000000E+00  0.00000000E+00
  0.00000000E+00  0.00000000E+00  0.00000000E+00
  0.00000000E+00  0.00000000E+00  0.00000000E+00
  0.00000000E+00  0.00000000E+00  0.00000000E+00
  0.00000000E+00  0.00000000E+00  0.00000000E+00
  0.00000000E+00  0.00000000E+00  0.00000000E+00
  0.00000000E+00  0.00000000E+00  0.00000000E+00
  0.00000000E+00  0.00000000E+00  0.00000000E+00
  0.00000000E+00  0.00000000E+00  0.00000000E+00
  0.00000000E+00  0.00000000E+00  0.00000000E+00
  0.00000000E+00  0.00000000E+00  0.00000000E+00
  0.00000000E+00  0.00000000E+00  0.00000000E+00
  0.00000000E+00  0.00000000E+00  0.00000000E+00
  0.00000000E+00  0.00000000E+00  0.00000000E+00
  0.00000000E+00  0.00000000E+00  0.00000000E+00
  0.00000000E+00  0.00000000E+00  0.00000000E+00
  0.00000000E+00  0.00000000E+00  0.00000000E+00
  0.00000000E+00  0.00000000E+00  0.00000000E+00
  0.00000000E+00  0.00000000E+00  0.00000000E+00
  0.00000000E+00  0.00000000E+00  0.00000000E+00
  0.00000000E+00  0.00000000E+00  0.00000000E+00
  0.00000000E+00  0.00000000E+00  0.00000000E+00
  0.00000000E+00  0.00000000E+00  0.00000000E+00
  0.00000000E+00  0.00000000E+00  0.00000000E+00
  0.00000000E+00  0.00000000E+00  0.00000000E+00
  0.00000000E+00  0.00000000E+00  0.00000000E+00
  0.00000000E+00  0.00000000E+00  0.00000000E+00
  0.00000000E+00  0.00000000E+00  0.00000000E+00
  0.00000000E+00  0.00000000E+00  0.00000000E+00
  0.00000000E+00  0.00000000E+00  0.00000000E+00
  0.00000000E+00  0.00000000E+00  0.00000000E+00
  0.00000000E+00  0.00000000E+00  0.00000000E+00
  0.00000000E+00  0.00000000E+00  0.00000000E+00
  0.00000000E+00  0.00000000E+00  0.00000000E+00
  0.00000000E+00  0.00000000E+00  0.00000000E+00
  0.00000000E+00  0.00000000E+00  0.00000000E+00
  0.00000000E+00  0.00000000E+00  0.00000000E+00
  0.00000000E+00  0.00000000E+00  0.00000000E+00
  0.00000000E+00  0.00000000E+00  0.00000000E+00
  0.00000000E+00  0.00000000E+00  0.00000000E+00
  0.00000000E+00  0.00000000E+00  0.00000000E+00
  0.00000000E+00  0.00000000E+00  0.00000000E+00
  0.00000000E+00  0.00000000E+00  0.00000000E+00
  0.00000000E+00  0.00000000E+00  0.00000000E+00
  0.00000000E+00  0.00000000E+00  0.00000000E+00
  0.00000000E+00  0.00000000E+00  0.00000000E+00
  0.00000000E+00  0.00000000E+00  0.00000000E+00
  0.00000000E+00  0.00000000E+00  0.00000000E+00
  0.00000000E+00  0.00000000E+00  0.00000000E+00
  0.00000000E+00  0.00000000E+00  0.00000000E+00
  0.00000000E+00  0.00000000E+00  0.00000000E+00
  0.00000000E+00  0.00000000E+00  0.00000000E+00
  0.00000000E+00  0.00000000E+00  0.00000000E+00
  0.00000000E+00  0.00000000E+00  0.00000000E+00
  0.00000000E+00  0.00000000E+00  0.00000000E+00
