CeO2-you-111-you-Sc                     
   1.00000000000000     
     9.8316279131391227   -5.6938444357237321   -0.0004171354623701
    -0.0151996434780920   11.3613603143726358    0.0004171353993626
    -0.0005685848935740    0.0009848178526604   21.1176104069576205
   O    Sc   Ce H
    53     1    26 2
Selective dynamics
Direct
 -0.0004722368718715 -0.0005296833085675  0.9957499713983705   T   T   T
  0.1106885468435940  0.2213822045513594  0.1478473116831240   F   F   F
  0.2267278936232856  0.1093116590254515  0.3011797527426020   T   T   T
  0.1370926908169633  0.2455337030317026  0.3681025819424718   T   T   T
  0.0009209956848116  0.0020128764002563  0.2297617449654643   T   T   T
  0.2218773109653947  0.1106262229382631  0.0749520268249932   F   F   F
  0.3351223308731789  0.0008336279283576  0.9964432014764950   T   T   T
  0.4413428984128047  0.2253231015856373  0.1518757604376589   F   F   F
  0.5553583187394001  0.1113086812587043  0.3044637183110052   T   T   T
  0.4401697690278475  0.2264962309692632  0.3805706688980667   T   T   T
  0.3359454726359676 -0.0001221797992434  0.2281197851202566   T   T   T
  0.5553738749838387  0.1112931250160106  0.0783932293896349   F   F   F
  0.6656636680754979  0.0010033319250672  0.9964442100808143   T   T   T
  0.7844521342435919  0.2246764919788116  0.1519056586677659   F   F   F
  0.8859606753041178  0.1074849486415182  0.3045841605842889   T   T   T
  0.7727188785850053  0.2190397519515275  0.3865873067579935   T   T   T
  0.6663564599870524  0.0003105400122173  0.2293325807326800   T   T   T
  0.8883096681182272  0.1099258356480019  0.0754419478456173   F   F   F
 -0.0020679100510750  0.3322352888727664  0.9957433463585814   T   T   T
  0.1107880378372290  0.5558789621613633  0.1481716492402758   F   F   F
  0.1135113836518696  0.5531556163485299  0.3794634880678117   T   T   T
  0.0163300783494881  0.3424428272832412  0.2344278315385883   T   T   T
  0.2220529517646698  0.4446130482357631  0.0727627421004650   F   F   F
  0.3338717822374936  0.3327942177621412  0.9954854098768039   T   T   T
  0.4452837954514005  0.5559784531575623  0.1478473116832033   F   F   F
  0.5573553409766391  0.4399381063781446  0.3011797527429999   T   T   T
  0.4211322969722137  0.5295743091845777  0.3681025819430482   T   T   T
  0.3248610518978542  0.3418049480993693  0.2360521288469610   T   T   T
  0.5560407770617946  0.4447886890345547  0.0749520268249925   F   F   F
  0.6658333720714005  0.3315436691265509  0.9964432014764486   T   T   T
  0.7775168890932754  0.5553296648723068  0.1510849699277347   F   F   F
  0.8837477270774822  0.4455317598871614  0.3041403477244958   T   T   T
  0.7753118247153072  0.5575938529273465  0.3837446427290618   T   T   T
  0.6667891797970925  0.3307205273628659  0.2281197851202320   T   T   T
  0.8883949275759482  0.4447765651739388  0.0755199554855587   F   F   F
 -0.0006294526548977  0.6672964526546162  0.9959602675798170   T   T   T
  0.1113373351273270  0.8891501109057304  0.1510849699277589   F   F   F
  0.2211342401097680  0.7829192729176404  0.3041403477245339   T   T   T
  0.1090731470728842  0.8913551752828449  0.3837446427291148   T   T   T
  0.0003520444889195  0.6663149555101099  0.2297290304006094   T   T   T
  0.2218894348258847  0.7782720724237425  0.0755199554855710   F   F   F
  0.3344307111277053  0.6687349100515775  0.9957433463586561   T   T   T
  0.4419895080214312  0.8822148657565124  0.1519056586676553   F   F   F
  0.5591820513615293  0.7807063246964231  0.3045841605841816   T   T   T
  0.4476262480482565  0.8939481214097363  0.3865873067581244   T   T   T
  0.3242231727192801  0.6503369216515995  0.2344278315389714   T   T   T
  0.5567411643523890  0.7783573318819165  0.0754419478456621   F   F   F
  0.6671966833087523  0.6671392368717487  0.9957499713983764   T   T   T
  0.7776349662599937  0.8890320337404618  0.1514437968196173   F   F   F
  0.8883826087458009  0.7782843912537307  0.3029739911765523   T   T   T
  0.7790576605855545  0.8876093394144686  0.3837829158522642   T   T   T
  0.6646541236001677  0.6657460043166620  0.2297617449653634   T   T   T
  0.8886691102413925  0.7779978897583421  0.0760663470623212   F   F   F
  0.3438066430925654  0.3228593569123823  0.3375704742261440   T   T   T
  0.0054193126053560  0.0052114458603258  0.3422472929892778   T   T   T
  0.2227151911401188  0.1122947683187924  0.1911880950741867   F   F   F
  0.1100562830801920  0.2203835765868574  0.0342432521437325   F   F   F
  0.3337811290180676  0.0034231693425418  0.3438935585190854   T   T   T
  0.5560321054954610  0.1106348945057032  0.1909781822019500   F   F   F
  0.4443397579468447  0.2223262420530819  0.0363188587734433   F   F   F
  0.6673293234757284 -0.0006623234744209  0.3456173483107758   T   T   T
  0.8901199113974706  0.1119841071404830  0.1913518231397002   F   F   F
  0.7778957015293391  0.2222217906554323  0.0365671000777896   F   F   F
 -0.0075772112919377  0.3290277905432781  0.3483011037067439   T   T   T
  0.2226678259111702  0.4439981740860403  0.1828290808503684   F   F   F
  0.1100908722230595  0.5565761277765459  0.0346622273665618   F   F   F
  0.5543722316790989  0.4439508088586353  0.1911880950741829   F   F   F
  0.4462824234134531  0.5566107169200669  0.0342432521436903   F   F   F
  0.6632438306608580  0.3328848709820329  0.3438935585191096   T   T   T
  0.8898951771951230  0.4448163487188220  0.1913820665461317   F   F   F
  0.7774353081168678  0.5550150274492428  0.0366455986711803   F   F   F
 -0.0014359165309284  0.6681029165344845  0.3430574316039191   T   T   T
  0.2218496512835308  0.7767718228091813  0.1913820665461557   F   F   F
  0.1116519725512781  0.8892316918833894  0.0366455986711889   F   F   F
  0.3376382094530949  0.6742442112962274  0.3483011037060015   T   T   T
  0.5546828928563949  0.7765470886025901  0.1913518231396312   F   F   F
  0.4444442093443477  0.8887712984709319  0.0365671000777610   F   F   F
  0.6614555541368791  0.6612476873919290  0.3422472929895415   T   T   T
  0.8888003833487169  0.7778666166521901  0.1900324184324799   F   F   F
  0.7774776129969180  0.8891893870028487  0.0365731740776616   F   F   F
0.3438066430925654 0.3228593569123823 0.43757 T T T
0.446598 0.216020 0.433410 T T T 
 
  0.00000000E+00  0.00000000E+00  0.00000000E+00
  0.00000000E+00  0.00000000E+00  0.00000000E+00
  0.00000000E+00  0.00000000E+00  0.00000000E+00
  0.00000000E+00  0.00000000E+00  0.00000000E+00
  0.00000000E+00  0.00000000E+00  0.00000000E+00
  0.00000000E+00  0.00000000E+00  0.00000000E+00
  0.00000000E+00  0.00000000E+00  0.00000000E+00
  0.00000000E+00  0.00000000E+00  0.00000000E+00
  0.00000000E+00  0.00000000E+00  0.00000000E+00
  0.00000000E+00  0.00000000E+00  0.00000000E+00
  0.00000000E+00  0.00000000E+00  0.00000000E+00
  0.00000000E+00  0.00000000E+00  0.00000000E+00
  0.00000000E+00  0.00000000E+00  0.00000000E+00
  0.00000000E+00  0.00000000E+00  0.00000000E+00
  0.00000000E+00  0.00000000E+00  0.00000000E+00
  0.00000000E+00  0.00000000E+00  0.00000000E+00
  0.00000000E+00  0.00000000E+00  0.00000000E+00
  0.00000000E+00  0.00000000E+00  0.00000000E+00
  0.00000000E+00  0.00000000E+00  0.00000000E+00
  0.00000000E+00  0.00000000E+00  0.00000000E+00
  0.00000000E+00  0.00000000E+00  0.00000000E+00
  0.00000000E+00  0.00000000E+00  0.00000000E+00
  0.00000000E+00  0.00000000E+00  0.00000000E+00
  0.00000000E+00  0.00000000E+00  0.00000000E+00
  0.00000000E+00  0.00000000E+00  0.00000000E+00
  0.00000000E+00  0.00000000E+00  0.00000000E+00
  0.00000000E+00  0.00000000E+00  0.00000000E+00
  0.00000000E+00  0.00000000E+00  0.00000000E+00
  0.00000000E+00  0.00000000E+00  0.00000000E+00
  0.00000000E+00  0.00000000E+00  0.00000000E+00
  0.00000000E+00  0.00000000E+00  0.00000000E+00
  0.00000000E+00  0.00000000E+00  0.00000000E+00
  0.00000000E+00  0.00000000E+00  0.00000000E+00
  0.00000000E+00  0.00000000E+00  0.00000000E+00
  0.00000000E+00  0.00000000E+00  0.00000000E+00
  0.00000000E+00  0.00000000E+00  0.00000000E+00
  0.00000000E+00  0.00000000E+00  0.00000000E+00
  0.00000000E+00  0.00000000E+00  0.00000000E+00
  0.00000000E+00  0.00000000E+00  0.00000000E+00
  0.00000000E+00  0.00000000E+00  0.00000000E+00
  0.00000000E+00  0.00000000E+00  0.00000000E+00
  0.00000000E+00  0.00000000E+00  0.00000000E+00
  0.00000000E+00  0.00000000E+00  0.00000000E+00
  0.00000000E+00  0.00000000E+00  0.00000000E+00
  0.00000000E+00  0.00000000E+00  0.00000000E+00
  0.00000000E+00  0.00000000E+00  0.00000000E+00
  0.00000000E+00  0.00000000E+00  0.00000000E+00
  0.00000000E+00  0.00000000E+00  0.00000000E+00
  0.00000000E+00  0.00000000E+00  0.00000000E+00
  0.00000000E+00  0.00000000E+00  0.00000000E+00
  0.00000000E+00  0.00000000E+00  0.00000000E+00
  0.00000000E+00  0.00000000E+00  0.00000000E+00
  0.00000000E+00  0.00000000E+00  0.00000000E+00
  0.00000000E+00  0.00000000E+00  0.00000000E+00
  0.00000000E+00  0.00000000E+00  0.00000000E+00
  0.00000000E+00  0.00000000E+00  0.00000000E+00
  0.00000000E+00  0.00000000E+00  0.00000000E+00
  0.00000000E+00  0.00000000E+00  0.00000000E+00
  0.00000000E+00  0.00000000E+00  0.00000000E+00
  0.00000000E+00  0.00000000E+00  0.00000000E+00
  0.00000000E+00  0.00000000E+00  0.00000000E+00
  0.00000000E+00  0.00000000E+00  0.00000000E+00
  0.00000000E+00  0.00000000E+00  0.00000000E+00
  0.00000000E+00  0.00000000E+00  0.00000000E+00
  0.00000000E+00  0.00000000E+00  0.00000000E+00
  0.00000000E+00  0.00000000E+00  0.00000000E+00
  0.00000000E+00  0.00000000E+00  0.00000000E+00
  0.00000000E+00  0.00000000E+00  0.00000000E+00
  0.00000000E+00  0.00000000E+00  0.00000000E+00
  0.00000000E+00  0.00000000E+00  0.00000000E+00
  0.00000000E+00  0.00000000E+00  0.00000000E+00
  0.00000000E+00  0.00000000E+00  0.00000000E+00
  0.00000000E+00  0.00000000E+00  0.00000000E+00
  0.00000000E+00  0.00000000E+00  0.00000000E+00
  0.00000000E+00  0.00000000E+00  0.00000000E+00
  0.00000000E+00  0.00000000E+00  0.00000000E+00
  0.00000000E+00  0.00000000E+00  0.00000000E+00
  0.00000000E+00  0.00000000E+00  0.00000000E+00
  0.00000000E+00  0.00000000E+00  0.00000000E+00
  0.00000000E+00  0.00000000E+00  0.00000000E+00
