CeO2-you-111-you-Pb                     
   1.00000000000000     
     9.8399228701425674   -5.6810824887695439    0.0000000000000000
     0.0000000003868692   11.3621629787094776    0.0000000000000000
     0.0000000000000000    0.0000000000000000   21.2961752251326111
   O    Pb   Ce   H 
    54     1    26     1
Selective dynamics
Direct
 -0.0001531497364052 -0.0001256123317311  0.9976181720767022   T   T   T
  0.1106974562082002  0.2220152281041194  0.1501346001561146   F   F   F
  0.2287618500012548  0.1127905840254314  0.3053601828657525   T   T   T
  0.0978738904290624  0.2159912456157925  0.3850683573046058   T   T   T
  0.0016496709371512  0.0005874835665808  0.2301888363539893   T   T   T
  0.2222569632534217  0.1111809265068473  0.0761796813020581   F   F   F
  0.3332857800864562  0.9998613429938746  0.9973727890550267   T   T   T
  0.4446507718959225  0.2220152281041408  0.1501346001561146   F   F   F
  0.5512543974385479  0.1147203745485219  0.3044221567359394   T   T   T
  0.4560704701366289  0.2110603660717236  0.4021829899668887   T   T   T
  0.3319006887934757  0.9980104281076736  0.2290867250630737   T   T   T
  0.5555534022619639  0.1111135977380258  0.0764331003288632   F   F   F
  0.6667451903800260 -0.0000293328475275  0.9973640349960998   T   T   T
  0.7776815273154654  0.2220290546309371  0.1502978049685240   F   F   F
  0.8878038659039513  0.1105039104959572  0.3029874407667195   T   T   T
  0.7772293409324047  0.2229886858354030  0.3816441440130799   T   T   T
  0.6658349581737091  0.0015064736614422  0.2297983309738864   T   T   T
  0.8888941954760696  0.1111135977380258  0.0764331003288632   F   F   F
  0.9996438970350778  0.3331013392219495  0.9973160231638305   T   T   T
  0.1110086076511294  0.5556583923487537  0.1500665253559177   F   F   F
  0.2208731307881952  0.4467087989774487  0.3026237243181237   T   T   T
  0.1103963022196806  0.5561968249994527  0.3824128900925637   T   T   T
  0.9991667762979288  0.3327212009803373  0.2291427427131283   T   T   T
  0.2222569632534075  0.4444090367465705  0.0761796813020581   F   F   F
  0.3330892012193405  0.3330461402486552  0.9971803257583031   T   T   T
  0.4446507718958799  0.5559695437917469  0.1501346001561146   F   F   F
  0.5547225917854259  0.4379902990168703  0.3052990996352847   T   T   T
  0.4509130615942673  0.5690413771868212  0.3850607302053155   T   T   T
  0.3330626293723777  0.3335658522920014  0.2263353466790784   T   T   T
  0.5554860734931779  0.4444090367465776  0.0761796813020581   F   F   F
  0.6667159194825847  0.3332540085873426  0.9974053082106727   T   T   T
  0.7779827846976559  0.5556583923487892  0.1500665253559177   F   F   F
  0.8900339653097341  0.4456880304012417  0.3032646858651060   T   T   T
  0.7791132806034360  0.5552505505552422  0.3826612703501144   T   T   T
  0.6687357433589431  0.3340561380283296  0.2291090974955798   T   T   T
  0.8887734361818929  0.4442128723638206  0.0763253015357250   F   F   F
 -0.0002623003603907  0.6667334776683865  0.9975762664758406   T   T   T
  0.1110086076512147  0.8886842153024546  0.1500665253559177   F   F   F
  0.2212114953389871  0.7768403958151443  0.3032684059194133   T   T   T
  0.1118656132756622  0.8879360081038175  0.3822981823338695   T   T   T
 -0.0004717923708068  0.6670890835929637  0.2292114564390542   T   T   T
  0.2224531276362782  0.7778935638181039  0.0763253015357250   F   F   F
  0.3333665931640770  0.6667947301185593  0.9974241718803694   T   T   T
  0.4446369453690764  0.8889854726845314  0.1502978049685240   F   F   F
  0.5569293771749623  0.7793755574160167  0.3028373282523646   T   T   T
  0.4437724828484188  0.8887124498968821  0.3815591802529070   T   T   T
  0.3343364519441381  0.6680790129749343  0.2291427820874413   T   T   T
  0.5555534022619781  0.7777728045239485  0.0764331003288632   F   F   F
  0.6667630605657889  0.6671143916159020  0.9973479868066646   T   T   T
  0.7776815273154511  0.8889854726845314  0.1502978049685240   F   F   F
  0.8886472412601792  0.7778230666859758  0.3039350458100172   T   T   T
  0.7768491517536424  0.8895814896014274  0.3819276889621073   T   T   T
  0.6661593432298767  0.6650054081187420  0.2298809224172537   T   T   T
  0.8887734361818289  0.7778935638180755  0.0763253015357250   F   F   F
  0.3288624917173389  0.3383023466882680  0.3452105856261015   T   T   T
 -0.0002762610039460  0.0006780639562617  0.3429478732620458   T   T   T
  0.2225477511741545  0.1117625023482276  0.1898375011458171   F   F   F
  0.1111494211475446  0.2222412105737632  0.0369502260864607   F   F   F
  0.3294230410740772 -0.0064399343302993  0.3418288423565464   T   T   T
  0.5554705919856957  0.1111964080142513  0.1896291662454743   F   F   F
  0.4444247894262148  0.2222412105737490  0.0369502260864607   F   F   F
  0.6663140422410004  0.0003565835830567  0.3422749747453651   T   T   T
  0.8890598160285705  0.1111964080142727  0.1896291662454743   F   F   F
  0.7777890211844394  0.2222440423688781  0.0369144767077501   F   F   F
  0.0003991473106401  0.3333700707067727  0.3426806042016449   T   T   T
  0.2225477511743534  0.4441182488259301  0.1898375011458171   F   F   F
  0.1111555647061948  0.5555114352938375  0.0369573976694824   F   F   F
  0.5549044976514992  0.4441182488258448  0.1898375011458171   F   F   F
  0.4444247894262361  0.5555175788525020  0.0369502260864607   F   F   F
  0.6732274342521581  0.3373079980790219  0.3419653519747011   T   T   T
  0.8888976033625724  0.4444612067251228  0.1894628336412580   F   F   F
  0.7776888705876246  0.5555114352938304  0.0369573976694824   F   F   F
  0.0000591524917881  0.6666826438486479  0.3427221850376035   T   T   T
  0.2222047932748055  0.7777693966374244  0.1894628336412580   F   F   F
  0.1111555647061735  0.8889781294123438  0.0369573976694824   F   F   F
  0.3336184670651826  0.6665628692320016  0.3426605029061566   T   T   T
  0.5554705919857312  0.7776071839714760  0.1896291662454743   F   F   F
  0.4444219576310999  0.8888779788155574  0.0369144767077501   F   F   F
  0.6663347945300945  0.6671160313644970  0.3429896959424632   T   T   T
  0.8888976033626221  0.7777693966374457  0.1894628336412580   F   F   F
  0.7777890211844607  0.8888779788155645  0.0369144767077501   F   F   F
  0.4456108421572166  0.2204812475822821  0.4469275497039915   T   T   T
 
  0.00000000E+00  0.00000000E+00  0.00000000E+00
  0.00000000E+00  0.00000000E+00  0.00000000E+00
  0.00000000E+00  0.00000000E+00  0.00000000E+00
  0.00000000E+00  0.00000000E+00  0.00000000E+00
  0.00000000E+00  0.00000000E+00  0.00000000E+00
  0.00000000E+00  0.00000000E+00  0.00000000E+00
  0.00000000E+00  0.00000000E+00  0.00000000E+00
  0.00000000E+00  0.00000000E+00  0.00000000E+00
  0.00000000E+00  0.00000000E+00  0.00000000E+00
  0.00000000E+00  0.00000000E+00  0.00000000E+00
  0.00000000E+00  0.00000000E+00  0.00000000E+00
  0.00000000E+00  0.00000000E+00  0.00000000E+00
  0.00000000E+00  0.00000000E+00  0.00000000E+00
  0.00000000E+00  0.00000000E+00  0.00000000E+00
  0.00000000E+00  0.00000000E+00  0.00000000E+00
  0.00000000E+00  0.00000000E+00  0.00000000E+00
  0.00000000E+00  0.00000000E+00  0.00000000E+00
  0.00000000E+00  0.00000000E+00  0.00000000E+00
  0.00000000E+00  0.00000000E+00  0.00000000E+00
  0.00000000E+00  0.00000000E+00  0.00000000E+00
  0.00000000E+00  0.00000000E+00  0.00000000E+00
  0.00000000E+00  0.00000000E+00  0.00000000E+00
  0.00000000E+00  0.00000000E+00  0.00000000E+00
  0.00000000E+00  0.00000000E+00  0.00000000E+00
  0.00000000E+00  0.00000000E+00  0.00000000E+00
  0.00000000E+00  0.00000000E+00  0.00000000E+00
  0.00000000E+00  0.00000000E+00  0.00000000E+00
  0.00000000E+00  0.00000000E+00  0.00000000E+00
  0.00000000E+00  0.00000000E+00  0.00000000E+00
  0.00000000E+00  0.00000000E+00  0.00000000E+00
  0.00000000E+00  0.00000000E+00  0.00000000E+00
  0.00000000E+00  0.00000000E+00  0.00000000E+00
  0.00000000E+00  0.00000000E+00  0.00000000E+00
  0.00000000E+00  0.00000000E+00  0.00000000E+00
  0.00000000E+00  0.00000000E+00  0.00000000E+00
  0.00000000E+00  0.00000000E+00  0.00000000E+00
  0.00000000E+00  0.00000000E+00  0.00000000E+00
  0.00000000E+00  0.00000000E+00  0.00000000E+00
  0.00000000E+00  0.00000000E+00  0.00000000E+00
  0.00000000E+00  0.00000000E+00  0.00000000E+00
  0.00000000E+00  0.00000000E+00  0.00000000E+00
  0.00000000E+00  0.00000000E+00  0.00000000E+00
  0.00000000E+00  0.00000000E+00  0.00000000E+00
  0.00000000E+00  0.00000000E+00  0.00000000E+00
  0.00000000E+00  0.00000000E+00  0.00000000E+00
  0.00000000E+00  0.00000000E+00  0.00000000E+00
  0.00000000E+00  0.00000000E+00  0.00000000E+00
  0.00000000E+00  0.00000000E+00  0.00000000E+00
  0.00000000E+00  0.00000000E+00  0.00000000E+00
  0.00000000E+00  0.00000000E+00  0.00000000E+00
  0.00000000E+00  0.00000000E+00  0.00000000E+00
  0.00000000E+00  0.00000000E+00  0.00000000E+00
  0.00000000E+00  0.00000000E+00  0.00000000E+00
  0.00000000E+00  0.00000000E+00  0.00000000E+00
  0.00000000E+00  0.00000000E+00  0.00000000E+00
  0.00000000E+00  0.00000000E+00  0.00000000E+00
  0.00000000E+00  0.00000000E+00  0.00000000E+00
  0.00000000E+00  0.00000000E+00  0.00000000E+00
  0.00000000E+00  0.00000000E+00  0.00000000E+00
  0.00000000E+00  0.00000000E+00  0.00000000E+00
  0.00000000E+00  0.00000000E+00  0.00000000E+00
  0.00000000E+00  0.00000000E+00  0.00000000E+00
  0.00000000E+00  0.00000000E+00  0.00000000E+00
  0.00000000E+00  0.00000000E+00  0.00000000E+00
  0.00000000E+00  0.00000000E+00  0.00000000E+00
  0.00000000E+00  0.00000000E+00  0.00000000E+00
  0.00000000E+00  0.00000000E+00  0.00000000E+00
  0.00000000E+00  0.00000000E+00  0.00000000E+00
  0.00000000E+00  0.00000000E+00  0.00000000E+00
  0.00000000E+00  0.00000000E+00  0.00000000E+00
  0.00000000E+00  0.00000000E+00  0.00000000E+00
  0.00000000E+00  0.00000000E+00  0.00000000E+00
  0.00000000E+00  0.00000000E+00  0.00000000E+00
  0.00000000E+00  0.00000000E+00  0.00000000E+00
  0.00000000E+00  0.00000000E+00  0.00000000E+00
  0.00000000E+00  0.00000000E+00  0.00000000E+00
  0.00000000E+00  0.00000000E+00  0.00000000E+00
  0.00000000E+00  0.00000000E+00  0.00000000E+00
  0.00000000E+00  0.00000000E+00  0.00000000E+00
  0.00000000E+00  0.00000000E+00  0.00000000E+00
  0.00000000E+00  0.00000000E+00  0.00000000E+00
  0.00000000E+00  0.00000000E+00  0.00000000E+00
