CeO2-you-111-you-Co                     
   1.00000000000000     
     9.8234144585059742   -5.6767251101851688    0.0019900796449745
     0.0000000024361074   11.3534482266153223   -0.0000000002341074
     0.0040211228739020   -0.0000000004045325   20.9778910589558656
   O    Co   Ce
    53     1    26
Selective dynamics
Direct
 -0.0008458825743048  0.0010829549110362  0.9958825664783976   T   T   T
  0.1159659547423253  0.2246494773711191  0.1514931733099755   T   T   T
  0.2197401263881045  0.1104628719982929  0.3031930571492118   T   T   T
  0.1139269522802191  0.2236299761397900  0.3815267576744129   T   T   T
 -0.0012695784673752  0.0004684888892590  0.2292759682055221   T   T   T
  0.2217729843843207  0.1099446049612563  0.0748202276125371   T   T   T
  0.3325757969761601 -0.0009034051140663  0.9942415220159785   T   T   T
  0.4442317250591303  0.2207162551547071  0.1473094065941244   T   T   T
  0.5600277222911229  0.1084212760396798  0.3040142889569563   T   T   T
  0.4540128584494320  0.2383918277218985  0.3704902048280896   T   T   T
  0.3354519683283426  0.0022047929391771  0.2302599286391937   T   T   T
  0.5550227161866628  0.1096315858473643  0.0746893750266628   T   T   T
  0.6687146998941917  0.0010238499469862  0.9954139772148635   T   T   T
  0.7748845922323873  0.2261707300641241  0.1516251545726025   T   T   T
  0.8873654187324393  0.1103492093660351  0.3055160712025069   T   T   T
  0.7777119412645155  0.2209510387851440  0.3883122553657089   T   T   T
  0.6683946142196144  0.0008638071096291  0.2282523632248775   T   T   T
  0.8883906297365214  0.1108618148683229  0.0779315230280667   T   T   T
 -0.0008458825742445  0.3314041625147417  0.9958825664783802   T   T   T
  0.1109826840518586  0.5558674140020617  0.1515230537833466   T   T   T
  0.2197401263883426  0.4426102543898982  0.3031930571492339   T   T   T
  0.1135669556866326  0.5580758144398902  0.3845552976310863   T   T   T
 -0.0012695784677368  0.3315949326433697  0.2292759682055821   T   T   T
  0.2217729843843826  0.4451613794232560  0.0748202276125548   T   T   T
  0.3313780837596166  0.3323555418797316  0.9947093580312143   T   T   T
  0.4442317250586993  0.5568494699044789  0.1473094065940458   T   T   T
  0.4540128584510780  0.5489550307277020  0.3704902048278920   T   T   T
  0.3493667828078613  0.3413498914035600  0.2339024191991781   T   T   T
  0.5552843926344581  0.4443081963170761  0.0720518691752018   T   T   T
  0.6677511447131321  0.3326730379847418  0.9948492386448866   T   T   T
  0.7786782034285700  0.5560061017136841  0.1478227581370349   T   T   T
  0.8909818821304235  0.4426383482185645  0.3051972923250036   T   T   T
  0.7633275045630241  0.5483307522818154  0.3782712399164840   T   T   T
  0.6578931226319539  0.3426501791091514  0.2355553520260692   T   T   T
  0.8902544106249066  0.4449015527244038  0.0749949455376628   T   T   T
  0.0006512745022246  0.6669926372511955  0.9949609354121781   T   T   T
  0.1109826840516556  0.8884492700506191  0.1515230537833241   T   T   T
  0.2224402544525514  0.7778871272265911  0.3036461218817605   T   T   T
  0.1135669556862598  0.8888251412468408  0.3845552976309697   T   T   T
 -0.0023049281673293  0.6655145359168714  0.2305804092386447   T   T   T
  0.2226888995990265  0.7780114497996462  0.0754319876732740   T   T   T
  0.3325757969763226  0.6668132020903170  0.9942415220159659   T   T   T
  0.4447089313260907  0.8890214656628468  0.1507944134786066   T   T   T
  0.5600277222911690  0.7849394462515507  0.3040142889568655   T   T   T
  0.4441652277231764  0.8887496138614173  0.3845287941249640   T   T   T
  0.3354519683288318  0.6665811753893223  0.2302599286392339   T   T   T
  0.5550227161869513  0.7787241303392256  0.0746893750266467   T   T   T
  0.6677511447136982  0.6684111067286332  0.9948492386448546   T   T   T
  0.7748845922327632  0.8820468621683121  0.1516251545726511   T   T   T
  0.8909818821305449  0.7816765339110083  0.3051972923248946   T   T   T
  0.7777119412639192  0.8900939024782690  0.3883122553654227   T   T   T
  0.6578931226340178  0.6485759435238287  0.2355553520258087   T   T   T
  0.8902544106251737  0.7786858579009448  0.0749949455376304   T   T   T
  0.2966390642786602  0.3149860321399800  0.3337759566630343   T   T   T
  0.0044124281922252  0.0043857446020762  0.3453617971934426   T   T   T
  0.2236933914112948  0.1130796719669231  0.1919216400078471   T   T   T
  0.1115064638370294  0.2224197319181773  0.0360881294762355   T   T   T
  0.3351717843191378  0.0056647759075579  0.3433669772129919   T   T   T
  0.5554658271429662  0.1114984636314643  0.1905892117215897   T   T   T
  0.4432222937074940  0.2200663687347212  0.0333869362752012   T   T   T
  0.6671820027812988  0.0002575013910473  0.3469802386204880   T   T   T
  0.8887247730940352  0.1110288865467688  0.1911978216166810   T   T   T
  0.7779654590545515  0.2223879206101168  0.0357492349076637   T   T   T
  0.0044124281926489  0.3333596835908639  0.3453617971931771   T   T   T
  0.2236933914116288  0.4439467194438262  0.1919216400077844   T   T   T
  0.1109509152300861  0.5549919832099125  0.0358232592456263   T   T   T
  0.5530605051997547  0.4431962526005525  0.1827297333998115   T   T   T
  0.4432222937068623  0.5564899249729446  0.0333869362752302   T   T   T
  0.6682268233211331  0.3258284011768287  0.3478668429277668   T   T   T
  0.8883764711485816  0.4449343456336208  0.1912878156265185   T   T   T
  0.7798708846528385  0.5566024423264390  0.0338509019792594   T   T   T
  0.0026890548121421  0.6680115274055617  0.3438706948270789   T   T   T
  0.2224745718643907  0.7779042859313310  0.1901923223433260   T   T   T
  0.1109509152299146  0.8892929320193045  0.0358232592456237   T   T   T
  0.3351717843194765  0.6628410084113281  0.3433669772127089   T   T   T
  0.5554658271427209  0.7773003635127492  0.1905892117216753   T   T   T
  0.4446886554734486  0.8890113277368157  0.0351183281284276   T   T   T
  0.6682268233199603  0.6757314221449207  0.3478668429284366   T   T   T
  0.8883764711475821  0.7767751255141050  0.1912878156265625   T   T   T
  0.7779654590543181  0.8889105384447440  0.0357492349076815   T   T   T
 
  0.00000000E+00  0.00000000E+00  0.00000000E+00
  0.00000000E+00  0.00000000E+00  0.00000000E+00
  0.00000000E+00  0.00000000E+00  0.00000000E+00
  0.00000000E+00  0.00000000E+00  0.00000000E+00
  0.00000000E+00  0.00000000E+00  0.00000000E+00
  0.00000000E+00  0.00000000E+00  0.00000000E+00
  0.00000000E+00  0.00000000E+00  0.00000000E+00
  0.00000000E+00  0.00000000E+00  0.00000000E+00
  0.00000000E+00  0.00000000E+00  0.00000000E+00
  0.00000000E+00  0.00000000E+00  0.00000000E+00
  0.00000000E+00  0.00000000E+00  0.00000000E+00
  0.00000000E+00  0.00000000E+00  0.00000000E+00
  0.00000000E+00  0.00000000E+00  0.00000000E+00
  0.00000000E+00  0.00000000E+00  0.00000000E+00
  0.00000000E+00  0.00000000E+00  0.00000000E+00
  0.00000000E+00  0.00000000E+00  0.00000000E+00
  0.00000000E+00  0.00000000E+00  0.00000000E+00
  0.00000000E+00  0.00000000E+00  0.00000000E+00
  0.00000000E+00  0.00000000E+00  0.00000000E+00
  0.00000000E+00  0.00000000E+00  0.00000000E+00
  0.00000000E+00  0.00000000E+00  0.00000000E+00
  0.00000000E+00  0.00000000E+00  0.00000000E+00
  0.00000000E+00  0.00000000E+00  0.00000000E+00
  0.00000000E+00  0.00000000E+00  0.00000000E+00
  0.00000000E+00  0.00000000E+00  0.00000000E+00
  0.00000000E+00  0.00000000E+00  0.00000000E+00
  0.00000000E+00  0.00000000E+00  0.00000000E+00
  0.00000000E+00  0.00000000E+00  0.00000000E+00
  0.00000000E+00  0.00000000E+00  0.00000000E+00
  0.00000000E+00  0.00000000E+00  0.00000000E+00
  0.00000000E+00  0.00000000E+00  0.00000000E+00
  0.00000000E+00  0.00000000E+00  0.00000000E+00
  0.00000000E+00  0.00000000E+00  0.00000000E+00
  0.00000000E+00  0.00000000E+00  0.00000000E+00
  0.00000000E+00  0.00000000E+00  0.00000000E+00
  0.00000000E+00  0.00000000E+00  0.00000000E+00
  0.00000000E+00  0.00000000E+00  0.00000000E+00
  0.00000000E+00  0.00000000E+00  0.00000000E+00
  0.00000000E+00  0.00000000E+00  0.00000000E+00
  0.00000000E+00  0.00000000E+00  0.00000000E+00
  0.00000000E+00  0.00000000E+00  0.00000000E+00
  0.00000000E+00  0.00000000E+00  0.00000000E+00
  0.00000000E+00  0.00000000E+00  0.00000000E+00
  0.00000000E+00  0.00000000E+00  0.00000000E+00
  0.00000000E+00  0.00000000E+00  0.00000000E+00
  0.00000000E+00  0.00000000E+00  0.00000000E+00
  0.00000000E+00  0.00000000E+00  0.00000000E+00
  0.00000000E+00  0.00000000E+00  0.00000000E+00
  0.00000000E+00  0.00000000E+00  0.00000000E+00
  0.00000000E+00  0.00000000E+00  0.00000000E+00
  0.00000000E+00  0.00000000E+00  0.00000000E+00
  0.00000000E+00  0.00000000E+00  0.00000000E+00
  0.00000000E+00  0.00000000E+00  0.00000000E+00
  0.00000000E+00  0.00000000E+00  0.00000000E+00
  0.00000000E+00  0.00000000E+00  0.00000000E+00
  0.00000000E+00  0.00000000E+00  0.00000000E+00
  0.00000000E+00  0.00000000E+00  0.00000000E+00
  0.00000000E+00  0.00000000E+00  0.00000000E+00
  0.00000000E+00  0.00000000E+00  0.00000000E+00
  0.00000000E+00  0.00000000E+00  0.00000000E+00
  0.00000000E+00  0.00000000E+00  0.00000000E+00
  0.00000000E+00  0.00000000E+00  0.00000000E+00
  0.00000000E+00  0.00000000E+00  0.00000000E+00
  0.00000000E+00  0.00000000E+00  0.00000000E+00
  0.00000000E+00  0.00000000E+00  0.00000000E+00
  0.00000000E+00  0.00000000E+00  0.00000000E+00
  0.00000000E+00  0.00000000E+00  0.00000000E+00
  0.00000000E+00  0.00000000E+00  0.00000000E+00
  0.00000000E+00  0.00000000E+00  0.00000000E+00
  0.00000000E+00  0.00000000E+00  0.00000000E+00
  0.00000000E+00  0.00000000E+00  0.00000000E+00
  0.00000000E+00  0.00000000E+00  0.00000000E+00
  0.00000000E+00  0.00000000E+00  0.00000000E+00
  0.00000000E+00  0.00000000E+00  0.00000000E+00
  0.00000000E+00  0.00000000E+00  0.00000000E+00
  0.00000000E+00  0.00000000E+00  0.00000000E+00
  0.00000000E+00  0.00000000E+00  0.00000000E+00
  0.00000000E+00  0.00000000E+00  0.00000000E+00
  0.00000000E+00  0.00000000E+00  0.00000000E+00
  0.00000000E+00  0.00000000E+00  0.00000000E+00
