CeO2-you-111-you-Sn                     
   1.00000000000000     
     9.8342780670139245   -5.6778234603652953    0.0000000000000000
     0.0000000011951773   11.3556449244480486    0.0000000000000000
     0.0000000000000000    0.0000000000000000   20.8735578591270787
   O    Sn   Ce   H 
    54     1    26     1
Selective dynamics
Direct
  0.9998408913692816  0.9998870245366710  0.9941505918297224   T   T   T
  0.1147063355308831  0.2240196677653046  0.1507440139565830   F   F   F
  0.2365712326760175  0.1204676764450699  0.3056135888283989   T   T   T
  0.1327094155067660  0.2327966146993881  0.3815079443938093   T   T   T
  0.0022525861676713  0.0007792435832507  0.2303436756517061   T   T   T
  0.2221317078524123  0.1109304157047646  0.0738024331921778   F   F   F
  0.3334882024042988  0.9995361968189023  0.9936269420607389   T   T   T
  0.4426463322344176  0.2240196677651838  0.1507440139565830   F   F   F
  0.5474926053842606  0.1087721910749286  0.3089273896939616   T   T   T
  0.4207564220518596  0.2378084557245116  0.4000294957412340   T   T   T
  0.3323775569652253  0.9963089465838618  0.2295388809034020   T   T   T
  0.5546063908543672  0.1120606091454732  0.0745867982128701   F   F   F
  0.6670162071333402 -0.0003460806742813  0.9946209245863092   T   T   T
  0.7771672812371619  0.2210005624742166  0.1490050144476385   F   F   F
  0.8933389570058641  0.1107525739427963  0.3056725081067571   T   T   T
  0.7863070666166403  0.2147973930289235  0.3882079534151963   T   T   T
  0.6661323412808807  0.0003273757211477  0.2317646183464833   T   T   T
  0.8907882182911564  0.1120606091455230  0.0745867982128701   F   F   F
  0.9993852604653598  0.3330630507078449  0.9937277618741550   T   T   T
  0.1113032619756567  0.5553637380244112  0.1493941515298403   F   F   F
  0.2230884225270396  0.4449328562423695  0.3037655063093558   T   T   T
  0.1134467903259894  0.5554951513018367  0.3868702928223228   T   T   T
  0.9979957384928207  0.3317673383409032  0.2300594060071541   T   T   T
  0.2221317078525260  0.4445342921476438  0.0738024331921778   F   F   F
  0.3333257342849656  0.3331921480890407  0.9936566576251026   T   T   T
  0.4426463322346947  0.5519606644695259  0.1507440139565830   F   F   F
  0.5405182782277733  0.4356862202828903  0.3063634615779012   T   T   T
  0.4317757482832761  0.5379610291974317  0.3844878647380200   T   T   T
  0.3299052940241334  0.3335086810298687  0.2324599638467365   T   T   T
  0.5557365842950759  0.4445342921475870  0.0738024331921778   F   F   F
  0.6669917765660444  0.3330368504789994  0.9935693118345207   T   T   T
  0.7773934760487364  0.5553637380243970  0.1493941515298403   F   F   F
  0.8953209490707925  0.4486184737040766  0.3060826325806447   T   T   T
  0.7842464120849758  0.5710859187183381  0.3874558616896628   T   T   T
  0.6684740434815519  0.3337051322606826  0.2291202600393256   T   T   T
  0.8888551437874455  0.4443762875748831  0.0739838596819382   F   F   F
 -0.0000997387125898  0.6666810668801121  0.9936613816915515   T   T   T
  0.1113032619756069  0.8892735239511964  0.1493941515298403   F   F   F
  0.2215852904921056  0.7764058795165414  0.3056285650868824   T   T   T
  0.1140368865390169  0.8920849817527342  0.3853998308875714   T   T   T
  0.0000456723582311  0.6681180478818408  0.2292805078154977   T   T   T
  0.2222897124250807  0.7778118562125513  0.0739838596819382   F   F   F
  0.3334941016472201  0.6672634823182835  0.9935119136204352   T   T   T
  0.4456654375254061  0.8894997187628348  0.1490050144476385   F   F   F
  0.5555142983973320  0.7753295671557743  0.3082931513642135   T   T   T
  0.4427680298898333  0.8869700373523780  0.3875817131291594   T   T   T
  0.3353049369665427  0.6690686515005640  0.2305149546362187   T   T   T
  0.5546063908544809  0.7758787817090038  0.0745867982128701   F   F   F
  0.6667248885766699  0.6669977819450834  0.9936973280472541   T   T   T
  0.7771672812374248  0.8894997187629485  0.1490050144476385   F   F   F
  0.8909124921703094  0.7812763800598078  0.3047164154903242   T   T   T
  0.7811493468443959  0.8905771761077110  0.3866417368627330   T   T   T
  0.6672629014205923  0.6663245964148956  0.2310894687514662   T   T   T
  0.8888551437874739  0.7778118562125655  0.0739838596819382   F   F   F
  0.3306405896454107  0.3400945529393047  0.3382986748362857   T   T   T
  0.0047112974788297  0.0029409711011843  0.3449420446769159   T   T   T
  0.2215875676798973  0.1098421353597345  0.1907642777420051   F   F   F
  0.1115681503828725  0.2224505751915231  0.0342925834462662   F   F   F
  0.3304373878413422  0.9927746850931151  0.3439986839560187   T   T   T
  0.5555808482381579  0.1110861517623292  0.1899308891428504   F   F   F
  0.4442154248086538  0.2224505751916084  0.0342925834462662   F   F   F
  0.6690155734835725  0.0004814812193203  0.3475296404930650   T   T   T
  0.8888393035240227  0.1110861517621800  0.1899308891428504   F   F   F
  0.7779286393414893  0.2225232786830063  0.0341354675231571   F   F   F
  0.0024611992429777  0.3341993334458787  0.3456891585446309   T   T   T
  0.2215875676800394  0.4450784323201589  0.1907642777420051   F   F   F
  0.1112319116421858  0.5554350883576902  0.0337985991501597   F   F   F
  0.5568248646400633  0.4450784323201020  0.1907642777420051   F   F   F
  0.4442154248084762  0.5550988496168756  0.0342925834462662   F   F   F
  0.6714348984520919  0.3377054138753198  0.3489549268692592   T   T   T
  0.8888893133684306  0.4444446267369457  0.1892658454146812   F   F   F
  0.7775361767155431  0.5554350883577328  0.0337985991501597   F   F   F
 -0.0003818671483968  0.6671896615138381  0.3451091334664589   T   T   T
  0.2222213732633449  0.7777776866315662  0.1892658454146812   F   F   F
  0.1112319116422711  0.8891308232845816  0.0337985991501597   F   F   F
  0.3326361057990778  0.6635721534789495  0.3469885226474844   T   T   T
  0.5555808482378239  0.7778276964754909  0.1899308891428504   F   F   F
  0.4441427213170783  0.8887383606585075  0.0341354675231571   F   F   F
  0.6665502555574909  0.6659122866591710  0.3462066587984202   T   T   T
  0.8888893133682245  0.7777776866314738  0.1892658454146812   F   F   F
  0.7779286393414253  0.8887383606584791  0.0341354675231571   F   F   F
  0.4024211976129059  0.2427421779426986  0.4452464466514485   T   T   T
 
  0.00000000E+00  0.00000000E+00  0.00000000E+00
  0.00000000E+00  0.00000000E+00  0.00000000E+00
  0.00000000E+00  0.00000000E+00  0.00000000E+00
  0.00000000E+00  0.00000000E+00  0.00000000E+00
  0.00000000E+00  0.00000000E+00  0.00000000E+00
  0.00000000E+00  0.00000000E+00  0.00000000E+00
  0.00000000E+00  0.00000000E+00  0.00000000E+00
  0.00000000E+00  0.00000000E+00  0.00000000E+00
  0.00000000E+00  0.00000000E+00  0.00000000E+00
  0.00000000E+00  0.00000000E+00  0.00000000E+00
  0.00000000E+00  0.00000000E+00  0.00000000E+00
  0.00000000E+00  0.00000000E+00  0.00000000E+00
  0.00000000E+00  0.00000000E+00  0.00000000E+00
  0.00000000E+00  0.00000000E+00  0.00000000E+00
  0.00000000E+00  0.00000000E+00  0.00000000E+00
  0.00000000E+00  0.00000000E+00  0.00000000E+00
  0.00000000E+00  0.00000000E+00  0.00000000E+00
  0.00000000E+00  0.00000000E+00  0.00000000E+00
  0.00000000E+00  0.00000000E+00  0.00000000E+00
  0.00000000E+00  0.00000000E+00  0.00000000E+00
  0.00000000E+00  0.00000000E+00  0.00000000E+00
  0.00000000E+00  0.00000000E+00  0.00000000E+00
  0.00000000E+00  0.00000000E+00  0.00000000E+00
  0.00000000E+00  0.00000000E+00  0.00000000E+00
  0.00000000E+00  0.00000000E+00  0.00000000E+00
  0.00000000E+00  0.00000000E+00  0.00000000E+00
  0.00000000E+00  0.00000000E+00  0.00000000E+00
  0.00000000E+00  0.00000000E+00  0.00000000E+00
  0.00000000E+00  0.00000000E+00  0.00000000E+00
  0.00000000E+00  0.00000000E+00  0.00000000E+00
  0.00000000E+00  0.00000000E+00  0.00000000E+00
  0.00000000E+00  0.00000000E+00  0.00000000E+00
  0.00000000E+00  0.00000000E+00  0.00000000E+00
  0.00000000E+00  0.00000000E+00  0.00000000E+00
  0.00000000E+00  0.00000000E+00  0.00000000E+00
  0.00000000E+00  0.00000000E+00  0.00000000E+00
  0.00000000E+00  0.00000000E+00  0.00000000E+00
  0.00000000E+00  0.00000000E+00  0.00000000E+00
  0.00000000E+00  0.00000000E+00  0.00000000E+00
  0.00000000E+00  0.00000000E+00  0.00000000E+00
  0.00000000E+00  0.00000000E+00  0.00000000E+00
  0.00000000E+00  0.00000000E+00  0.00000000E+00
  0.00000000E+00  0.00000000E+00  0.00000000E+00
  0.00000000E+00  0.00000000E+00  0.00000000E+00
  0.00000000E+00  0.00000000E+00  0.00000000E+00
  0.00000000E+00  0.00000000E+00  0.00000000E+00
  0.00000000E+00  0.00000000E+00  0.00000000E+00
  0.00000000E+00  0.00000000E+00  0.00000000E+00
  0.00000000E+00  0.00000000E+00  0.00000000E+00
  0.00000000E+00  0.00000000E+00  0.00000000E+00
  0.00000000E+00  0.00000000E+00  0.00000000E+00
  0.00000000E+00  0.00000000E+00  0.00000000E+00
  0.00000000E+00  0.00000000E+00  0.00000000E+00
  0.00000000E+00  0.00000000E+00  0.00000000E+00
  0.00000000E+00  0.00000000E+00  0.00000000E+00
  0.00000000E+00  0.00000000E+00  0.00000000E+00
  0.00000000E+00  0.00000000E+00  0.00000000E+00
  0.00000000E+00  0.00000000E+00  0.00000000E+00
  0.00000000E+00  0.00000000E+00  0.00000000E+00
  0.00000000E+00  0.00000000E+00  0.00000000E+00
  0.00000000E+00  0.00000000E+00  0.00000000E+00
  0.00000000E+00  0.00000000E+00  0.00000000E+00
  0.00000000E+00  0.00000000E+00  0.00000000E+00
  0.00000000E+00  0.00000000E+00  0.00000000E+00
  0.00000000E+00  0.00000000E+00  0.00000000E+00
  0.00000000E+00  0.00000000E+00  0.00000000E+00
  0.00000000E+00  0.00000000E+00  0.00000000E+00
  0.00000000E+00  0.00000000E+00  0.00000000E+00
  0.00000000E+00  0.00000000E+00  0.00000000E+00
  0.00000000E+00  0.00000000E+00  0.00000000E+00
  0.00000000E+00  0.00000000E+00  0.00000000E+00
  0.00000000E+00  0.00000000E+00  0.00000000E+00
  0.00000000E+00  0.00000000E+00  0.00000000E+00
  0.00000000E+00  0.00000000E+00  0.00000000E+00
  0.00000000E+00  0.00000000E+00  0.00000000E+00
  0.00000000E+00  0.00000000E+00  0.00000000E+00
  0.00000000E+00  0.00000000E+00  0.00000000E+00
  0.00000000E+00  0.00000000E+00  0.00000000E+00
  0.00000000E+00  0.00000000E+00  0.00000000E+00
  0.00000000E+00  0.00000000E+00  0.00000000E+00
  0.00000000E+00  0.00000000E+00  0.00000000E+00
  0.00000000E+00  0.00000000E+00  0.00000000E+00
