CeO2-you-111-you-Zr                     
   1.00000000000000     
     9.8169881593313750   -5.6678411278461516    0.0000000000000000
     0.0000000031210471   11.3356802662588212    0.0000000000000000
     0.0000000000000000    0.0000000000000000   21.1694556899234918
   O    Zr   Ce   H 
    54     1    26     2
Selective dynamics
Direct
  0.0004157248453813 -0.0001222856339396  0.9952568426476061   T   T   T
  0.1111584823443698  0.2205036196528567  0.1494450670188591   T   T   T
  0.2332931055323467  0.1272768997517340  0.3048639885346447   T   T   T
  0.1250377740842579  0.2327978813088926  0.3805197387115086   T   T   T
  0.0021433292011702 -0.0005338682658948  0.2304478387606206   T   T   T
  0.2234426850717461  0.1102980009237177  0.0751939152011959   T   T   T
  0.3342848061380224 -0.0001165434136619  0.9950708967196707   T   T   T
  0.4449583521046040  0.2223984593546199  0.1504409759762829   T   T   T
  0.5595838435764320  0.1174786489918938  0.3061095941405000   T   T   T
  0.4447457429298098  0.2392102164457346  0.3975796511349011   T   T   T
  0.3331796621450148  0.9986877093278810  0.2287859445123423   T   T   T
  0.5551787911858713  0.1102625414467984  0.0754602138866417   T   T   T
  0.6677947275246064  0.0007013592369740  0.9954339479290695   T   T   T
  0.7780055562794566  0.2211658893363466  0.1495225519547709   T   T   T
  0.8916026598200932  0.1111745859928220  0.3050082235946101   T   T   T
  0.7814637992694797  0.2242224911859157  0.3842969575438952   T   T   T
  0.6670584149107460 -0.0004037733179894  0.2302563148856588   T   T   T
  0.8895291084470160  0.1096414738749715  0.0752527294292743   T   T   T
  0.9999208527690924  0.3316999260426373  0.9953212988845933   T   T   T
  0.1115207606956184  0.5557191197680814  0.1485613411773662   T   T   T
  0.2249284848067531  0.4407207492595365  0.3016888591072603   T   T   T
  0.1121849010964193  0.5523999290991862  0.3837767430604905   T   T   T
  0.0005387701500222  0.3327634026664772  0.2288665245789866   T   T   T
  0.2222818102312337  0.4440235399899652  0.0740767984945917   T   T   T
  0.3332581923556801  0.3320900113444118  0.9952575481249716   T   T   T
  0.4446382247260377  0.5551854611757324  0.1484994649949376   T   T   T
  0.5430919378216228  0.4295383703355911  0.3038726824956723   T   T   T
  0.4372922450909882  0.5417235686083610  0.3786606132574201   T   T   T
  0.3323856753762338  0.3363672145334796  0.2298052893377280   T   T   T
  0.5557379701733290  0.4435769906489536  0.0743810986608463   T   T   T
  0.6671663626578265  0.3322141182569536  0.9951395731870953   T   T   T
  0.7780797286656910  0.5547395097076619  0.1487402958413360   T   T   T
  0.8912921674139348  0.4444522261954016  0.3034682766370361   T   T   T
  0.7750641147992684  0.5517536518085404  0.3819777036298295   T   T   T
  0.6690516640562225  0.3343738060213744  0.2289481363148151   T   T   T
  0.8897445427615026  0.4441332690256850  0.0744417582732047   T   T   T
  0.0007710034571074  0.6668864588954954  0.9952459512131374   T   T   T
  0.1109028857062958  0.8885020816925575  0.1497160469398348   T   T   T
  0.2197585213244755  0.7711261784537869  0.3042970276709894   T   T   T
  0.0974227384770762  0.8834331401488508  0.3844988459913282   T   T   T
  0.0000925946651790  0.6657377151350948  0.2287800626990247   T   T   T
  0.2232926790030643  0.7778789090115320  0.0748403855832524   T   T   T
  0.3342575026695102  0.6667195316572871  0.9950573127031951   T   T   T
  0.4458050141629635  0.8882849461013560  0.1499257765891087   T   T   T
  0.5569095570928131  0.7737723485676070  0.3028945711040189   T   T   T
  0.4530881204671163  0.8799196155693505  0.3853179509860246   T   T   T
  0.3337923040547102  0.6652776259486390  0.2287035719190408   T   T   T
  0.5564739157318436  0.7778518000781178  0.0745736050507189   T   T   T
  0.6672411735599560  0.6665279819481721  0.9949159146274430   T   T   T
  0.7780480859749774  0.8874939967755788  0.1505103582239157   T   T   T
  0.8864816659473166  0.7746606738485865  0.3025481350214919   T   T   T
  0.7776509438519519  0.8857094598935485  0.3825532808504015   T   T   T
  0.6646705591820122  0.6609461250484584  0.2294369277118728   T   T   T
  0.8888269968226563  0.7772810428168468  0.0745961103902761   T   T   T
  0.3253138942870335  0.3390337006212167  0.3329623092312772   T   T   T
  0.0022675486774564  0.0001163947076652  0.3433433318330343   T   T   T
  0.2233989555321207  0.1104072024576931  0.1908659446146415   T   T   T
  0.1113548968382727  0.2209944024292917  0.0351621756102091   T   T   T
  0.3312741226461131 -0.0035485008883077  0.3477918395177376   T   T   T
  0.5555352018475882  0.1101584699248056  0.1906129865864865   T   T   T
  0.4447530329226894  0.2213573932134523  0.0352725672206235   T   T   T
  0.6674547904320698 -0.0025792342520620  0.3444877835119912   T   T   T
  0.8894130066258794  0.1104295014062338  0.1897629604978066   T   T   T
  0.7780802157520520  0.2213607833467577  0.0353789128880866   T   T   T
  0.0023907981489404  0.3333257399904717  0.3439866557551486   T   T   T
  0.2217105616149040  0.4445889631322588  0.1872994807489322   T   T   T
  0.1116624034918427  0.5555051213799113  0.0345008964064223   T   T   T
  0.5554992221642967  0.4428645687052792  0.1891937157115611   T   T   T
  0.4451204883160557  0.5552132852613785  0.0346595602689217   T   T   T
  0.6729367067664720  0.3353028599979108  0.3418462148629927   T   T   T
  0.8899218686084296  0.4440559985890374  0.1884374729302938   T   T   T
  0.7780164204621129  0.5549196049769799  0.0348460793197911   T   T   T
  0.0005622674976420  0.6664508236002722  0.3428012096903381   T   T   T
  0.2232700313200081  0.7780723667556857  0.1900048683833719   T   T   T
  0.1119504475511591  0.8888461580587866  0.0355641853612220   T   T   T
  0.3346685466317942  0.6647268883346298  0.3434771870738254   T   T   T
  0.5554883065439294  0.7763760147596070  0.1892942223526468   T   T   T
  0.4450829190467472  0.8889661298157353  0.0354020818136228   T   T   T
  0.6634218877517225  0.6609538385617855  0.3421567925418633   T   T   T
  0.8891874470965080  0.7763983261190158  0.1894103192883715   T   T   T
  0.7783691190463420  0.8885608967270174  0.0352253779831231   T   T   T
  0.3023080936310117  0.3474718711726629  0.4448670377330957   T   T   T
  0.4429765655398836  0.2588956288162397  0.4422625963473611   T   T   T
 
  0.00000000E+00  0.00000000E+00  0.00000000E+00
  0.00000000E+00  0.00000000E+00  0.00000000E+00
  0.00000000E+00  0.00000000E+00  0.00000000E+00
  0.00000000E+00  0.00000000E+00  0.00000000E+00
  0.00000000E+00  0.00000000E+00  0.00000000E+00
  0.00000000E+00  0.00000000E+00  0.00000000E+00
  0.00000000E+00  0.00000000E+00  0.00000000E+00
  0.00000000E+00  0.00000000E+00  0.00000000E+00
  0.00000000E+00  0.00000000E+00  0.00000000E+00
  0.00000000E+00  0.00000000E+00  0.00000000E+00
  0.00000000E+00  0.00000000E+00  0.00000000E+00
  0.00000000E+00  0.00000000E+00  0.00000000E+00
  0.00000000E+00  0.00000000E+00  0.00000000E+00
  0.00000000E+00  0.00000000E+00  0.00000000E+00
  0.00000000E+00  0.00000000E+00  0.00000000E+00
  0.00000000E+00  0.00000000E+00  0.00000000E+00
  0.00000000E+00  0.00000000E+00  0.00000000E+00
  0.00000000E+00  0.00000000E+00  0.00000000E+00
  0.00000000E+00  0.00000000E+00  0.00000000E+00
  0.00000000E+00  0.00000000E+00  0.00000000E+00
  0.00000000E+00  0.00000000E+00  0.00000000E+00
  0.00000000E+00  0.00000000E+00  0.00000000E+00
  0.00000000E+00  0.00000000E+00  0.00000000E+00
  0.00000000E+00  0.00000000E+00  0.00000000E+00
  0.00000000E+00  0.00000000E+00  0.00000000E+00
  0.00000000E+00  0.00000000E+00  0.00000000E+00
  0.00000000E+00  0.00000000E+00  0.00000000E+00
  0.00000000E+00  0.00000000E+00  0.00000000E+00
  0.00000000E+00  0.00000000E+00  0.00000000E+00
  0.00000000E+00  0.00000000E+00  0.00000000E+00
  0.00000000E+00  0.00000000E+00  0.00000000E+00
  0.00000000E+00  0.00000000E+00  0.00000000E+00
  0.00000000E+00  0.00000000E+00  0.00000000E+00
  0.00000000E+00  0.00000000E+00  0.00000000E+00
  0.00000000E+00  0.00000000E+00  0.00000000E+00
  0.00000000E+00  0.00000000E+00  0.00000000E+00
  0.00000000E+00  0.00000000E+00  0.00000000E+00
  0.00000000E+00  0.00000000E+00  0.00000000E+00
  0.00000000E+00  0.00000000E+00  0.00000000E+00
  0.00000000E+00  0.00000000E+00  0.00000000E+00
  0.00000000E+00  0.00000000E+00  0.00000000E+00
  0.00000000E+00  0.00000000E+00  0.00000000E+00
  0.00000000E+00  0.00000000E+00  0.00000000E+00
  0.00000000E+00  0.00000000E+00  0.00000000E+00
  0.00000000E+00  0.00000000E+00  0.00000000E+00
  0.00000000E+00  0.00000000E+00  0.00000000E+00
  0.00000000E+00  0.00000000E+00  0.00000000E+00
  0.00000000E+00  0.00000000E+00  0.00000000E+00
  0.00000000E+00  0.00000000E+00  0.00000000E+00
  0.00000000E+00  0.00000000E+00  0.00000000E+00
  0.00000000E+00  0.00000000E+00  0.00000000E+00
  0.00000000E+00  0.00000000E+00  0.00000000E+00
  0.00000000E+00  0.00000000E+00  0.00000000E+00
  0.00000000E+00  0.00000000E+00  0.00000000E+00
  0.00000000E+00  0.00000000E+00  0.00000000E+00
  0.00000000E+00  0.00000000E+00  0.00000000E+00
  0.00000000E+00  0.00000000E+00  0.00000000E+00
  0.00000000E+00  0.00000000E+00  0.00000000E+00
  0.00000000E+00  0.00000000E+00  0.00000000E+00
  0.00000000E+00  0.00000000E+00  0.00000000E+00
  0.00000000E+00  0.00000000E+00  0.00000000E+00
  0.00000000E+00  0.00000000E+00  0.00000000E+00
  0.00000000E+00  0.00000000E+00  0.00000000E+00
  0.00000000E+00  0.00000000E+00  0.00000000E+00
  0.00000000E+00  0.00000000E+00  0.00000000E+00
  0.00000000E+00  0.00000000E+00  0.00000000E+00
  0.00000000E+00  0.00000000E+00  0.00000000E+00
  0.00000000E+00  0.00000000E+00  0.00000000E+00
  0.00000000E+00  0.00000000E+00  0.00000000E+00
  0.00000000E+00  0.00000000E+00  0.00000000E+00
  0.00000000E+00  0.00000000E+00  0.00000000E+00
  0.00000000E+00  0.00000000E+00  0.00000000E+00
  0.00000000E+00  0.00000000E+00  0.00000000E+00
  0.00000000E+00  0.00000000E+00  0.00000000E+00
  0.00000000E+00  0.00000000E+00  0.00000000E+00
  0.00000000E+00  0.00000000E+00  0.00000000E+00
  0.00000000E+00  0.00000000E+00  0.00000000E+00
  0.00000000E+00  0.00000000E+00  0.00000000E+00
  0.00000000E+00  0.00000000E+00  0.00000000E+00
  0.00000000E+00  0.00000000E+00  0.00000000E+00
  0.00000000E+00  0.00000000E+00  0.00000000E+00
  0.00000000E+00  0.00000000E+00  0.00000000E+00
  0.00000000E+00  0.00000000E+00  0.00000000E+00
