CeO2-you-111-you-Bi                     
   1.00000000000000     
     9.9021613725124880   -5.7170159052523282   -0.0000000001729331
    -0.0139054290409182   11.4099448903148346   -0.0033082970747776
    -0.0035732862429518   -0.0061891122757566   20.3889996296802458
   O    Bi   Ce H
    53     1    26 2
Selective dynamics
Direct
 -0.0002322932012409  0.0007003076689306  0.9894590848693122   T   T   T
  0.1119059404243153  0.2229792666506260  0.1481623151505313   F   F   F
  0.2231981366366958  0.1130632732739738  0.3067073681282623   T   T   T
  0.0943961785874611  0.2131329262181059  0.3909121106459310   T   T   T
  0.0018183519839393  0.0008571499916272  0.2294821404152476   T   T   T
  0.2221375457266273  0.1109420914535343  0.0706390076666442   F   F   F
  0.3342656008700713  0.0007003076688737  0.9894590848693000   T   T   T
  0.4444063262262292  0.2229792666505351  0.1481623151504988   F   F   F
  0.5582579132796444  0.1104951163635177  0.3055309185235835   T   T   T
  0.4520697476307662  0.2131329262184643  0.3909121106458688   T   T   T
  0.3323717980075976  0.0008571499913695  0.2294821404151820   T   T   T
  0.5561800677268115  0.1118544778128417  0.0716671109427160   F   F   F
  0.6664929968477810 -0.0003480063045201  0.9904396490254599   T   T   T
  0.7770783622006522  0.2208227244011968  0.1505185820118295   F   F   F
  0.8855712030839864  0.1104951163637140  0.3055309185235857   T   T   T
  0.7770443609252040  0.2207547218504190  0.3893605044704331   T   T   T
  0.6626027658819938 -0.0081284682366761  0.2318295014746116   T   T   T
  0.8890084100858769  0.1118544778127557  0.0716671109426924   F   F   F
  0.0000881584551737  0.3337549749042732  0.9901566433149461   T   T   T
  0.1108818781110913  0.5554429302086537  0.1482753045726157   F   F   F
  0.2279450810652826  0.4490023158456757  0.3113733105275328   T   T   T
  0.1040367017656624  0.5558508222072462  0.3906932639399620   T   T   T
  0.0032341183925552  0.3345182873240625  0.2311516180451234   T   T   T
  0.2224656898843899  0.4445582495930340  0.0721643306149810   F   F   F
  0.3337712791224481  0.3342095582450006  0.9903769612670670   T   T   T
  0.4438487879007719  0.5543655758014594  0.1503054020180226   F   F   F
  0.5543912347800047  0.4490023158458309  0.3113733105275133   T   T   T
  0.3326063369932733  0.3318796739864722  0.2318339708949432   T   T   T
  0.5554265597084812  0.4445582495928825  0.0721643306149953   F   F   F
  0.6670008164490615  0.3337549749042494  0.9901566433149561   T   T   T
  0.7778940520974423  0.5554429302087747  0.1482753045725987   F   F   F
  0.8881991524495597  0.4430643048989527  0.3064522022985475   T   T   T
  0.7851471204415578  0.5558508222076443  0.3906932639399595   T   T   T
  0.6646181689314287  0.3345182873240211  0.2311516180450542   T   T   T
  0.8882015042884608  0.4430690085767762  0.0720683803714386   F   F   F
 -0.0005119156986184  0.6656431686026882  0.9900853247659746   T   T   T
  0.1112802249060572  0.8892274498120322  0.1463626024186258   F   F   F
  0.2202804776341592  0.7804510229309705  0.3059909435972821   T   T   T
  0.1120751616853551  0.8908173233706534  0.3884201687736032   T   T   T
  0.0003175115175739  0.6673020230354839  0.2292551253876553   T   T   T
  0.2223366277632153  0.7784560350236905  0.0706585205324547   F   F   F
  0.3335095492982879  0.6663863184384670  0.9905463045353807   T   T   T
  0.4445262964444068  0.8895039485501043  0.1480101542868544   F   F   F
  0.5474475805483066  0.7615611610957613  0.3149984381739144   T   T   T
  0.4466380399600635  0.8963838966584373  0.3902959165630159   T   T   T
  0.3322477676298662  0.6696061605085711  0.2291852455840908   T   T   T
  0.5551136640691877  0.7768933281380050  0.0725055367298452   F   F   F
  0.6662097691403002  0.6663863184384612  0.9905463045354057   T   T   T
  0.7783106521057612  0.8895039485502870  0.1480101542868212   F   F   F
  0.8935035452972728  0.7804510229315924  0.3059909435972595   T   T   T
  0.7830788566990748  0.8963838966586508  0.3902959165629979   T   T   T
  0.6706913928789439  0.6696061605087611  0.2291852455840729   T   T   T
  0.8894524072606246  0.7784560350238729  0.0706585205324369   F   F   F
  0.3257215592594019  0.3181101185179778  0.3464788169792423   T   T   T
 -0.0004194335654409  0.0023600469605500  0.3490808570346651   T   T   T
  0.2222145402813286  0.1110960805626059  0.1876176331424109   F   F   F
  0.1111082224282696  0.2227870677877435  0.0308531049950984   F   F   F
  0.3361124805257983  0.0023600469608955  0.3490808570347425   T   T   T
  0.5546395138817686  0.1103003828452925  0.1898963049877878   F   F   F
  0.4450118453594137  0.2227870677877144  0.0308531049951004   F   F   F
  0.6664382881191320 -0.0004574237615725  0.3492253117492427   T   T   T
  0.8889948689635147  0.1103003828453895  0.1898963049877442   F   F   F
  0.7777823470199843  0.2222306940401010  0.0314319902547698   F   F   F
 -0.0010364118635462  0.3321340656960607  0.3487940991763159   T   T   T
  0.2223380974617027  0.4448645060074661  0.1911310448415875   F   F   F
  0.1110525718422051  0.5549452722747427  0.0311275874622864   F   F   F
  0.5558604085456715  0.4448645060073307  0.1911310448415071   F   F   F
  0.4441841993709317  0.5550363987419656  0.0316227155555769   F   F   F
  0.6665044775595798  0.3321340656958912  0.3487940991761578   T   T   T
  0.8890330513844463  0.4447321027689382  0.1900597279180196   F   F   F
  0.7772257004325391  0.5549452722746921  0.0311275874622737   F   F   F
 -0.0000867769156921  0.6664934461686393  0.3488751173591785   T   T   T
  0.2214966851676324  0.7789130242724310  0.1875520992697728   F   F   F
  0.1112324494517017  0.8891318989034422  0.0290817732894138   F   F   F
  0.3233256046353928  0.6742550713950647  0.3459870702308458   T   T   T
  0.5548022540597501  0.7762705081195598  0.1901244859790079   F   F   F
  0.4447120716001811  0.8888369878297649  0.0308629462884255   F   F   F
  0.6842624667591236  0.6742550713947357  0.3459870702310978   T   T   T
  0.8907493391047796  0.7789130242721939  0.1875520992697432   F   F   F
  0.7774579162295351  0.8888369878295909  0.0308629462884538   F   F   F
0.3257215592594019 0.3181101185179778 0.4016479 T T T
0.446598 0.216020 0.433410 T T T 
 
  0.00000000E+00  0.00000000E+00  0.00000000E+00
  0.00000000E+00  0.00000000E+00  0.00000000E+00
  0.00000000E+00  0.00000000E+00  0.00000000E+00
  0.00000000E+00  0.00000000E+00  0.00000000E+00
  0.00000000E+00  0.00000000E+00  0.00000000E+00
  0.00000000E+00  0.00000000E+00  0.00000000E+00
  0.00000000E+00  0.00000000E+00  0.00000000E+00
  0.00000000E+00  0.00000000E+00  0.00000000E+00
  0.00000000E+00  0.00000000E+00  0.00000000E+00
  0.00000000E+00  0.00000000E+00  0.00000000E+00
  0.00000000E+00  0.00000000E+00  0.00000000E+00
  0.00000000E+00  0.00000000E+00  0.00000000E+00
  0.00000000E+00  0.00000000E+00  0.00000000E+00
  0.00000000E+00  0.00000000E+00  0.00000000E+00
  0.00000000E+00  0.00000000E+00  0.00000000E+00
  0.00000000E+00  0.00000000E+00  0.00000000E+00
  0.00000000E+00  0.00000000E+00  0.00000000E+00
  0.00000000E+00  0.00000000E+00  0.00000000E+00
  0.00000000E+00  0.00000000E+00  0.00000000E+00
  0.00000000E+00  0.00000000E+00  0.00000000E+00
  0.00000000E+00  0.00000000E+00  0.00000000E+00
  0.00000000E+00  0.00000000E+00  0.00000000E+00
  0.00000000E+00  0.00000000E+00  0.00000000E+00
  0.00000000E+00  0.00000000E+00  0.00000000E+00
  0.00000000E+00  0.00000000E+00  0.00000000E+00
  0.00000000E+00  0.00000000E+00  0.00000000E+00
  0.00000000E+00  0.00000000E+00  0.00000000E+00
  0.00000000E+00  0.00000000E+00  0.00000000E+00
  0.00000000E+00  0.00000000E+00  0.00000000E+00
  0.00000000E+00  0.00000000E+00  0.00000000E+00
  0.00000000E+00  0.00000000E+00  0.00000000E+00
  0.00000000E+00  0.00000000E+00  0.00000000E+00
  0.00000000E+00  0.00000000E+00  0.00000000E+00
  0.00000000E+00  0.00000000E+00  0.00000000E+00
  0.00000000E+00  0.00000000E+00  0.00000000E+00
  0.00000000E+00  0.00000000E+00  0.00000000E+00
  0.00000000E+00  0.00000000E+00  0.00000000E+00
  0.00000000E+00  0.00000000E+00  0.00000000E+00
  0.00000000E+00  0.00000000E+00  0.00000000E+00
  0.00000000E+00  0.00000000E+00  0.00000000E+00
  0.00000000E+00  0.00000000E+00  0.00000000E+00
  0.00000000E+00  0.00000000E+00  0.00000000E+00
  0.00000000E+00  0.00000000E+00  0.00000000E+00
  0.00000000E+00  0.00000000E+00  0.00000000E+00
  0.00000000E+00  0.00000000E+00  0.00000000E+00
  0.00000000E+00  0.00000000E+00  0.00000000E+00
  0.00000000E+00  0.00000000E+00  0.00000000E+00
  0.00000000E+00  0.00000000E+00  0.00000000E+00
  0.00000000E+00  0.00000000E+00  0.00000000E+00
  0.00000000E+00  0.00000000E+00  0.00000000E+00
  0.00000000E+00  0.00000000E+00  0.00000000E+00
  0.00000000E+00  0.00000000E+00  0.00000000E+00
  0.00000000E+00  0.00000000E+00  0.00000000E+00
  0.00000000E+00  0.00000000E+00  0.00000000E+00
  0.00000000E+00  0.00000000E+00  0.00000000E+00
  0.00000000E+00  0.00000000E+00  0.00000000E+00
  0.00000000E+00  0.00000000E+00  0.00000000E+00
  0.00000000E+00  0.00000000E+00  0.00000000E+00
  0.00000000E+00  0.00000000E+00  0.00000000E+00
  0.00000000E+00  0.00000000E+00  0.00000000E+00
  0.00000000E+00  0.00000000E+00  0.00000000E+00
  0.00000000E+00  0.00000000E+00  0.00000000E+00
  0.00000000E+00  0.00000000E+00  0.00000000E+00
  0.00000000E+00  0.00000000E+00  0.00000000E+00
  0.00000000E+00  0.00000000E+00  0.00000000E+00
  0.00000000E+00  0.00000000E+00  0.00000000E+00
  0.00000000E+00  0.00000000E+00  0.00000000E+00
  0.00000000E+00  0.00000000E+00  0.00000000E+00
  0.00000000E+00  0.00000000E+00  0.00000000E+00
  0.00000000E+00  0.00000000E+00  0.00000000E+00
  0.00000000E+00  0.00000000E+00  0.00000000E+00
  0.00000000E+00  0.00000000E+00  0.00000000E+00
  0.00000000E+00  0.00000000E+00  0.00000000E+00
  0.00000000E+00  0.00000000E+00  0.00000000E+00
  0.00000000E+00  0.00000000E+00  0.00000000E+00
  0.00000000E+00  0.00000000E+00  0.00000000E+00
  0.00000000E+00  0.00000000E+00  0.00000000E+00
  0.00000000E+00  0.00000000E+00  0.00000000E+00
  0.00000000E+00  0.00000000E+00  0.00000000E+00
  0.00000000E+00  0.00000000E+00  0.00000000E+00
