CeO2-you-111-you-In                     
   1.00000000000000     
     9.8344068777832554   -5.6778978292182503    0.0000000000000000
     0.0000000010307913   11.3557936618430588    0.0000000000000000
     0.0000000000000000    0.0000000000000000   21.2771477297786440
   O    In   Ce   H 
    54     1    26     2
Selective dynamics
Direct
  0.0000302902845846  0.0000351243448269  0.9966397207408585   T   T   T
  0.1094520962524530  0.2203182154182483  0.1493592308513949   T   T   T
  0.2360464109884279  0.1218900872432662  0.3072027945722999   T   T   T
  0.1000388662773499  0.2174226352868948  0.3837976392168224   T   T   T
  0.0047571858884030  0.0017214809451913  0.2308497234535172   T   T   T
  0.2229963487652594  0.1113486577322406  0.0759446401480351   T   T   T
  0.3328777324543229 -0.0001195000379513  0.9962825497366240   T   T   T
  0.4456172123933186  0.2214981845525419  0.1499323508614136   T   T   T
  0.5518803632993402  0.1137965308819516  0.3038215200153904   T   T   T
  0.4639757510073125  0.2027725669478175  0.4035599706436126   T   T   T
  0.3313794159666369 -0.0018290306817823  0.2290458756668530   T   T   T
  0.5552070653599203  0.1103677990564357  0.0752035559881608   T   T   T
  0.6670714465670814 -0.0001788303058159  0.9961498238178493   T   T   T
  0.7771551848399891  0.2216104845130862  0.1496739745625734   T   T   T
  0.8885872561716174  0.1098852139252531  0.3027211759470363   T   T   T
  0.7784829939969119  0.2220077292924551  0.3810789821944233   T   T   T
  0.6657881229426016  0.0009160250146276  0.2296342014694745   T   T   T
  0.8878366689261818  0.1097972695861888  0.0758602853111656   T   T   T
  0.0001982899740882  0.3328569102244032  0.9965909294578986   T   T   T
  0.1108333520299346  0.5555152497957409  0.1491478487891396   T   T   T
  0.2223342873195859  0.4440080244011641  0.3018724098244955   T   T   T
  0.1113536306571941  0.5555485701587078  0.3819142123095581   T   T   T
 -0.0002945723906449  0.3329975609886958  0.2286178721904013   T   T   T
  0.2227088211190119  0.4441968015814529  0.0752431850433629   T   T   T
  0.3333541950851241  0.3326151723461744  0.9964842837848583   T   T   T
  0.4459985719341922  0.5571325652364325  0.1494646337653693   T   T   T
  0.5448640214411584  0.4307202883663259  0.3074209098719964   T   T   T
  0.4496447594021423  0.5669146170889174  0.3837291615130298   T   T   T
  0.3329510756541628  0.3341229185923107  0.2256955896115331   T   T   T
  0.5555668171313741  0.4440981018754469  0.0756223096895679   T   T   T
  0.6670937663817665  0.3332244579947684  0.9967644546595744   T   T   T
  0.7782940041514302  0.5558387424618929  0.1496295927105239   T   T   T
  0.8902815371546315  0.4452905685111315  0.3030293090365062   T   T   T
  0.7775910854966046  0.5538325908894172  0.3816950834692260   T   T   T
  0.6683779416058072  0.3348337415431243  0.2291083270842325   T   T   T
  0.8893476981601572  0.4443982880261368  0.0751863954097078   T   T   T
  0.0001725040181829  0.6672564082707950  0.9965949017339149   T   T   T
  0.1102363456919434  0.8884707906079831  0.1497139527727547   T   T   T
  0.2210796162243965  0.7763509630432905  0.3028638049058372   T   T   T
  0.1124147741353396  0.8889729709769878  0.3817613168660760   T   T   T
 -0.0000276095106335  0.6667009249436254  0.2288864589541948   T   T   T
  0.2226534064293429  0.7779739626929383  0.0753915887530574   T   T   T
  0.3341686070524407  0.6668150991623518  0.9967104747145076   T   T   T
  0.4449904675920617  0.8894506565415752  0.1498884968380207   T   T   T
  0.5566794316772765  0.7780789931618630  0.3024212663874098   T   T   T
  0.4440185870463366  0.8873712104917127  0.3812092207706189   T   T   T
  0.3331164362571655  0.6668906360967032  0.2283107222023502   T   T   T
  0.5568371441672890  0.7786946629002611  0.0758217953325226   T   T   T
  0.6670570751205881  0.6668375621090024  0.9965625619219008   T   T   T
  0.7784583210368299  0.8884863146649781  0.1517404873294426   T   T   T
  0.8890421207767354  0.7776477706281048  0.3038854919340105   T   T   T
  0.7774116194765256  0.8890660382702381  0.3820100515887614   T   T   T
  0.6652572692784854  0.6616690689382038  0.2305890539594368   T   T   T
  0.8883626508698671  0.7777642785301970  0.0759817370623865   T   T   T
  0.3280727268950329  0.3384075500976214  0.3352886217255894   T   T   T
  0.0015469038323521  0.0018583962054267  0.3432918852602705   T   T   T
  0.2234751072002980  0.1119871585965124  0.1899008741397005   T   T   T
  0.1111557299328262  0.2216445860539361  0.0362651487523497   T   T   T
  0.3308563643122234 -0.0050962182881631  0.3424692301588015   T   T   T
  0.5553377869858720  0.1110692029159065  0.1895870561287868   T   T   T
  0.4444653560191770  0.2219653727537760  0.0359560358426700   T   T   T
  0.6666518785925130 -0.0004388345768337  0.3425277429705199   T   T   T
  0.8893371928263061  0.1112290892524924  0.1897954727281193   T   T   T
  0.7776587473064031  0.2217059357868076  0.0360253716739191   T   T   T
  0.0013136890777235  0.3333863647994267  0.3423800373164750   T   T   T
  0.2222133732115989  0.4443603042381770  0.1886231738956966   T   T   T
  0.1113004552209682  0.5555113737145463  0.0358382093561548   T   T   T
  0.5546903723302083  0.4430828201510549  0.1898340602590891   T   T   T
  0.4450741562108234  0.5555117889252312  0.0362614683728536   T   T   T
  0.6713451752692502  0.3353054781531821  0.3424375434650297   T   T   T
  0.8890726058858235  0.4443151414373399  0.1887633062172078   T   T   T
  0.7778927343553530  0.5556621819546934  0.0363794647696637   T   T   T
  0.0002887720817785  0.6661505960164485  0.3421760112352935   T   T   T
  0.2221551001927713  0.7775942694364835  0.1887682583248928   T   T   T
  0.1111125552638526  0.8890514754364024  0.0363891723681455   T   T   T
  0.3330120827819539  0.6650922983894311  0.3422577011823250   T   T   T
  0.5553063625830289  0.7772609830505540  0.1897310578736500   T   T   T
  0.4448849492101508  0.8890991256118986  0.0360081881967682   T   T   T
  0.6649075112960625  0.6649677813884715  0.3432059314530040   T   T   T
  0.8893046854230029  0.7772929349538438  0.1902193514318531   T   T   T
  0.7779310665242567  0.8887269268386481  0.0363868938419027   T   T   T
  0.3175226262355774  0.3505957127025392  0.4243526626300378   T   T   T
  0.4404364709132493  0.2261490781756102  0.4438081609836784   T   T   T
 
  0.00000000E+00  0.00000000E+00  0.00000000E+00
  0.00000000E+00  0.00000000E+00  0.00000000E+00
  0.00000000E+00  0.00000000E+00  0.00000000E+00
  0.00000000E+00  0.00000000E+00  0.00000000E+00
  0.00000000E+00  0.00000000E+00  0.00000000E+00
  0.00000000E+00  0.00000000E+00  0.00000000E+00
  0.00000000E+00  0.00000000E+00  0.00000000E+00
  0.00000000E+00  0.00000000E+00  0.00000000E+00
  0.00000000E+00  0.00000000E+00  0.00000000E+00
  0.00000000E+00  0.00000000E+00  0.00000000E+00
  0.00000000E+00  0.00000000E+00  0.00000000E+00
  0.00000000E+00  0.00000000E+00  0.00000000E+00
  0.00000000E+00  0.00000000E+00  0.00000000E+00
  0.00000000E+00  0.00000000E+00  0.00000000E+00
  0.00000000E+00  0.00000000E+00  0.00000000E+00
  0.00000000E+00  0.00000000E+00  0.00000000E+00
  0.00000000E+00  0.00000000E+00  0.00000000E+00
  0.00000000E+00  0.00000000E+00  0.00000000E+00
  0.00000000E+00  0.00000000E+00  0.00000000E+00
  0.00000000E+00  0.00000000E+00  0.00000000E+00
  0.00000000E+00  0.00000000E+00  0.00000000E+00
  0.00000000E+00  0.00000000E+00  0.00000000E+00
  0.00000000E+00  0.00000000E+00  0.00000000E+00
  0.00000000E+00  0.00000000E+00  0.00000000E+00
  0.00000000E+00  0.00000000E+00  0.00000000E+00
  0.00000000E+00  0.00000000E+00  0.00000000E+00
  0.00000000E+00  0.00000000E+00  0.00000000E+00
  0.00000000E+00  0.00000000E+00  0.00000000E+00
  0.00000000E+00  0.00000000E+00  0.00000000E+00
  0.00000000E+00  0.00000000E+00  0.00000000E+00
  0.00000000E+00  0.00000000E+00  0.00000000E+00
  0.00000000E+00  0.00000000E+00  0.00000000E+00
  0.00000000E+00  0.00000000E+00  0.00000000E+00
  0.00000000E+00  0.00000000E+00  0.00000000E+00
  0.00000000E+00  0.00000000E+00  0.00000000E+00
  0.00000000E+00  0.00000000E+00  0.00000000E+00
  0.00000000E+00  0.00000000E+00  0.00000000E+00
  0.00000000E+00  0.00000000E+00  0.00000000E+00
  0.00000000E+00  0.00000000E+00  0.00000000E+00
  0.00000000E+00  0.00000000E+00  0.00000000E+00
  0.00000000E+00  0.00000000E+00  0.00000000E+00
  0.00000000E+00  0.00000000E+00  0.00000000E+00
  0.00000000E+00  0.00000000E+00  0.00000000E+00
  0.00000000E+00  0.00000000E+00  0.00000000E+00
  0.00000000E+00  0.00000000E+00  0.00000000E+00
  0.00000000E+00  0.00000000E+00  0.00000000E+00
  0.00000000E+00  0.00000000E+00  0.00000000E+00
  0.00000000E+00  0.00000000E+00  0.00000000E+00
  0.00000000E+00  0.00000000E+00  0.00000000E+00
  0.00000000E+00  0.00000000E+00  0.00000000E+00
  0.00000000E+00  0.00000000E+00  0.00000000E+00
  0.00000000E+00  0.00000000E+00  0.00000000E+00
  0.00000000E+00  0.00000000E+00  0.00000000E+00
  0.00000000E+00  0.00000000E+00  0.00000000E+00
  0.00000000E+00  0.00000000E+00  0.00000000E+00
  0.00000000E+00  0.00000000E+00  0.00000000E+00
  0.00000000E+00  0.00000000E+00  0.00000000E+00
  0.00000000E+00  0.00000000E+00  0.00000000E+00
  0.00000000E+00  0.00000000E+00  0.00000000E+00
  0.00000000E+00  0.00000000E+00  0.00000000E+00
  0.00000000E+00  0.00000000E+00  0.00000000E+00
  0.00000000E+00  0.00000000E+00  0.00000000E+00
  0.00000000E+00  0.00000000E+00  0.00000000E+00
  0.00000000E+00  0.00000000E+00  0.00000000E+00
  0.00000000E+00  0.00000000E+00  0.00000000E+00
  0.00000000E+00  0.00000000E+00  0.00000000E+00
  0.00000000E+00  0.00000000E+00  0.00000000E+00
  0.00000000E+00  0.00000000E+00  0.00000000E+00
  0.00000000E+00  0.00000000E+00  0.00000000E+00
  0.00000000E+00  0.00000000E+00  0.00000000E+00
  0.00000000E+00  0.00000000E+00  0.00000000E+00
  0.00000000E+00  0.00000000E+00  0.00000000E+00
  0.00000000E+00  0.00000000E+00  0.00000000E+00
  0.00000000E+00  0.00000000E+00  0.00000000E+00
  0.00000000E+00  0.00000000E+00  0.00000000E+00
  0.00000000E+00  0.00000000E+00  0.00000000E+00
  0.00000000E+00  0.00000000E+00  0.00000000E+00
  0.00000000E+00  0.00000000E+00  0.00000000E+00
  0.00000000E+00  0.00000000E+00  0.00000000E+00
  0.00000000E+00  0.00000000E+00  0.00000000E+00
  0.00000000E+00  0.00000000E+00  0.00000000E+00
  0.00000000E+00  0.00000000E+00  0.00000000E+00
  0.00000000E+00  0.00000000E+00  0.00000000E+00
