CeO2-you-111-you-Pt                     
   1.00000000000000     
     9.8194997738855925   -5.6692912080755651    0.0000000008101934
     0.0104111215151144   11.3566130111161350    0.0149700759784374
     0.0153316939422782    0.0265552683133540   21.2692258314980762
   O    Pt   Ce H
    53     1    26 2
Selective dynamics
Direct
  0.0001297035346067  0.0008374992719633  0.9971735713214681   T   T   T
  0.1036883149297695  0.2195504282559200  0.1485430608377618   F   F   F
  0.2079615439163888  0.0825900878365376  0.2949813918478090   T   T   T
  0.1322820789022212  0.2284517886305911  0.3771508680365676   T   T   T
 -0.0071199104984868 -0.0026619008899196  0.2266627382638700   T   T   T
  0.2224463999556925  0.1115597999114730  0.0754423098381589   F   F   F
  0.3340407957372772  0.0008374992719395  0.9971735713214709   T   T   T
  0.4491951133260524  0.2195504282559689  0.1485430608377447   F   F   F
  0.5545227937482364  0.1136019816865635  0.3053989524672045   T   T   T
  0.4295027097302569  0.2284517886299736  0.3771508680373239   T   T   T
  0.3377910096077849 -0.0026619008901887  0.2266627382639043   T   T   T
  0.5589073125192975  0.1106479598187197  0.0759464221109093   F   F   F
  0.6669913186140194  0.0006486372282058  0.9953116532732412   T   T   T
  0.7786704771946471  0.2240069543894558  0.1546062875499252   F   F   F
  0.8924131879387919  0.1136019816871039  0.3053989524672959   T   T   T
  0.7764312234717053  0.2195284469431165  0.3830442914525664   T   T   T
  0.6641412648573903 -0.0050514702853401  0.2333087005065882   T   T   T
  0.8850746472994426  0.1106479598189383  0.0759464221109150   F   F   F
  0.0010761827257769  0.3341410124930606  0.9969735814868170   T   T   T
  0.1094318659411439  0.5540534269035922  0.1499798642685054   F   F   F
  0.2546005239240279  0.4529656154113160  0.3117673384269338   T   T   T
  0.1114209773901931  0.5540481807080824  0.3808064751532074   T   T   T
  0.0107169355075852  0.3386417452298363  0.2336661115665998   T   T   T
  0.2233616295106645  0.4446134386443979  0.0763873392392293   F   F   F
  0.3335136995266993  0.3336943990534446  0.9967766036559098   T   T   T
  0.4481181865914690  0.5629043731826273  0.1493026163244557   F   F   F
  0.5316990914843270  0.4529656154096591  0.3117673384282580   T   T   T
  0.3319299331088698  0.3305268662176302  0.2149072783292116   T   T   T
  0.5545858091335688  0.4446134386442083  0.0763873392392098   F   F   F
  0.6663988297670691  0.3341410124929620  0.9969735814868099   T   T   T
  0.7779545609629612  0.5540534269034838  0.1499798642684906   F   F   F
  0.8872773954087019  0.4412207908163669  0.3043480946711906   T   T   T
  0.7759602033191446  0.5540481807084972  0.3808064751531324   T   T   T
  0.6612588097219230  0.3386417452294236  0.2336661115664742   T   T   T
  0.8877557359599415  0.4421774719200682  0.0765618276414935   F   F   F
  0.0002785442401567  0.6672240884801195  0.9978472669584353   T   T   T
  0.1102553836085182  0.8871777672172562  0.1485703680675503   F   F   F
  0.2196114350933299  0.7785479953694746  0.3024385879662930   T   T   T
  0.1088033073693025  0.8842736147402054  0.3842272174106954   T   T   T
 -0.0005209649181225  0.6656250701628960  0.2291009671093412   T   T   T
  0.2235215740980471  0.7780169008810943  0.0757763938321292   F   F   F
  0.3327284557217887  0.6661376411127713  0.9966601255787909   T   T   T
  0.4475188521217159  0.8884308184626486  0.1496399293744168   F   F   F
  0.5478154216801403  0.7622968433638891  0.3096277226745258   T   T   T
  0.4429115887894787  0.8883363150338326  0.3815216674299446   T   T   T
  0.3305510503452644  0.6666606747713150  0.2294228327501794   T   T   T
  0.5561054950177202  0.7788769900356033  0.0746051327673092   F   F   F
  0.6667421853911164  0.6661376411127179  0.9966601255787922   T   T   T
  0.7742449663410926  0.8884308184629933  0.1496399293744005   F   F   F
  0.8922695602758944  0.7785479953707558  0.3024385879665720   T   T   T
  0.7787577262438354  0.8883363150346429  0.3815216674300896   T   T   T
  0.6694426244265488  0.6666606747720145  0.2294228327501815   T   T   T
  0.8878283267831184  0.7780169008811033  0.0757763938321599   F   F   F
  0.3397639161852988  0.3461948323693488  0.3505957002793068   T   T   T
  0.0078677028606962  0.0034918357789242  0.3416426994173744   T   T   T
  0.2216545885329838  0.1099761770630252  0.1883476693212251   F   F   F
  0.1106180815931453  0.2224540144738597  0.0366868401729858   F   F   F
  0.3289571329226316  0.0034918357796033  0.3416426994178176   T   T   T
  0.5551976893466128  0.1106850751998518  0.1907703721353325   F   F   F
  0.4451689328807208  0.2224540144740632  0.0366868401730262   F   F   F
  0.6674536684646970  0.0015733369300682  0.3449064419126652   T   T   T
  0.8888213858529814  0.1106850751989353  0.1907703721353371   F   F   F
  0.7779091298390149  0.2224842596778674  0.0366500581814931   F   F   F
  0.0065908161257232  0.3317787575709815  0.3437019313339866   T   T   T
  0.2251208381694628  0.4428520651099098  0.1888328212710553   F   F   F
  0.1109282638803097  0.5551773179465970  0.0371246811537804   F   F   F
  0.5510652269388761  0.4428520651095287  0.1888328212715354   F   F   F
  0.4447332451377425  0.5561344902754934  0.0355979213859776   F   F   F
  0.6585219414428598  0.3317787575692857  0.3437019313342405   T   T   T
  0.8892806700736994  0.4452273401478398  0.1920154233533981   F   F   F
  0.7775820540664928  0.5551773179468736  0.0371246811537777   F   F   F
 -0.0008197014298243  0.6650275971415486  0.3422214184584411   T   T   T
  0.2222991016024050  0.7776560440484281  0.1877942211984364   F   F   F
  0.1113720685490380  0.8894111370980197  0.0360032455164894   F   F   F
  0.3267770758403957  0.6719737775878382  0.3396910894221207   T   T   T
  0.5555629189765288  0.7777918379528058  0.1896403991507052   F   F   F
  0.4459635726693144  0.8895807205551817  0.0359039799640464   F   F   F
  0.6785297017486150  0.6719737775860397  0.3396910894207193   T   T   T
  0.8886899424454734  0.7776560440479132  0.1877942211983804   F   F   F
  0.7769501478860016  0.8895807205551545  0.0359039799639905   F   F   F
0.44397639161852988 0.553461948323693488 0.40150596 T T T
0.446598 0.216020 0.433410 T T T 
 
  0.00000000E+00  0.00000000E+00  0.00000000E+00
  0.00000000E+00  0.00000000E+00  0.00000000E+00
  0.00000000E+00  0.00000000E+00  0.00000000E+00
  0.00000000E+00  0.00000000E+00  0.00000000E+00
  0.00000000E+00  0.00000000E+00  0.00000000E+00
  0.00000000E+00  0.00000000E+00  0.00000000E+00
  0.00000000E+00  0.00000000E+00  0.00000000E+00
  0.00000000E+00  0.00000000E+00  0.00000000E+00
  0.00000000E+00  0.00000000E+00  0.00000000E+00
  0.00000000E+00  0.00000000E+00  0.00000000E+00
  0.00000000E+00  0.00000000E+00  0.00000000E+00
  0.00000000E+00  0.00000000E+00  0.00000000E+00
  0.00000000E+00  0.00000000E+00  0.00000000E+00
  0.00000000E+00  0.00000000E+00  0.00000000E+00
  0.00000000E+00  0.00000000E+00  0.00000000E+00
  0.00000000E+00  0.00000000E+00  0.00000000E+00
  0.00000000E+00  0.00000000E+00  0.00000000E+00
  0.00000000E+00  0.00000000E+00  0.00000000E+00
  0.00000000E+00  0.00000000E+00  0.00000000E+00
  0.00000000E+00  0.00000000E+00  0.00000000E+00
  0.00000000E+00  0.00000000E+00  0.00000000E+00
  0.00000000E+00  0.00000000E+00  0.00000000E+00
  0.00000000E+00  0.00000000E+00  0.00000000E+00
  0.00000000E+00  0.00000000E+00  0.00000000E+00
  0.00000000E+00  0.00000000E+00  0.00000000E+00
  0.00000000E+00  0.00000000E+00  0.00000000E+00
  0.00000000E+00  0.00000000E+00  0.00000000E+00
  0.00000000E+00  0.00000000E+00  0.00000000E+00
  0.00000000E+00  0.00000000E+00  0.00000000E+00
  0.00000000E+00  0.00000000E+00  0.00000000E+00
  0.00000000E+00  0.00000000E+00  0.00000000E+00
  0.00000000E+00  0.00000000E+00  0.00000000E+00
  0.00000000E+00  0.00000000E+00  0.00000000E+00
  0.00000000E+00  0.00000000E+00  0.00000000E+00
  0.00000000E+00  0.00000000E+00  0.00000000E+00
  0.00000000E+00  0.00000000E+00  0.00000000E+00
  0.00000000E+00  0.00000000E+00  0.00000000E+00
  0.00000000E+00  0.00000000E+00  0.00000000E+00
  0.00000000E+00  0.00000000E+00  0.00000000E+00
  0.00000000E+00  0.00000000E+00  0.00000000E+00
  0.00000000E+00  0.00000000E+00  0.00000000E+00
  0.00000000E+00  0.00000000E+00  0.00000000E+00
  0.00000000E+00  0.00000000E+00  0.00000000E+00
  0.00000000E+00  0.00000000E+00  0.00000000E+00
  0.00000000E+00  0.00000000E+00  0.00000000E+00
  0.00000000E+00  0.00000000E+00  0.00000000E+00
  0.00000000E+00  0.00000000E+00  0.00000000E+00
  0.00000000E+00  0.00000000E+00  0.00000000E+00
  0.00000000E+00  0.00000000E+00  0.00000000E+00
  0.00000000E+00  0.00000000E+00  0.00000000E+00
  0.00000000E+00  0.00000000E+00  0.00000000E+00
  0.00000000E+00  0.00000000E+00  0.00000000E+00
  0.00000000E+00  0.00000000E+00  0.00000000E+00
  0.00000000E+00  0.00000000E+00  0.00000000E+00
  0.00000000E+00  0.00000000E+00  0.00000000E+00
  0.00000000E+00  0.00000000E+00  0.00000000E+00
  0.00000000E+00  0.00000000E+00  0.00000000E+00
  0.00000000E+00  0.00000000E+00  0.00000000E+00
  0.00000000E+00  0.00000000E+00  0.00000000E+00
  0.00000000E+00  0.00000000E+00  0.00000000E+00
  0.00000000E+00  0.00000000E+00  0.00000000E+00
  0.00000000E+00  0.00000000E+00  0.00000000E+00
  0.00000000E+00  0.00000000E+00  0.00000000E+00
  0.00000000E+00  0.00000000E+00  0.00000000E+00
  0.00000000E+00  0.00000000E+00  0.00000000E+00
  0.00000000E+00  0.00000000E+00  0.00000000E+00
  0.00000000E+00  0.00000000E+00  0.00000000E+00
  0.00000000E+00  0.00000000E+00  0.00000000E+00
  0.00000000E+00  0.00000000E+00  0.00000000E+00
  0.00000000E+00  0.00000000E+00  0.00000000E+00
  0.00000000E+00  0.00000000E+00  0.00000000E+00
  0.00000000E+00  0.00000000E+00  0.00000000E+00
  0.00000000E+00  0.00000000E+00  0.00000000E+00
  0.00000000E+00  0.00000000E+00  0.00000000E+00
  0.00000000E+00  0.00000000E+00  0.00000000E+00
  0.00000000E+00  0.00000000E+00  0.00000000E+00
  0.00000000E+00  0.00000000E+00  0.00000000E+00
  0.00000000E+00  0.00000000E+00  0.00000000E+00
  0.00000000E+00  0.00000000E+00  0.00000000E+00
  0.00000000E+00  0.00000000E+00  0.00000000E+00
