CeO2-you-111-you-In                     
   1.00000000000000     
     9.8479192243842277   -5.6961256032188006   -0.0008093888278923
    -0.0090295405125693   11.3766095797027909    0.0008093887043614
    -0.0009422537035582    0.0016320312321322   21.0747241904582623
   O    In   Ce
    53     1    26
Selective dynamics
Direct
 -0.0004874712108790 -0.0006358316699193  0.9953090661560809   T   T   T
  0.1100894855506734  0.2210621875949015  0.1473144325061500   T   T   T
  0.2234352219735827  0.1056261866830000  0.3013659728494040   T   T   T
  0.1287678218019253  0.2404731833866899  0.3714848323660645   T   T   T
  0.0001623098058184  0.0010277025072084  0.2293504512052597   T   T   T
  0.2215113159216299  0.1103170126210587  0.0747424914862143   T   T   T
  0.3349381462247700  0.0008826978291409  0.9966544994529887   T   T   T
  0.4415557888929594  0.2251102111065135  0.1515793653175216   T   T   T
  0.5554565488967229  0.1112104511019780  0.3046124057106093   T   T   T
  0.4443865229107000  0.2222794770895870  0.3839349958148106   T   T   T
  0.3355901747376818  0.0000516147836649  0.2280207349442371   T   T   T
  0.5554378476484911  0.1112291523512494  0.0782848038761903   T   T   T
  0.6653153854184912  0.0013516145818328  0.9967767301678166   T   T   T
  0.7845680299866808  0.2250226067711631  0.1519510292237036   T   T   T
  0.8845804573223337  0.1067565456027901  0.3044039475547883   T   T   T
  0.7726179593413337  0.2190296761202087  0.3869959356487106   T   T   T
  0.6663174210722786  0.0003495789273549  0.2290095284731641   T   T   T
  0.8882474817629445  0.1098088076691492  0.0750839227356524   T   T   T
 -0.0021338707450842  0.3322142567667760  0.9955658402366105   T   T   T
  0.1108480536469903  0.5558189463533040  0.1474678816643947   T   T   T
  0.1134232067502965  0.5532437932484585  0.3793152291668781   T   T   T
  0.0169215073719008  0.3424432294347890  0.2344595483195713   T   T   T
  0.2222061955152118  0.4444598044852213  0.0721023234189926   T   T   T
  0.3338870203259014  0.3327789796734055  0.9954493285416528   T   T   T
  0.4456038124062554  0.5565775144505827  0.1473144325061704   T   T   T
  0.5610408133180749  0.4432307780273103  0.3013659728494757   T   T   T
  0.4261928166180018  0.5378991782023621  0.3714848323663711   T   T   T
  0.3247828461897039  0.3418831538091293  0.2339898437668888   T   T   T
  0.5563499873784556  0.4451546840778189  0.0747424914861970   T   T   T
  0.6657843021705938  0.3317278537749994  0.9966544994529593   T   T   T
  0.7778936796454359  0.5552434510827872  0.1507121502842667   T   T   T
  0.8835010411312327  0.4452930919642168  0.3039623742198687   T   T   T
  0.7767597897841837  0.5582961637605138  0.3841000746499033   T   T   T
  0.6666153852145202  0.3310758252613581  0.2280207349441803   T   T   T
  0.8884409155717098  0.4446230348705761  0.0752128468697374   T   T   T
 -0.0003920042904195  0.6670590042902683  0.9955245120382127   T   T   T
  0.1114235489164975  0.8887733203534017  0.1507121502842571   T   T   T
  0.2213729080311045  0.7831659588624814  0.3039623742198736   T   T   T
  0.1083708362395798  0.8899072102144515  0.3841000746499028   T   T   T
  0.0007186235311334  0.6659483764676151  0.2293542241910874   T   T   T
  0.2220429651292094  0.7782260844280846  0.0752128468697520   T   T   T
  0.3344517432337041  0.6688008707456696  0.9955658402366662   T   T   T
  0.4416433932288791  0.8820989700131616  0.1519510292235805   T   T   T
  0.5599104544015803  0.7820865426785389  0.3044039475545839   T   T   T
  0.4476363238791388  0.8940490406531648  0.3869959356487271   T   T   T
  0.3242227705669319  0.6497454926302445  0.2344595483197736   T   T   T
  0.5568581923313699  0.7784195182376155  0.0750839227356539   T   T   T
  0.6673028316698079  0.6671544712107802  0.9953090661560985   T   T   T
  0.7775712258746883  0.8890957741259109  0.1509628846129511   T   T   T
  0.8888621917890612  0.7778048082104636  0.3028529278351427   T   T   T
  0.7793039292857920  0.8873630707145185  0.3840641497211557   T   T   T
  0.6656392974934601  0.6665046901954348  0.2293504512052538   T   T   T
  0.8887578346165700  0.7779091653832299  0.0755226517582253   T   T   T
  0.3414659883223206  0.3252000116758366  0.3422232061701480   T   T   T
  0.0028768196522657  0.0021836400737835  0.3423601466426052   T   T   T
  0.2222808538562280  0.1120731767925919  0.1908351439034389   T   T   T
  0.1098481735537045  0.2200649209717276  0.0337283363346145   T   T   T
  0.3334875474081044  0.0025169232859994  0.3443180599534078   T   T   T
  0.5558402847442300  0.1108267152575212  0.1910231747161671   T   T   T
  0.4442772518406033  0.2223887481598343  0.0364631949818700   T   T   T
  0.6670359999591674 -0.0003689999572752  0.3453169377222609   T   T   T
  0.8901998202675857  0.1118230752268990  0.1910261476442779   T   T   T
  0.7778311293355767  0.2222243383583196  0.0366067404678541   T   T   T
 -0.0097253726148194  0.3289246768749814  0.3483868980735785   T   T   T
  0.2225167892778283  0.4441492107182763  0.1821515893938580   T   T   T
  0.1101116970122394  0.5565553029867608  0.0340309221207678   T   T   T
  0.5545938232073258  0.4443851461435392  0.1908351439034157   T   T   T
  0.4466010790287355  0.5568188264462194  0.0337283363345367   T   T   T
  0.6641500767187839  0.3331784525931286  0.3443180599533499   T   T   T
  0.8900236364467820  0.4446543027074316  0.1909801029384709   T   T   T
  0.7774062812981587  0.5548994168869722  0.0362225854155724   T   T   T
 -0.0011606423151130  0.6678276423218840  0.3430526850933616   T   T   T
  0.2220116972948870  0.7766433635567350  0.1909801029385237   T   T   T
  0.1117675831134461  0.8892607187022352  0.0362225854155723   T   T   T
  0.3377413231207969  0.6763923726177241  0.3483868980732651   T   T   T
  0.5548439247700633  0.7764671797308499  0.1910261476442786   T   T   T
  0.4444416616415179  0.8888358706643269  0.0366067404678507   T   T   T
  0.6644833599224222  0.6637901803442054  0.3423601466427454   T   T   T
  0.8890313397497811  0.7776356602512435  0.1893796978748085   T   T   T
  0.7774908571077634  0.8891761428920341  0.0361701816851267   T   T   T
 
  0.00000000E+00  0.00000000E+00  0.00000000E+00
  0.00000000E+00  0.00000000E+00  0.00000000E+00
  0.00000000E+00  0.00000000E+00  0.00000000E+00
  0.00000000E+00  0.00000000E+00  0.00000000E+00
  0.00000000E+00  0.00000000E+00  0.00000000E+00
  0.00000000E+00  0.00000000E+00  0.00000000E+00
  0.00000000E+00  0.00000000E+00  0.00000000E+00
  0.00000000E+00  0.00000000E+00  0.00000000E+00
  0.00000000E+00  0.00000000E+00  0.00000000E+00
  0.00000000E+00  0.00000000E+00  0.00000000E+00
  0.00000000E+00  0.00000000E+00  0.00000000E+00
  0.00000000E+00  0.00000000E+00  0.00000000E+00
  0.00000000E+00  0.00000000E+00  0.00000000E+00
  0.00000000E+00  0.00000000E+00  0.00000000E+00
  0.00000000E+00  0.00000000E+00  0.00000000E+00
  0.00000000E+00  0.00000000E+00  0.00000000E+00
  0.00000000E+00  0.00000000E+00  0.00000000E+00
  0.00000000E+00  0.00000000E+00  0.00000000E+00
  0.00000000E+00  0.00000000E+00  0.00000000E+00
  0.00000000E+00  0.00000000E+00  0.00000000E+00
  0.00000000E+00  0.00000000E+00  0.00000000E+00
  0.00000000E+00  0.00000000E+00  0.00000000E+00
  0.00000000E+00  0.00000000E+00  0.00000000E+00
  0.00000000E+00  0.00000000E+00  0.00000000E+00
  0.00000000E+00  0.00000000E+00  0.00000000E+00
  0.00000000E+00  0.00000000E+00  0.00000000E+00
  0.00000000E+00  0.00000000E+00  0.00000000E+00
  0.00000000E+00  0.00000000E+00  0.00000000E+00
  0.00000000E+00  0.00000000E+00  0.00000000E+00
  0.00000000E+00  0.00000000E+00  0.00000000E+00
  0.00000000E+00  0.00000000E+00  0.00000000E+00
  0.00000000E+00  0.00000000E+00  0.00000000E+00
  0.00000000E+00  0.00000000E+00  0.00000000E+00
  0.00000000E+00  0.00000000E+00  0.00000000E+00
  0.00000000E+00  0.00000000E+00  0.00000000E+00
  0.00000000E+00  0.00000000E+00  0.00000000E+00
  0.00000000E+00  0.00000000E+00  0.00000000E+00
  0.00000000E+00  0.00000000E+00  0.00000000E+00
  0.00000000E+00  0.00000000E+00  0.00000000E+00
  0.00000000E+00  0.00000000E+00  0.00000000E+00
  0.00000000E+00  0.00000000E+00  0.00000000E+00
  0.00000000E+00  0.00000000E+00  0.00000000E+00
  0.00000000E+00  0.00000000E+00  0.00000000E+00
  0.00000000E+00  0.00000000E+00  0.00000000E+00
  0.00000000E+00  0.00000000E+00  0.00000000E+00
  0.00000000E+00  0.00000000E+00  0.00000000E+00
  0.00000000E+00  0.00000000E+00  0.00000000E+00
  0.00000000E+00  0.00000000E+00  0.00000000E+00
  0.00000000E+00  0.00000000E+00  0.00000000E+00
  0.00000000E+00  0.00000000E+00  0.00000000E+00
  0.00000000E+00  0.00000000E+00  0.00000000E+00
  0.00000000E+00  0.00000000E+00  0.00000000E+00
  0.00000000E+00  0.00000000E+00  0.00000000E+00
  0.00000000E+00  0.00000000E+00  0.00000000E+00
  0.00000000E+00  0.00000000E+00  0.00000000E+00
  0.00000000E+00  0.00000000E+00  0.00000000E+00
  0.00000000E+00  0.00000000E+00  0.00000000E+00
  0.00000000E+00  0.00000000E+00  0.00000000E+00
  0.00000000E+00  0.00000000E+00  0.00000000E+00
  0.00000000E+00  0.00000000E+00  0.00000000E+00
  0.00000000E+00  0.00000000E+00  0.00000000E+00
  0.00000000E+00  0.00000000E+00  0.00000000E+00
  0.00000000E+00  0.00000000E+00  0.00000000E+00
  0.00000000E+00  0.00000000E+00  0.00000000E+00
  0.00000000E+00  0.00000000E+00  0.00000000E+00
  0.00000000E+00  0.00000000E+00  0.00000000E+00
  0.00000000E+00  0.00000000E+00  0.00000000E+00
  0.00000000E+00  0.00000000E+00  0.00000000E+00
  0.00000000E+00  0.00000000E+00  0.00000000E+00
  0.00000000E+00  0.00000000E+00  0.00000000E+00
  0.00000000E+00  0.00000000E+00  0.00000000E+00
  0.00000000E+00  0.00000000E+00  0.00000000E+00
  0.00000000E+00  0.00000000E+00  0.00000000E+00
  0.00000000E+00  0.00000000E+00  0.00000000E+00
  0.00000000E+00  0.00000000E+00  0.00000000E+00
  0.00000000E+00  0.00000000E+00  0.00000000E+00
  0.00000000E+00  0.00000000E+00  0.00000000E+00
  0.00000000E+00  0.00000000E+00  0.00000000E+00
  0.00000000E+00  0.00000000E+00  0.00000000E+00
  0.00000000E+00  0.00000000E+00  0.00000000E+00
