CeO2-you-111-you-Co                     
   1.00000000000000     
     9.8416727189801669   -5.6820927648320723    0.0000000000000000
     0.0000000009706465   11.3641835314900934   -0.0000000000000000
     0.0000000000000000   -0.0000000000000000   20.9900504919653379
   O    Co   Ce H
    54     1    26 1
Selective dynamics
Direct
 -0.0005386641675163  0.0004710508605157  0.9944150271733513   T   T   T
  0.1086017311749591  0.2209673655860449  0.1465418423408466   F   F   F
  0.2418653578804365  0.1503977157608062  0.3133183493650847   T   T   T
  0.0537341066102938  0.1935335532900435  0.3966250796087132   T   T   T
  0.0101653343432581  0.0042262491380911  0.2309456003585446   T   T   T
  0.2210877910341124  0.1088425820682855  0.0734934450640819   F   F   F
  0.3343427150277669  0.0004710508605918  0.9944150271733513   T   T   T
  0.4456986344110820  0.2209673655847700  0.1465418423408466   F   F   F
  0.5578957945698675  0.1087712054226614  0.2999957604075239   T   T   T
  0.4731324466797459  0.1935335532766355  0.3966250796087132   T   T   T
  0.3273939147946960  0.0042262491391770  0.2309456003585446   T   T   T
  0.5569610462580463  0.1097059537419301  0.0743355108436178   F   F   F
  0.6666669999999968 -0.0000000000000000  0.9940939170061991   T   T   T
  0.7797771969096250  0.2262203938201681  0.1514680873896902   F   F   F
  0.8842094108550921  0.1087712054249592  0.2999957604075239   T   T   T
  0.7761096638651354  0.2188853277295399  0.3848370332841477   T   T   T
  0.6666669999999968 -0.0000000000000000  0.2258859391712213   T   T   T
  0.8860789074838928  0.1097059537419385  0.0743355108436178   F   F   F
 -0.0005386641681209  0.3323232849721425  0.9944150271733513   T   T   T
  0.1093349263448047  0.5573320736572258  0.1488838399553333   F   F   F
  0.2418653578805794  0.4248006421196264  0.3133183493650847   T   T   T
  0.1134044209524610  0.5532625790402340  0.3816010338171205   T   T   T
  0.0101653343429421  0.3392720852076169  0.2309456003585446   T   T   T
  0.2210877910339687  0.4455782089658232  0.0734934450640819   F   F   F
  0.3333330000000032  0.3333330000000032  0.9951709328813805   T   T   T
  0.4456986344139544  0.5580652688291919  0.1465418423408466   F   F   F
  0.5162692842389915  0.4248006421195628  0.3133183493650847   T   T   T
  0.4731324467099560  0.6129328934333280  0.3966250796087132   T   T   T
  0.3333330000000032  0.3333330000000032  0.2182960928659555   T   T   T
  0.5578244179319261  0.4455782089658869  0.0734934450640819   F   F   F
  0.6661959491405249  0.3323232849724868  0.9944150271733513   T   T   T
  0.7813301473117944  0.5573320736566031  0.1488838399553333   F   F   F
  0.8872287430184274  0.4411234860367284  0.3051225617902935   T   T   T
  0.7731911580900154  0.5532625790424801  0.3816010338171205   T   T   T
  0.6624407508648087  0.3392720852088432  0.2309456003585446   T   T   T
  0.8890091689011038  0.4446843378026800  0.0737548557787590   F   F   F
  0.0000000000000000  0.6666669999999968  0.9931508769111398   T   T   T
  0.1093349263434010  0.8853368526861759  0.1488838399553333   F   F   F
  0.2255425139628593  0.7794382569815694  0.3051225617902935   T   T   T
  0.1134044209575235  0.8934758419172905  0.3816010338171205   T   T   T
  0.0000000000000000  0.6666669999999968  0.2315650024461445   T   T   T
  0.2219816621988578  0.7776578310988930  0.0737548557787590   F   F   F
  0.3343427150269911  0.6672056641669974  0.9944150271733513   T   T   T
  0.4404456061828010  0.8868898030903718  0.1514680873896902   F   F   F
  0.5578957945750449  0.7824575891523795  0.2999957604075239   T   T   T
  0.4477806722680609  0.8905573361348614  0.3848370332841477   T   T   T
  0.3273939147919332  0.6565016656530658  0.2309456003585446   T   T   T
  0.5569610462580654  0.7805880925161310  0.0743355108436178   F   F   F
  0.6661959491403542  0.6672056641672661  0.9944150271733513   T   T   T
  0.7797771969075677  0.8868898030894593  0.1514680873896902   F   F   F
  0.8872287430187128  0.7794382569816959  0.3051225617902935   T   T   T
  0.7761096638667964  0.8905573361355986  0.3848370332841477   T   T   T
  0.6624407508623622  0.6565016656532057  0.2309456003585446   T   T   T
  0.8890091689000384  0.7776578310984197  0.0737548557787590   F   F   F
  0.3333330000000032  0.3333330000000032  0.3083267843633117   T   T   T
 -0.0029947132474324  0.0039149855426845  0.3486471906184087   T   T   T
  0.2201664102138881  0.1069998204274458  0.1849570882078301   F   F   F
  0.1095060725664277  0.2214195362823121  0.0333466630335165   F   F   F
  0.3402426987899598  0.0039149855413234  0.3486471906184087   T   T   T
  0.5551908261458226  0.1114761738558552  0.1898951940824065   F   F   F
  0.4452464637158804  0.2214195362815103  0.0333466630335165   F   F   F
  0.6666669999999968 -0.0000000000000000  0.3437377234650915   T   T   T
  0.8896193477095189  0.1114761738553406  0.1898951940824065   F   F   F
  0.7777027781966300  0.2220715563928159  0.0346779964017175   F   F   F
 -0.0029947132477939  0.3264233012068197  0.3486471906184087   T   T   T
  0.2201664102146252  0.4464995897864384  0.1849570882078301   F   F   F
  0.1102454724346859  0.5564215275672169  0.0340024466476317   F   F   F
  0.5596671795714939  0.4464995897861113  0.1849570882078301   F   F   F
  0.4452464637176871  0.5571609274361849  0.0333466630335165   F   F   F
  0.6627520144547673  0.3264233012056190  0.3486471906184087   T   T   T
  0.8887012700021992  0.4440685400029670  0.1921777073177700   F   F   F
  0.7795090551319438  0.5564215275666327  0.0340024466476317   F   F   F
  0.0000000000000000  0.6666669999999968  0.3440083359795871   T   T   T
  0.2225974599923788  0.7779657299977976  0.1921777073177700   F   F   F
  0.1102454724333706  0.8871579448661544  0.0340024466476317   F   F   F
  0.3402426987926648  0.6696617132516964  0.3486471906184087   T   T   T
  0.5551908261446632  0.7770476522888045  0.1898951940824065   F   F   F
  0.4445944436057181  0.8889642218033668  0.0346779964017175   F   F   F
  0.6627520144578343  0.6696617132518570  0.3486471906184087   T   T   T
  0.8887012700054218  0.7779657299992283  0.1921777073177700   F   F   F
  0.7777027781976448  0.8889642218038172  0.0346779964017175   F   F   F
0.446598 0.216020 0.433410 T T T 
 
  0.00000000E+00  0.00000000E+00  0.00000000E+00
  0.00000000E+00  0.00000000E+00  0.00000000E+00
  0.00000000E+00  0.00000000E+00  0.00000000E+00
  0.00000000E+00  0.00000000E+00  0.00000000E+00
  0.00000000E+00  0.00000000E+00  0.00000000E+00
  0.00000000E+00  0.00000000E+00  0.00000000E+00
  0.00000000E+00  0.00000000E+00  0.00000000E+00
  0.00000000E+00  0.00000000E+00  0.00000000E+00
  0.00000000E+00  0.00000000E+00  0.00000000E+00
  0.00000000E+00  0.00000000E+00  0.00000000E+00
  0.00000000E+00  0.00000000E+00  0.00000000E+00
  0.00000000E+00  0.00000000E+00  0.00000000E+00
  0.00000000E+00  0.00000000E+00  0.00000000E+00
  0.00000000E+00  0.00000000E+00  0.00000000E+00
  0.00000000E+00  0.00000000E+00  0.00000000E+00
  0.00000000E+00  0.00000000E+00  0.00000000E+00
  0.00000000E+00  0.00000000E+00  0.00000000E+00
  0.00000000E+00  0.00000000E+00  0.00000000E+00
  0.00000000E+00  0.00000000E+00  0.00000000E+00
  0.00000000E+00  0.00000000E+00  0.00000000E+00
  0.00000000E+00  0.00000000E+00  0.00000000E+00
  0.00000000E+00  0.00000000E+00  0.00000000E+00
  0.00000000E+00  0.00000000E+00  0.00000000E+00
  0.00000000E+00  0.00000000E+00  0.00000000E+00
  0.00000000E+00  0.00000000E+00  0.00000000E+00
  0.00000000E+00  0.00000000E+00  0.00000000E+00
  0.00000000E+00  0.00000000E+00  0.00000000E+00
  0.00000000E+00  0.00000000E+00  0.00000000E+00
  0.00000000E+00  0.00000000E+00  0.00000000E+00
  0.00000000E+00  0.00000000E+00  0.00000000E+00
  0.00000000E+00  0.00000000E+00  0.00000000E+00
  0.00000000E+00  0.00000000E+00  0.00000000E+00
  0.00000000E+00  0.00000000E+00  0.00000000E+00
  0.00000000E+00  0.00000000E+00  0.00000000E+00
  0.00000000E+00  0.00000000E+00  0.00000000E+00
  0.00000000E+00  0.00000000E+00  0.00000000E+00
  0.00000000E+00  0.00000000E+00  0.00000000E+00
  0.00000000E+00  0.00000000E+00  0.00000000E+00
  0.00000000E+00  0.00000000E+00  0.00000000E+00
  0.00000000E+00  0.00000000E+00  0.00000000E+00
  0.00000000E+00  0.00000000E+00  0.00000000E+00
  0.00000000E+00  0.00000000E+00  0.00000000E+00
  0.00000000E+00  0.00000000E+00  0.00000000E+00
  0.00000000E+00  0.00000000E+00  0.00000000E+00
  0.00000000E+00  0.00000000E+00  0.00000000E+00
  0.00000000E+00  0.00000000E+00  0.00000000E+00
  0.00000000E+00  0.00000000E+00  0.00000000E+00
  0.00000000E+00  0.00000000E+00  0.00000000E+00
  0.00000000E+00  0.00000000E+00  0.00000000E+00
  0.00000000E+00  0.00000000E+00  0.00000000E+00
  0.00000000E+00  0.00000000E+00  0.00000000E+00
  0.00000000E+00  0.00000000E+00  0.00000000E+00
  0.00000000E+00  0.00000000E+00  0.00000000E+00
  0.00000000E+00  0.00000000E+00  0.00000000E+00
  0.00000000E+00  0.00000000E+00  0.00000000E+00
  0.00000000E+00  0.00000000E+00  0.00000000E+00
  0.00000000E+00  0.00000000E+00  0.00000000E+00
  0.00000000E+00  0.00000000E+00  0.00000000E+00
  0.00000000E+00  0.00000000E+00  0.00000000E+00
  0.00000000E+00  0.00000000E+00  0.00000000E+00
  0.00000000E+00  0.00000000E+00  0.00000000E+00
  0.00000000E+00  0.00000000E+00  0.00000000E+00
  0.00000000E+00  0.00000000E+00  0.00000000E+00
  0.00000000E+00  0.00000000E+00  0.00000000E+00
  0.00000000E+00  0.00000000E+00  0.00000000E+00
  0.00000000E+00  0.00000000E+00  0.00000000E+00
  0.00000000E+00  0.00000000E+00  0.00000000E+00
  0.00000000E+00  0.00000000E+00  0.00000000E+00
  0.00000000E+00  0.00000000E+00  0.00000000E+00
  0.00000000E+00  0.00000000E+00  0.00000000E+00
  0.00000000E+00  0.00000000E+00  0.00000000E+00
  0.00000000E+00  0.00000000E+00  0.00000000E+00
  0.00000000E+00  0.00000000E+00  0.00000000E+00
  0.00000000E+00  0.00000000E+00  0.00000000E+00
  0.00000000E+00  0.00000000E+00  0.00000000E+00
  0.00000000E+00  0.00000000E+00  0.00000000E+00
  0.00000000E+00  0.00000000E+00  0.00000000E+00
  0.00000000E+00  0.00000000E+00  0.00000000E+00
  0.00000000E+00  0.00000000E+00  0.00000000E+00
  0.00000000E+00  0.00000000E+00  0.00000000E+00
  0.00000000E+00  0.00000000E+00  0.00000000E+00
