CeO2-you-111-you-Cr                     
   1.00000000000000     
     9.8344047641525556   -5.6950953211830591    0.0293028764663970
     0.0000000016193329   11.3901886407394457   -0.0000000034013756
     0.0640122589146498   -0.0000000064823737   20.8403983577812362
   O    Cr   Ce H
    53     1    26 1
Selective dynamics
Direct
 -0.0005110809252537  0.0012443424737966  0.9948199139889279   T   T   T
  0.1204185694477621  0.2268757847235431  0.1518952922766404   T   T   T
  0.2109376990498315  0.0917765117819057  0.2996688389257466   T   T   T
  0.1517841514109648  0.2425585757088586  0.3748895711143315   T   T   T
 -0.0045790697217488 -0.0012636196671070  0.2273868759681583   T   T   T
  0.2219952832282744  0.1101843423613176  0.0732654244439021   T   T   T
  0.3346687068061469  0.0001974925027310  0.9936323380004416   T   T   T
  0.4417426255767016  0.2227988709695242  0.1491327529876688   T   T   T
  0.5505880673241313  0.1053005257899799  0.3077709693893352   T   T   T
  0.4277337954794376  0.2596075449618513  0.3642970933841889   T   T   T
  0.3347734487758701 -0.0017477782507469  0.2284860852929437   T   T   T
  0.5547181809995929  0.1118557823622790  0.0746599483660957   T   T   T
  0.6698348098162872  0.0015839049088874  0.9955179429914804   T   T   T
  0.7728994110121939  0.2240988804432221  0.1516672373265002   T   T   T
  0.8960092246562358  0.1146711123285372  0.3061696933676586   T   T   T
  0.7836251273124161  0.2160098958420273  0.3888177910124742   T   T   T
  0.6677755655340705  0.0005542827673009  0.2311587746463985   T   T   T
  0.8900495286891057  0.1116912643442792  0.0778614337379467   T   T   T
 -0.0005110809245527  0.3315775766006356  0.9948199139886967   T   T   T
  0.1106294643025099  0.5549550452539977  0.1499105418335452   T   T   T
  0.2109376990535575  0.4524941872611905  0.2996688389273263   T   T   T
  0.1134427183041928  0.5575755521586956  0.3876528755628291   T   T   T
 -0.0045790697192973  0.3300175499420052  0.2273868759681343   T   T   T
  0.2219952832279461  0.4451439408657484  0.0732654244439640   T   T   T
  0.3334905546756957  0.3334117773371168  0.9936382092316898   T   T   T
  0.4417426255733865  0.5522777546104114  0.1491327529872618   T   T   T
  0.4277337954815848  0.5014602505119117  0.3642970933833528   T   T   T
  0.3481133397898755  0.3407231698903133  0.2454137923535629   T   T   T
  0.5557152544608170  0.4445236272312752  0.0726011751578801   T   T   T
  0.6684953102952174  0.3335778674781538  0.9940810287124515   T   T   T
  0.7775215166110234  0.5554277583048396  0.1474597341215271   T   T   T
  0.8956874032779908  0.4448012253634311  0.3051878699568915   T   T   T
  0.7858806303798075  0.5596073151989071  0.3871057470650224   T   T   T
  0.6590203145943541  0.3424268225760325  0.2346277573627250   T   T   T
  0.8900168632594488  0.4447211595099790  0.0742740019578600   T   T   T
  0.0016479011778047  0.6674909505885804  0.9937494586495237   T   T   T
  0.1106294643002971  0.8890084190457826  0.1499105418334888   T   T   T
  0.2207741025205837  0.7770540512598876  0.3039773634639248   T   T   T
  0.1134427183033801  0.8892011661459003  0.3876528755629813   T   T   T
 -0.0022530628393734  0.6655404685790076  0.2293907115357861   T   T   T
  0.2229831527753498  0.7781585763871834  0.0741892030503506   T   T   T
  0.3346687068062855  0.6678052143031977  0.9936323380004570   T   T   T
  0.4471270480650109  0.8902305240325475  0.1498686896844920   T   T   T
  0.5505880673191960  0.7786205415325731  0.3077709693889601   T   T   T
  0.4372255718134836  0.8852797859053901  0.3870534902853100   T   T   T
  0.3347734487760011  0.6698552270269057  0.2284860852927449   T   T   T
  0.5547181809999219  0.7761953986385174  0.0746599483662913   T   T   T
  0.6684953102963304  0.6682504428191878  0.9940810287126082   T   T   T
  0.7728994110091332  0.8821335305674664  0.1516672373265977   T   T   T
  0.8956874032751821  0.7842191779094180  0.3051878699569388   T   T   T
  0.7836251273087229  0.9009482314699637  0.3888177910129116   T   T   T
  0.6590203146005468  0.6499264920297193  0.2346277573631088   T   T   T
  0.8900168632597598  0.7786287037494836  0.0742740019578074   T   T   T
  0.3215481785817029  0.3274405893002261  0.3373399566627020   T   T   T
  0.0035552057453602  0.0005745079771145  0.3440283710379787   T   T   T
  0.2209211818171601  0.1088289018673016  0.1908877929846028   T   T   T
  0.1122229903486048  0.2227779951743742  0.0350498289977578   T   T   T
  0.3277926947416341 -0.0030973588160685  0.3427710698564069   T   T   T
  0.5550041303299941  0.1120867975237068  0.1921981124109043   T   T   T
  0.4444016873622936  0.2212405301183206  0.0331784194224162   T   T   T
  0.6663239545747787 -0.0001715227111327  0.3476765145712808   T   T   T
  0.8881386056692108  0.1107358028362407  0.1911058860017685   T   T   T
  0.7782305995452790  0.2229791795130717  0.0355687700993344   T   T   T
  0.0035552057424485  0.3363136977628390  0.3440283710382951   T   T   T
  0.2209211818183299  0.4454252799466283  0.1908877929847256   T   T   T
  0.1115558935353970  0.5552421311027472  0.0341637872513504   T   T   T
  0.5544717004266623  0.4439018502102801  0.1845517022596631   T   T   T
  0.4444016873619854  0.5564951572434517  0.0331784194225268   T   T   T
  0.6714819257554556  0.3309672505227081  0.3525360605056054   T   T   T
  0.8868847680955750  0.4448496271272615  0.1912963042280206   T   T   T
  0.7799418819010878  0.5566379409500204  0.0332073878035226   T   T   T
 -0.0013537204468018  0.6659901397806804  0.3467477621996706   T   T   T
  0.2214579831501246  0.7773959915771409  0.1883974260270421   T   T   T
  0.1115558935352009  0.8896477624346755  0.0341637872513884   T   T   T
  0.3277926947459481  0.6642240535553824  0.3427710698569076   T   T   T
  0.5550041303365127  0.7762503328053917  0.1921981124109883   T   T   T
  0.4461698550394706  0.8897519275195261  0.0349711882026035   T   T   T
  0.6714819257536430  0.6738476752281366  0.3525360605050076   T   T   T
  0.8868847681030906  0.7753681409797610  0.1912963042281644   T   T   T
  0.7782305995466534  0.8885844200326712  0.0355687700996316   T   T   T
0.446598 0.216020 0.433410 T T T 
 
  0.00000000E+00  0.00000000E+00  0.00000000E+00
  0.00000000E+00  0.00000000E+00  0.00000000E+00
  0.00000000E+00  0.00000000E+00  0.00000000E+00
  0.00000000E+00  0.00000000E+00  0.00000000E+00
  0.00000000E+00  0.00000000E+00  0.00000000E+00
  0.00000000E+00  0.00000000E+00  0.00000000E+00
  0.00000000E+00  0.00000000E+00  0.00000000E+00
  0.00000000E+00  0.00000000E+00  0.00000000E+00
  0.00000000E+00  0.00000000E+00  0.00000000E+00
  0.00000000E+00  0.00000000E+00  0.00000000E+00
  0.00000000E+00  0.00000000E+00  0.00000000E+00
  0.00000000E+00  0.00000000E+00  0.00000000E+00
  0.00000000E+00  0.00000000E+00  0.00000000E+00
  0.00000000E+00  0.00000000E+00  0.00000000E+00
  0.00000000E+00  0.00000000E+00  0.00000000E+00
  0.00000000E+00  0.00000000E+00  0.00000000E+00
  0.00000000E+00  0.00000000E+00  0.00000000E+00
  0.00000000E+00  0.00000000E+00  0.00000000E+00
  0.00000000E+00  0.00000000E+00  0.00000000E+00
  0.00000000E+00  0.00000000E+00  0.00000000E+00
  0.00000000E+00  0.00000000E+00  0.00000000E+00
  0.00000000E+00  0.00000000E+00  0.00000000E+00
  0.00000000E+00  0.00000000E+00  0.00000000E+00
  0.00000000E+00  0.00000000E+00  0.00000000E+00
  0.00000000E+00  0.00000000E+00  0.00000000E+00
  0.00000000E+00  0.00000000E+00  0.00000000E+00
  0.00000000E+00  0.00000000E+00  0.00000000E+00
  0.00000000E+00  0.00000000E+00  0.00000000E+00
  0.00000000E+00  0.00000000E+00  0.00000000E+00
  0.00000000E+00  0.00000000E+00  0.00000000E+00
  0.00000000E+00  0.00000000E+00  0.00000000E+00
  0.00000000E+00  0.00000000E+00  0.00000000E+00
  0.00000000E+00  0.00000000E+00  0.00000000E+00
  0.00000000E+00  0.00000000E+00  0.00000000E+00
  0.00000000E+00  0.00000000E+00  0.00000000E+00
  0.00000000E+00  0.00000000E+00  0.00000000E+00
  0.00000000E+00  0.00000000E+00  0.00000000E+00
  0.00000000E+00  0.00000000E+00  0.00000000E+00
  0.00000000E+00  0.00000000E+00  0.00000000E+00
  0.00000000E+00  0.00000000E+00  0.00000000E+00
  0.00000000E+00  0.00000000E+00  0.00000000E+00
  0.00000000E+00  0.00000000E+00  0.00000000E+00
  0.00000000E+00  0.00000000E+00  0.00000000E+00
  0.00000000E+00  0.00000000E+00  0.00000000E+00
  0.00000000E+00  0.00000000E+00  0.00000000E+00
  0.00000000E+00  0.00000000E+00  0.00000000E+00
  0.00000000E+00  0.00000000E+00  0.00000000E+00
  0.00000000E+00  0.00000000E+00  0.00000000E+00
  0.00000000E+00  0.00000000E+00  0.00000000E+00
  0.00000000E+00  0.00000000E+00  0.00000000E+00
  0.00000000E+00  0.00000000E+00  0.00000000E+00
  0.00000000E+00  0.00000000E+00  0.00000000E+00
  0.00000000E+00  0.00000000E+00  0.00000000E+00
  0.00000000E+00  0.00000000E+00  0.00000000E+00
  0.00000000E+00  0.00000000E+00  0.00000000E+00
  0.00000000E+00  0.00000000E+00  0.00000000E+00
  0.00000000E+00  0.00000000E+00  0.00000000E+00
  0.00000000E+00  0.00000000E+00  0.00000000E+00
  0.00000000E+00  0.00000000E+00  0.00000000E+00
  0.00000000E+00  0.00000000E+00  0.00000000E+00
  0.00000000E+00  0.00000000E+00  0.00000000E+00
  0.00000000E+00  0.00000000E+00  0.00000000E+00
  0.00000000E+00  0.00000000E+00  0.00000000E+00
  0.00000000E+00  0.00000000E+00  0.00000000E+00
  0.00000000E+00  0.00000000E+00  0.00000000E+00
  0.00000000E+00  0.00000000E+00  0.00000000E+00
  0.00000000E+00  0.00000000E+00  0.00000000E+00
  0.00000000E+00  0.00000000E+00  0.00000000E+00
  0.00000000E+00  0.00000000E+00  0.00000000E+00
  0.00000000E+00  0.00000000E+00  0.00000000E+00
  0.00000000E+00  0.00000000E+00  0.00000000E+00
  0.00000000E+00  0.00000000E+00  0.00000000E+00
  0.00000000E+00  0.00000000E+00  0.00000000E+00
  0.00000000E+00  0.00000000E+00  0.00000000E+00
  0.00000000E+00  0.00000000E+00  0.00000000E+00
  0.00000000E+00  0.00000000E+00  0.00000000E+00
  0.00000000E+00  0.00000000E+00  0.00000000E+00
  0.00000000E+00  0.00000000E+00  0.00000000E+00
  0.00000000E+00  0.00000000E+00  0.00000000E+00
  0.00000000E+00  0.00000000E+00  0.00000000E+00
