CeO2-you-111-you-Ta                     
   1.00000000000000     
     9.8393223069295956   -5.6807357535649050    0.0000000000000000
     0.0000000006808483   11.3614695089314210   -0.0000000000000000
     0.0000000000000000   -0.0000000000000000   21.0734325691210280
   O    Ta   Ce H
    54     1    26 1
Selective dynamics
Direct
 -0.0004802294287690 -0.0002997161924945  0.9957553054004878   T   T   T
  0.1158746519592529  0.2246038259798623  0.1514761587931801   F   F   F
  0.2182895953225267  0.1032461906472970  0.3006121914107934   T   T   T
  0.1543106452913298  0.2438218226533284  0.3772291666354910   T   T   T
 -0.0031787002540876 -0.0018643461710268  0.2286890246388851   T   T   T
  0.2221423670903768  0.1109517341806289  0.0748014045582304   F   F   F
  0.3335135132362415 -0.0002997161926651  0.9957553054004878   T   T   T
  0.4420621740206054  0.2246038259800704  0.1514761587931801   F   F   F
  0.5519959068687147  0.1146710931337178  0.3069635560311660   T   T   T
  0.4228441773619946  0.2438218226601294  0.3772291666354910   T   T   T
  0.3346473540830476 -0.0018643461711821  0.2286890246388851   T   T   T
  0.5543190041569740  0.1123479958428131  0.0760013358053649   F   F   F
  0.6666669999999968  0.0000000000000000  0.9966996133128259   T   T   T
  0.7767064725864468  0.2200789451725752  0.1496442373718602   F   F   F
  0.8960091862642573  0.1146710931329712  0.3069635560311660   T   T   T
  0.7777037021431596  0.2220734042861116  0.3835516865503656   T   T   T
  0.6666669999999968  0.0000000000000000  0.2325387222309682   T   T   T
  0.8913629916859066  0.1123479958428797  0.0760013358053649   F   F   F
 -0.0004802294288506  0.3331524867633444  0.9957553054004878   T   T   T
  0.1113967377453031  0.5552702622547498  0.1495167319910520   F   F   F
  0.2182895953174643  0.4483764046752258  0.3006121914107934   T   T   T
  0.1103928410653252  0.5562741589333904  0.3849799504745097   T   T   T
 -0.0031787002541246  0.3320186459165925  0.2286890246388851   T   T   T
  0.2221423670906505  0.4445236329097440  0.0748014045582304   F   F   F
  0.3333330000000032  0.3333330000000032  0.9956340021461088   T   T   T
  0.4420621740201370  0.5507923480400744  0.1514761587931801   F   F   F
  0.5634208093600162  0.4483764046774726  0.3006121914107934   T   T   T
  0.4228441773466711  0.5123563546865491  0.3772291666354910   T   T   T
  0.3333330000000032  0.3333330000000032  0.2408609831210863   T   T   T
  0.5557152658189799  0.4445236329096225  0.0748014045582304   F   F   F
  0.6669667161922246  0.3331524867632100  0.9957553054004878   T   T   T
  0.7772065245094276  0.5552702622547352  0.1495167319910520   F   F   F
  0.8898093126954475  0.4462846253907419  0.3039553998339509   T   T   T
  0.7792143178684575  0.5562741589337862  0.3849799504745097   T   T   T
  0.6685313461707270  0.3320186459164535  0.2286890246388851   T   T   T
  0.8886536624973969  0.4439733249947078  0.0750845072524031   F   F   F
  0.0000000000000000  0.6666669999999968  0.9956189155289276   T   T   T
  0.1113967377452691  0.8894604754905201  0.1495167319910520   F   F   F
  0.2203813746087616  0.7768576873045493  0.3039553998339509   T   T   T
  0.1103928410662173  0.8874526821328274  0.3849799504745097   T   T   T
  0.0000000000000000  0.6666669999999968  0.2284112656271689   T   T   T
  0.2226926750050141  0.7780133375025999  0.0750845072524031   F   F   F
  0.3335135132365442  0.6671472294292846  0.9957553054004878   T   T   T
  0.4465870548263669  0.8899605274135500  0.1496442373718602   F   F   F
  0.5519959068670326  0.7706578137333109  0.3069635560311660   T   T   T
  0.4445925957131909  0.8889632978568371  0.3835516865503656   T   T   T
  0.3346473540833605  0.6698457002545734  0.2286890246388851   T   T   T
  0.5543190041571243  0.7753040083143072  0.0760013358053649   F   F   F
  0.6669667161926088  0.6671472294293210  0.9957553054004878   T   T   T
  0.7767064725871790  0.8899605274138749  0.1496442373718602   F   F   F
  0.8898093126957908  0.7768576873047019  0.3039553998339509   T   T   T
  0.7777037021436422  0.8889632978570511  0.3835516865503656   T   T   T
  0.6685313461710771  0.6698457002545898  0.2286890246388851   T   T   T
  0.8886536624975889  0.7780133375026852  0.0750845072524031   F   F   F
  0.3333330000000032  0.3333330000000032  0.3381330251488152   T   T   T
  0.0024639671502433 -0.0015454414614053  0.3430090780625127   T   T   T
  0.2212020196646175  0.1090710393292701  0.1905332813400144   F   F   F
  0.1115049493524911  0.2224189746765722  0.0358365035448130   F   F   F
  0.3293235913892525 -0.0015454414607362  0.3430090780625127   T   T   T
  0.5555201719655597  0.1111468280358838  0.1905550114787434   F   F   F
  0.4442470253240772  0.2224189746768607  0.0358365035448130   F   F   F
  0.6666669999999968  0.0000000000000000  0.3458591909063150   T   T   T
  0.8889606560698824  0.1111468280354414  0.1905550114787434   F   F   F
  0.7777874016558334  0.2222408033117746  0.0359583323602660   F   F   F
  0.0024639671522665  0.3373424086131596  0.3430090780625127   T   T   T
  0.2212020196645314  0.4454639803353435  0.1905332813400144   F   F   F
  0.1112810276663233  0.5553859723331609  0.0351083957194972   F   F   F
  0.5575959606708581  0.4454639803353818  0.1905332813400144   F   F   F
  0.4442470253234271  0.5551620506465741  0.0358365035448130   F   F   F
  0.6682124414599889  0.3373424086129309  0.3430090780625127   T   T   T
  0.8889636849097322  0.4445933698198475  0.1891045335181420   F   F   F
  0.7774379446669931  0.5553859723333204  0.0351083957194972   F   F   F
  0.0000000000000000  0.6666669999999968  0.3441726793570499   T   T   T
  0.2220726301814019  0.7777033150902646  0.1891045335181420   F   F   F
  0.1112810276666833  0.8892290553335228  0.0351083957194972   F   F   F
  0.3293235913897680  0.6642030328484748  0.3430090780625127   T   T   T
  0.5555201719645626  0.7777063439286749  0.1905550114787434   F   F   F
  0.4444251966885534  0.8888795983441634  0.0359583323602660   F   F   F
  0.6682124414584807  0.6642030328475764  0.3430090780625127   T   T   T
  0.8889636849088662  0.7777033150898806  0.1891045335181420   F   F   F
  0.7777874016556059  0.8888795983440619  0.0359583323602660   F   F   F
0.446598 0.216020 0.433410 T T T 
 
  0.00000000E+00  0.00000000E+00  0.00000000E+00
  0.00000000E+00  0.00000000E+00  0.00000000E+00
  0.00000000E+00  0.00000000E+00  0.00000000E+00
  0.00000000E+00  0.00000000E+00  0.00000000E+00
  0.00000000E+00  0.00000000E+00  0.00000000E+00
  0.00000000E+00  0.00000000E+00  0.00000000E+00
  0.00000000E+00  0.00000000E+00  0.00000000E+00
  0.00000000E+00  0.00000000E+00  0.00000000E+00
  0.00000000E+00  0.00000000E+00  0.00000000E+00
  0.00000000E+00  0.00000000E+00  0.00000000E+00
  0.00000000E+00  0.00000000E+00  0.00000000E+00
  0.00000000E+00  0.00000000E+00  0.00000000E+00
  0.00000000E+00  0.00000000E+00  0.00000000E+00
  0.00000000E+00  0.00000000E+00  0.00000000E+00
  0.00000000E+00  0.00000000E+00  0.00000000E+00
  0.00000000E+00  0.00000000E+00  0.00000000E+00
  0.00000000E+00  0.00000000E+00  0.00000000E+00
  0.00000000E+00  0.00000000E+00  0.00000000E+00
  0.00000000E+00  0.00000000E+00  0.00000000E+00
  0.00000000E+00  0.00000000E+00  0.00000000E+00
  0.00000000E+00  0.00000000E+00  0.00000000E+00
  0.00000000E+00  0.00000000E+00  0.00000000E+00
  0.00000000E+00  0.00000000E+00  0.00000000E+00
  0.00000000E+00  0.00000000E+00  0.00000000E+00
  0.00000000E+00  0.00000000E+00  0.00000000E+00
  0.00000000E+00  0.00000000E+00  0.00000000E+00
  0.00000000E+00  0.00000000E+00  0.00000000E+00
  0.00000000E+00  0.00000000E+00  0.00000000E+00
  0.00000000E+00  0.00000000E+00  0.00000000E+00
  0.00000000E+00  0.00000000E+00  0.00000000E+00
  0.00000000E+00  0.00000000E+00  0.00000000E+00
  0.00000000E+00  0.00000000E+00  0.00000000E+00
  0.00000000E+00  0.00000000E+00  0.00000000E+00
  0.00000000E+00  0.00000000E+00  0.00000000E+00
  0.00000000E+00  0.00000000E+00  0.00000000E+00
  0.00000000E+00  0.00000000E+00  0.00000000E+00
  0.00000000E+00  0.00000000E+00  0.00000000E+00
  0.00000000E+00  0.00000000E+00  0.00000000E+00
  0.00000000E+00  0.00000000E+00  0.00000000E+00
  0.00000000E+00  0.00000000E+00  0.00000000E+00
  0.00000000E+00  0.00000000E+00  0.00000000E+00
  0.00000000E+00  0.00000000E+00  0.00000000E+00
  0.00000000E+00  0.00000000E+00  0.00000000E+00
  0.00000000E+00  0.00000000E+00  0.00000000E+00
  0.00000000E+00  0.00000000E+00  0.00000000E+00
  0.00000000E+00  0.00000000E+00  0.00000000E+00
  0.00000000E+00  0.00000000E+00  0.00000000E+00
  0.00000000E+00  0.00000000E+00  0.00000000E+00
  0.00000000E+00  0.00000000E+00  0.00000000E+00
  0.00000000E+00  0.00000000E+00  0.00000000E+00
  0.00000000E+00  0.00000000E+00  0.00000000E+00
  0.00000000E+00  0.00000000E+00  0.00000000E+00
  0.00000000E+00  0.00000000E+00  0.00000000E+00
  0.00000000E+00  0.00000000E+00  0.00000000E+00
  0.00000000E+00  0.00000000E+00  0.00000000E+00
  0.00000000E+00  0.00000000E+00  0.00000000E+00
  0.00000000E+00  0.00000000E+00  0.00000000E+00
  0.00000000E+00  0.00000000E+00  0.00000000E+00
  0.00000000E+00  0.00000000E+00  0.00000000E+00
  0.00000000E+00  0.00000000E+00  0.00000000E+00
  0.00000000E+00  0.00000000E+00  0.00000000E+00
  0.00000000E+00  0.00000000E+00  0.00000000E+00
  0.00000000E+00  0.00000000E+00  0.00000000E+00
  0.00000000E+00  0.00000000E+00  0.00000000E+00
  0.00000000E+00  0.00000000E+00  0.00000000E+00
  0.00000000E+00  0.00000000E+00  0.00000000E+00
  0.00000000E+00  0.00000000E+00  0.00000000E+00
  0.00000000E+00  0.00000000E+00  0.00000000E+00
  0.00000000E+00  0.00000000E+00  0.00000000E+00
  0.00000000E+00  0.00000000E+00  0.00000000E+00
  0.00000000E+00  0.00000000E+00  0.00000000E+00
  0.00000000E+00  0.00000000E+00  0.00000000E+00
  0.00000000E+00  0.00000000E+00  0.00000000E+00
  0.00000000E+00  0.00000000E+00  0.00000000E+00
  0.00000000E+00  0.00000000E+00  0.00000000E+00
  0.00000000E+00  0.00000000E+00  0.00000000E+00
  0.00000000E+00  0.00000000E+00  0.00000000E+00
  0.00000000E+00  0.00000000E+00  0.00000000E+00
  0.00000000E+00  0.00000000E+00  0.00000000E+00
  0.00000000E+00  0.00000000E+00  0.00000000E+00
  0.00000000E+00  0.00000000E+00  0.00000000E+00
