CeO2-you-111-you-Sr                     
   1.00000000000000     
     9.8570750309948068   -5.7065757559629651   -0.0000258787013511
    -0.0000000013145642   11.4131495011354520    0.0000000000265582
    -0.0007488406642343    0.0000000001301565   21.1093633191882972
   O    Sr   Ce   H 
    53     1    26     1
Selective dynamics
Direct
  0.9993244700642631  0.0006340859571078  0.9963745136567443   T   T   T
  0.1159734814458532  0.2242566573617449  0.1514057296976945   T   T   T
  0.2163937564708334  0.1048107062256805  0.3040885272462964   T   T   T
  0.0886707983499273  0.2118653084116667  0.3880921594955999   T   T   T
  0.9978651183025599 -0.0000728310165051  0.2278640785138005   T   T   T
  0.2214467900413383  0.1097449705512707  0.0750864359596121   T   T   T
  0.3320664511284731  0.9991486389982221  0.9950416762503163   T   T   T
  0.4453543562601097  0.2207783616850063  0.1465847695730063   T   T   T
  0.5619950069966083  0.1154609775544355  0.3044600914546247   T   T   T
  0.4639731722376835  0.2301065354594841  0.4006288761134970   T   T   T
  0.3358425232242747 -0.0003166883460156  0.2278295441570479   T   T   T
  0.5547389911139879  0.1095643538040614  0.0737488949992786   T   T   T
  0.6689816369675311  0.0018367916851193  0.9954140883652897   T   T   T
  0.7735892937086476  0.2271626910133317  0.1509269337207926   T   T   T
  0.8860474138715311  0.1105737315927547  0.3022421189236404   T   T   T
  0.7806090481370377  0.2229900875206844  0.3867497770468767   T   T   T
  0.6659650148848967  0.0026654751020651  0.2265841991460898   T   T   T
  0.8879243519943799  0.1107921550254733  0.0775938089316684   T   T   T
  0.9984050355590108  0.3310088951418095  0.9963390193133733   T   T   T
  0.1108040904711714  0.5555784409954780  0.1503649651817804   T   T   T
  0.2178169638862672  0.4487724817722197  0.3033374743072571   T   T   T
  0.1103311475447408  0.5580030631889377  0.3848736384883982   T   T   T
  0.9992954788012253  0.3320318192121502  0.2271712773894376   T   T   T
  0.2214114413916481  0.4446001856796786  0.0745182504801427   T   T   T
  0.3299615905932406  0.3310794409108099  0.9951496111169927   T   T   T
  0.4450043600751258  0.5584478629801627  0.1455224400711336   T   T   T
  0.4644786792401237  0.5730410071486861  0.3794053492718940   T   T   T
  0.3498817650888399  0.3421899480349969  0.2293325633348263   T   T   T
  0.5540759634448245  0.4438148255217853  0.0707629357612385   T   T   T
  0.6674941655657979  0.3327276112448072  0.9951568192496124   T   T   T
  0.7781846125271097  0.5555266424665128  0.1461613473858675   T   T   T
  0.8924798411028544  0.4410756333098798  0.3034789221354022   T   T   T
  0.7547880049540295  0.5408391117178790  0.3736118786274904   T   T   T
  0.6567926633068767  0.3444541959901035  0.2357996835933374   T   T   T
  0.8902346326937185  0.4451851956619559  0.0744598568634618   T   T   T
 -0.0004320071865942  0.6670853836448807  0.9954142864072709   T   T   T
  0.1099261674557217  0.8878550284643997  0.1510154154342667   T   T   T
  0.2174037281734117  0.7697291406453229  0.3023136437190497   T   T   T
  0.0948474434331804  0.8741825099524549  0.3862441091986494   T   T   T
  0.9959466689576307  0.6643142363200789  0.2290744880166377   T   T   T
  0.2216387761529838  0.7772516085230909  0.0746480455717712   T   T   T
  0.3319176476398890  0.6660164788462603  0.9944972913051527   T   T   T
  0.4442831591767410  0.8883164614519909  0.1485185591726793   T   T   T
  0.5623033696862084  0.7855741477026080  0.2992943976101812   T   T   T
  0.4516676269769895  0.8797831688478868  0.3837994762398383   T   T   T
  0.3364118700599684  0.6675813976908520  0.2279404983631944   T   T   T
  0.5553397307015038  0.7788398526876414  0.0727044714842396   T   T   T
  0.6679728484061415  0.6685146750367227  0.9947493795371423   T   T   T
  0.7738421457126988  0.8822273658265271  0.1508343036715618   T   T   T
  0.8886014746157298  0.7805496968166465  0.3028996257110184   T   T   T
  0.7775486098485879  0.8917890680245947  0.3848475817360792   T   T   T
  0.6563776932385783  0.6466825164533214  0.2335754813710954   T   T   T
  0.8893825460761822  0.7789845880119470  0.0746571910107694   T   T   T
  0.3226237707653724  0.3301904619438855  0.3524670820076716   T   T   T
  0.0018879065311619  0.0025968065249962  0.3435847206715554   T   T   T
  0.2238817231826755  0.1124486939663939  0.1929736562232368   T   T   T
  0.1112703680664635  0.2218818165939478  0.0367557490868388   T   T   T
  0.3274933401420706 -0.0092374666330655  0.3462168608183228   T   T   T
  0.5534171199036817  0.1108054582142100  0.1894781766257069   T   T   T
  0.4423753903894679  0.2192778209213667  0.0335191040719902   T   T   T
  0.6663946681477166 -0.0010227505829863  0.3426163140020902   T   T   T
  0.8887094286332616  0.1116996410324837  0.1899322773213263   T   T   T
  0.7774646736714379  0.2223727698144534  0.0355320964897906   T   T   T
  0.0051768804608846  0.3332689105116327  0.3444738435496207   T   T   T
  0.2241988182289203  0.4441815014105298  0.1910483565787733   T   T   T
  0.1106506023962455  0.5547010650163547  0.0357230900112669   T   T   T
  0.5530957203563236  0.4438549284982510  0.1798910884826617   T   T   T
  0.4425424810717468  0.5562378134320215  0.0327319971552289   T   T   T
  0.6818122101926616  0.3267300080801699  0.3442047346865011   T   T   T
  0.8892750405820943  0.4456168558041976  0.1890510914611872   T   T   T
  0.7796950277161422  0.5568184565355941  0.0332084336142241   T   T   T
  0.0011456887715273  0.6666745276849547  0.3428264060510428   T   T   T
  0.2222498827769287  0.7776225868791639  0.1889925684352486   T   T   T
  0.1106105359524161  0.8894527633125764  0.0364731944765402   T   T   T
  0.3353754968771414  0.6662606262702120  0.3422390356839862   T   T   T
  0.5546954069812781  0.7774853863125853  0.1880601127099516   T   T   T
  0.4446082615542294  0.8892537828570504  0.0348165878115773   T   T   T
  0.6722163586079949  0.6826380121642379  0.3446879922770287   T   T   T
  0.8878995363299608  0.7765539482525952  0.1898377793545548   T   T   T
  0.7778466637169791  0.8890642217257180  0.0352340745850406   T   T   T
  0.4692473874211149  0.2384916589457975  0.4465670743730283   T   T   T
 
  0.00000000E+00  0.00000000E+00  0.00000000E+00
  0.00000000E+00  0.00000000E+00  0.00000000E+00
  0.00000000E+00  0.00000000E+00  0.00000000E+00
  0.00000000E+00  0.00000000E+00  0.00000000E+00
  0.00000000E+00  0.00000000E+00  0.00000000E+00
  0.00000000E+00  0.00000000E+00  0.00000000E+00
  0.00000000E+00  0.00000000E+00  0.00000000E+00
  0.00000000E+00  0.00000000E+00  0.00000000E+00
  0.00000000E+00  0.00000000E+00  0.00000000E+00
  0.00000000E+00  0.00000000E+00  0.00000000E+00
  0.00000000E+00  0.00000000E+00  0.00000000E+00
  0.00000000E+00  0.00000000E+00  0.00000000E+00
  0.00000000E+00  0.00000000E+00  0.00000000E+00
  0.00000000E+00  0.00000000E+00  0.00000000E+00
  0.00000000E+00  0.00000000E+00  0.00000000E+00
  0.00000000E+00  0.00000000E+00  0.00000000E+00
  0.00000000E+00  0.00000000E+00  0.00000000E+00
  0.00000000E+00  0.00000000E+00  0.00000000E+00
  0.00000000E+00  0.00000000E+00  0.00000000E+00
  0.00000000E+00  0.00000000E+00  0.00000000E+00
  0.00000000E+00  0.00000000E+00  0.00000000E+00
  0.00000000E+00  0.00000000E+00  0.00000000E+00
  0.00000000E+00  0.00000000E+00  0.00000000E+00
  0.00000000E+00  0.00000000E+00  0.00000000E+00
  0.00000000E+00  0.00000000E+00  0.00000000E+00
  0.00000000E+00  0.00000000E+00  0.00000000E+00
  0.00000000E+00  0.00000000E+00  0.00000000E+00
  0.00000000E+00  0.00000000E+00  0.00000000E+00
  0.00000000E+00  0.00000000E+00  0.00000000E+00
  0.00000000E+00  0.00000000E+00  0.00000000E+00
  0.00000000E+00  0.00000000E+00  0.00000000E+00
  0.00000000E+00  0.00000000E+00  0.00000000E+00
  0.00000000E+00  0.00000000E+00  0.00000000E+00
  0.00000000E+00  0.00000000E+00  0.00000000E+00
  0.00000000E+00  0.00000000E+00  0.00000000E+00
  0.00000000E+00  0.00000000E+00  0.00000000E+00
  0.00000000E+00  0.00000000E+00  0.00000000E+00
  0.00000000E+00  0.00000000E+00  0.00000000E+00
  0.00000000E+00  0.00000000E+00  0.00000000E+00
  0.00000000E+00  0.00000000E+00  0.00000000E+00
  0.00000000E+00  0.00000000E+00  0.00000000E+00
  0.00000000E+00  0.00000000E+00  0.00000000E+00
  0.00000000E+00  0.00000000E+00  0.00000000E+00
  0.00000000E+00  0.00000000E+00  0.00000000E+00
  0.00000000E+00  0.00000000E+00  0.00000000E+00
  0.00000000E+00  0.00000000E+00  0.00000000E+00
  0.00000000E+00  0.00000000E+00  0.00000000E+00
  0.00000000E+00  0.00000000E+00  0.00000000E+00
  0.00000000E+00  0.00000000E+00  0.00000000E+00
  0.00000000E+00  0.00000000E+00  0.00000000E+00
  0.00000000E+00  0.00000000E+00  0.00000000E+00
  0.00000000E+00  0.00000000E+00  0.00000000E+00
  0.00000000E+00  0.00000000E+00  0.00000000E+00
  0.00000000E+00  0.00000000E+00  0.00000000E+00
  0.00000000E+00  0.00000000E+00  0.00000000E+00
  0.00000000E+00  0.00000000E+00  0.00000000E+00
  0.00000000E+00  0.00000000E+00  0.00000000E+00
  0.00000000E+00  0.00000000E+00  0.00000000E+00
  0.00000000E+00  0.00000000E+00  0.00000000E+00
  0.00000000E+00  0.00000000E+00  0.00000000E+00
  0.00000000E+00  0.00000000E+00  0.00000000E+00
  0.00000000E+00  0.00000000E+00  0.00000000E+00
  0.00000000E+00  0.00000000E+00  0.00000000E+00
  0.00000000E+00  0.00000000E+00  0.00000000E+00
  0.00000000E+00  0.00000000E+00  0.00000000E+00
  0.00000000E+00  0.00000000E+00  0.00000000E+00
  0.00000000E+00  0.00000000E+00  0.00000000E+00
  0.00000000E+00  0.00000000E+00  0.00000000E+00
  0.00000000E+00  0.00000000E+00  0.00000000E+00
  0.00000000E+00  0.00000000E+00  0.00000000E+00
  0.00000000E+00  0.00000000E+00  0.00000000E+00
  0.00000000E+00  0.00000000E+00  0.00000000E+00
  0.00000000E+00  0.00000000E+00  0.00000000E+00
  0.00000000E+00  0.00000000E+00  0.00000000E+00
  0.00000000E+00  0.00000000E+00  0.00000000E+00
  0.00000000E+00  0.00000000E+00  0.00000000E+00
  0.00000000E+00  0.00000000E+00  0.00000000E+00
  0.00000000E+00  0.00000000E+00  0.00000000E+00
  0.00000000E+00  0.00000000E+00  0.00000000E+00
  0.00000000E+00  0.00000000E+00  0.00000000E+00
  0.00000000E+00  0.00000000E+00  0.00000000E+00
