CeO2-you-111-you-Ga                     
   1.00000000000000     
     9.8876431343028308   -5.7086337991742777   -0.0000000010916693
    -0.0311152723953399   11.3633723600030585   -0.0213616081628288
    -0.0230628615661555   -0.0399460412993359   20.7297998887013506
   O    Ga   Ce   H 
    53     1    26     2
Selective dynamics
Direct
  0.9996376305466549  0.0002016076484182  0.9919536701133677   T   T   T
  0.1087364731061697  0.2210898015814990  0.1467998888258464   F   F   F
  0.2416398120897076  0.1414341937667652  0.3154246407540499   T   T   T
  0.0648828586115834  0.2008382382141127  0.3968237454269495   T   T   T
  0.0097022474637317  0.0045358411924357  0.2308559814908615   T   T   T
  0.2219074983286760  0.1104819966567945  0.0719820120504195   F   F   F
  0.3342329637981717  0.0003897412868218  0.9918618805366504   T   T   T
  0.4456863284773505  0.2210898015821527  0.1467998888259530   F   F   F
  0.5511246579765646  0.1135253632744328  0.3057979427016040   T   T   T
  0.4727127933628740  0.1925491056615352  0.4134397187299966   T   T   T
  0.3286187749295717  0.0026929105178524  0.2303106327165802   T   T   T
  0.5569551561047064  0.1104113692945177  0.0730828501939627   F   F   F
  0.6661304899136999  0.9991298615648114  0.9921458368130269   T   T   T
  0.7777738687412139  0.2222137374836066  0.1529499659868847   F   F   F
  0.8858840394357759  0.1103147716394531  0.3014730788772939   T   T   T
  0.7774453750090666  0.2208262867780718  0.3859941147233754   T   T   T
  0.6628001899779107  0.9974490858136894  0.2301221853631232   T   T   T
  0.8867902131893075  0.1104113692933524  0.0730828501933445   F   F   F
  0.9995174585355877  0.3322251572250791  0.9922686488686389   T   T   T
  0.1088956618199575  0.5563109350026920  0.1477472388929115   F   F   F
  0.2423421116782680  0.4350139336571784  0.3151484915461358   T   T   T
  0.1138014243242318  0.5572840216744254  0.3841998136515892   T   T   T
  0.0103028274431269  0.3390377702744038  0.2311457076246572   T   T   T
  0.2218792793379336  0.4452992116375256  0.0725872884485739   F   F   F
  0.3335319642792652  0.3337124588329722  0.9925239682847394   T   T   T
  0.4460723527874890  0.5588127055784256  0.1470197713624941   F   F   F
  0.5241987059688394  0.4224955614070370  0.3200304577300941   T   T   T
  0.3346572362313455  0.3350200742424272  0.2205870438878424   T   T   T
  0.5567539322997419  0.4452992116375967  0.0725872884486023   F   F   F
  0.6658110060174013  0.3323220587309730  0.9922358741396373   T   T   T
  0.7807482731824180  0.5563109350030118  0.1477472388929897   F   F   F
  0.8896993135214792  0.4418394759609179  0.3049532967329385   T   T   T
  0.7837667825250464  0.5471547453768770  0.3874585738803715   T   T   T
  0.6641579714471088  0.3387664105215027  0.2314659549215596   T   T   T
  0.8877462204070170  0.4421584408133583  0.0727264348696650   F   F   F
  0.9994577278867230  0.6649332400453630  0.9915113358899490   T   T   T
  0.1106552090176933  0.8879774180347013  0.1470458006937392   F   F   F
  0.2215408931956627  0.7798524612004368  0.3044750502112196   T   T   T
  0.1176521886693820  0.8936581422022666  0.3864693023860017   T   T   T
  0.0000619944983250  0.6676005753258193  0.2295880813014444   T   T   T
  0.2219912719579327  0.7780391032724125  0.0718366730382414   F   F   F
  0.3337875921608853  0.6666802137958766  0.9922626574587630   T   T   T
  0.4422089814093084  0.8877905642471760  0.1502614837154042   F   F   F
  0.5477367298130716  0.7728391356694140  0.3053803665919567   T   T   T
  0.4406583599632225  0.8881533178509242  0.3860998989453836   T   T   T
  0.3261297843369248  0.6603558651502269  0.2299044219385412   T   T   T
  0.5566068803573430  0.7798797607160424  0.0736130228319851   F   F   F
  0.6661835728344413  0.6666846838730409  0.9922989473461810   T   T   T
  0.7789145828383184  0.8877905642470694  0.1502614837155249   F   F   F
  0.8950994419143601  0.7821246392349430  0.3066440013308712   T   T   T
  0.7799415108237997  0.9028115194805592  0.3878408643308733   T   T   T
  0.6656345242570151  0.6597891490034382  0.2295385272118288   T   T   T
  0.8893808313148028  0.7780391032719862  0.0718366730380851   F   F   F
  0.3335422966463552  0.3344817428489155  0.3152686386508215   T   T   T
 -0.0009561493120110  0.0060738569833554  0.3497077192583293   T   T   T
  0.2220372884361197  0.1107415768737425  0.1869818866675033   F   F   F
  0.1098626995668681  0.2211877832099631  0.0320157114025079   F   F   F
  0.3310306344627112 -0.0016445089718501  0.3481746068879237   T   T   T
  0.5543282812204495  0.1107538678337576  0.1906721970144147   F   F   F
  0.4446580836436169  0.2211877832098921  0.0320157114025719   F   F   F
  0.6656057090940285 -0.0013164712881194  0.3466584987019770   T   T   T
  0.8897595866128469  0.1107538678332602  0.1906721970143579   F   F   F
  0.7772126267278949  0.2210912534556257  0.0333491089783919   F   F   F
  0.0014701502991265  0.3285304529182000  0.3490813781222023   T   T   T
  0.2210128454688913  0.4457094464037823  0.1856602308678745   F   F   F
  0.1095940726400784  0.5548824859388546  0.0322576570109305   F   F   F
  0.5580306009346003  0.4457094464043792  0.1856602308681019   F   F   F
  0.4450075551902941  0.5566831103810941  0.0318366870409577   F   F   F
  0.6717593128853302  0.3340236753863086  0.3485033509011228   T   T   T
  0.8888211949546942  0.4443083899077394  0.1918917757675231   F   F   F
  0.7786214132991134  0.5548824859389541  0.0322576570109376   F   F   F
  0.0000091190569207  0.6673755333379103  0.3453011679845031   T   T   T
  0.2215099386122574  0.7793902727183735  0.1890998836592246   F   F   F
  0.1107947787150039  0.8882565574290666  0.0314998097130683   F   F   F
  0.3304568811009365  0.6693072595854861  0.3457080886344185   T   T   T
  0.5545362331841517  0.7757384663694253  0.1906715263460654   F   F   F
  0.4445879543104567  0.8884994750558093  0.0330994190897655   F   F   F
  0.6677240388511687  0.6665955402298734  0.3502489719967079   T   T   T
  0.8912133341059345  0.7793902727184303  0.1890998836592317   F   F   F
  0.7772445207453416  0.8884994750556103  0.0330994190895169   F   F   F
  0.4539755813628639  0.6022148472059573  0.4037458077451734   T   T   T
  0.4397655413047503  0.2289043399758555  0.4468764337055564   T   T   T
 
  0.00000000E+00  0.00000000E+00  0.00000000E+00
  0.00000000E+00  0.00000000E+00  0.00000000E+00
  0.00000000E+00  0.00000000E+00  0.00000000E+00
  0.00000000E+00  0.00000000E+00  0.00000000E+00
  0.00000000E+00  0.00000000E+00  0.00000000E+00
  0.00000000E+00  0.00000000E+00  0.00000000E+00
  0.00000000E+00  0.00000000E+00  0.00000000E+00
  0.00000000E+00  0.00000000E+00  0.00000000E+00
  0.00000000E+00  0.00000000E+00  0.00000000E+00
  0.00000000E+00  0.00000000E+00  0.00000000E+00
  0.00000000E+00  0.00000000E+00  0.00000000E+00
  0.00000000E+00  0.00000000E+00  0.00000000E+00
  0.00000000E+00  0.00000000E+00  0.00000000E+00
  0.00000000E+00  0.00000000E+00  0.00000000E+00
  0.00000000E+00  0.00000000E+00  0.00000000E+00
  0.00000000E+00  0.00000000E+00  0.00000000E+00
  0.00000000E+00  0.00000000E+00  0.00000000E+00
  0.00000000E+00  0.00000000E+00  0.00000000E+00
  0.00000000E+00  0.00000000E+00  0.00000000E+00
  0.00000000E+00  0.00000000E+00  0.00000000E+00
  0.00000000E+00  0.00000000E+00  0.00000000E+00
  0.00000000E+00  0.00000000E+00  0.00000000E+00
  0.00000000E+00  0.00000000E+00  0.00000000E+00
  0.00000000E+00  0.00000000E+00  0.00000000E+00
  0.00000000E+00  0.00000000E+00  0.00000000E+00
  0.00000000E+00  0.00000000E+00  0.00000000E+00
  0.00000000E+00  0.00000000E+00  0.00000000E+00
  0.00000000E+00  0.00000000E+00  0.00000000E+00
  0.00000000E+00  0.00000000E+00  0.00000000E+00
  0.00000000E+00  0.00000000E+00  0.00000000E+00
  0.00000000E+00  0.00000000E+00  0.00000000E+00
  0.00000000E+00  0.00000000E+00  0.00000000E+00
  0.00000000E+00  0.00000000E+00  0.00000000E+00
  0.00000000E+00  0.00000000E+00  0.00000000E+00
  0.00000000E+00  0.00000000E+00  0.00000000E+00
  0.00000000E+00  0.00000000E+00  0.00000000E+00
  0.00000000E+00  0.00000000E+00  0.00000000E+00
  0.00000000E+00  0.00000000E+00  0.00000000E+00
  0.00000000E+00  0.00000000E+00  0.00000000E+00
  0.00000000E+00  0.00000000E+00  0.00000000E+00
  0.00000000E+00  0.00000000E+00  0.00000000E+00
  0.00000000E+00  0.00000000E+00  0.00000000E+00
  0.00000000E+00  0.00000000E+00  0.00000000E+00
  0.00000000E+00  0.00000000E+00  0.00000000E+00
  0.00000000E+00  0.00000000E+00  0.00000000E+00
  0.00000000E+00  0.00000000E+00  0.00000000E+00
  0.00000000E+00  0.00000000E+00  0.00000000E+00
  0.00000000E+00  0.00000000E+00  0.00000000E+00
  0.00000000E+00  0.00000000E+00  0.00000000E+00
  0.00000000E+00  0.00000000E+00  0.00000000E+00
  0.00000000E+00  0.00000000E+00  0.00000000E+00
  0.00000000E+00  0.00000000E+00  0.00000000E+00
  0.00000000E+00  0.00000000E+00  0.00000000E+00
  0.00000000E+00  0.00000000E+00  0.00000000E+00
  0.00000000E+00  0.00000000E+00  0.00000000E+00
  0.00000000E+00  0.00000000E+00  0.00000000E+00
  0.00000000E+00  0.00000000E+00  0.00000000E+00
  0.00000000E+00  0.00000000E+00  0.00000000E+00
  0.00000000E+00  0.00000000E+00  0.00000000E+00
  0.00000000E+00  0.00000000E+00  0.00000000E+00
  0.00000000E+00  0.00000000E+00  0.00000000E+00
  0.00000000E+00  0.00000000E+00  0.00000000E+00
  0.00000000E+00  0.00000000E+00  0.00000000E+00
  0.00000000E+00  0.00000000E+00  0.00000000E+00
  0.00000000E+00  0.00000000E+00  0.00000000E+00
  0.00000000E+00  0.00000000E+00  0.00000000E+00
  0.00000000E+00  0.00000000E+00  0.00000000E+00
  0.00000000E+00  0.00000000E+00  0.00000000E+00
  0.00000000E+00  0.00000000E+00  0.00000000E+00
  0.00000000E+00  0.00000000E+00  0.00000000E+00
  0.00000000E+00  0.00000000E+00  0.00000000E+00
  0.00000000E+00  0.00000000E+00  0.00000000E+00
  0.00000000E+00  0.00000000E+00  0.00000000E+00
  0.00000000E+00  0.00000000E+00  0.00000000E+00
  0.00000000E+00  0.00000000E+00  0.00000000E+00
  0.00000000E+00  0.00000000E+00  0.00000000E+00
  0.00000000E+00  0.00000000E+00  0.00000000E+00
  0.00000000E+00  0.00000000E+00  0.00000000E+00
  0.00000000E+00  0.00000000E+00  0.00000000E+00
  0.00000000E+00  0.00000000E+00  0.00000000E+00
  0.00000000E+00  0.00000000E+00  0.00000000E+00
  0.00000000E+00  0.00000000E+00  0.00000000E+00
