CeO2-you-111-you-Pb                     
   1.00000000000000     
     9.9242270653546534   -5.7297555420333461   -0.0000000010483693
    -0.0432214523086127   11.3846473208958159   -0.0200885188359178
    -0.0214260846419974   -0.0371110609377293   21.1772514930615543
   O    Pb   Ce   H 
    53     1    26     2
Selective dynamics
Direct
  0.0004841912044865  0.0002391724303608  0.9970124441733210   T   T   T
  0.1098718919129382  0.2223591543843710  0.1500942592717109   F   F   F
  0.2394508047246449  0.1329650798832540  0.3095532382354936   T   T   T
  0.1072076055479837  0.2356845307098814  0.3866487169838380   T   T   T
  0.0046463589152368  0.0023898731342606  0.2290877838891830   T   T   T
  0.2229164313195042  0.1124998626389697  0.0759740570783549   F   F   F
  0.3331648517852437  0.0003212066145713  0.9966562149077267   T   T   T
  0.4458202624713579  0.2223591543842574  0.1500942592717394   F   F   F
  0.5620819321761757  0.1168651680873560  0.3035832821854250   T   T   T
  0.4682056222674678  0.2211418844612343  0.4056033004490247   T   T   T
  0.3318423828666155  0.0015779596526640  0.2276922078993552   T   T   T
  0.5562737780713150  0.1116975062427414  0.0753466396933291   F   F   F
  0.6666755743775779 -0.0003103946029685  0.9967129635223403   T   T   T
  0.7758391571419594  0.2183443142838755  0.1516652317923786   F   F   F
  0.8814188362462583  0.1111108775503762  0.3033524412133639   T   T   T
  0.7783470201150660  0.2238104212172518  0.3846224514067442   T   T   T
  0.6600545568594522  0.9894383326338012  0.2302951839673320   T   T   T
  0.8887577281715053  0.1116975062428267  0.0753466396933291   F   F   F
  0.0003814860149156  0.3336687592930958  0.9973202187349314   T   T   T
  0.1107614687385237  0.5549170065105429  0.1499567838033826   F   F   F
  0.2368955322350814  0.4535160321066449  0.3053514372462078   T   T   T
  0.1132327403904330  0.5574233902956058  0.3818241351787328   T   T   T
  0.0038605608189962  0.3350058929218594  0.2306049976931959   T   T   T
  0.2232244092719995  0.4447955346145704  0.0763618506508834   F   F   F
  0.3333531343048046  0.3336464313315213  0.9969351077968782   T   T   T
  0.4448197941446423  0.5563075882897905  0.1507209915232650   F   F   F
  0.5436362911469430  0.4403868722652737  0.3096412694227157   T   T   T
  0.3336871986976434  0.3353699410854570  0.2256971586777493   T   T   T
  0.5549051253424864  0.4447955346145491  0.0763618506508905   F   F   F
  0.6667259416582172  0.3335437534647164  0.9975883822676573   T   T   T
  0.7774885377717453  0.5549170065104505  0.1499567838033826   F   F   F
  0.8898657111149273  0.4440917573799925  0.3034176033158572   T   T   T
  0.7782869162234766  0.5540279044146867  0.3824709729970160   T   T   T
  0.6669275953007825  0.3374615036889183  0.2300532965596429   T   T   T
  0.8879808604588462  0.4426277209176774  0.0766971748466787   F   F   F
  0.9987875542995825  0.6648779374983786  0.9974618526683224   T   T   T
  0.1117726101277299  0.8902122202550231  0.1482264876027699   F   F   F
  0.2198702779752130  0.7745054036879816  0.3006343655723106   T   T   T
  0.1037335088183128  0.8730258278995784  0.3855136717214023   T   T   T
  0.0000421128019998  0.6674107908898587  0.2271248289603737   T   T   T
  0.2218372150165706  0.7778912186390201  0.0748881078255650   F   F   F
  0.3336510643690446  0.6665979186645254  0.9974679236859265   T   T   T
  0.4437336603934270  0.8890985346483617  0.1484840018407141   F   F   F
  0.5432790243532938  0.7515071959637696  0.3080791187307363   T   T   T
  0.4501648231271216  0.8812945486203827  0.3834015577435868   T   T   T
  0.3327189662612113  0.6701556633024418  0.2272057827891707   T   T   T
  0.5556697456467319  0.7780054912934844  0.0761308436935693   F   F   F
  0.6665066766721182  0.6670858940092678  0.9972626443547027   T   T   T
  0.7786978742553288  0.8890985346486318  0.1484840018407212   F   F   F
  0.8866581076623772  0.7725192652025632  0.3013205911322182   T   T   T
  0.7647761201513873  0.8789210038361728  0.3832638622657371   T   T   T
  0.6691516161727942  0.6666609776891155  0.2284530240151867   T   T   T
  0.8893870036224953  0.7778912186390485  0.0748881078255579   F   F   F
  0.3224810521868348  0.3325241782724282  0.3458732428368010   T   T   T
  0.0001263131540714  0.0017321790063371  0.3475199398387599   T   T   T
  0.2241378792886337  0.1149427585779321  0.1899128659405065   F   F   F
  0.1114895664220228  0.2225737785955317  0.0370382192564875   F   F   F
  0.3333280198600343 -0.0018107414973941  0.3475227353316699   T   T   T
  0.5543566421390267  0.1098635416939331  0.1893995465305736   F   F   F
  0.4444172121735761  0.2225737785956667  0.0370382192564875   F   F   F
  0.6656308241945941  0.9969306760452764  0.3433383749177000   T   T   T
  0.8888408995540260  0.1098635416932581  0.1893995465305878   F   F   F
  0.7774048807502041  0.2214757615003933  0.0369365809319788   F   F   F
  0.9986087541362809  0.3317798470330212  0.3443626292125651   T   T   T
  0.2227580192032761  0.4438923558245094  0.1913155124777930   F   F   F
  0.1106876185001653  0.5543095636932378  0.0370165413167527   F   F   F
  0.5544683366224277  0.4438923558245591  0.1913155124777290   F   F   F
  0.4440570953664178  0.5547821907327091  0.0368704610656181   F   F   F
  0.6746064639069898  0.3344147624459691  0.3428413023378966   T   T   T
  0.8889138843880318  0.4444937687757999  0.1899724029357657   F   F   F
  0.7769549451931042  0.5543095636932875  0.0370165413167385   F   F   F
  0.0018463861880939  0.6688142845418187  0.3430430664344343   T   T   T
  0.2209875347000434  0.7795214939161639  0.1868847723930500   F   F   F
  0.1112944731392460  0.8892559462786807  0.0354605623943556   F   F   F
  0.3247815127042948  0.6743072418791762  0.3382200351093833   T   T   T
  0.5544587946237627  0.7755835892474892  0.1877996618444868   F   F   F
  0.4443819950946732  0.8887070772186192  0.0359736002833984   F   F   F
  0.6819781029756380  0.6714228273225618  0.3387568651267778   T   T   T
  0.8918669592154274  0.7795214939155741  0.1868847723930500   F   F   F
  0.7776580821238639  0.8887070772185837  0.0359736002834055   F   F   F
  0.3961266370505157  0.4485686241193483  0.4142690420606422   T   T   T
  0.4711092280991494  0.2347702024530846  0.4510601751442016   T   T   T
 
  0.00000000E+00  0.00000000E+00  0.00000000E+00
  0.00000000E+00  0.00000000E+00  0.00000000E+00
  0.00000000E+00  0.00000000E+00  0.00000000E+00
  0.00000000E+00  0.00000000E+00  0.00000000E+00
  0.00000000E+00  0.00000000E+00  0.00000000E+00
  0.00000000E+00  0.00000000E+00  0.00000000E+00
  0.00000000E+00  0.00000000E+00  0.00000000E+00
  0.00000000E+00  0.00000000E+00  0.00000000E+00
  0.00000000E+00  0.00000000E+00  0.00000000E+00
  0.00000000E+00  0.00000000E+00  0.00000000E+00
  0.00000000E+00  0.00000000E+00  0.00000000E+00
  0.00000000E+00  0.00000000E+00  0.00000000E+00
  0.00000000E+00  0.00000000E+00  0.00000000E+00
  0.00000000E+00  0.00000000E+00  0.00000000E+00
  0.00000000E+00  0.00000000E+00  0.00000000E+00
  0.00000000E+00  0.00000000E+00  0.00000000E+00
  0.00000000E+00  0.00000000E+00  0.00000000E+00
  0.00000000E+00  0.00000000E+00  0.00000000E+00
  0.00000000E+00  0.00000000E+00  0.00000000E+00
  0.00000000E+00  0.00000000E+00  0.00000000E+00
  0.00000000E+00  0.00000000E+00  0.00000000E+00
  0.00000000E+00  0.00000000E+00  0.00000000E+00
  0.00000000E+00  0.00000000E+00  0.00000000E+00
  0.00000000E+00  0.00000000E+00  0.00000000E+00
  0.00000000E+00  0.00000000E+00  0.00000000E+00
  0.00000000E+00  0.00000000E+00  0.00000000E+00
  0.00000000E+00  0.00000000E+00  0.00000000E+00
  0.00000000E+00  0.00000000E+00  0.00000000E+00
  0.00000000E+00  0.00000000E+00  0.00000000E+00
  0.00000000E+00  0.00000000E+00  0.00000000E+00
  0.00000000E+00  0.00000000E+00  0.00000000E+00
  0.00000000E+00  0.00000000E+00  0.00000000E+00
  0.00000000E+00  0.00000000E+00  0.00000000E+00
  0.00000000E+00  0.00000000E+00  0.00000000E+00
  0.00000000E+00  0.00000000E+00  0.00000000E+00
  0.00000000E+00  0.00000000E+00  0.00000000E+00
  0.00000000E+00  0.00000000E+00  0.00000000E+00
  0.00000000E+00  0.00000000E+00  0.00000000E+00
  0.00000000E+00  0.00000000E+00  0.00000000E+00
  0.00000000E+00  0.00000000E+00  0.00000000E+00
  0.00000000E+00  0.00000000E+00  0.00000000E+00
  0.00000000E+00  0.00000000E+00  0.00000000E+00
  0.00000000E+00  0.00000000E+00  0.00000000E+00
  0.00000000E+00  0.00000000E+00  0.00000000E+00
  0.00000000E+00  0.00000000E+00  0.00000000E+00
  0.00000000E+00  0.00000000E+00  0.00000000E+00
  0.00000000E+00  0.00000000E+00  0.00000000E+00
  0.00000000E+00  0.00000000E+00  0.00000000E+00
  0.00000000E+00  0.00000000E+00  0.00000000E+00
  0.00000000E+00  0.00000000E+00  0.00000000E+00
  0.00000000E+00  0.00000000E+00  0.00000000E+00
  0.00000000E+00  0.00000000E+00  0.00000000E+00
  0.00000000E+00  0.00000000E+00  0.00000000E+00
  0.00000000E+00  0.00000000E+00  0.00000000E+00
  0.00000000E+00  0.00000000E+00  0.00000000E+00
  0.00000000E+00  0.00000000E+00  0.00000000E+00
  0.00000000E+00  0.00000000E+00  0.00000000E+00
  0.00000000E+00  0.00000000E+00  0.00000000E+00
  0.00000000E+00  0.00000000E+00  0.00000000E+00
  0.00000000E+00  0.00000000E+00  0.00000000E+00
  0.00000000E+00  0.00000000E+00  0.00000000E+00
  0.00000000E+00  0.00000000E+00  0.00000000E+00
  0.00000000E+00  0.00000000E+00  0.00000000E+00
  0.00000000E+00  0.00000000E+00  0.00000000E+00
  0.00000000E+00  0.00000000E+00  0.00000000E+00
  0.00000000E+00  0.00000000E+00  0.00000000E+00
  0.00000000E+00  0.00000000E+00  0.00000000E+00
  0.00000000E+00  0.00000000E+00  0.00000000E+00
  0.00000000E+00  0.00000000E+00  0.00000000E+00
  0.00000000E+00  0.00000000E+00  0.00000000E+00
  0.00000000E+00  0.00000000E+00  0.00000000E+00
  0.00000000E+00  0.00000000E+00  0.00000000E+00
  0.00000000E+00  0.00000000E+00  0.00000000E+00
  0.00000000E+00  0.00000000E+00  0.00000000E+00
  0.00000000E+00  0.00000000E+00  0.00000000E+00
  0.00000000E+00  0.00000000E+00  0.00000000E+00
  0.00000000E+00  0.00000000E+00  0.00000000E+00
  0.00000000E+00  0.00000000E+00  0.00000000E+00
  0.00000000E+00  0.00000000E+00  0.00000000E+00
  0.00000000E+00  0.00000000E+00  0.00000000E+00
  0.00000000E+00  0.00000000E+00  0.00000000E+00
  0.00000000E+00  0.00000000E+00  0.00000000E+00
