CeO2-you-111-you-Ir                     
   1.00000000000000     
     9.8148351294761014   -5.6665980718593536    0.0000000002169954
     0.0333011290093344   11.3908733929676185    0.0036899152945411
     0.0036678143132971    0.0063528396269678   20.6215315668968913
   O    Ir   Ce   H 
    53     1    26     2
Selective dynamics
Direct
  0.9995699500501665  0.0000209551239332  0.9908750784860604   T   T   T
  0.1028011692095205  0.2185525017818009  0.1458298984088131   F   F   F
  0.2314403980615966  0.1225094116638128  0.3040231111894304   T   T   T
  0.1247659376069416  0.2253021905841424  0.3921083486173814   T   T   T
  0.0013934115923825  0.0004119552694829  0.2295306847828779   T   T   T
  0.2220534145411222  0.1107738290823903  0.0710682743239914   F   F   F
  0.3342217105335065  0.0000730986306194  0.9907812275025900   T   T   T
  0.4490843325720633  0.2185525017813390  0.1458298984088060   F   F   F
  0.5508397584056123  0.1234129434237812  0.3101991330830280   T   T   T
  0.3996148035037643  0.2171278754765462  0.4079521971403801   T   T   T
  0.3321075974514086 -0.0011399009738158  0.2292955480251710   T   T   T
  0.5585653008860803  0.1095162153887443  0.0723201255912898   F   F   F
  0.6667057072616412 -0.0003145400667120  0.9892198962234593   T   T   T
  0.7795614566037585  0.2257889132072606  0.1527939483032625   F   F   F
  0.8961481133248699  0.1176141097470069  0.3071582782834853   T   T   T
  0.7802881684708655  0.2256843238568579  0.3877289184773693   T   T   T
  0.6654066354212996  0.0024346571052893  0.2340599662446447   T   T   T
  0.8842849145026221  0.1095162153888438  0.0723201255913040   F   F   F
 -0.0000950914887421  0.3327414794614811  0.9906271607742446   T   T   T
  0.1096148374608887  0.5555343404302135  0.1475023066854106   F   F   F
  0.2471002715250542  0.4334131244801432  0.3121338456122018   T   T   T
  0.1005854457263560  0.5467593181809286  0.3873560024605433   T   T   T
  0.0105534816901641  0.3398403889509019  0.2326786872139865   T   T   T
  0.2223403020702790  0.4438644816488804  0.0719747556079895   F   F   F
  0.3332279417442187  0.3329778891380917  0.9905846680582737   T   T   T
  0.4490973923037060  0.5648627846072216  0.1460199694652715   F   F   F
  0.5152397882139353  0.4240384086415365  0.3232768900050841   T   T   T
  0.3340939892135675  0.3333834578605308  0.2119492743649062   T   T   T
  0.5548581795784244  0.4438644816486601  0.0719747556079469   F   F   F
  0.6659915012580169  0.3327117459994898  0.9905185573695026   T   T   T
  0.7792525029694346  0.5555343404299933  0.1475023066854391   F   F   F
  0.8881901863429911  0.4411236770821106  0.3049657223060549   T   T   T
  0.7834218743508155  0.5479319387018239  0.3878378617232259   T   T   T
  0.6639629011632588  0.3422390679667565  0.2331904197201771   T   T   T
  0.8879461366770371  0.4425582733543436  0.0719626942535925   F   F   F
  0.9998019750200914  0.6662141882114354  0.9910400867726523   T   T   T
  0.1104887649475543  0.8876445298946862  0.1471011739480019   F   F   F
  0.2195464498048547  0.7795514922834194  0.3055922210492851   T   T   T
  0.1117824335339847  0.8908412144137083  0.3875622343546580   T   T   T
  0.9991105456068652  0.6656225110036879  0.2300425708604348   T   T   T
  0.2235472132687732  0.7781270123328596  0.0718392220277977   F   F   F
  0.3333535316145347  0.6662458383671964  0.9906215509951899   T   T   T
  0.4451002946556812  0.8896320160877593  0.1508380090782069   F   F   F
  0.5564653385792435  0.7787148304210015  0.3102942315367695   T   T   T
  0.4476903975689427  0.9046926220996665  0.3891580856612252   T   T   T
  0.3299027731057170  0.6624264322133087  0.2298478915702204   T   T   T
  0.5576313934294603  0.7819287868586855  0.0719563973625483   F   F   F
  0.6657863940158214  0.6660476545194117  0.9907865784157407   T   T   T
  0.7778647214322731  0.8896320160880791  0.1508380090782069   F   F   F
  0.8942649754150047  0.7802043705745249  0.3061204949424622   T   T   T
  0.7877271971621326  0.9050683780904129  0.3899043569491168   T   T   T
  0.6646783903549067  0.6598029688208369  0.2308032776135468   T   T   T
  0.8879127990640114  0.7781270123327815  0.0718392220277622   F   F   F
  0.3202978039949383  0.3287133529956732  0.3601144686831371   T   T   T
  0.0061142283497741  0.0043044340814756  0.3459853236918263   T   T   T
  0.2230600782284782  0.1127871564562781  0.1858190587246824   F   F   F
  0.1097963933046842  0.2215186165153682  0.0307211915643180   F   F   F
  0.3264039894276411  0.9973862618074097  0.3446581459809948   T   T   T
  0.5548963540437057  0.1117603186547029  0.1909278205516571   F   F   F
  0.4450552232106872  0.2215186165153753  0.0307211915643535   F   F   F
  0.6680338159316053  0.0025060411416361  0.3497556579158275   T   T   T
  0.8901979646105787  0.1117603186543477  0.1909278205517921   F   F   F
  0.7775112726178577  0.2216885452354873  0.0318555285226552   F   F   F
  0.0060805304517906  0.3338383955527253  0.3473400134245732   T   T   T
  0.2257146778081278  0.4446091615713001  0.1859825582494778   F   F   F
  0.1107598539473003  0.5554232340600791  0.0318213860766505   F   F   F
  0.5522284837637272  0.4446091615716270  0.1859825582496839   F   F   F
  0.4452756697059641  0.5572193394117591  0.0306374588435006   F   F   F
  0.6722831993481804  0.3393311172814067  0.3459719411994956   T   T   T
  0.8894040886807986  0.4454741773611630  0.1905391743102527   F   F   F
  0.7779963801129099  0.5554232340602070  0.0318213860766505   F   F   F
  0.9998709647676330  0.6647369607586988  0.3461858925640296   T   T   T
  0.2221189286162399  0.7775521735803110  0.1889159637881477   F   F   F
  0.1108581300121116  0.8883832600241632  0.0313470263001108   F   F   F
  0.3295582715750193  0.6700895995298377  0.3470570844275833   T   T   T
  0.5557875695128089  0.7782411390258446  0.1921096399617639   F   F   F
  0.4460228979207201  0.8895647406970966  0.0318771018034028   F   F   F
  0.6757437039419120  0.6712867497736617  0.3478075861834971   T   T   T
  0.8887662449634064  0.7775521735801405  0.1889159637882187   F   F   F
  0.7768748427764294  0.8895647406970824  0.0318771018033601   F   F   F
  0.3685490198140843  0.4432755754611498  0.4134530099596610   T   T   T
  0.3949031684119567  0.2261688163936831  0.4546703701085008   T   T   T
 
  0.00000000E+00  0.00000000E+00  0.00000000E+00
  0.00000000E+00  0.00000000E+00  0.00000000E+00
  0.00000000E+00  0.00000000E+00  0.00000000E+00
  0.00000000E+00  0.00000000E+00  0.00000000E+00
  0.00000000E+00  0.00000000E+00  0.00000000E+00
  0.00000000E+00  0.00000000E+00  0.00000000E+00
  0.00000000E+00  0.00000000E+00  0.00000000E+00
  0.00000000E+00  0.00000000E+00  0.00000000E+00
  0.00000000E+00  0.00000000E+00  0.00000000E+00
  0.00000000E+00  0.00000000E+00  0.00000000E+00
  0.00000000E+00  0.00000000E+00  0.00000000E+00
  0.00000000E+00  0.00000000E+00  0.00000000E+00
  0.00000000E+00  0.00000000E+00  0.00000000E+00
  0.00000000E+00  0.00000000E+00  0.00000000E+00
  0.00000000E+00  0.00000000E+00  0.00000000E+00
  0.00000000E+00  0.00000000E+00  0.00000000E+00
  0.00000000E+00  0.00000000E+00  0.00000000E+00
  0.00000000E+00  0.00000000E+00  0.00000000E+00
  0.00000000E+00  0.00000000E+00  0.00000000E+00
  0.00000000E+00  0.00000000E+00  0.00000000E+00
  0.00000000E+00  0.00000000E+00  0.00000000E+00
  0.00000000E+00  0.00000000E+00  0.00000000E+00
  0.00000000E+00  0.00000000E+00  0.00000000E+00
  0.00000000E+00  0.00000000E+00  0.00000000E+00
  0.00000000E+00  0.00000000E+00  0.00000000E+00
  0.00000000E+00  0.00000000E+00  0.00000000E+00
  0.00000000E+00  0.00000000E+00  0.00000000E+00
  0.00000000E+00  0.00000000E+00  0.00000000E+00
  0.00000000E+00  0.00000000E+00  0.00000000E+00
  0.00000000E+00  0.00000000E+00  0.00000000E+00
  0.00000000E+00  0.00000000E+00  0.00000000E+00
  0.00000000E+00  0.00000000E+00  0.00000000E+00
  0.00000000E+00  0.00000000E+00  0.00000000E+00
  0.00000000E+00  0.00000000E+00  0.00000000E+00
  0.00000000E+00  0.00000000E+00  0.00000000E+00
  0.00000000E+00  0.00000000E+00  0.00000000E+00
  0.00000000E+00  0.00000000E+00  0.00000000E+00
  0.00000000E+00  0.00000000E+00  0.00000000E+00
  0.00000000E+00  0.00000000E+00  0.00000000E+00
  0.00000000E+00  0.00000000E+00  0.00000000E+00
  0.00000000E+00  0.00000000E+00  0.00000000E+00
  0.00000000E+00  0.00000000E+00  0.00000000E+00
  0.00000000E+00  0.00000000E+00  0.00000000E+00
  0.00000000E+00  0.00000000E+00  0.00000000E+00
  0.00000000E+00  0.00000000E+00  0.00000000E+00
  0.00000000E+00  0.00000000E+00  0.00000000E+00
  0.00000000E+00  0.00000000E+00  0.00000000E+00
  0.00000000E+00  0.00000000E+00  0.00000000E+00
  0.00000000E+00  0.00000000E+00  0.00000000E+00
  0.00000000E+00  0.00000000E+00  0.00000000E+00
  0.00000000E+00  0.00000000E+00  0.00000000E+00
  0.00000000E+00  0.00000000E+00  0.00000000E+00
  0.00000000E+00  0.00000000E+00  0.00000000E+00
  0.00000000E+00  0.00000000E+00  0.00000000E+00
  0.00000000E+00  0.00000000E+00  0.00000000E+00
  0.00000000E+00  0.00000000E+00  0.00000000E+00
  0.00000000E+00  0.00000000E+00  0.00000000E+00
  0.00000000E+00  0.00000000E+00  0.00000000E+00
  0.00000000E+00  0.00000000E+00  0.00000000E+00
  0.00000000E+00  0.00000000E+00  0.00000000E+00
  0.00000000E+00  0.00000000E+00  0.00000000E+00
  0.00000000E+00  0.00000000E+00  0.00000000E+00
  0.00000000E+00  0.00000000E+00  0.00000000E+00
  0.00000000E+00  0.00000000E+00  0.00000000E+00
  0.00000000E+00  0.00000000E+00  0.00000000E+00
  0.00000000E+00  0.00000000E+00  0.00000000E+00
  0.00000000E+00  0.00000000E+00  0.00000000E+00
  0.00000000E+00  0.00000000E+00  0.00000000E+00
  0.00000000E+00  0.00000000E+00  0.00000000E+00
  0.00000000E+00  0.00000000E+00  0.00000000E+00
  0.00000000E+00  0.00000000E+00  0.00000000E+00
  0.00000000E+00  0.00000000E+00  0.00000000E+00
  0.00000000E+00  0.00000000E+00  0.00000000E+00
  0.00000000E+00  0.00000000E+00  0.00000000E+00
  0.00000000E+00  0.00000000E+00  0.00000000E+00
  0.00000000E+00  0.00000000E+00  0.00000000E+00
  0.00000000E+00  0.00000000E+00  0.00000000E+00
  0.00000000E+00  0.00000000E+00  0.00000000E+00
  0.00000000E+00  0.00000000E+00  0.00000000E+00
  0.00000000E+00  0.00000000E+00  0.00000000E+00
  0.00000000E+00  0.00000000E+00  0.00000000E+00
  0.00000000E+00  0.00000000E+00  0.00000000E+00
