CeO2-you-111-you-Sn                     
   1.00000000000000     
     9.8566926187027928   -5.7035769000262535   -0.0076315529427243
    -0.0110958555657416   11.3879332081374720    0.0076315516352933
    -0.0086330062662853    0.0149528045082338   21.1781210706499827
   O    Sn   Ce
    53     1    26
Selective dynamics
Direct
 -0.0011096695728684 -0.0003344839261112  0.9967218924339390   T   T   T
  0.1129167518785449  0.2215439631030971  0.1483566802929738   T   T   T
  0.2288302832088663  0.1100893642144363  0.2996937816376130   T   T   T
  0.1452333546149816  0.2457504851550093  0.3694347760474471   T   T   T
  0.0015673812294456  0.0010311763551562  0.2295135830700868   T   T   T
  0.2217372796494619  0.1099591228171475  0.0747672231428894   T   T   T
  0.3355574473739861  0.0011092540886119  0.9971158804986364   T   T   T
  0.4397800690079641  0.2268859309933262  0.1520476747486590   T   T   T
  0.5540488996551536  0.1126181003455389  0.3033172238882670   T   T   T
  0.4375415664687222  0.2291244335317110  0.3814351669142499   T   T   T
  0.3356488570277706  0.0000074734573358  0.2263551046112760   T   T   T
  0.5546509483623956  0.1120160516375112  0.0789249657188702   T   T   T
  0.6656472674541721  0.0010197325461927  0.9988009785811183   T   T   T
  0.7843160747066692  0.2237769095790526  0.1519970714547219   T   T   T
  0.8860270645424521  0.1047462173134160  0.3047667053476109   T   T   T
  0.7651064576358314  0.2157330423388119  0.3865570682458531   T   T   T
  0.6660907128276699  0.0005762871711899  0.2294559239634995   T   T   T
  0.8894992151284383  0.1106394033910064  0.0766216853986036   T   T   T
 -0.0021180808684903  0.3321617849506401  0.9963427444722531   T   T   T
  0.1106243537599185  0.5560426462369225  0.1471282493378235   T   T   T
  0.1049449081388202  0.5617220918560089  0.3829329414884914   T   T   T
  0.0167495189663599  0.3425547468156396  0.2332036786301397   T   T   T
  0.2220746761732215  0.4445913238263763  0.0727756564427362   T   T   T
  0.3336751109651202  0.3329908890340709  0.9960274216159990   T   T   T
  0.4451220369007863  0.5537502481211656  0.1483566802933167   T   T   T
  0.5565776357893558  0.4378357167903191  0.2996937816383755   T   T   T
  0.4209155148488256  0.5214336453883774  0.3694347760469919   T   T   T
  0.3223117271171455  0.3443542728839019  0.2389833702560523   T   T   T
  0.5567078771829822  0.4449287203499479  0.0747672231428737   T   T   T
  0.6655577459115583  0.3311085526258266  0.9971158804986092   T   T   T
  0.7779724440144242  0.5558297131502603  0.1504484453880011   T   T   T
  0.8813439952107889  0.4437510323369948  0.3023096196093327   T   T   T
  0.7743990864810012  0.5567230123720702  0.3816613858837543   T   T   T
  0.6666595265431390  0.3310171429728497  0.2263551046110932   T   T   T
  0.8881269958327235  0.4444084151125952  0.0753885215126727   T   T   T
 -0.0007144210849813  0.6673814210846087  0.9962820085262825   T   T   T
  0.1108372868493942  0.8886945559859419  0.1504484453880732   T   T   T
  0.2229149676598528  0.7853230047845794  0.3023096196096194   T   T   T
  0.1099439876296020  0.8922679135206499  0.3816613858838476   T   T   T
  0.0009263867608573  0.6657406132385388  0.2287864982555182   T   T   T
  0.2222575848868977  0.7785400041667038  0.0753885215128308   T   T   T
  0.3345042150497132  0.6687850808687782  0.9963427444724769   T   T   T
  0.4428890904203641  0.8823509252931090  0.1519970714543836   T   T   T
  0.5619207826888200  0.7806399354571013  0.3047667053470801   T   T   T
  0.4509329576601321  0.9015605423567845  0.3865570682462314   T   T   T
  0.3241112531844418  0.6499174810303384  0.2332036786303541   T   T   T
  0.5560275966094691  0.7771677848714909  0.0766216853986863   T   T   T
  0.6670014839265860  0.6677766695727028  0.9967218924340170   T   T   T
  0.7777755965125358  0.8888914034884471  0.1520948528491332   T   T   T
  0.8885899881873438  0.7780770118136882  0.3019103979934925   T   T   T
  0.7811107939764437  0.8855562060230256  0.3837371370223278   T   T   T
  0.6656358236465426  0.6650996187709923  0.2295135830699769   T   T   T
  0.8887042576947120  0.7779627423053044  0.0760689078886971   T   T   T
  0.3427938516082374  0.3238721483919406  0.3384639975474463   T   T   T
  0.0030090461936846  0.0005919979435308  0.3412421061178309   T   T   T
  0.2216677837008557  0.1102829132108170  0.1899674876596899   T   T   T
  0.1099511834266779  0.2203583349282464  0.0348354054624919   T   T   T
  0.3338201542996750  0.0008826043299738  0.3423652021822260   T   T   T
  0.5560085668816425  0.1106584331183358  0.1904613498035031   T   T   T
  0.4442349454818422  0.2224310545180585  0.0364131034652441   T   T   T
  0.6671853790063924 -0.0005183790034261  0.3449918916588741   T   T   T
  0.8908040044461498  0.1123845628432034  0.1921325689370833   T   T   T
  0.7781048616610097  0.2223093852809212  0.0375664646284208   T   T   T
 -0.0091440894230998  0.3307616914665557  0.3506112513772983   T   T   T
  0.2217007281320968  0.4449652718703740  0.1824154258203944   T   T   T
  0.1101360098255332  0.5565309901744264  0.0345572168164329   T   T   T
  0.5563840867808501  0.4449982162981330  0.1899674876592706   T   T   T
  0.4463076650719099  0.5567158165735779  0.0348354054624032   T   T   T
  0.6657843956644163  0.3328458456968795  0.3423652021817210   T   T   T
  0.8905347073846227  0.4443782474121721  0.1908824429411809   T   T   T
  0.7773623414516162  0.5550188650844071  0.0366151945045072   T   T   T
 -0.0002291886273312  0.6668961886286214  0.3425136837859394   T   T   T
  0.2222877525915161  0.7761322926203488  0.1908824429411793   T   T   T
  0.1116481349163124  0.8893046585480452  0.0366151945046432   T   T   T
  0.3359043085361317  0.6758110894329783  0.3506112513764759   T   T   T
  0.5542824371534166  0.7758629955571226  0.1921325689367151   T   T   T
  0.4443566147194078  0.8885621383395000  0.0375664646283825   T   T   T
  0.6660750020499930  0.6636579538082289  0.3412421061174029   T   T   T
  0.8893438728651695  0.7773231271336714  0.1893660531677137   T   T   T
  0.7773587777752062  0.8893082222241679  0.0380839594677819   T   T   T
 
  0.00000000E+00  0.00000000E+00  0.00000000E+00
  0.00000000E+00  0.00000000E+00  0.00000000E+00
  0.00000000E+00  0.00000000E+00  0.00000000E+00
  0.00000000E+00  0.00000000E+00  0.00000000E+00
  0.00000000E+00  0.00000000E+00  0.00000000E+00
  0.00000000E+00  0.00000000E+00  0.00000000E+00
  0.00000000E+00  0.00000000E+00  0.00000000E+00
  0.00000000E+00  0.00000000E+00  0.00000000E+00
  0.00000000E+00  0.00000000E+00  0.00000000E+00
  0.00000000E+00  0.00000000E+00  0.00000000E+00
  0.00000000E+00  0.00000000E+00  0.00000000E+00
  0.00000000E+00  0.00000000E+00  0.00000000E+00
  0.00000000E+00  0.00000000E+00  0.00000000E+00
  0.00000000E+00  0.00000000E+00  0.00000000E+00
  0.00000000E+00  0.00000000E+00  0.00000000E+00
  0.00000000E+00  0.00000000E+00  0.00000000E+00
  0.00000000E+00  0.00000000E+00  0.00000000E+00
  0.00000000E+00  0.00000000E+00  0.00000000E+00
  0.00000000E+00  0.00000000E+00  0.00000000E+00
  0.00000000E+00  0.00000000E+00  0.00000000E+00
  0.00000000E+00  0.00000000E+00  0.00000000E+00
  0.00000000E+00  0.00000000E+00  0.00000000E+00
  0.00000000E+00  0.00000000E+00  0.00000000E+00
  0.00000000E+00  0.00000000E+00  0.00000000E+00
  0.00000000E+00  0.00000000E+00  0.00000000E+00
  0.00000000E+00  0.00000000E+00  0.00000000E+00
  0.00000000E+00  0.00000000E+00  0.00000000E+00
  0.00000000E+00  0.00000000E+00  0.00000000E+00
  0.00000000E+00  0.00000000E+00  0.00000000E+00
  0.00000000E+00  0.00000000E+00  0.00000000E+00
  0.00000000E+00  0.00000000E+00  0.00000000E+00
  0.00000000E+00  0.00000000E+00  0.00000000E+00
  0.00000000E+00  0.00000000E+00  0.00000000E+00
  0.00000000E+00  0.00000000E+00  0.00000000E+00
  0.00000000E+00  0.00000000E+00  0.00000000E+00
  0.00000000E+00  0.00000000E+00  0.00000000E+00
  0.00000000E+00  0.00000000E+00  0.00000000E+00
  0.00000000E+00  0.00000000E+00  0.00000000E+00
  0.00000000E+00  0.00000000E+00  0.00000000E+00
  0.00000000E+00  0.00000000E+00  0.00000000E+00
  0.00000000E+00  0.00000000E+00  0.00000000E+00
  0.00000000E+00  0.00000000E+00  0.00000000E+00
  0.00000000E+00  0.00000000E+00  0.00000000E+00
  0.00000000E+00  0.00000000E+00  0.00000000E+00
  0.00000000E+00  0.00000000E+00  0.00000000E+00
  0.00000000E+00  0.00000000E+00  0.00000000E+00
  0.00000000E+00  0.00000000E+00  0.00000000E+00
  0.00000000E+00  0.00000000E+00  0.00000000E+00
  0.00000000E+00  0.00000000E+00  0.00000000E+00
  0.00000000E+00  0.00000000E+00  0.00000000E+00
  0.00000000E+00  0.00000000E+00  0.00000000E+00
  0.00000000E+00  0.00000000E+00  0.00000000E+00
  0.00000000E+00  0.00000000E+00  0.00000000E+00
  0.00000000E+00  0.00000000E+00  0.00000000E+00
  0.00000000E+00  0.00000000E+00  0.00000000E+00
  0.00000000E+00  0.00000000E+00  0.00000000E+00
  0.00000000E+00  0.00000000E+00  0.00000000E+00
  0.00000000E+00  0.00000000E+00  0.00000000E+00
  0.00000000E+00  0.00000000E+00  0.00000000E+00
  0.00000000E+00  0.00000000E+00  0.00000000E+00
  0.00000000E+00  0.00000000E+00  0.00000000E+00
  0.00000000E+00  0.00000000E+00  0.00000000E+00
  0.00000000E+00  0.00000000E+00  0.00000000E+00
  0.00000000E+00  0.00000000E+00  0.00000000E+00
  0.00000000E+00  0.00000000E+00  0.00000000E+00
  0.00000000E+00  0.00000000E+00  0.00000000E+00
  0.00000000E+00  0.00000000E+00  0.00000000E+00
  0.00000000E+00  0.00000000E+00  0.00000000E+00
  0.00000000E+00  0.00000000E+00  0.00000000E+00
  0.00000000E+00  0.00000000E+00  0.00000000E+00
  0.00000000E+00  0.00000000E+00  0.00000000E+00
  0.00000000E+00  0.00000000E+00  0.00000000E+00
  0.00000000E+00  0.00000000E+00  0.00000000E+00
  0.00000000E+00  0.00000000E+00  0.00000000E+00
  0.00000000E+00  0.00000000E+00  0.00000000E+00
  0.00000000E+00  0.00000000E+00  0.00000000E+00
  0.00000000E+00  0.00000000E+00  0.00000000E+00
  0.00000000E+00  0.00000000E+00  0.00000000E+00
  0.00000000E+00  0.00000000E+00  0.00000000E+00
  0.00000000E+00  0.00000000E+00  0.00000000E+00
