CeO2-you-111-you-Y                      
   1.00000000000000     
     9.8541710964902656   -5.7002138870081378   -0.0061602052324821
    -0.0094441627184748   11.3840679991647793    0.0061602041997280
    -0.0065608522837107    0.0113637289249815   20.4772533645604646
   O    Y    Ce   H 
    53     1    26     2
Selective dynamics
Direct
  0.9996473388281339  0.0001685523233196  0.9895557747020917   T   T   T
  0.1103014469570383  0.2209792530313237  0.1463171838830704   F   F   F
  0.2336945348741453  0.1094844354324439  0.3067788309818055   T   T   T
  0.1239058070541098  0.2286545944602504  0.3824236046512756   T   T   T
  0.0031580836014241  0.0029685768335126  0.2311195391218402   T   T   T
  0.2217771348190993  0.1105840156854399  0.0713897690034386   F   F   F
  0.3344461715429834  0.0009116076692997  0.9908549012053572   T   T   T
  0.4409103861978423  0.2257556138020433  0.1508094324408304   F   F   F
  0.5509300833083952  0.1159780735975609  0.3081890359866761   T   T   T
  0.4439949396388847  0.2231476058724137  0.4063119275266238   T   T   T
  0.3347885574929744 -0.0010407117791508  0.2280846668307882   T   T   T
  0.5553299663605031  0.1113370336391739  0.0747484944648420   F   F   F
  0.6655076519284741  0.0012676093555888  0.9907694112324452   T   T   T
  0.7846416895687511  0.2255093837444448  0.1506604174209869   F   F   F
  0.8824864937915637  0.1036322465442936  0.3073032047875489   T   T   T
  0.7659792937519360  0.2179547190685575  0.3934104764215364   T   T   T
  0.6649751635265368  0.0022836417059232  0.2298298797479106   T   T   T
  0.8884622558754884  0.1104803231987077  0.0714047354463432   F   F   F
  0.9978487490580952  0.3329466578651491  0.9897408166400435   T   T   T
  0.1102327438134267  0.5564342561853479  0.1468132143926368   F   F   F
  0.1064487547921041  0.5609302060232753  0.3899738014481096   T   T   T
  0.0173222581920155  0.3415074586607911  0.2351134803854302   T   T   T
  0.2219075155049239  0.4447584844954022  0.0691860160652951   F   F   F
  0.3337181878063009  0.3325772547715626  0.9897250755855787   T   T   T
  0.4456867469712691  0.5563655530441665  0.1463171838830775   F   F   F
  0.5574097428858381  0.4335998752766470  0.3068216815760461   T   T   T
  0.4390280897913964  0.5433018967297949  0.3824517880531823   T   T   T
  0.3232430512056816  0.3436097570150587  0.2372311037721988   T   T   T
  0.5560829843138393  0.4448888651802889  0.0713897690035523   F   F   F
  0.6657351142303938  0.3322284183627796  0.9907888896147713   T   T   T
  0.7774695138560901  0.5556635605202587  0.1495364897042180   F   F   F
  0.8838011025535583  0.4460453553558443  0.3061643542356073   T   T   T
  0.7770302379107680  0.5568869203006377  0.3902534037874114   T   T   T
  0.6677024723522806  0.3316472777412768  0.2282254437936915   T   T   T
  0.8878831155991307  0.4450321056821167  0.0719068217811767   F   F   F
  0.9996291019962054  0.6675577041720899  0.9899540033942598   T   T   T
  0.1110034394787718  0.8891974861424146  0.1495364897042180   F   F   F
  0.2209004717128686  0.7831827508669597  0.3061069637665903   T   T   T
  0.1103955339135920  0.8905185233102559  0.3908983452965251   T   T   T
 -0.0001315851844205  0.6670799803829603  0.2303757732244666   T   T   T
  0.2216338943179963  0.7787838844006174  0.0719068217811625   F   F   F
  0.3336029560301172  0.6683774061403310  0.9896301258096333   T   T   T
  0.4411566162557534  0.8820253104311035  0.1506604174208874   F   F   F
  0.5639226545248142  0.7845954592721116  0.3069416450725501   T   T   T
  0.4499555334904240  0.9011609492016306  0.3929518443171072   T   T   T
  0.3249284860373809  0.6491686075551514  0.2354050542336383   T   T   T
  0.5561866768018362  0.7782047441250270  0.0714047354463929   F   F   F
  0.6667252547560584  0.6676300174791100  0.9896140867336251   T   T   T
  0.7776162374295694  0.8890507625716069  0.1492922043872014   F   F   F
  0.8883433540643394  0.7790531426125030  0.3064958331360381   T   T   T
  0.7799234659287229  0.8883842235590396  0.3912427921949003   T   T   T
  0.6638947751906674  0.6634604035389383  0.2309821481986901   T   T   T
  0.8886511940879060  0.7780158059124034  0.0715441149512372   F   F   F
  0.3400542519283216  0.3269388134182888  0.3486608282280446   T   T   T
  0.0021801744992133  0.0026977045231040  0.3482354695317759   T   T   T
  0.2220988755657132  0.1122131457473898  0.1912000958504407   F   F   F
  0.1098631499003346  0.2205489561636398  0.0294373694161649   F   F   F
  0.3292049628215350 -0.0073781828997517  0.3468044225744931   T   T   T
  0.5557305951169909  0.1109364048847823  0.1905479610432010   F   F   F
  0.4439849043250916  0.2226810956751066  0.0318621895086864   F   F   F
  0.6673278616170988  0.0000148777191594  0.3491784663261788   T   T   T
  0.8900890999679874  0.1120592719854940  0.1907244227263334   F   F   F
  0.7778543355957552  0.2227222289856741  0.0318691142705632   F   F   F
  0.9906562793048609  0.3288213620030102  0.3566197212841806   T   T   T
  0.2223752482010539  0.4442907517955916  0.1822750624739911   F   F   F
  0.1097017101887374  0.5569652898108259  0.0297543637222972   F   F   F
  0.5544538542508874  0.4445671244329503  0.1912000958504763   F   F   F
  0.4461170438366651  0.5568038500996408  0.0294373694161578   F   F   F
  0.6743593818374776  0.3377794745493381  0.3467696988343222   T   T   T
  0.8898541533455813  0.4450025302580087  0.1911699559299791   F   F   F
  0.7771467502175042  0.5551524159483989  0.0317026834320728   F   F   F
 -0.0002142558826303  0.6674526986013500  0.3489207643198850   T   T   T
  0.2216634697449038  0.7768128466594391  0.1911699559300004   F   F   F
  0.1115145840516547  0.8895202497824428  0.0317026834320799   F   F   F
  0.3383600473738748  0.6761705347376469  0.3564874913201885   T   T   T
  0.5546077280111419  0.7765779000313984  0.1907244227264471   F   F   F
  0.4439437710142755  0.8888126644045329  0.0318691142705632   F   F   F
  0.6646205617274372  0.6649347520443111  0.3480084262916641   T   T   T
  0.8886780772029113  0.7779889227981727  0.1893038899086861   F   F   F
  0.7771920981176166  0.8894749018825223  0.0314627464917265   F   F   F
  0.3271626483392023  0.3470340943549387  0.4806145997463023   T   T   T
  0.4432721673510188  0.2237134728519556  0.4538430994259097   T   T   T
 
  0.00000000E+00  0.00000000E+00  0.00000000E+00
  0.00000000E+00  0.00000000E+00  0.00000000E+00
  0.00000000E+00  0.00000000E+00  0.00000000E+00
  0.00000000E+00  0.00000000E+00  0.00000000E+00
  0.00000000E+00  0.00000000E+00  0.00000000E+00
  0.00000000E+00  0.00000000E+00  0.00000000E+00
  0.00000000E+00  0.00000000E+00  0.00000000E+00
  0.00000000E+00  0.00000000E+00  0.00000000E+00
  0.00000000E+00  0.00000000E+00  0.00000000E+00
  0.00000000E+00  0.00000000E+00  0.00000000E+00
  0.00000000E+00  0.00000000E+00  0.00000000E+00
  0.00000000E+00  0.00000000E+00  0.00000000E+00
  0.00000000E+00  0.00000000E+00  0.00000000E+00
  0.00000000E+00  0.00000000E+00  0.00000000E+00
  0.00000000E+00  0.00000000E+00  0.00000000E+00
  0.00000000E+00  0.00000000E+00  0.00000000E+00
  0.00000000E+00  0.00000000E+00  0.00000000E+00
  0.00000000E+00  0.00000000E+00  0.00000000E+00
  0.00000000E+00  0.00000000E+00  0.00000000E+00
  0.00000000E+00  0.00000000E+00  0.00000000E+00
  0.00000000E+00  0.00000000E+00  0.00000000E+00
  0.00000000E+00  0.00000000E+00  0.00000000E+00
  0.00000000E+00  0.00000000E+00  0.00000000E+00
  0.00000000E+00  0.00000000E+00  0.00000000E+00
  0.00000000E+00  0.00000000E+00  0.00000000E+00
  0.00000000E+00  0.00000000E+00  0.00000000E+00
  0.00000000E+00  0.00000000E+00  0.00000000E+00
  0.00000000E+00  0.00000000E+00  0.00000000E+00
  0.00000000E+00  0.00000000E+00  0.00000000E+00
  0.00000000E+00  0.00000000E+00  0.00000000E+00
  0.00000000E+00  0.00000000E+00  0.00000000E+00
  0.00000000E+00  0.00000000E+00  0.00000000E+00
  0.00000000E+00  0.00000000E+00  0.00000000E+00
  0.00000000E+00  0.00000000E+00  0.00000000E+00
  0.00000000E+00  0.00000000E+00  0.00000000E+00
  0.00000000E+00  0.00000000E+00  0.00000000E+00
  0.00000000E+00  0.00000000E+00  0.00000000E+00
  0.00000000E+00  0.00000000E+00  0.00000000E+00
  0.00000000E+00  0.00000000E+00  0.00000000E+00
  0.00000000E+00  0.00000000E+00  0.00000000E+00
  0.00000000E+00  0.00000000E+00  0.00000000E+00
  0.00000000E+00  0.00000000E+00  0.00000000E+00
  0.00000000E+00  0.00000000E+00  0.00000000E+00
  0.00000000E+00  0.00000000E+00  0.00000000E+00
  0.00000000E+00  0.00000000E+00  0.00000000E+00
  0.00000000E+00  0.00000000E+00  0.00000000E+00
  0.00000000E+00  0.00000000E+00  0.00000000E+00
  0.00000000E+00  0.00000000E+00  0.00000000E+00
  0.00000000E+00  0.00000000E+00  0.00000000E+00
  0.00000000E+00  0.00000000E+00  0.00000000E+00
  0.00000000E+00  0.00000000E+00  0.00000000E+00
  0.00000000E+00  0.00000000E+00  0.00000000E+00
  0.00000000E+00  0.00000000E+00  0.00000000E+00
  0.00000000E+00  0.00000000E+00  0.00000000E+00
  0.00000000E+00  0.00000000E+00  0.00000000E+00
  0.00000000E+00  0.00000000E+00  0.00000000E+00
  0.00000000E+00  0.00000000E+00  0.00000000E+00
  0.00000000E+00  0.00000000E+00  0.00000000E+00
  0.00000000E+00  0.00000000E+00  0.00000000E+00
  0.00000000E+00  0.00000000E+00  0.00000000E+00
  0.00000000E+00  0.00000000E+00  0.00000000E+00
  0.00000000E+00  0.00000000E+00  0.00000000E+00
  0.00000000E+00  0.00000000E+00  0.00000000E+00
  0.00000000E+00  0.00000000E+00  0.00000000E+00
  0.00000000E+00  0.00000000E+00  0.00000000E+00
  0.00000000E+00  0.00000000E+00  0.00000000E+00
  0.00000000E+00  0.00000000E+00  0.00000000E+00
  0.00000000E+00  0.00000000E+00  0.00000000E+00
  0.00000000E+00  0.00000000E+00  0.00000000E+00
  0.00000000E+00  0.00000000E+00  0.00000000E+00
  0.00000000E+00  0.00000000E+00  0.00000000E+00
  0.00000000E+00  0.00000000E+00  0.00000000E+00
  0.00000000E+00  0.00000000E+00  0.00000000E+00
  0.00000000E+00  0.00000000E+00  0.00000000E+00
  0.00000000E+00  0.00000000E+00  0.00000000E+00
  0.00000000E+00  0.00000000E+00  0.00000000E+00
  0.00000000E+00  0.00000000E+00  0.00000000E+00
  0.00000000E+00  0.00000000E+00  0.00000000E+00
  0.00000000E+00  0.00000000E+00  0.00000000E+00
  0.00000000E+00  0.00000000E+00  0.00000000E+00
  0.00000000E+00  0.00000000E+00  0.00000000E+00
  0.00000000E+00  0.00000000E+00  0.00000000E+00
