CeO2-you-111-you-Fe                     
   1.00000000000000     
     9.8885049813099108   -5.7091313869885925   -0.0000000009276013
    -0.0339219555875994   11.3595062178783586   -0.0177316629572133
    -0.0197352008691768   -0.0341823647912599   20.4304266234275822
   O    Fe   Ce   H 
    53     1    26     2
Selective dynamics
Direct
 -0.0003456084811657  0.0002012182690166  0.9893865846754089   T   T   T
  0.1093649119554527  0.2211293718411156  0.1465613760520270   F   F   F
  0.2366811437661809  0.1452270995871709  0.3156597832435306   T   T   T
  0.0589589690839738  0.1969755226553755  0.4022173709341330   T   T   T
  0.0078377358334952  0.0035299221328929  0.2314971123632876   T   T   T
  0.2219888901400680  0.1106447802799195  0.0705020553522857   F   F   F
  0.3348520750671699  0.0009964266339885  0.9891193732441168   T   T   T
  0.4450974598870800  0.2211293718406395  0.1465613760519275   F   F   F
  0.5592782569842183  0.1176325418543915  0.3072092265554213   T   T   T
  0.4822043086265154  0.2108359371636274  0.4179152633528517   T   T   T
  0.3290754972253443  0.0024426447039994  0.2299269872899011   T   T   T
  0.5573546510236085  0.1110325274516839  0.0715949247002428   F   F   F
  0.6669730041083946  0.9995801103623760  0.9888695494788007   T   T   T
  0.7775996968463232  0.2218653936935482  0.1523764285061944   F   F   F
  0.8840248369407635  0.1079630421241511  0.3038858027376616   T   T   T
  0.7781633320017030  0.2212403760471688  0.3894620618810747   T   T   T
  0.6618509215435088  0.9953967788029973  0.2309808862020534   T   T   T
  0.8870118764273585  0.1110325274506891  0.0715949246998591   F   F   F
  0.9995554806369356  0.3325237860753463  0.9893000984944079   T   T   T
  0.1096769075475166  0.5564678578156830  0.1476612811386460   F   F   F
  0.2402996186399272  0.4351323407474545  0.3161994786002242   T   T   T
  0.1134272343047148  0.5557997777970203  0.3887565049999898   T   T   T
  0.0094184675478522  0.3383218634889894  0.2322726261754925   T   T   T
  0.2215378442151419  0.4449466217324627  0.0715356650549168   F   F   F
  0.3330335985189786  0.3338482073775841  0.9900282913305463   T   T   T
  0.4458354116996119  0.5583388234013498  0.1468252520517197   F   F   F
  0.5283887451366426  0.4321761071618110  0.3172190719520245   T   T   T
  0.3350743044391336  0.3362624997009714  0.2217730297206017   T   T   T
  0.5567427775167033  0.4449466217321500  0.0715356650548884   F   F   F
  0.6664677762610590  0.3328169946201467  0.9892217724447997   T   T   T
  0.7801239502674662  0.5564678578154059  0.1476612811386744   F   F   F
  0.8899788823717774  0.4437004594097316  0.3078497256015866   T   T   T
  0.7761661997845827  0.5541091875832297  0.3875154646308548   T   T   T
  0.6650962775334140  0.3399369583364513  0.2318350064458135   T   T   T
  0.8876876253422665  0.4420412506847455  0.0718610142897518   F   F   F
  0.9991537675732154  0.6650999498753739  0.9893134593265033   T   T   T
  0.1109118892523142  0.8884907785035168  0.1467565621323672   F   F   F
  0.2201738109981084  0.7742238940880739  0.3070407081225724   T   T   T
  0.0980535098226722  0.8843201854454120  0.3899511931185086   T   T   T
 -0.0003931110159901  0.6683322868481955  0.2304265752509549   T   T   T
  0.2225075076381486  0.7788413810564450  0.0705891592355812   F   F   F
  0.3334582140586539  0.6663491167965129  0.9897052037166050   T   T   T
  0.4430095100882738  0.8877695630165903  0.1492451483124384   F   F   F
  0.5515586745631452  0.7674168461645416  0.3065825379539182   T   T   T
  0.4501329388129875  0.8815280768641800  0.3897003618013307   T   T   T
  0.3289213661323404  0.6615608784825030  0.2308329548134724   T   T   T
  0.5564045455134803  0.7794750910274644  0.0717699917790497   F   F   F
  0.6661725719496343  0.6667315857600448  0.9896856998562747   T   T   T
  0.7780930529287673  0.8877695630163061  0.1492451483123034   F   F   F
  0.8856669868332832  0.7775236349377492  0.3061490605130804   T   T   T
  0.7731945224412380  0.8852091217486997  0.3885519385676520   T   T   T
  0.6659163236405433  0.6605965818652726  0.2305339944905945   T   T   T
  0.8896668734185269  0.7788413810558623  0.0705891592354462   F   F   F
  0.3347358421492053  0.3371278937781820  0.3171463813038801   T   T   T
 -0.0010856990771785  0.0049688394646602  0.3520057332392157   T   T   T
  0.2219507877412994  0.1105685754829651  0.1876176121338347   F   F   F
  0.1101186296702252  0.2214904028718365  0.0299995510255258   F   F   F
  0.3316650683217581  0.0021067245708146  0.3541246154505976   T   T   T
  0.5545993828520892  0.1107732198179860  0.1906809810099830   F   F   F
  0.4447047732020621  0.2214904028719928  0.0299995510255613   F   F   F
  0.6641303669394685  0.9979021815747940  0.3487496089567246   T   T   T
  0.8895078369652651  0.1107732198167710  0.1906809810099190   F   F   F
  0.7773785654380418  0.2214231308761896  0.0308865319978722   F   F   F
  0.0006378707603844  0.3275452972404209  0.3526647895471890   T   T   T
  0.2212179090881676  0.4457438324816465  0.1866569410320693   F   F   F
  0.1098324672582223  0.5548826377317653  0.0305909113731460   F   F   F
  0.5578599233945809  0.4457438324837142  0.1866569410323251   F   F   F
  0.4448839606524686  0.5564359213054360  0.0297911352601758   F   F   F
  0.6724440819594768  0.3338482528807983  0.3499368649689299   T   T   T
  0.8887228717969649  0.4441117435934672  0.1920939745460117   F   F   F
  0.7783831704735888  0.5548826377319500  0.0305909113731744   F   F   F
  0.0014392994194474  0.6692041984107845  0.3477773918623194   T   T   T
  0.2220846647749823  0.7795752094204218  0.1890271814850308   F   F   F
  0.1109959901531354  0.8886589803057063  0.0295459742391984   F   F   F
  0.3301100162024984  0.6682604997331115  0.3480179677877283   T   T   T
  0.5546606897120583  0.7759873794235475  0.1905498777048891   F   F   F
  0.4448846263366448  0.8887841364889724  0.0306065023108530   F   F   F
  0.6712386394738268  0.6689649404241274  0.3471448996608045   T   T   T
  0.8908235446448529  0.7795752094201944  0.1890271814849953   F   F   F
  0.7772325101524302  0.8887841364884252  0.0306065023106115   F   F   F
  0.4663316583238621  0.5977752995793084  0.4004749819910246   T   T   T
  0.4572779357352528  0.2520949199022289  0.4529576255804951   T   T   T
 
  0.00000000E+00  0.00000000E+00  0.00000000E+00
  0.00000000E+00  0.00000000E+00  0.00000000E+00
  0.00000000E+00  0.00000000E+00  0.00000000E+00
  0.00000000E+00  0.00000000E+00  0.00000000E+00
  0.00000000E+00  0.00000000E+00  0.00000000E+00
  0.00000000E+00  0.00000000E+00  0.00000000E+00
  0.00000000E+00  0.00000000E+00  0.00000000E+00
  0.00000000E+00  0.00000000E+00  0.00000000E+00
  0.00000000E+00  0.00000000E+00  0.00000000E+00
  0.00000000E+00  0.00000000E+00  0.00000000E+00
  0.00000000E+00  0.00000000E+00  0.00000000E+00
  0.00000000E+00  0.00000000E+00  0.00000000E+00
  0.00000000E+00  0.00000000E+00  0.00000000E+00
  0.00000000E+00  0.00000000E+00  0.00000000E+00
  0.00000000E+00  0.00000000E+00  0.00000000E+00
  0.00000000E+00  0.00000000E+00  0.00000000E+00
  0.00000000E+00  0.00000000E+00  0.00000000E+00
  0.00000000E+00  0.00000000E+00  0.00000000E+00
  0.00000000E+00  0.00000000E+00  0.00000000E+00
  0.00000000E+00  0.00000000E+00  0.00000000E+00
  0.00000000E+00  0.00000000E+00  0.00000000E+00
  0.00000000E+00  0.00000000E+00  0.00000000E+00
  0.00000000E+00  0.00000000E+00  0.00000000E+00
  0.00000000E+00  0.00000000E+00  0.00000000E+00
  0.00000000E+00  0.00000000E+00  0.00000000E+00
  0.00000000E+00  0.00000000E+00  0.00000000E+00
  0.00000000E+00  0.00000000E+00  0.00000000E+00
  0.00000000E+00  0.00000000E+00  0.00000000E+00
  0.00000000E+00  0.00000000E+00  0.00000000E+00
  0.00000000E+00  0.00000000E+00  0.00000000E+00
  0.00000000E+00  0.00000000E+00  0.00000000E+00
  0.00000000E+00  0.00000000E+00  0.00000000E+00
  0.00000000E+00  0.00000000E+00  0.00000000E+00
  0.00000000E+00  0.00000000E+00  0.00000000E+00
  0.00000000E+00  0.00000000E+00  0.00000000E+00
  0.00000000E+00  0.00000000E+00  0.00000000E+00
  0.00000000E+00  0.00000000E+00  0.00000000E+00
  0.00000000E+00  0.00000000E+00  0.00000000E+00
  0.00000000E+00  0.00000000E+00  0.00000000E+00
  0.00000000E+00  0.00000000E+00  0.00000000E+00
  0.00000000E+00  0.00000000E+00  0.00000000E+00
  0.00000000E+00  0.00000000E+00  0.00000000E+00
  0.00000000E+00  0.00000000E+00  0.00000000E+00
  0.00000000E+00  0.00000000E+00  0.00000000E+00
  0.00000000E+00  0.00000000E+00  0.00000000E+00
  0.00000000E+00  0.00000000E+00  0.00000000E+00
  0.00000000E+00  0.00000000E+00  0.00000000E+00
  0.00000000E+00  0.00000000E+00  0.00000000E+00
  0.00000000E+00  0.00000000E+00  0.00000000E+00
  0.00000000E+00  0.00000000E+00  0.00000000E+00
  0.00000000E+00  0.00000000E+00  0.00000000E+00
  0.00000000E+00  0.00000000E+00  0.00000000E+00
  0.00000000E+00  0.00000000E+00  0.00000000E+00
  0.00000000E+00  0.00000000E+00  0.00000000E+00
  0.00000000E+00  0.00000000E+00  0.00000000E+00
  0.00000000E+00  0.00000000E+00  0.00000000E+00
  0.00000000E+00  0.00000000E+00  0.00000000E+00
  0.00000000E+00  0.00000000E+00  0.00000000E+00
  0.00000000E+00  0.00000000E+00  0.00000000E+00
  0.00000000E+00  0.00000000E+00  0.00000000E+00
  0.00000000E+00  0.00000000E+00  0.00000000E+00
  0.00000000E+00  0.00000000E+00  0.00000000E+00
  0.00000000E+00  0.00000000E+00  0.00000000E+00
  0.00000000E+00  0.00000000E+00  0.00000000E+00
  0.00000000E+00  0.00000000E+00  0.00000000E+00
  0.00000000E+00  0.00000000E+00  0.00000000E+00
  0.00000000E+00  0.00000000E+00  0.00000000E+00
  0.00000000E+00  0.00000000E+00  0.00000000E+00
  0.00000000E+00  0.00000000E+00  0.00000000E+00
  0.00000000E+00  0.00000000E+00  0.00000000E+00
  0.00000000E+00  0.00000000E+00  0.00000000E+00
  0.00000000E+00  0.00000000E+00  0.00000000E+00
  0.00000000E+00  0.00000000E+00  0.00000000E+00
  0.00000000E+00  0.00000000E+00  0.00000000E+00
  0.00000000E+00  0.00000000E+00  0.00000000E+00
  0.00000000E+00  0.00000000E+00  0.00000000E+00
  0.00000000E+00  0.00000000E+00  0.00000000E+00
  0.00000000E+00  0.00000000E+00  0.00000000E+00
  0.00000000E+00  0.00000000E+00  0.00000000E+00
  0.00000000E+00  0.00000000E+00  0.00000000E+00
  0.00000000E+00  0.00000000E+00  0.00000000E+00
  0.00000000E+00  0.00000000E+00  0.00000000E+00
