CeO2-you-111-you-Sb                     
   1.00000000000000     
     9.8301458603809895   -5.6754377298018950    0.0000000000000000
     0.0000000015935088   11.3508734648508529   -0.0000000000000000
     0.0000000000000000   -0.0000000000000000   21.0755387088355342
   O    Sb   Ce H
    54     1    26 1
Selective dynamics
Direct
 -0.0005254820417226  0.0001418795514829  0.9956012441865140   T   T   T
  0.1111041389175482  0.2222185694587115  0.1495706233560573   F   F   F
  0.2261011031105311  0.1188692062205065  0.3030045623466929   T   T   T
  0.1208864543187780  0.2271097271588998  0.3812099823924480   T   T   T
  0.0003458615916999 -0.0003466237184217  0.2298655257967236   T   T   T
  0.2221318698716925  0.1109307397434022  0.0745366329601683   F   F   F
  0.3340003615932016  0.0001418795514856  0.9956012441865140   T   T   T
  0.4444474305411593  0.2222185694586544  0.1495706233560573   F   F   F
  0.5552001900367013  0.1114668099631799  0.3051995762443622   T   T   T
  0.4395562728401180  0.2271097271584643  0.3812099823924480   T   T   T
  0.3326405146898307 -0.0003466237184916  0.2298655257967236   T   T   T
  0.5557973601586088  0.1108696398415249  0.0755576520501846   F   F   F
  0.6666669999999968 -0.0000000000000000  0.9957961114470055   T   T   T
  0.7777197254500525  0.2221054509001273  0.1503963150968792   F   F   F
  0.8896006199265168  0.1114668099632176  0.3051995762443622   T   T   T
  0.7778502585641329  0.2223665171282428  0.3844742064665025   T   T   T
  0.6666669999999968 -0.0000000000000000  0.2304956706401793   T   T   T
  0.8884062796828770  0.1108696398414850  0.0755576520501846   F   F   F
 -0.0005254820417391  0.3326656384068037  0.9956012441865140   T   T   T
  0.1109737684605604  0.5556932315395120  0.1496002808071265   F   F   F
  0.2261011031117759  0.4405648968900208  0.3030045623466929   T   T   T
  0.1120062290553276  0.5546607709445566  0.3826934123064625   T   T   T
  0.0003458615915849  0.3340254853099675  0.2298655257967236   T   T   T
  0.2221318698716465  0.4445341301282865  0.0745366329601683   F   F   F
  0.3333330000000032  0.3333330000000032  0.9954325257203054   T   T   T
  0.4444474305412879  0.5555628610826417  0.1495706233560573   F   F   F
  0.5477977937777001  0.4405648968894683  0.3030045623466929   T   T   T
  0.4395562728410994  0.5457805456826429  0.3812099823924480   T   T   T
  0.3333330000000032  0.3333330000000032  0.2310365493241346   T   T   T
  0.5557362602566680  0.4445341301283068  0.0745366329601683   F   F   F
  0.6665251204485438  0.3326656384068139  0.9956012441865140   T   T   T
  0.7780524630789268  0.5556932315394909  0.1496002808071265   F   F   F
  0.8888839496822533  0.4444338993645319  0.3044798471093224   T   T   T
  0.7759875418892621  0.5546607709445931  0.3826934123064625   T   T   T
  0.6670136237184273  0.3340254853099486  0.2298655257967236   T   T   T
  0.8889938875759124  0.4446537751518334  0.0752061476675361   F   F   F
  0.0000000000000000  0.6666669999999968  0.9952596091294373   T   T   T
  0.1109737684605128  0.8886145369210012  0.1496002808071265   F   F   F
  0.2222321006355533  0.7777830503177435  0.3044798471093224   T   T   T
  0.1120062290554105  0.8906794581108546  0.3826934123064625   T   T   T
  0.0000000000000000  0.6666669999999968  0.2299436330358978   T   T   T
  0.2220122248481952  0.7776731124240844  0.0752061476675361   F   F   F
  0.3340003615931788  0.6671924820417032  0.9956012441865140   T   T   T
  0.4445605490999239  0.8889472745499443  0.1503963150968792   F   F   F
  0.5552001900367863  0.7770663800736027  0.3051995762443622   T   T   T
  0.4442994828716609  0.8888167414358639  0.3844742064665025   T   T   T
  0.3326405146898730  0.6663211384084728  0.2298655257967236   T   T   T
  0.5557973601585187  0.7782607203169899  0.0755576520501846   F   F   F
  0.6665251204485378  0.6671924820417103  0.9956012441865140   T   T   T
  0.7777197254500167  0.8889472745499284  0.1503963150968792   F   F   F
  0.8888839496821933  0.7777830503177169  0.3044798471093224   T   T   T
  0.7778502585641994  0.8888167414358932  0.3844742064665025   T   T   T
  0.6670136237185844  0.6663211384085246  0.2298655257967236   T   T   T
  0.8889938875758923  0.7776731124240752  0.0752061476675361   F   F   F
  0.3333330000000032  0.3333330000000032  0.3380271604245588   T   T   T
  0.0015589993994556  0.0015144137869713  0.3438738656254030   T   T   T
  0.2220365371200630  0.1107400742401234  0.1893038469012337   F   F   F
  0.1108536182486390  0.2220933091243433  0.0350890771174572   F   F   F
  0.3332884143876262  0.0015144137868538  0.3438738656254030   T   T   T
  0.5555781906861310  0.1110888093138968  0.1902230895662210   F   F   F
  0.4445726908757005  0.2220933091243631  0.0350890771174572   F   F   F
  0.6666669999999968  0.0000000000000000  0.3457664620705509   T   T   T
  0.8888446186277592  0.1110888093138894  0.1902230895662210   F   F   F
  0.7776321590681584  0.2219303181363362  0.0356802077357654   F   F   F
  0.0015589993996972  0.3333775856122226  0.3438738656254030   T   T   T
  0.2220365371200613  0.4446294628799358  0.1893038469012337   F   F   F
  0.1110655849282300  0.5556014150717902  0.0352206448500461   F   F   F
  0.5559269257598826  0.4446294628799365  0.1893038469012337   F   F   F
  0.4445726908756560  0.5558133817513007  0.0350890771174572   F   F   F
  0.6651525862124119  0.3333775856119979  0.3438738656254030   T   T   T
  0.8889236970741301  0.4445133941481900  0.1898950203318460   F   F   F
  0.7778688301435512  0.5556014150717854  0.0352206448500461   F   F   F
  0.0000000000000000  0.6666669999999968  0.3435610886372599   T   T   T
  0.2221526058515858  0.7777433029258667  0.1898950203318460   F   F   F
  0.1110655849282187  0.8887981698564291  0.0352206448500461   F   F   F
  0.3332884143881326  0.6651080006010306  0.3438738656254030   T   T   T
  0.5555781906861142  0.7778223813722137  0.1902230895662210   F   F   F
  0.4447356818637057  0.8890348409318384  0.0356802077357654   F   F   F
  0.6651525862126767  0.6651080006009232  0.3438738656254030   T   T   T
  0.8889236970742846  0.7777433029259360  0.1898950203318460   F   F   F
  0.7776321590681290  0.8890348409318254  0.0356802077357654   F   F   F
0.446598 0.216020 0.433410 T T T 
 
  0.00000000E+00  0.00000000E+00  0.00000000E+00
  0.00000000E+00  0.00000000E+00  0.00000000E+00
  0.00000000E+00  0.00000000E+00  0.00000000E+00
  0.00000000E+00  0.00000000E+00  0.00000000E+00
  0.00000000E+00  0.00000000E+00  0.00000000E+00
  0.00000000E+00  0.00000000E+00  0.00000000E+00
  0.00000000E+00  0.00000000E+00  0.00000000E+00
  0.00000000E+00  0.00000000E+00  0.00000000E+00
  0.00000000E+00  0.00000000E+00  0.00000000E+00
  0.00000000E+00  0.00000000E+00  0.00000000E+00
  0.00000000E+00  0.00000000E+00  0.00000000E+00
  0.00000000E+00  0.00000000E+00  0.00000000E+00
  0.00000000E+00  0.00000000E+00  0.00000000E+00
  0.00000000E+00  0.00000000E+00  0.00000000E+00
  0.00000000E+00  0.00000000E+00  0.00000000E+00
  0.00000000E+00  0.00000000E+00  0.00000000E+00
  0.00000000E+00  0.00000000E+00  0.00000000E+00
  0.00000000E+00  0.00000000E+00  0.00000000E+00
  0.00000000E+00  0.00000000E+00  0.00000000E+00
  0.00000000E+00  0.00000000E+00  0.00000000E+00
  0.00000000E+00  0.00000000E+00  0.00000000E+00
  0.00000000E+00  0.00000000E+00  0.00000000E+00
  0.00000000E+00  0.00000000E+00  0.00000000E+00
  0.00000000E+00  0.00000000E+00  0.00000000E+00
  0.00000000E+00  0.00000000E+00  0.00000000E+00
  0.00000000E+00  0.00000000E+00  0.00000000E+00
  0.00000000E+00  0.00000000E+00  0.00000000E+00
  0.00000000E+00  0.00000000E+00  0.00000000E+00
  0.00000000E+00  0.00000000E+00  0.00000000E+00
  0.00000000E+00  0.00000000E+00  0.00000000E+00
  0.00000000E+00  0.00000000E+00  0.00000000E+00
  0.00000000E+00  0.00000000E+00  0.00000000E+00
  0.00000000E+00  0.00000000E+00  0.00000000E+00
  0.00000000E+00  0.00000000E+00  0.00000000E+00
  0.00000000E+00  0.00000000E+00  0.00000000E+00
  0.00000000E+00  0.00000000E+00  0.00000000E+00
  0.00000000E+00  0.00000000E+00  0.00000000E+00
  0.00000000E+00  0.00000000E+00  0.00000000E+00
  0.00000000E+00  0.00000000E+00  0.00000000E+00
  0.00000000E+00  0.00000000E+00  0.00000000E+00
  0.00000000E+00  0.00000000E+00  0.00000000E+00
  0.00000000E+00  0.00000000E+00  0.00000000E+00
  0.00000000E+00  0.00000000E+00  0.00000000E+00
  0.00000000E+00  0.00000000E+00  0.00000000E+00
  0.00000000E+00  0.00000000E+00  0.00000000E+00
  0.00000000E+00  0.00000000E+00  0.00000000E+00
  0.00000000E+00  0.00000000E+00  0.00000000E+00
  0.00000000E+00  0.00000000E+00  0.00000000E+00
  0.00000000E+00  0.00000000E+00  0.00000000E+00
  0.00000000E+00  0.00000000E+00  0.00000000E+00
  0.00000000E+00  0.00000000E+00  0.00000000E+00
  0.00000000E+00  0.00000000E+00  0.00000000E+00
  0.00000000E+00  0.00000000E+00  0.00000000E+00
  0.00000000E+00  0.00000000E+00  0.00000000E+00
  0.00000000E+00  0.00000000E+00  0.00000000E+00
  0.00000000E+00  0.00000000E+00  0.00000000E+00
  0.00000000E+00  0.00000000E+00  0.00000000E+00
  0.00000000E+00  0.00000000E+00  0.00000000E+00
  0.00000000E+00  0.00000000E+00  0.00000000E+00
  0.00000000E+00  0.00000000E+00  0.00000000E+00
  0.00000000E+00  0.00000000E+00  0.00000000E+00
  0.00000000E+00  0.00000000E+00  0.00000000E+00
  0.00000000E+00  0.00000000E+00  0.00000000E+00
  0.00000000E+00  0.00000000E+00  0.00000000E+00
  0.00000000E+00  0.00000000E+00  0.00000000E+00
  0.00000000E+00  0.00000000E+00  0.00000000E+00
  0.00000000E+00  0.00000000E+00  0.00000000E+00
  0.00000000E+00  0.00000000E+00  0.00000000E+00
  0.00000000E+00  0.00000000E+00  0.00000000E+00
  0.00000000E+00  0.00000000E+00  0.00000000E+00
  0.00000000E+00  0.00000000E+00  0.00000000E+00
  0.00000000E+00  0.00000000E+00  0.00000000E+00
  0.00000000E+00  0.00000000E+00  0.00000000E+00
  0.00000000E+00  0.00000000E+00  0.00000000E+00
  0.00000000E+00  0.00000000E+00  0.00000000E+00
  0.00000000E+00  0.00000000E+00  0.00000000E+00
  0.00000000E+00  0.00000000E+00  0.00000000E+00
  0.00000000E+00  0.00000000E+00  0.00000000E+00
  0.00000000E+00  0.00000000E+00  0.00000000E+00
  0.00000000E+00  0.00000000E+00  0.00000000E+00
  0.00000000E+00  0.00000000E+00  0.00000000E+00
