CeO2-you-111-you-Pb                     
   1.00000000000000     
     9.8686371112980602   -5.6658519060246517   -0.0123293894006272
     0.0275471834155768   11.3794149360861727    0.0123293872987291
    -0.0139672057453901    0.0241919086775801   20.2833057498431160
   O    Pb   Ce   H 
    53     1    26     2
Selective dynamics
Direct
  0.9998845947373712 -0.0001436791937599  0.9877878806297509   T   T   T
  0.1081131776272599  0.2199186559236637  0.1453041509419251   F   F   F
  0.2287056338270928  0.1186041621973438  0.3154698527925111   T   T   T
  0.0680474928590678  0.2030134254862125  0.3987017824276346   T   T   T
  0.0019521888774289  0.0014136869733421  0.2314869131167985   T   T   T
  0.2218572348836219  0.1103174456315514  0.0706403132495979   F   F   F
  0.3349227750151212  0.0009777880729344  0.9891461476801640   T   T   T
  0.4425445471548670  0.2241214528453170  0.1497948342172464   F   F   F
  0.5535186584165275  0.1126710551256196  0.3070270324329384   T   T   T
  0.4784278369963794  0.1881582905474353  0.4149266047528926   T   T   T
  0.3314441176355227 -0.0003040793159608  0.2308035790459771   T   T   T
  0.5562515791543277  0.1104154208452783  0.0729600061617219   F   F   F
  0.6659648564025693  0.0013788110445697  0.9880530815278386   T   T   T
  0.7850671960102460  0.2273142386380727  0.1501118856221808   F   F   F
  0.8804189101303453  0.1066413073391843  0.3049019776860916   T   T   T
  0.7752032220239976  0.2214084300585747  0.3907125988059378   T   T   T
  0.6653621010805471  0.0015676454281398  0.2277392562707896   T   T   T
  0.8876097440104971  0.1106216887076670  0.0694831588491738   F   F   F
  0.9987068719367818  0.3335825611891249  0.9877537578766755   T   T   T
  0.1104166021647686  0.5562503978333240  0.1466170146916639   F   F   F
  0.1225668115102626  0.5452911521173013  0.3826759347338956   T   T   T
  0.0180603241419800  0.3410357838236854  0.2366835619406568   T   T   T
  0.2222076016123893  0.4444583983877521  0.0679991878013197   F   F   F
  0.3335288886039557  0.3322690504655115  0.9880004892181643   T   T   T
  0.4467473440805065  0.5585538223731845  0.1453041509421311   F   F   F
  0.5480043486552003  0.4378626116032729  0.3143866135895616   T   T   T
  0.4634465334299487  0.5976922424212751  0.3986307360197278   T   T   T
  0.3287207739654233  0.3377752507114710  0.2231179367003834   T   T   T
  0.5563495543683032  0.4448087651157664  0.0706403132494771   F   F   F
  0.6660411514979280  0.3321810196179882  0.9889507225981231   T   T   T
  0.7788656004269185  0.5555823747409718  0.1493415809184171   F   F   F
  0.8868206490113240  0.4433707981926558  0.3088483716912427   T   T   T
  0.7826257402878085  0.5575072051343577  0.3911515621950564   T   T   T
  0.6673748116887031  0.3347970566007318  0.2310115187538813   T   T   T
  0.8884217106756225  0.4448668920116106  0.0705134100676972   F   F   F
  0.9996079403570854  0.6671808974542520  0.9883451296941452   T   T   T
  0.1110846252578668  0.8878013995724885  0.1493415809182608   F   F   F
  0.2236017293409894  0.7801529705763716  0.3087025143072746   T   T   T
  0.1088373889070046  0.8837471447817504  0.3909359511712104   T   T   T
  0.0008088737721094  0.6660418290061606  0.2318793374398475   T   T   T
  0.2217991079877493  0.7782452893238130  0.0705134100680382   F   F   F
  0.3336616847267930  0.6683363569214115  0.9878671683468351   T   T   T
  0.4393517613618911  0.8815998039898645  0.1501118856221737   F   F   F
  0.5598173365071947  0.7859348874561546  0.3047453688971299   T   T   T
  0.4457519837227265  0.8914929634383492  0.3908630499856727   T   T   T
  0.3256895677800582  0.6490132427061264  0.2365398564970479   T   T   T
  0.5560453112930475  0.7790572559904660  0.0694831588487901   F   F   F
  0.6668368378027272  0.6670483527036775  0.9878214415434662   T   T   T
  0.7773579440555380  0.8893090559440040  0.1474912864332225   F   F   F
  0.8890688711868416  0.7768505913385966  0.3079744334323857   T   T   T
  0.7773178664064329  0.8893790680085498  0.3902845145788139   T   T   T
  0.6654395709723274  0.6649969672469808  0.2316878659975761   T   T   T
  0.8886597198712280  0.7780072801279871  0.0705919445952574   F   F   F
  0.3130269085575045  0.3530782813202402  0.3610299848544629   T   T   T
  0.9985129015287769  0.0001266431596368  0.3510581051482041   T   T   T
  0.2220326197156481  0.1128418623144611  0.1916237702060783   F   F   F
  0.1099842594607026  0.2204608529249938  0.0276332830468604   F   F   F
  0.3296055770944206 -0.0008122274838583  0.3495481228731340   T   T   T
  0.5554442544131390  0.1112227455884636  0.1901138484466571   F   F   F
  0.4441164049973949  0.2225495950017518  0.0305988874278853   F   F   F
  0.6657479258453199  0.0008182303881713  0.3484221431705048   T   T   T
  0.8893226775422249  0.1111396264676756  0.1891068279496864   F   F   F
  0.7780862757698088  0.2229740378793466  0.0296477442091714   F   F   F
  0.9866291361586222  0.3221997540095189  0.3530549558729831   T   T   T
  0.2233122803670469  0.4433537196288526  0.1815100522036559   F   F   F
  0.1095825226037661  0.5570844773957901  0.0280809857426831   F   F   F
  0.5538251376837735  0.4446333802840172  0.1916237702058510   F   F   F
  0.4462051470753394  0.5566827405386476  0.0276332830471304   F   F   F
  0.6675350960310630  0.3371620015155088  0.3495087965946841   T   T   T
  0.8904129985814464  0.4450002080569391  0.1910973174940551   F   F   F
  0.7772122310156959  0.5550899461433900  0.0304271415422832   F   F   F
  0.0002248085327660  0.6665613446319530  0.3486063252952423   T   T   T
  0.2216657919454192  0.7762540014242560  0.1910973174939770   F   F   F
  0.1115770538571681  0.8894547689847698  0.0304271415423258   F   F   F
  0.3447928621942624  0.6801566199018989  0.3530421019377976   T   T   T
  0.5555273735279940  0.7773443224588519  0.1891068279492742   F   F   F
  0.4436919621203472  0.8885807242310406  0.0296477442091998   F   F   F
  0.6663104006702504  0.6678343259206585  0.3509817180261536   T   T   T
  0.8886719169637018  0.7779950830378723  0.1889237306871792   F   F   F
  0.7771438005643603  0.8895231994358426  0.0290272210265670   F   F   F
  0.3601218939187565  0.3063633733667743  0.4433999991887592   T   T   T
  0.4343324288029067  0.2319944650703931  0.4390177771566219   T   T   T
 
  0.00000000E+00  0.00000000E+00  0.00000000E+00
  0.00000000E+00  0.00000000E+00  0.00000000E+00
  0.00000000E+00  0.00000000E+00  0.00000000E+00
  0.00000000E+00  0.00000000E+00  0.00000000E+00
  0.00000000E+00  0.00000000E+00  0.00000000E+00
  0.00000000E+00  0.00000000E+00  0.00000000E+00
  0.00000000E+00  0.00000000E+00  0.00000000E+00
  0.00000000E+00  0.00000000E+00  0.00000000E+00
  0.00000000E+00  0.00000000E+00  0.00000000E+00
  0.00000000E+00  0.00000000E+00  0.00000000E+00
  0.00000000E+00  0.00000000E+00  0.00000000E+00
  0.00000000E+00  0.00000000E+00  0.00000000E+00
  0.00000000E+00  0.00000000E+00  0.00000000E+00
  0.00000000E+00  0.00000000E+00  0.00000000E+00
  0.00000000E+00  0.00000000E+00  0.00000000E+00
  0.00000000E+00  0.00000000E+00  0.00000000E+00
  0.00000000E+00  0.00000000E+00  0.00000000E+00
  0.00000000E+00  0.00000000E+00  0.00000000E+00
  0.00000000E+00  0.00000000E+00  0.00000000E+00
  0.00000000E+00  0.00000000E+00  0.00000000E+00
  0.00000000E+00  0.00000000E+00  0.00000000E+00
  0.00000000E+00  0.00000000E+00  0.00000000E+00
  0.00000000E+00  0.00000000E+00  0.00000000E+00
  0.00000000E+00  0.00000000E+00  0.00000000E+00
  0.00000000E+00  0.00000000E+00  0.00000000E+00
  0.00000000E+00  0.00000000E+00  0.00000000E+00
  0.00000000E+00  0.00000000E+00  0.00000000E+00
  0.00000000E+00  0.00000000E+00  0.00000000E+00
  0.00000000E+00  0.00000000E+00  0.00000000E+00
  0.00000000E+00  0.00000000E+00  0.00000000E+00
  0.00000000E+00  0.00000000E+00  0.00000000E+00
  0.00000000E+00  0.00000000E+00  0.00000000E+00
  0.00000000E+00  0.00000000E+00  0.00000000E+00
  0.00000000E+00  0.00000000E+00  0.00000000E+00
  0.00000000E+00  0.00000000E+00  0.00000000E+00
  0.00000000E+00  0.00000000E+00  0.00000000E+00
  0.00000000E+00  0.00000000E+00  0.00000000E+00
  0.00000000E+00  0.00000000E+00  0.00000000E+00
  0.00000000E+00  0.00000000E+00  0.00000000E+00
  0.00000000E+00  0.00000000E+00  0.00000000E+00
  0.00000000E+00  0.00000000E+00  0.00000000E+00
  0.00000000E+00  0.00000000E+00  0.00000000E+00
  0.00000000E+00  0.00000000E+00  0.00000000E+00
  0.00000000E+00  0.00000000E+00  0.00000000E+00
  0.00000000E+00  0.00000000E+00  0.00000000E+00
  0.00000000E+00  0.00000000E+00  0.00000000E+00
  0.00000000E+00  0.00000000E+00  0.00000000E+00
  0.00000000E+00  0.00000000E+00  0.00000000E+00
  0.00000000E+00  0.00000000E+00  0.00000000E+00
  0.00000000E+00  0.00000000E+00  0.00000000E+00
  0.00000000E+00  0.00000000E+00  0.00000000E+00
  0.00000000E+00  0.00000000E+00  0.00000000E+00
  0.00000000E+00  0.00000000E+00  0.00000000E+00
  0.00000000E+00  0.00000000E+00  0.00000000E+00
  0.00000000E+00  0.00000000E+00  0.00000000E+00
  0.00000000E+00  0.00000000E+00  0.00000000E+00
  0.00000000E+00  0.00000000E+00  0.00000000E+00
  0.00000000E+00  0.00000000E+00  0.00000000E+00
  0.00000000E+00  0.00000000E+00  0.00000000E+00
  0.00000000E+00  0.00000000E+00  0.00000000E+00
  0.00000000E+00  0.00000000E+00  0.00000000E+00
  0.00000000E+00  0.00000000E+00  0.00000000E+00
  0.00000000E+00  0.00000000E+00  0.00000000E+00
  0.00000000E+00  0.00000000E+00  0.00000000E+00
  0.00000000E+00  0.00000000E+00  0.00000000E+00
  0.00000000E+00  0.00000000E+00  0.00000000E+00
  0.00000000E+00  0.00000000E+00  0.00000000E+00
  0.00000000E+00  0.00000000E+00  0.00000000E+00
  0.00000000E+00  0.00000000E+00  0.00000000E+00
  0.00000000E+00  0.00000000E+00  0.00000000E+00
  0.00000000E+00  0.00000000E+00  0.00000000E+00
  0.00000000E+00  0.00000000E+00  0.00000000E+00
  0.00000000E+00  0.00000000E+00  0.00000000E+00
  0.00000000E+00  0.00000000E+00  0.00000000E+00
  0.00000000E+00  0.00000000E+00  0.00000000E+00
  0.00000000E+00  0.00000000E+00  0.00000000E+00
  0.00000000E+00  0.00000000E+00  0.00000000E+00
  0.00000000E+00  0.00000000E+00  0.00000000E+00
  0.00000000E+00  0.00000000E+00  0.00000000E+00
  0.00000000E+00  0.00000000E+00  0.00000000E+00
  0.00000000E+00  0.00000000E+00  0.00000000E+00
  0.00000000E+00  0.00000000E+00  0.00000000E+00
