CeO2-you-111-you-Os                     
   1.00000000000000     
     9.8001823334342202   -5.6581382802178579    0.0000000000000000
     0.0000000052879148   11.3162745781703453    0.0000000000000000
     0.0000000000000000    0.0000000000000000   21.2059951529222772
   O    Os   Ce   H 
    54     1    26     2
Selective dynamics
Direct
  0.0008174929433813  0.0004545623162410  0.9944862984778838   T   T   T
  0.1022413204392987  0.2168206692149137  0.1461035883125041   T   T   T
  0.2498029213506999  0.1601269514118842  0.3099955679043531   T   T   T
  0.1214834167864047  0.2302278202583893  0.3869224358575599   T   T   T
  0.0114944878816721  0.0042298322820549  0.2316395517012164   T   T   T
  0.2234960817554800  0.1113203298347647  0.0741991877310241   T   T   T
  0.3336068234321082 -0.0001344600115285  0.9945856375163559   T   T   T
  0.4504291437940904  0.2172606708061220  0.1468936934228857   T   T   T
  0.5579566120973500  0.1087891940395077  0.3050047840415962   T   T   T
  0.4283861239765719  0.2366663897958239  0.4036245639044947   T   T   T
  0.3281415406705947  0.0008974988894038  0.2300610467340009   T   T   T
  0.5575646971351111  0.1078023821579728  0.0742715226963604   T   T   T
  0.6665195786913779 -0.0004053336517180  0.9926656097595278   T   T   T
  0.7788427087062945  0.2223752505421820  0.1521097336513269   T   T   T
  0.8937030115577622  0.1105840984581334  0.3042179592897802   T   T   T
  0.7878954717111463  0.2163093728325078  0.3864863078888836   T   T   T
  0.6689890429556041 -0.0015241359150254  0.2305638356238053   T   T   T
  0.8838539144325805  0.1075430296633709  0.0742556532455728   T   T   T
  0.0001499741723375  0.3324401613879833  0.9949769771754412   T   T   T
  0.1107357769340829  0.5560669668898239  0.1485738922788363   T   T   T
  0.2422358147392652  0.4237818660720519  0.3056020765801241   T   T   T
  0.1173098519477753  0.5501542343492087  0.3818174501829117   T   T   T
  0.0079321806861534  0.3371065605910060  0.2310910390812044   T   T   T
  0.2226132977562906  0.4438526476494959  0.0739735824930181   T   T   T
  0.3331023823530783  0.3325396762044190  0.9946652915550820   T   T   T
  0.4503132486943979  0.5644137321175476  0.1459527054093069   T   T   T
  0.5062377483954467  0.4155324367064482  0.3102201820018776   T   T   T
  0.4370348334816798  0.5455570539646717  0.3865044998398858   T   T   T
  0.3336671566242332  0.3334680041190091  0.2093568768248119   T   T   T
  0.5557851648332899  0.4435620240956792  0.0739649266095155   T   T   T
  0.6667840793682359  0.3324077719750000  0.9948157758348778   T   T   T
  0.7805042533976579  0.5572254404061914  0.1482112179611143   T   T   T
  0.8948811332560532  0.4461732745230075  0.3047074692231211   T   T   T
  0.7785139238134769  0.5661517657364622  0.3822933281323833   T   T   T
  0.6665056200382314  0.3391464907990580  0.2299917012630206   T   T   T
  0.8886279165652304  0.4428039920805908  0.0746894614088390   T   T   T
  0.0007092716329447  0.6663844056617592  0.9951584896742663   T   T   T
  0.1099488075108531  0.8861165496759290  0.1482520274280866   T   T   T
  0.2201278072228152  0.7716738180217019  0.3043339090045214   T   T   T
  0.1004767604345581  0.8885304057955332  0.3825088785377379   T   T   T
 -0.0004625703849685  0.6666284792900443  0.2294949721332935   T   T   T
  0.2244813639435070  0.7784857790365171  0.0746760766387694   T   T   T
  0.3339069000270056  0.6658918561087008  0.9947025001905861   T   T   T
  0.4444586441524936  0.8871387689501007  0.1525607390777527   T   T   T
  0.5561272524830858  0.7733109996776936  0.3040879725114382   T   T   T
  0.4493013962347578  0.8788903243700183  0.3864497534193987   T   T   T
  0.3295631856222613  0.6581296705173807  0.2310086407148661   T   T   T
  0.5586847409088684  0.7823624962062072  0.0740859553300834   T   T   T
  0.6664074831658053  0.6658264437244048  0.9943010685949392   T   T   T
  0.7793965426925981  0.8873304546506179  0.1523540655334543   T   T   T
  0.8882241455070945  0.7795449578071698  0.3018887760710525   T   T   T
  0.7792943963940268  0.8865461095990019  0.3836368969794742   T   T   T
  0.6627732631416203  0.6550191435407936  0.2321324709343485   T   T   T
  0.8884220776401189  0.7784943349700466  0.0737499409054839   T   T   T
  0.3273001824075882  0.3389361659919205  0.3525193630144595   T   T   T
  0.0019809553174001  0.0016097482255275  0.3437631296848958   T   T   T
  0.2254629690055424  0.1134715127537279  0.1862044630380047   T   T   T
  0.1100900023292343  0.2208638046806175  0.0337771708298794   T   T   T
  0.3327967346467595 -0.0034046040702975  0.3462258694950638   T   T   T
  0.5561932149472412  0.1104802637341658  0.1922621931587995   T   T   T
  0.4455789098302724  0.2208071996037945  0.0340797797621590   T   T   T
  0.6679561534348156 -0.0013043072253879  0.3451349432449053   T   T   T
  0.8905435972551398  0.1110609905650181  0.1902167651476427   T   T   T
  0.7771402740339333  0.2205829087350352  0.0349501226247380   T   T   T
  0.0015593302176344  0.3309073310453000  0.3446278537769986   T   T   T
  0.2237993065022595  0.4428037613387252  0.1851291434095904   T   T   T
  0.1111475687545481  0.5554925356528244  0.0350735384686091   T   T   T
  0.5535365242435728  0.4415191281874590  0.1860731673860975   T   T   T
  0.4456257373087664  0.5562692141452485  0.0336894451225132   T   T   T
  0.6696164802339200  0.3336400152394629  0.3460209745671221   T   T   T
  0.8892021028538304  0.4439261622418773  0.1902295618516703   T   T   T
  0.7787053118832042  0.5554021694979265  0.0350090277535332   T   T   T
 -0.0006025699830405  0.6671948382818608  0.3417470263382247   T   T   T
  0.2228736100720403  0.7774255426331834  0.1902520379379362   T   T   T
  0.1114938341747773  0.8881895565520939  0.0350382243949570   T   T   T
  0.3356382473682344  0.6649754406581204  0.3444659020333489   T   T   T
  0.5559324152632896  0.7761580774162147  0.1902696637259932   T   T   T
  0.4458710517837489  0.8891559312624405  0.0347529608299369   T   T   T
  0.6652576317421185  0.6648801523853415  0.3437512060316141   T   T   T
  0.8897618481104959  0.7772559703966595  0.1896241943475721   T   T   T
  0.7775131159098220  0.8889294762400619  0.0341469357022838   T   T   T
  0.3172904646147501  0.3502702489209819  0.4266654977507570   T   T   T
  0.4206657800342232  0.2438205447137865  0.4489602732767120   T   T   T
 
  0.00000000E+00  0.00000000E+00  0.00000000E+00
  0.00000000E+00  0.00000000E+00  0.00000000E+00
  0.00000000E+00  0.00000000E+00  0.00000000E+00
  0.00000000E+00  0.00000000E+00  0.00000000E+00
  0.00000000E+00  0.00000000E+00  0.00000000E+00
  0.00000000E+00  0.00000000E+00  0.00000000E+00
  0.00000000E+00  0.00000000E+00  0.00000000E+00
  0.00000000E+00  0.00000000E+00  0.00000000E+00
  0.00000000E+00  0.00000000E+00  0.00000000E+00
  0.00000000E+00  0.00000000E+00  0.00000000E+00
  0.00000000E+00  0.00000000E+00  0.00000000E+00
  0.00000000E+00  0.00000000E+00  0.00000000E+00
  0.00000000E+00  0.00000000E+00  0.00000000E+00
  0.00000000E+00  0.00000000E+00  0.00000000E+00
  0.00000000E+00  0.00000000E+00  0.00000000E+00
  0.00000000E+00  0.00000000E+00  0.00000000E+00
  0.00000000E+00  0.00000000E+00  0.00000000E+00
  0.00000000E+00  0.00000000E+00  0.00000000E+00
  0.00000000E+00  0.00000000E+00  0.00000000E+00
  0.00000000E+00  0.00000000E+00  0.00000000E+00
  0.00000000E+00  0.00000000E+00  0.00000000E+00
  0.00000000E+00  0.00000000E+00  0.00000000E+00
  0.00000000E+00  0.00000000E+00  0.00000000E+00
  0.00000000E+00  0.00000000E+00  0.00000000E+00
  0.00000000E+00  0.00000000E+00  0.00000000E+00
  0.00000000E+00  0.00000000E+00  0.00000000E+00
  0.00000000E+00  0.00000000E+00  0.00000000E+00
  0.00000000E+00  0.00000000E+00  0.00000000E+00
  0.00000000E+00  0.00000000E+00  0.00000000E+00
  0.00000000E+00  0.00000000E+00  0.00000000E+00
  0.00000000E+00  0.00000000E+00  0.00000000E+00
  0.00000000E+00  0.00000000E+00  0.00000000E+00
  0.00000000E+00  0.00000000E+00  0.00000000E+00
  0.00000000E+00  0.00000000E+00  0.00000000E+00
  0.00000000E+00  0.00000000E+00  0.00000000E+00
  0.00000000E+00  0.00000000E+00  0.00000000E+00
  0.00000000E+00  0.00000000E+00  0.00000000E+00
  0.00000000E+00  0.00000000E+00  0.00000000E+00
  0.00000000E+00  0.00000000E+00  0.00000000E+00
  0.00000000E+00  0.00000000E+00  0.00000000E+00
  0.00000000E+00  0.00000000E+00  0.00000000E+00
  0.00000000E+00  0.00000000E+00  0.00000000E+00
  0.00000000E+00  0.00000000E+00  0.00000000E+00
  0.00000000E+00  0.00000000E+00  0.00000000E+00
  0.00000000E+00  0.00000000E+00  0.00000000E+00
  0.00000000E+00  0.00000000E+00  0.00000000E+00
  0.00000000E+00  0.00000000E+00  0.00000000E+00
  0.00000000E+00  0.00000000E+00  0.00000000E+00
  0.00000000E+00  0.00000000E+00  0.00000000E+00
  0.00000000E+00  0.00000000E+00  0.00000000E+00
  0.00000000E+00  0.00000000E+00  0.00000000E+00
  0.00000000E+00  0.00000000E+00  0.00000000E+00
  0.00000000E+00  0.00000000E+00  0.00000000E+00
  0.00000000E+00  0.00000000E+00  0.00000000E+00
  0.00000000E+00  0.00000000E+00  0.00000000E+00
  0.00000000E+00  0.00000000E+00  0.00000000E+00
  0.00000000E+00  0.00000000E+00  0.00000000E+00
  0.00000000E+00  0.00000000E+00  0.00000000E+00
  0.00000000E+00  0.00000000E+00  0.00000000E+00
  0.00000000E+00  0.00000000E+00  0.00000000E+00
  0.00000000E+00  0.00000000E+00  0.00000000E+00
  0.00000000E+00  0.00000000E+00  0.00000000E+00
  0.00000000E+00  0.00000000E+00  0.00000000E+00
  0.00000000E+00  0.00000000E+00  0.00000000E+00
  0.00000000E+00  0.00000000E+00  0.00000000E+00
  0.00000000E+00  0.00000000E+00  0.00000000E+00
  0.00000000E+00  0.00000000E+00  0.00000000E+00
  0.00000000E+00  0.00000000E+00  0.00000000E+00
  0.00000000E+00  0.00000000E+00  0.00000000E+00
  0.00000000E+00  0.00000000E+00  0.00000000E+00
  0.00000000E+00  0.00000000E+00  0.00000000E+00
  0.00000000E+00  0.00000000E+00  0.00000000E+00
  0.00000000E+00  0.00000000E+00  0.00000000E+00
  0.00000000E+00  0.00000000E+00  0.00000000E+00
  0.00000000E+00  0.00000000E+00  0.00000000E+00
  0.00000000E+00  0.00000000E+00  0.00000000E+00
  0.00000000E+00  0.00000000E+00  0.00000000E+00
  0.00000000E+00  0.00000000E+00  0.00000000E+00
  0.00000000E+00  0.00000000E+00  0.00000000E+00
  0.00000000E+00  0.00000000E+00  0.00000000E+00
  0.00000000E+00  0.00000000E+00  0.00000000E+00
  0.00000000E+00  0.00000000E+00  0.00000000E+00
  0.00000000E+00  0.00000000E+00  0.00000000E+00
