CeO2-you-111-you-Pt                     
   1.00000000000000     
     9.8535556292941333   -5.6472438583061084    0.0023499418985517
    -0.0000000007722844   11.2944857278403088   -0.0000000001648340
     0.0058047347855341   -0.0000000004705927   21.1178782821267461
   O    Pt   Ce   H 
    53     1    26     1
Selective dynamics
Direct
  0.0010735021748919  0.0014165367276287  0.9948605250461002   T   T   T
  0.1060076759005991  0.2189068760065536  0.1472192992505960   T   T   T
  0.2363166796455668  0.1426301466431326  0.3120637127943182   T   T   T
  0.0506940651279552  0.1902471824506202  0.3992300830883881   T   T   T
  0.0078992546198357  0.0036426027301776  0.2296235304864438   T   T   T
  0.2236774828017169  0.1112279836972495  0.0741393973448255   T   T   T
  0.3341649245584987  0.0001415960007511  0.9938958900820467   T   T   T
  0.4490783934413352  0.2165768410839391  0.1453870728272374   T   T   T
  0.5452032930508318  0.1067004431483365  0.3061485360031592   T   T   T
  0.4432398045379892  0.2509465216582639  0.3959448331921055   T   T   T
  0.3269506420413997  0.0000348852669753  0.2304946240538670   T   T   T
  0.5576874213196937  0.1079597482662912  0.0736237170546944   T   T   T
  0.6683163960550050  0.0007831770619752  0.9928633447283854   T   T   T
  0.7755280008864011  0.2242103781803350  0.1522897784754905   T   T   T
  0.8843802584369969  0.1062097642032327  0.3004166818485347   T   T   T
  0.7777550533626906  0.2129189567411932  0.3855826629344913   T   T   T
  0.6625602571060875  0.9996213680232594  0.2297265362673837   T   T   T
  0.8846658200717553  0.1084312950790614  0.0753787796033188   T   T   T
  0.0012855966213641  0.3325195993094376  0.9951155273257144   T   T   T
  0.1097509566404940  0.5552139420368328  0.1493961171559817   T   T   T
  0.2345931739777866  0.4217523019774531  0.3076658152273503   T   T   T
  0.1199243926232193  0.5542587390158707  0.3819502302466194   T   T   T
  0.0056937299955708  0.3349474667233512  0.2296559761026804   T   T   T
  0.2238985000017834  0.4450645394939535  0.0742859790143072   T   T   T
  0.3336929818056799  0.3332374054688881  0.9943741609932440   T   T   T
  0.4502716677086591  0.5643353349122120  0.1455221657740179   T   T   T
  0.4565860048046788  0.5421916436239326  0.3789891064001941   T   T   T
  0.3409501059149128  0.3354025630662416  0.2122915729645778   T   T   T
  0.5567860726791150  0.4441947699491448  0.0716424566146552   T   T   T
  0.6682139415127596  0.3327301417335897  0.9939771671691546   T   T   T
  0.7808570290871408  0.5574567810845942  0.1470047243335743   T   T   T
  0.8971002814131896  0.4460220954622408  0.3045698467733942   T   T   T
  0.7802491484771737  0.5649350972105929  0.3812728258845491   T   T   T
  0.6605225602093689  0.3417348919181801  0.2329495432635762   T   T   T
  0.8896511863944118  0.4435135661284096  0.0741924579239153   T   T   T
  0.0012267113856155  0.6674220415518126  0.9947849525604355   T   T   T
  0.1100512383304778  0.8857779097806574  0.1488363545136468   T   T   T
  0.2223687989681493  0.7745787529760320  0.3024684322942781   T   T   T
  0.1171242155408612  0.8898019542905673  0.3824227004552355   T   T   T
  0.9988503952742107  0.6666892507681429  0.2297642826590977   T   T   T
  0.2238545993535340  0.7777170124624021  0.0740842303000126   T   T   T
  0.3344435976948072  0.6668007276000010  0.9938390023275882   T   T   T
  0.4420466328269494  0.8867258136827502  0.1516778740015464   T   T   T
  0.5544260045922802  0.7770064624393002  0.3041539748931359   T   T   T
  0.4377979339570756  0.8824021240312538  0.3835864840489950   T   T   T
  0.3294102266477719  0.6575669982081207  0.2310279950744834   T   T   T
  0.5581761995393533  0.7823937862579491  0.0736995271870666   T   T   T
  0.6690263338149136  0.6685151082858772  0.9942625893898526   T   T   T
  0.7748619327436578  0.8837742996202925  0.1535198965351112   T   T   T
  0.8926911185166972  0.7842108267085226  0.3039672565972367   T   T   T
  0.7729488605393980  0.8874263624275702  0.3856963529621786   T   T   T
  0.6590405441887156  0.6475213994501796  0.2352943037827562   T   T   T
  0.8897718805415126  0.7803041794849433  0.0745763957065338   T   T   T
  0.3465484617638627  0.3431617753557543  0.3475698923377575   T   T   T
  0.0041471016157355  0.0091932477669090  0.3466061361483654   T   T   T
  0.2235114104175731  0.1141292233513192  0.1882954388701977   T   T   T
  0.1112929432323757  0.2218795809054287  0.0345300288802987   T   T   T
  0.3275678156465169 -0.0071817296482703  0.3415877814083453   T   T   T
  0.5541704870272158  0.1112373852280226  0.1910169328225968   T   T   T
  0.4449901750221180  0.2199363764184933  0.0325238825172174   T   T   T
  0.6639772690010786  0.9985523465171008  0.3447141082951928   T   T   T
  0.8887317469053546  0.1108273558371398  0.1903961034546552   T   T   T
  0.7776578822370448  0.2214181818842515  0.0347333646837392   T   T   T
  0.0023274439185978  0.3251398415559650  0.3467542180958831   T   T   T
  0.2236890009409890  0.4405366294714147  0.1883252247215123   T   T   T
  0.1113753877345855  0.5548489177886755  0.0352959409469798   T   T   T
  0.5551387819893920  0.4429583362528334  0.1804970663014568   T   T   T
  0.4450902268765746  0.5573905989946433  0.0327870297670806   T   T   T
  0.6759436110663437  0.3331770113190694  0.3480900776051758   T   T   T
  0.8890971370743126  0.4438234983289041  0.1912159055403965   T   T   T
  0.7811155608524257  0.5570856816909184  0.0337528193906545   T   T   T
  0.0018729888003142  0.6661913532698274  0.3423079471565945   T   T   T
  0.2209795559968178  0.7755954852063909  0.1886980701059908   T   T   T
  0.1113359165841623  0.8891442557525601  0.0352809176144272   T   T   T
  0.3333397123561496  0.6564255440518468  0.3432557266874879   T   T   T
  0.5539850083644822  0.7758668076378618  0.1906977063400020   T   T   T
  0.4461037581195446  0.8892914741631225  0.0341825506614737   T   T   T
  0.6739220917890376  0.6763163342039392  0.3463430496786786   T   T   T
  0.8897230287674986  0.7782366526120889  0.1909601202944282   T   T   T
  0.7779363511904067  0.8893944094676378  0.0345316935679280   T   T   T
  0.4221276652469803  0.2582472325058490  0.4399769825675290   T   T   T
 
  0.00000000E+00  0.00000000E+00  0.00000000E+00
  0.00000000E+00  0.00000000E+00  0.00000000E+00
  0.00000000E+00  0.00000000E+00  0.00000000E+00
  0.00000000E+00  0.00000000E+00  0.00000000E+00
  0.00000000E+00  0.00000000E+00  0.00000000E+00
  0.00000000E+00  0.00000000E+00  0.00000000E+00
  0.00000000E+00  0.00000000E+00  0.00000000E+00
  0.00000000E+00  0.00000000E+00  0.00000000E+00
  0.00000000E+00  0.00000000E+00  0.00000000E+00
  0.00000000E+00  0.00000000E+00  0.00000000E+00
  0.00000000E+00  0.00000000E+00  0.00000000E+00
  0.00000000E+00  0.00000000E+00  0.00000000E+00
  0.00000000E+00  0.00000000E+00  0.00000000E+00
  0.00000000E+00  0.00000000E+00  0.00000000E+00
  0.00000000E+00  0.00000000E+00  0.00000000E+00
  0.00000000E+00  0.00000000E+00  0.00000000E+00
  0.00000000E+00  0.00000000E+00  0.00000000E+00
  0.00000000E+00  0.00000000E+00  0.00000000E+00
  0.00000000E+00  0.00000000E+00  0.00000000E+00
  0.00000000E+00  0.00000000E+00  0.00000000E+00
  0.00000000E+00  0.00000000E+00  0.00000000E+00
  0.00000000E+00  0.00000000E+00  0.00000000E+00
  0.00000000E+00  0.00000000E+00  0.00000000E+00
  0.00000000E+00  0.00000000E+00  0.00000000E+00
  0.00000000E+00  0.00000000E+00  0.00000000E+00
  0.00000000E+00  0.00000000E+00  0.00000000E+00
  0.00000000E+00  0.00000000E+00  0.00000000E+00
  0.00000000E+00  0.00000000E+00  0.00000000E+00
  0.00000000E+00  0.00000000E+00  0.00000000E+00
  0.00000000E+00  0.00000000E+00  0.00000000E+00
  0.00000000E+00  0.00000000E+00  0.00000000E+00
  0.00000000E+00  0.00000000E+00  0.00000000E+00
  0.00000000E+00  0.00000000E+00  0.00000000E+00
  0.00000000E+00  0.00000000E+00  0.00000000E+00
  0.00000000E+00  0.00000000E+00  0.00000000E+00
  0.00000000E+00  0.00000000E+00  0.00000000E+00
  0.00000000E+00  0.00000000E+00  0.00000000E+00
  0.00000000E+00  0.00000000E+00  0.00000000E+00
  0.00000000E+00  0.00000000E+00  0.00000000E+00
  0.00000000E+00  0.00000000E+00  0.00000000E+00
  0.00000000E+00  0.00000000E+00  0.00000000E+00
  0.00000000E+00  0.00000000E+00  0.00000000E+00
  0.00000000E+00  0.00000000E+00  0.00000000E+00
  0.00000000E+00  0.00000000E+00  0.00000000E+00
  0.00000000E+00  0.00000000E+00  0.00000000E+00
  0.00000000E+00  0.00000000E+00  0.00000000E+00
  0.00000000E+00  0.00000000E+00  0.00000000E+00
  0.00000000E+00  0.00000000E+00  0.00000000E+00
  0.00000000E+00  0.00000000E+00  0.00000000E+00
  0.00000000E+00  0.00000000E+00  0.00000000E+00
  0.00000000E+00  0.00000000E+00  0.00000000E+00
  0.00000000E+00  0.00000000E+00  0.00000000E+00
  0.00000000E+00  0.00000000E+00  0.00000000E+00
  0.00000000E+00  0.00000000E+00  0.00000000E+00
  0.00000000E+00  0.00000000E+00  0.00000000E+00
  0.00000000E+00  0.00000000E+00  0.00000000E+00
  0.00000000E+00  0.00000000E+00  0.00000000E+00
  0.00000000E+00  0.00000000E+00  0.00000000E+00
  0.00000000E+00  0.00000000E+00  0.00000000E+00
  0.00000000E+00  0.00000000E+00  0.00000000E+00
  0.00000000E+00  0.00000000E+00  0.00000000E+00
  0.00000000E+00  0.00000000E+00  0.00000000E+00
  0.00000000E+00  0.00000000E+00  0.00000000E+00
  0.00000000E+00  0.00000000E+00  0.00000000E+00
  0.00000000E+00  0.00000000E+00  0.00000000E+00
  0.00000000E+00  0.00000000E+00  0.00000000E+00
  0.00000000E+00  0.00000000E+00  0.00000000E+00
  0.00000000E+00  0.00000000E+00  0.00000000E+00
  0.00000000E+00  0.00000000E+00  0.00000000E+00
  0.00000000E+00  0.00000000E+00  0.00000000E+00
  0.00000000E+00  0.00000000E+00  0.00000000E+00
  0.00000000E+00  0.00000000E+00  0.00000000E+00
  0.00000000E+00  0.00000000E+00  0.00000000E+00
  0.00000000E+00  0.00000000E+00  0.00000000E+00
  0.00000000E+00  0.00000000E+00  0.00000000E+00
  0.00000000E+00  0.00000000E+00  0.00000000E+00
  0.00000000E+00  0.00000000E+00  0.00000000E+00
  0.00000000E+00  0.00000000E+00  0.00000000E+00
  0.00000000E+00  0.00000000E+00  0.00000000E+00
  0.00000000E+00  0.00000000E+00  0.00000000E+00
  0.00000000E+00  0.00000000E+00  0.00000000E+00
