CeO2-you-111-you-Au                     
   1.00000000000000     
     9.8498400572266558   -5.6868081800260395    0.0000000000179434
    -0.0061736265954958   11.3629213242959040    0.0008080137485827
     0.0002787556231856    0.0004828189380920   21.3303692612421791
   O    Au   Ce H
    53     1    26 2
Selective dynamics
Direct
  0.0000000000000000  0.0000000000000000  0.9984359999999981   F   F   F
  0.1111110000000011  0.2222220000000021  0.1502740000000031   F   F   F
  0.2108711321159271  0.0884092642301260  0.2970846362322285   T   T   T
  0.1152364092737997  0.2233900823834501  0.3797230637522891   T   T   T
 -0.0068401962253624 -0.0012508918665633  0.2278734538621058   T   T   T
  0.2222220000000021  0.1111110000000011  0.0766830000000027   F   F   F
  0.3333330000000032  0.0000000000000000  0.9984359999999981   F   F   F
  0.4444439999999972  0.2222220000000021  0.1502740000000031   F   F   F
  0.5578498841192837  0.1129946926406092  0.3038705978813383   T   T   T
  0.4414866731091833  0.2233900823837571  0.3797230637522863   T   T   T
  0.3389223043586173 -0.0012508918666008  0.2278734538621488   T   T   T
  0.5555560000000028  0.1111110000000011  0.0766830000000027   F   F   F
  0.6666669999999968  0.0000000000000000  0.9984359999999981   F   F   F
  0.7777779999999979  0.2222220000000021  0.1502740000000031   F   F   F
  0.8884788085214873  0.1129946926408722  0.3038705978813888   T   T   T
  0.7765744406399597  0.2198148812798515  0.3830924632276642   T   T   T
  0.6636673818628779 -0.0059992362741695  0.2312406264949078   T   T   T
  0.8888889999999989  0.1111110000000011  0.0766830000000027   F   F   F
  0.0000000000000000  0.3333330000000032  0.9984359999999981   F   F   F
  0.1111110000000011  0.5555560000000028  0.1502740000000031   F   F   F
  0.2443512409543974  0.4545117353985839  0.3114067166079857   T   T   T
  0.1107201735722990  0.5573038360953969  0.3816562830959572   T   T   T
  0.0057450637867599  0.3373851915934564  0.2316223792534492   T   T   T
  0.2222220000000021  0.4444439999999972  0.0766830000000027   F   F   F
  0.3333330000000032  0.3333330000000032  0.9984359999999981   F   F   F
  0.4444439999999972  0.5555560000000028  0.1502740000000031   F   F   F
  0.5434944944462565  0.4545117353996881  0.3114067166081430   T   T   T
  0.3336552399233412  0.3339774798472139  0.2191979852065327   T   T   T
  0.5555560000000028  0.4444439999999972  0.0766830000000027   F   F   F
  0.6666669999999968  0.3333330000000032  0.9984359999999981   F   F   F
  0.7777779999999979  0.5555560000000028  0.1502740000000031   F   F   F
  0.8875533836641952  0.4417727673278100  0.3040527647751464   T   T   T
  0.7799166625239400  0.5573038360948859  0.3816562830958219   T   T   T
  0.6649741278066295  0.3373851915934892  0.2316223792534219   T   T   T
  0.8888889999999989  0.4444439999999972  0.0766830000000027   F   F   F
  0.0000000000000000  0.6666669999999968  0.9984359999999981   F   F   F
  0.1111110000000011  0.8888889999999989  0.1502740000000031   F   F   F
  0.2193998679221210  0.7786922119557949  0.3022345209015321   T   T   T
  0.1095356949382551  0.8857383898769479  0.3835640035831991   T   T   T
 -0.0009851666405761  0.6646966667184568  0.2289947102874197   T   T   T
  0.2222220000000021  0.7777779999999979  0.0766830000000027   F   F   F
  0.3333330000000032  0.6666669999999968  0.9984359999999981   F   F   F
  0.4444439999999972  0.8888889999999989  0.1502740000000031   F   F   F
  0.5468806870844750  0.7604273741693418  0.3103255001105517   T   T   T
  0.4428432725358744  0.8889563052690834  0.3808540866432670   T   T   T
  0.3324021084381976  0.6686637275982478  0.2293697249560225   T   T   T
  0.5555560000000028  0.7777779999999979  0.0766830000000027   F   F   F
  0.6666669999999968  0.6666669999999968  0.9984359999999981   F   F   F
  0.7777779999999979  0.8888889999999989  0.1502740000000031   F   F   F
  0.8926253440345938  0.7786922119568835  0.3022345209019022   T   T   T
  0.7794460327322894  0.8889563052697728  0.3808540866434432   T   T   T
  0.6695946191606704  0.6686637275986959  0.2293697249561625   T   T   T
  0.8888889999999989  0.7777779999999979  0.0766830000000027   F   F   F
  0.3363191495578306  0.3393052991155916  0.3508815769923320   T   T   T
  0.0071354177262556  0.0048854815352291  0.3414229681318457   T   T   T
  0.2222220000000021  0.1111110000000011  0.1895730000000029   F   F   F
  0.1111110000000011  0.2222220000000021  0.0375840000000025   F   F   F
  0.3310830638094215  0.0048854815373206  0.3414229681323221   T   T   T
  0.5555560000000028  0.1111110000000011  0.1895730000000029   F   F   F
  0.4444439999999972  0.2222220000000021  0.0375840000000025   F   F   F
  0.6671276126921664  0.0009212253851965  0.3436347613545109   T   T   T
  0.8888889999999989  0.1111110000000011  0.1895730000000029   F   F   F
  0.7777779999999979  0.2222220000000021  0.0375840000000025   F   F   F
  0.0026239336851384  0.3321565671814421  0.3432796318992526   T   T   T
  0.2222220000000021  0.4444439999999972  0.1895730000000029   F   F   F
  0.1111110000000011  0.5555560000000028  0.0375840000000025   F   F   F
  0.5555560000000028  0.4444439999999972  0.1895730000000029   F   F   F
  0.4444439999999972  0.5555560000000028  0.0375840000000025   F   F   F
  0.6628666334960490  0.3321565671819500  0.3432796318994757   T   T   T
  0.8888889999999989  0.4444439999999972  0.1895730000000029   F   F   F
  0.7777779999999979  0.5555560000000028  0.0375840000000025   F   F   F
 -0.0002865080277232  0.6660939839451516  0.3428242768951907   T   T   T
  0.2222220000000021  0.7777779999999979  0.1895730000000029   F   F   F
  0.1111110000000011  0.8888889999999989  0.0375840000000025   F   F   F
  0.3248351165103913  0.6731653324604763  0.3394528849484306   T   T   T
  0.5555560000000028  0.7777779999999979  0.1895730000000029   F   F   F
  0.4444439999999972  0.8888889999999989  0.0375840000000025   F   F   F
  0.6816632159468232  0.6731653324558158  0.3394528849471303   T   T   T
  0.8888889999999989  0.7777779999999979  0.1895730000000029   F   F   F
  0.7777779999999979  0.8888889999999989  0.0375840000000025   F   F   F
0.3363191495578306 0.3393052991155916 0.450882 T   T   T
0.446598 0.216020 0.433410 T T T 
 
  0.00000000E+00  0.00000000E+00  0.00000000E+00
  0.00000000E+00  0.00000000E+00  0.00000000E+00
  0.00000000E+00  0.00000000E+00  0.00000000E+00
  0.00000000E+00  0.00000000E+00  0.00000000E+00
  0.00000000E+00  0.00000000E+00  0.00000000E+00
  0.00000000E+00  0.00000000E+00  0.00000000E+00
  0.00000000E+00  0.00000000E+00  0.00000000E+00
  0.00000000E+00  0.00000000E+00  0.00000000E+00
  0.00000000E+00  0.00000000E+00  0.00000000E+00
  0.00000000E+00  0.00000000E+00  0.00000000E+00
  0.00000000E+00  0.00000000E+00  0.00000000E+00
  0.00000000E+00  0.00000000E+00  0.00000000E+00
  0.00000000E+00  0.00000000E+00  0.00000000E+00
  0.00000000E+00  0.00000000E+00  0.00000000E+00
  0.00000000E+00  0.00000000E+00  0.00000000E+00
  0.00000000E+00  0.00000000E+00  0.00000000E+00
  0.00000000E+00  0.00000000E+00  0.00000000E+00
  0.00000000E+00  0.00000000E+00  0.00000000E+00
  0.00000000E+00  0.00000000E+00  0.00000000E+00
  0.00000000E+00  0.00000000E+00  0.00000000E+00
  0.00000000E+00  0.00000000E+00  0.00000000E+00
  0.00000000E+00  0.00000000E+00  0.00000000E+00
  0.00000000E+00  0.00000000E+00  0.00000000E+00
  0.00000000E+00  0.00000000E+00  0.00000000E+00
  0.00000000E+00  0.00000000E+00  0.00000000E+00
  0.00000000E+00  0.00000000E+00  0.00000000E+00
  0.00000000E+00  0.00000000E+00  0.00000000E+00
  0.00000000E+00  0.00000000E+00  0.00000000E+00
  0.00000000E+00  0.00000000E+00  0.00000000E+00
  0.00000000E+00  0.00000000E+00  0.00000000E+00
  0.00000000E+00  0.00000000E+00  0.00000000E+00
  0.00000000E+00  0.00000000E+00  0.00000000E+00
  0.00000000E+00  0.00000000E+00  0.00000000E+00
  0.00000000E+00  0.00000000E+00  0.00000000E+00
  0.00000000E+00  0.00000000E+00  0.00000000E+00
  0.00000000E+00  0.00000000E+00  0.00000000E+00
  0.00000000E+00  0.00000000E+00  0.00000000E+00
  0.00000000E+00  0.00000000E+00  0.00000000E+00
  0.00000000E+00  0.00000000E+00  0.00000000E+00
  0.00000000E+00  0.00000000E+00  0.00000000E+00
  0.00000000E+00  0.00000000E+00  0.00000000E+00
  0.00000000E+00  0.00000000E+00  0.00000000E+00
  0.00000000E+00  0.00000000E+00  0.00000000E+00
  0.00000000E+00  0.00000000E+00  0.00000000E+00
  0.00000000E+00  0.00000000E+00  0.00000000E+00
  0.00000000E+00  0.00000000E+00  0.00000000E+00
  0.00000000E+00  0.00000000E+00  0.00000000E+00
  0.00000000E+00  0.00000000E+00  0.00000000E+00
  0.00000000E+00  0.00000000E+00  0.00000000E+00
  0.00000000E+00  0.00000000E+00  0.00000000E+00
  0.00000000E+00  0.00000000E+00  0.00000000E+00
  0.00000000E+00  0.00000000E+00  0.00000000E+00
  0.00000000E+00  0.00000000E+00  0.00000000E+00
  0.00000000E+00  0.00000000E+00  0.00000000E+00
  0.00000000E+00  0.00000000E+00  0.00000000E+00
  0.00000000E+00  0.00000000E+00  0.00000000E+00
  0.00000000E+00  0.00000000E+00  0.00000000E+00
  0.00000000E+00  0.00000000E+00  0.00000000E+00
  0.00000000E+00  0.00000000E+00  0.00000000E+00
  0.00000000E+00  0.00000000E+00  0.00000000E+00
  0.00000000E+00  0.00000000E+00  0.00000000E+00
  0.00000000E+00  0.00000000E+00  0.00000000E+00
  0.00000000E+00  0.00000000E+00  0.00000000E+00
  0.00000000E+00  0.00000000E+00  0.00000000E+00
  0.00000000E+00  0.00000000E+00  0.00000000E+00
  0.00000000E+00  0.00000000E+00  0.00000000E+00
  0.00000000E+00  0.00000000E+00  0.00000000E+00
  0.00000000E+00  0.00000000E+00  0.00000000E+00
  0.00000000E+00  0.00000000E+00  0.00000000E+00
  0.00000000E+00  0.00000000E+00  0.00000000E+00
  0.00000000E+00  0.00000000E+00  0.00000000E+00
  0.00000000E+00  0.00000000E+00  0.00000000E+00
  0.00000000E+00  0.00000000E+00  0.00000000E+00
  0.00000000E+00  0.00000000E+00  0.00000000E+00
  0.00000000E+00  0.00000000E+00  0.00000000E+00
  0.00000000E+00  0.00000000E+00  0.00000000E+00
  0.00000000E+00  0.00000000E+00  0.00000000E+00
  0.00000000E+00  0.00000000E+00  0.00000000E+00
  0.00000000E+00  0.00000000E+00  0.00000000E+00
  0.00000000E+00  0.00000000E+00  0.00000000E+00
