CeO2-you-111-you-W                      
   1.00000000000000     
     9.8995193200815148   -5.7215529037668436   -0.0069812518972450
    -0.0052501885204351   11.4340102010680482    0.0069812506500436
    -0.0081968241093345    0.0141973147682163   20.9131243535194962
   O    W    Ce   H 
    53     1    26     2
Selective dynamics
Direct
  0.9995174168972811  0.0002569388873980  0.9950999207910812   T   T   T
  0.1103643996031423  0.2147834931056707  0.1479900856838512   F   F   F
  0.2499543304055299  0.1329575328302503  0.3063204911815666   T   T   T
  0.1692495164768529  0.2704677342952361  0.3700602449943885   T   T   T
  0.0077103382554726  0.0004715461531240  0.2311478809854626   T   T   T
  0.2231302440935821  0.1092213394852664  0.0736638623281465   F   F   F
  0.3355700997172418  0.0013050596479871  0.9948496110586585   T   T   T
  0.4390257178958521  0.2276402821013477  0.1531959832774419   F   F   F
  0.5565398690435067  0.1103178097008928  0.3055506817084126   T   T   T
  0.4184880324288129  0.2506867446072661  0.4025827134384419   T   T   T
  0.3316230518932612 -0.0004042092652113  0.2269827378328114   T   T   T
  0.5539045297459921  0.1127624702533367  0.0784889352218272   F   F   F
  0.6656845624790255  0.0007926903488576  0.9965924493812166   T   T   T
  0.7816068136109422  0.2218974032791294  0.1521923739992346   F   F   F
  0.8934714012499740  0.1009508523974716  0.3083883131574803   T   T   T
  0.7749334496012977  0.2076881597657339  0.3908487050647285   T   T   T
  0.6689651322327627  0.9985983623689045  0.2305922067701205   T   T   T
  0.8885557462390921  0.1103288057481748  0.0752491431608959   F   F   F
  0.9969444882273195  0.3312052934789649  0.9952007601498115   T   T   T
  0.1069777135606671  0.5596892864318050  0.1465542871665519   F   F   F
  0.1069990343207086  0.5612175415889938  0.3864822366640236   T   T   T
  0.0027723278769049  0.3331771190070611  0.2338775897404851   T   T   T
  0.2222960266001976  0.4443699733998443  0.0701323203630082   F   F   F
  0.3342585629128222  0.3316874355360684  0.9949660053599976   T   T   T
  0.4518825069071468  0.5563026004003717  0.1479900856842491   F   F   F
  0.5334691511026395  0.4160706195964840  0.3057325318493749   T   T   T
  0.3967744697773241  0.4980793354842481  0.3694047588086968   T   T   T
  0.3183609921692169  0.3470516370482470  0.2463741354488914   T   T   T
  0.5574456605142331  0.4435357559063036  0.0736638623281181   F   F   F
  0.6656619781756857  0.3313893437813910  0.9946656294079943   T   T   T
  0.7782199469394939  0.5557207250778831  0.1488965432217313   F   F   F
  0.8877319470268251  0.4495236210639871  0.3048324096520925   T   T   T
  0.7769484897286486  0.5685895321853073  0.3857663117822889   T   T   T
  0.6674814438101677  0.3349183544490115  0.2267977854262315   T   T   T
  0.8860099849340557  0.4425343466479106  0.0742076390527302   F   F   F
  0.0005052355582392  0.6668716550877757  0.9948497682468339   T   T   T
  0.1109462749208419  0.8884470530583286  0.1488965432218237   F   F   F
  0.2183264041838770  0.7804299244628615  0.3049291054214219   T   T   T
  0.0972141499611781  0.8892075166311785  0.3863803478113799   T   T   T
 -0.0006842280783116  0.6679246046242772  0.2287576132740838   T   T   T
  0.2241316533518756  0.7806570150650955  0.0742076390528723   F   F   F
  0.3352743902509625  0.6694676442078920  0.9954152891460201   T   T   T
  0.4447685967210120  0.8850601863897722  0.1521923739991280   F   F   F
  0.5656486630901360  0.7738582372433486  0.3078193565768452   T   T   T
  0.4599887384125072  0.8922328839993809  0.3913898717644326   T   T   T
  0.3330847263699984  0.6635948950363200  0.2337115537640834   T   T   T
  0.5563381942518717  0.7781112537610753  0.0752491431610096   F   F   F
  0.6668280216248897  0.6673927112183549  0.9950700608301064   T   T   T
  0.7782520008308325  0.8884149991704078  0.1502271177179679   F   F   F
  0.8879353041713083  0.7789036197566733  0.3017477249674498   T   T   T
  0.7839025910231188  0.8807843312913382  0.3877741753033532   T   T   T
  0.6663109921550429  0.6590549616896144  0.2309905997340228   T   T   T
  0.8891105327072779  0.7775564672932234  0.0734309611376460   F   F   F
  0.3396806560093575  0.3268188209560922  0.3339461649880208   T   T   T
  0.9970250029605250  0.9910192731798805  0.3434576886691467   T   T   T
  0.2204780615463307  0.1073157025814737  0.1893308644772347   F   F   F
  0.1102732313205195  0.2204861907285718  0.0339186318709466   F   F   F
  0.3340606134148472  0.9937734668990914  0.3485749814600815   T   T   T
  0.5557010606306463  0.1109659393700682  0.1928008461049870   F   F   F
  0.4444213661882088  0.2222446338133679  0.0352584941984375   F   F   F
  0.6688459501660353  0.9982293313213542  0.3471327519154006   T   T   T
  0.8911523812141198  0.1116574105997614  0.1907236385199269   F   F   F
  0.7772751731840160  0.2219873667756573  0.0363988290636783   F   F   F
  0.9907244727038198  0.3325808380054495  0.3500421781029299   T   T   T
  0.2206075566032695  0.4460584433926087  0.1827112311956043   F   F   F
  0.1104100580190988  0.5562569419794414  0.0337505156896754   F   F   F
  0.5593512974261827  0.4461879384546634  0.1893308644774336   F   F   F
  0.4461798092728628  0.5563937686787881  0.0339186318711313   F   F   F
  0.6735833602841276  0.3332438176673919  0.3482885147138770   T   T   T
  0.8895197440868188  0.4440154380372690  0.1904257523274850   F   F   F
  0.7771992614621865  0.5539563062196962  0.0342140655486460   F   F   F
  0.0009902598901932  0.6664027651132578  0.3441750946440611   T   T   T
  0.2226505619657004  0.7771472559166597  0.1904257523273074   F   F   F
  0.1127106937802935  0.8894677385385066  0.0342140655487242   F   F   F
  0.3350358302040793  0.6768165530585838  0.3500587042840025   T   T   T
  0.5550095893949276  0.7755146187835606  0.1907236385198772   F   F   F
  0.4446786332245196  0.8893918268152632  0.0363988290635433   F   F   F
  0.6750495008093360  0.6691815305775553  0.3431945787428997   T   T   T
  0.8898744764414985  0.7767925235603954  0.1867857708994975   F   F   F
  0.7773710445798514  0.8892959554208062  0.0355998345794148   F   F   F
  0.2979239445243593  0.3669075727629610  0.4879926547242753   T   T   T
  0.3988548020334671  0.2671967094697103  0.4459753099980108   T   T   T
 
  0.00000000E+00  0.00000000E+00  0.00000000E+00
  0.00000000E+00  0.00000000E+00  0.00000000E+00
  0.00000000E+00  0.00000000E+00  0.00000000E+00
  0.00000000E+00  0.00000000E+00  0.00000000E+00
  0.00000000E+00  0.00000000E+00  0.00000000E+00
  0.00000000E+00  0.00000000E+00  0.00000000E+00
  0.00000000E+00  0.00000000E+00  0.00000000E+00
  0.00000000E+00  0.00000000E+00  0.00000000E+00
  0.00000000E+00  0.00000000E+00  0.00000000E+00
  0.00000000E+00  0.00000000E+00  0.00000000E+00
  0.00000000E+00  0.00000000E+00  0.00000000E+00
  0.00000000E+00  0.00000000E+00  0.00000000E+00
  0.00000000E+00  0.00000000E+00  0.00000000E+00
  0.00000000E+00  0.00000000E+00  0.00000000E+00
  0.00000000E+00  0.00000000E+00  0.00000000E+00
  0.00000000E+00  0.00000000E+00  0.00000000E+00
  0.00000000E+00  0.00000000E+00  0.00000000E+00
  0.00000000E+00  0.00000000E+00  0.00000000E+00
  0.00000000E+00  0.00000000E+00  0.00000000E+00
  0.00000000E+00  0.00000000E+00  0.00000000E+00
  0.00000000E+00  0.00000000E+00  0.00000000E+00
  0.00000000E+00  0.00000000E+00  0.00000000E+00
  0.00000000E+00  0.00000000E+00  0.00000000E+00
  0.00000000E+00  0.00000000E+00  0.00000000E+00
  0.00000000E+00  0.00000000E+00  0.00000000E+00
  0.00000000E+00  0.00000000E+00  0.00000000E+00
  0.00000000E+00  0.00000000E+00  0.00000000E+00
  0.00000000E+00  0.00000000E+00  0.00000000E+00
  0.00000000E+00  0.00000000E+00  0.00000000E+00
  0.00000000E+00  0.00000000E+00  0.00000000E+00
  0.00000000E+00  0.00000000E+00  0.00000000E+00
  0.00000000E+00  0.00000000E+00  0.00000000E+00
  0.00000000E+00  0.00000000E+00  0.00000000E+00
  0.00000000E+00  0.00000000E+00  0.00000000E+00
  0.00000000E+00  0.00000000E+00  0.00000000E+00
  0.00000000E+00  0.00000000E+00  0.00000000E+00
  0.00000000E+00  0.00000000E+00  0.00000000E+00
  0.00000000E+00  0.00000000E+00  0.00000000E+00
  0.00000000E+00  0.00000000E+00  0.00000000E+00
  0.00000000E+00  0.00000000E+00  0.00000000E+00
  0.00000000E+00  0.00000000E+00  0.00000000E+00
  0.00000000E+00  0.00000000E+00  0.00000000E+00
  0.00000000E+00  0.00000000E+00  0.00000000E+00
  0.00000000E+00  0.00000000E+00  0.00000000E+00
  0.00000000E+00  0.00000000E+00  0.00000000E+00
  0.00000000E+00  0.00000000E+00  0.00000000E+00
  0.00000000E+00  0.00000000E+00  0.00000000E+00
  0.00000000E+00  0.00000000E+00  0.00000000E+00
  0.00000000E+00  0.00000000E+00  0.00000000E+00
  0.00000000E+00  0.00000000E+00  0.00000000E+00
  0.00000000E+00  0.00000000E+00  0.00000000E+00
  0.00000000E+00  0.00000000E+00  0.00000000E+00
  0.00000000E+00  0.00000000E+00  0.00000000E+00
  0.00000000E+00  0.00000000E+00  0.00000000E+00
  0.00000000E+00  0.00000000E+00  0.00000000E+00
  0.00000000E+00  0.00000000E+00  0.00000000E+00
  0.00000000E+00  0.00000000E+00  0.00000000E+00
  0.00000000E+00  0.00000000E+00  0.00000000E+00
  0.00000000E+00  0.00000000E+00  0.00000000E+00
  0.00000000E+00  0.00000000E+00  0.00000000E+00
  0.00000000E+00  0.00000000E+00  0.00000000E+00
  0.00000000E+00  0.00000000E+00  0.00000000E+00
  0.00000000E+00  0.00000000E+00  0.00000000E+00
  0.00000000E+00  0.00000000E+00  0.00000000E+00
  0.00000000E+00  0.00000000E+00  0.00000000E+00
  0.00000000E+00  0.00000000E+00  0.00000000E+00
  0.00000000E+00  0.00000000E+00  0.00000000E+00
  0.00000000E+00  0.00000000E+00  0.00000000E+00
  0.00000000E+00  0.00000000E+00  0.00000000E+00
  0.00000000E+00  0.00000000E+00  0.00000000E+00
  0.00000000E+00  0.00000000E+00  0.00000000E+00
  0.00000000E+00  0.00000000E+00  0.00000000E+00
  0.00000000E+00  0.00000000E+00  0.00000000E+00
  0.00000000E+00  0.00000000E+00  0.00000000E+00
  0.00000000E+00  0.00000000E+00  0.00000000E+00
  0.00000000E+00  0.00000000E+00  0.00000000E+00
  0.00000000E+00  0.00000000E+00  0.00000000E+00
  0.00000000E+00  0.00000000E+00  0.00000000E+00
  0.00000000E+00  0.00000000E+00  0.00000000E+00
  0.00000000E+00  0.00000000E+00  0.00000000E+00
  0.00000000E+00  0.00000000E+00  0.00000000E+00
  0.00000000E+00  0.00000000E+00  0.00000000E+00
