CeO2-you-111-you-Cu                     
   1.00000000000000     
     9.8108627899905230   -5.6643046444277854    0.0000000000000000
     0.0000000039995412   11.3286073021883791    0.0000000000000000
     0.0000000000000000    0.0000000000000000   21.0126525601159173
   O    Cu   Ce   H 
    54     1    26     1
Selective dynamics
Direct
  0.0001506273079271  0.0001509825601656  0.9945015873833926   T   T   T
  0.1035494214299035  0.2184412107151203  0.1482211619014393   F   F   F
  0.2418681593761009  0.1351884137992870  0.3110742411831575   T   T   T
  0.1228462119815882  0.2353476212315674  0.3829862979235971   T   T   T
  0.0060805401960737  0.0024359027426547  0.2317954209918582   T   T   T
  0.2226198247854470  0.1119066495708623  0.0745919301453881   F   F   F
  0.3329849458613485  0.0003347399050948  0.9942752235046385   T   T   T
  0.4482247892852129  0.2184412107152767  0.1482211619014393   F   F   F
  0.5530557745967838  0.1135144452454980  0.3057012150623586   T   T   T
  0.4719350664759482  0.1962207844381446  0.4106118989507402   T   T   T
  0.3302500579152799  0.0007823090590538  0.2303933334933531   T   T   T
  0.5572687951132664  0.1093982048881728  0.0738350263045859   F   F   F
  0.6663253762712573 -0.0000713718976793  0.9924384843343103   T   T   T
  0.7775222107550945  0.2217104215105650  0.1508847940574682   F   F   F
  0.8915843281631495  0.1116764164119435  0.3055031693413541   T   T   T
  0.7802897690378338  0.2231181667403372  0.3842356440577823   T   T   T
  0.6665627276017759  0.0000635463146989  0.2318608469449824   T   T   T
  0.8854634097744665  0.1093982048877322  0.0738350263045859   F   F   F
  0.0007318564384724  0.3334895799850962  0.9942296151672656   T   T   T
  0.1105699605757806  0.5560970394251115  0.1493096951443746   F   F   F
  0.2261061733321493  0.4403006824237089  0.3033679243656865   T   T   T
  0.1106074428384567  0.5558881975630540  0.3834837469291466   T   T   T
  0.0016204402692511  0.3351276818710987  0.2305386668160705   T   T   T
  0.2226198247854896  0.4440461752145737  0.0745919301453881   F   F   F
  0.3332192114966563  0.3332116376549373  0.9943040543501667   T   T   T
  0.4482247892848790  0.5631175785696101  0.1482211619014393   F   F   F
  0.5326411268519291  0.4252040966442040  0.3111212105033344   T   T   T
  0.4311308912532325  0.5436317573341256  0.3827839798288307   T   T   T
  0.3329162333897448  0.3341151000625039  0.2176506763630909   T   T   T
  0.5547603504290706  0.4440461752145524  0.0745919301453881   F   F   F
  0.6664161537678710  0.3334600059374234  0.9939469401996838   T   T   T
  0.7788600788490569  0.5560970394248343  0.1493096951443746   F   F   F
  0.8885735773315065  0.4462823120995988  0.3051351155135334   T   T   T
  0.7736482160211781  0.5545929955660265  0.3834468535285001   T   T   T
  0.6666770366611399  0.3362760417223482  0.2305514247829025   T   T   T
  0.8881822742211725  0.4430305484424508  0.0745023517206462   F   F   F
 -0.0001072388933891  0.6669486723396824  0.9950015318625302   T   T   T
  0.1105699605751695  0.8878069211500588  0.1493096951443746   F   F   F
  0.2205697128304151  0.7789337940875317  0.3049448648404307   T   T   T
  0.1132654612719374  0.8937898955940692  0.3840263919347449   T   T   T
 -0.0007979468689228  0.6672203396203793  0.2298651005486198   T   T   T
  0.2236354515579180  0.7784847257788243  0.0745023517206462   F   F   F
  0.3331140086390004  0.6658219673348871  0.9939706699146382   T   T   T
  0.4449555784906138  0.8891447892449023  0.1508847940574682   F   F   F
  0.5545749671012821  0.7751900548385409  0.3058727075527513   T   T   T
  0.4434720415691839  0.8868087762039091  0.3843233019568828   T   T   T
  0.3315561468478599  0.6654912496532275  0.2307259485794264   T   T   T
  0.5572687951122717  0.7812035902240879  0.0738350263045859   F   F   F
  0.6664908165493095  0.6663990943375279  0.9942701719653538   T   T   T
  0.7775222107542845  0.8891447892445399  0.1508847940574682   F   F   F
  0.8887840547073069  0.7792392419265819  0.3050017045775763   T   T   T
  0.7773354467436504  0.8893989554670747  0.3848856731801351   T   T   T
  0.6645127686141735  0.6610347073479641  0.2317040001244565   T   T   T
  0.8881822742209167  0.7784847257787177  0.0745023517206462   F   F   F
  0.3189319126135278  0.3476616711809204  0.3407458099624295   T   T   T
  0.0070885352045601  0.0071257822511234  0.3443587764989274   T   T   T
  0.2236215375476505  0.1139100750946795  0.1889490719444140   F   F   F
  0.1104403683104920  0.2218866841552583  0.0341568110548565   F   F   F
  0.3322207039032298  0.0004849870496390  0.3450102784852167   T   T   T
  0.5555767785781427  0.1110902214221241  0.1901938686487199   F   F   F
  0.4447793158447624  0.2218866841552654  0.0341568110548565   F   F   F
  0.6674973277711039 -0.0007413663983122  0.3462399401517428   T   T   T
  0.8888474428439039  0.1110902214220459  0.1901938686487199   F   F   F
  0.7773876666919790  0.2214413333841208  0.0339086670351207   F   F   F
  0.0011760423328905  0.3346312140314038  0.3445841719779420   T   T   T
  0.2236215375490360  0.4430444624529670  0.1889490719444140   F   F   F
  0.1111689230420438  0.5554980769583011  0.0348767600728692   F   F   F
  0.5527569249033206  0.4430444624523489  0.1889490719444140   F   F   F
  0.4447793158447411  0.5562266316894835  0.0341568110548565   F   F   F
  0.6667744100290877  0.3347806757665167  0.3448180699839555   T   T   T
  0.8888595523135692  0.4443851046270595  0.1897489048728076   F   F   F
  0.7776621539161468  0.5554980769582016  0.0348767600728692   F   F   F
 -0.0010736164139239  0.6682440896251173  0.3435320633804474   T   T   T
  0.2222808953726840  0.7778074476864276  0.1897489048728076   F   F   F
  0.1111689230418023  0.8890048460835018  0.0348767600728692   F   F   F
  0.3319145880596278  0.6656251438134489  0.3446077946687939   T   T   T
  0.5555767785779580  0.7778195571558371  0.1901938686487199   F   F   F
  0.4452246666163830  0.8892793333080178  0.0339086670351207   F   F   F
  0.6598235211305392  0.6599981272691910  0.3442466530267895   T   T   T
  0.8888595523137468  0.7778074476865058  0.1897489048728076   F   F   F
  0.7773876666916308  0.8892793333078615  0.0339086670351207   F   F   F
  0.4354685320910503  0.2326854518308354  0.4420243492569802   T   T   T
 
  0.00000000E+00  0.00000000E+00  0.00000000E+00
  0.00000000E+00  0.00000000E+00  0.00000000E+00
  0.00000000E+00  0.00000000E+00  0.00000000E+00
  0.00000000E+00  0.00000000E+00  0.00000000E+00
  0.00000000E+00  0.00000000E+00  0.00000000E+00
  0.00000000E+00  0.00000000E+00  0.00000000E+00
  0.00000000E+00  0.00000000E+00  0.00000000E+00
  0.00000000E+00  0.00000000E+00  0.00000000E+00
  0.00000000E+00  0.00000000E+00  0.00000000E+00
  0.00000000E+00  0.00000000E+00  0.00000000E+00
  0.00000000E+00  0.00000000E+00  0.00000000E+00
  0.00000000E+00  0.00000000E+00  0.00000000E+00
  0.00000000E+00  0.00000000E+00  0.00000000E+00
  0.00000000E+00  0.00000000E+00  0.00000000E+00
  0.00000000E+00  0.00000000E+00  0.00000000E+00
  0.00000000E+00  0.00000000E+00  0.00000000E+00
  0.00000000E+00  0.00000000E+00  0.00000000E+00
  0.00000000E+00  0.00000000E+00  0.00000000E+00
  0.00000000E+00  0.00000000E+00  0.00000000E+00
  0.00000000E+00  0.00000000E+00  0.00000000E+00
  0.00000000E+00  0.00000000E+00  0.00000000E+00
  0.00000000E+00  0.00000000E+00  0.00000000E+00
  0.00000000E+00  0.00000000E+00  0.00000000E+00
  0.00000000E+00  0.00000000E+00  0.00000000E+00
  0.00000000E+00  0.00000000E+00  0.00000000E+00
  0.00000000E+00  0.00000000E+00  0.00000000E+00
  0.00000000E+00  0.00000000E+00  0.00000000E+00
  0.00000000E+00  0.00000000E+00  0.00000000E+00
  0.00000000E+00  0.00000000E+00  0.00000000E+00
  0.00000000E+00  0.00000000E+00  0.00000000E+00
  0.00000000E+00  0.00000000E+00  0.00000000E+00
  0.00000000E+00  0.00000000E+00  0.00000000E+00
  0.00000000E+00  0.00000000E+00  0.00000000E+00
  0.00000000E+00  0.00000000E+00  0.00000000E+00
  0.00000000E+00  0.00000000E+00  0.00000000E+00
  0.00000000E+00  0.00000000E+00  0.00000000E+00
  0.00000000E+00  0.00000000E+00  0.00000000E+00
  0.00000000E+00  0.00000000E+00  0.00000000E+00
  0.00000000E+00  0.00000000E+00  0.00000000E+00
  0.00000000E+00  0.00000000E+00  0.00000000E+00
  0.00000000E+00  0.00000000E+00  0.00000000E+00
  0.00000000E+00  0.00000000E+00  0.00000000E+00
  0.00000000E+00  0.00000000E+00  0.00000000E+00
  0.00000000E+00  0.00000000E+00  0.00000000E+00
  0.00000000E+00  0.00000000E+00  0.00000000E+00
  0.00000000E+00  0.00000000E+00  0.00000000E+00
  0.00000000E+00  0.00000000E+00  0.00000000E+00
  0.00000000E+00  0.00000000E+00  0.00000000E+00
  0.00000000E+00  0.00000000E+00  0.00000000E+00
  0.00000000E+00  0.00000000E+00  0.00000000E+00
  0.00000000E+00  0.00000000E+00  0.00000000E+00
  0.00000000E+00  0.00000000E+00  0.00000000E+00
  0.00000000E+00  0.00000000E+00  0.00000000E+00
  0.00000000E+00  0.00000000E+00  0.00000000E+00
  0.00000000E+00  0.00000000E+00  0.00000000E+00
  0.00000000E+00  0.00000000E+00  0.00000000E+00
  0.00000000E+00  0.00000000E+00  0.00000000E+00
  0.00000000E+00  0.00000000E+00  0.00000000E+00
  0.00000000E+00  0.00000000E+00  0.00000000E+00
  0.00000000E+00  0.00000000E+00  0.00000000E+00
  0.00000000E+00  0.00000000E+00  0.00000000E+00
  0.00000000E+00  0.00000000E+00  0.00000000E+00
  0.00000000E+00  0.00000000E+00  0.00000000E+00
  0.00000000E+00  0.00000000E+00  0.00000000E+00
  0.00000000E+00  0.00000000E+00  0.00000000E+00
  0.00000000E+00  0.00000000E+00  0.00000000E+00
  0.00000000E+00  0.00000000E+00  0.00000000E+00
  0.00000000E+00  0.00000000E+00  0.00000000E+00
  0.00000000E+00  0.00000000E+00  0.00000000E+00
  0.00000000E+00  0.00000000E+00  0.00000000E+00
  0.00000000E+00  0.00000000E+00  0.00000000E+00
  0.00000000E+00  0.00000000E+00  0.00000000E+00
  0.00000000E+00  0.00000000E+00  0.00000000E+00
  0.00000000E+00  0.00000000E+00  0.00000000E+00
  0.00000000E+00  0.00000000E+00  0.00000000E+00
  0.00000000E+00  0.00000000E+00  0.00000000E+00
  0.00000000E+00  0.00000000E+00  0.00000000E+00
  0.00000000E+00  0.00000000E+00  0.00000000E+00
  0.00000000E+00  0.00000000E+00  0.00000000E+00
  0.00000000E+00  0.00000000E+00  0.00000000E+00
  0.00000000E+00  0.00000000E+00  0.00000000E+00
  0.00000000E+00  0.00000000E+00  0.00000000E+00
