CeO2-you-111-you-Bi                     
   1.00000000000000     
     9.8516419767906225   -5.6878485178719771    0.0000000000000000
    -0.0000000010121192   11.3756950321098689    0.0000000000000000
     0.0000000000000000    0.0000000000000000   21.2880923991241851
   O    Bi   Ce   H 
    54     1    26     2
Selective dynamics
Direct
  0.0001910809275606  0.0001777571494185  0.9971245415641657   T   T   T
  0.1071279436580583  0.2202579209282471  0.1481694577649548   T   T   T
  0.2351088304647840  0.1232083691868008  0.3082383800495594   T   T   T
  0.0901153553311987  0.2132914189285189  0.3843618402135279   T   T   T
  0.0049954047123939  0.0026285220264034  0.2299927782211310   T   T   T
  0.2228528025148091  0.1116723191183940  0.0759891668583588   T   T   T
  0.3327590934586600  0.0002933699508698  0.9964598602798110   T   T   T
  0.4465112373923186  0.2207993987023960  0.1490930069101805   T   T   T
  0.5516693762233696  0.1141246411650522  0.3031308098465202   T   T   T
  0.4668098905009331  0.2008647178381973  0.4031911431664684   T   T   T
  0.3304125301955357  0.9988054652285817  0.2288579198214622   T   T   T
  0.5555368274923672  0.1100902333439353  0.0750165391014806   T   T   T
  0.6669290701034646  0.0002256245316698  0.9960187935645395   T   T   T
  0.7780218461696843  0.2234232916314602  0.1496035484317837   T   T   T
  0.8853672497259296  0.1092082571510563  0.3006717301046450   T   T   T
  0.7779990623959548  0.2223011194540560  0.3803771235558865   T   T   T
  0.6651226485146116  0.0026930967818192  0.2283037885689368   T   T   T
  0.8864350187679055  0.1095854388052427  0.0752895035520983   T   T   T
 -0.0000959818170714  0.3328882359121941  0.9965803687499372   T   T   T
  0.1106242944932305  0.5558426826083029  0.1486472133569381   T   T   T
  0.2258704086455577  0.4402986309578161  0.3041772689930327   T   T   T
  0.1113898522414290  0.5558287017104770  0.3799029137051705   T   T   T
  0.0022594355377756  0.3351749783105104  0.2287433520545700   T   T   T
  0.2226206959840595  0.4443534107421117  0.0749930071107330   T   T   T
  0.3329819413487053  0.3325726173611435  0.9964799737132500   T   T   T
  0.4469020167134559  0.5596418834387842  0.1483490428244156   T   T   T
  0.5432341623185666  0.4312435619248113  0.3080945155431778   T   T   T
  0.4533533370104189  0.5769160139419908  0.3842640622752879   T   T   T
  0.3326112922617411  0.3334963378124498  0.2206925510935391   T   T   T
  0.5547828454448137  0.4440780116165553  0.0756032079946200   T   T   T
  0.6662005494784979  0.3333603573430031  0.9968113060576318   T   T   T
  0.7781674098318541  0.5563263057492880  0.1492573974587593   T   T   T
  0.8889378034092417  0.4446966923304425  0.3021991570115406   T   T   T
  0.7780880104185629  0.5550116768713155  0.3803336566362848   T   T   T
  0.6676599651886905  0.3360089931239912  0.2289886927997407   T   T   T
  0.8889408528117357  0.4444766791516729  0.0749748244049681   T   T   T
 -0.0003820435337284  0.6672203674189878  0.9967173913188846   T   T   T
  0.1099404480525526  0.8879998387593186  0.1493665032018470   T   T   T
  0.2214704577456027  0.7773779952010099  0.3020716242027168   T   T   T
  0.1117209014424862  0.8885065607902659  0.3806612582929279   T   T   T
 -0.0002951860907577  0.6666952449856201  0.2287509675825855   T   T   T
  0.2224672762132629  0.7781156865378374  0.0750901905384177   T   T   T
  0.3336977096765613  0.6669223514261338  0.9967280816600583   T   T   T
  0.4437737369349681  0.8886071877123010  0.1498254019903445   T   T   T
  0.5574850953873355  0.7814955840912918  0.3005175023339698   T   T   T
  0.4436289490144862  0.8880316108301067  0.3803079847440433   T   T   T
  0.3313075392074344  0.6642239636784714  0.2287107586624308   T   T   T
  0.5567597550909736  0.7799214703812160  0.0750706332029793   T   T   T
  0.6664894045996628  0.6665631704645335  0.9965217385405440   T   T   T
  0.7779094836935667  0.8886337226176845  0.1514057001958271   T   T   T
  0.8888258125681441  0.7788624465405249  0.3028812207051406   T   T   T
  0.7768498930753374  0.8896858273925647  0.3809091582337567   T   T   T
  0.6644863576183683  0.6615692534814339  0.2302428040486492   T   T   T
  0.8878428457492081  0.7782067928568166  0.0757532152064165   T   T   T
  0.3268112680655100  0.3397781915713204  0.3523858852355075   T   T   T
 -0.0009711354189547  0.0016932574500555  0.3423191161383571   T   T   T
  0.2235748333465350  0.1133955690837152  0.1891194812873452   T   T   T
  0.1107768091477227  0.2218528228861737  0.0359908833744350   T   T   T
  0.3300707770790736  0.9940138844264945  0.3414646837787875   T   T   T
  0.5550145165752619  0.1116062944832394  0.1890388099345074   T   T   T
  0.4442694518300632  0.2220501240813216  0.0358562380337805   T   T   T
  0.6660026301995238  0.0005663048726713  0.3410854322573436   T   T   T
  0.8889048366523927  0.1118193022063878  0.1889799652456384   T   T   T
  0.7773810860703853  0.2219027987000913  0.0358439912064747   T   T   T
 -0.0017624112780840  0.3315242491710621  0.3417720603275588   T   T   T
  0.2230367388862798  0.4435202426875147  0.1878130290054721   T   T   T
  0.1109405894448916  0.5556497097663403  0.0357744315044010   T   T   T
  0.5531259368313188  0.4429415018224428  0.1891503329559591   T   T   T
  0.4447965857955551  0.5558047334486754  0.0358821055610580   T   T   T
  0.6723727147367109  0.3363270997193780  0.3413743104852141   T   T   T
  0.8891737880074231  0.4449142096452199  0.1883355511406251   T   T   T
  0.7775448025691694  0.5558192208860466  0.0364031154388428   T   T   T
  0.0000249807654463  0.6665778292638248  0.3413825926491988   T   T   T
  0.2216417905355843  0.7773478761954887  0.1883294963993537   T   T   T
  0.1108022565383370  0.8890824996450087  0.0364878789158321   T   T   T
  0.3348356876511774  0.6682154236225593  0.3417174187869939   T   T   T
  0.5550061006629633  0.7778747293155814  0.1890285857812388   T   T   T
  0.4446454578425679  0.8893012297989744  0.0357760135317797   T   T   T
  0.6650422522985718  0.6677669266944464  0.3422850327201055   T   T   T
  0.8889165210551541  0.7777095054743974  0.1897185701515229   T   T   T
  0.7774520344784288  0.8889810993356704  0.0361853545252397   T   T   T
  0.3396361139235995  0.3269572743366002  0.4446792309272353   T   T   T
  0.4483913893911583  0.2198532814142315  0.4455088246797039   T   T   T
 
  0.00000000E+00  0.00000000E+00  0.00000000E+00
  0.00000000E+00  0.00000000E+00  0.00000000E+00
  0.00000000E+00  0.00000000E+00  0.00000000E+00
  0.00000000E+00  0.00000000E+00  0.00000000E+00
  0.00000000E+00  0.00000000E+00  0.00000000E+00
  0.00000000E+00  0.00000000E+00  0.00000000E+00
  0.00000000E+00  0.00000000E+00  0.00000000E+00
  0.00000000E+00  0.00000000E+00  0.00000000E+00
  0.00000000E+00  0.00000000E+00  0.00000000E+00
  0.00000000E+00  0.00000000E+00  0.00000000E+00
  0.00000000E+00  0.00000000E+00  0.00000000E+00
  0.00000000E+00  0.00000000E+00  0.00000000E+00
  0.00000000E+00  0.00000000E+00  0.00000000E+00
  0.00000000E+00  0.00000000E+00  0.00000000E+00
  0.00000000E+00  0.00000000E+00  0.00000000E+00
  0.00000000E+00  0.00000000E+00  0.00000000E+00
  0.00000000E+00  0.00000000E+00  0.00000000E+00
  0.00000000E+00  0.00000000E+00  0.00000000E+00
  0.00000000E+00  0.00000000E+00  0.00000000E+00
  0.00000000E+00  0.00000000E+00  0.00000000E+00
  0.00000000E+00  0.00000000E+00  0.00000000E+00
  0.00000000E+00  0.00000000E+00  0.00000000E+00
  0.00000000E+00  0.00000000E+00  0.00000000E+00
  0.00000000E+00  0.00000000E+00  0.00000000E+00
  0.00000000E+00  0.00000000E+00  0.00000000E+00
  0.00000000E+00  0.00000000E+00  0.00000000E+00
  0.00000000E+00  0.00000000E+00  0.00000000E+00
  0.00000000E+00  0.00000000E+00  0.00000000E+00
  0.00000000E+00  0.00000000E+00  0.00000000E+00
  0.00000000E+00  0.00000000E+00  0.00000000E+00
  0.00000000E+00  0.00000000E+00  0.00000000E+00
  0.00000000E+00  0.00000000E+00  0.00000000E+00
  0.00000000E+00  0.00000000E+00  0.00000000E+00
  0.00000000E+00  0.00000000E+00  0.00000000E+00
  0.00000000E+00  0.00000000E+00  0.00000000E+00
  0.00000000E+00  0.00000000E+00  0.00000000E+00
  0.00000000E+00  0.00000000E+00  0.00000000E+00
  0.00000000E+00  0.00000000E+00  0.00000000E+00
  0.00000000E+00  0.00000000E+00  0.00000000E+00
  0.00000000E+00  0.00000000E+00  0.00000000E+00
  0.00000000E+00  0.00000000E+00  0.00000000E+00
  0.00000000E+00  0.00000000E+00  0.00000000E+00
  0.00000000E+00  0.00000000E+00  0.00000000E+00
  0.00000000E+00  0.00000000E+00  0.00000000E+00
  0.00000000E+00  0.00000000E+00  0.00000000E+00
  0.00000000E+00  0.00000000E+00  0.00000000E+00
  0.00000000E+00  0.00000000E+00  0.00000000E+00
  0.00000000E+00  0.00000000E+00  0.00000000E+00
  0.00000000E+00  0.00000000E+00  0.00000000E+00
  0.00000000E+00  0.00000000E+00  0.00000000E+00
  0.00000000E+00  0.00000000E+00  0.00000000E+00
  0.00000000E+00  0.00000000E+00  0.00000000E+00
  0.00000000E+00  0.00000000E+00  0.00000000E+00
  0.00000000E+00  0.00000000E+00  0.00000000E+00
  0.00000000E+00  0.00000000E+00  0.00000000E+00
  0.00000000E+00  0.00000000E+00  0.00000000E+00
  0.00000000E+00  0.00000000E+00  0.00000000E+00
  0.00000000E+00  0.00000000E+00  0.00000000E+00
  0.00000000E+00  0.00000000E+00  0.00000000E+00
  0.00000000E+00  0.00000000E+00  0.00000000E+00
  0.00000000E+00  0.00000000E+00  0.00000000E+00
  0.00000000E+00  0.00000000E+00  0.00000000E+00
  0.00000000E+00  0.00000000E+00  0.00000000E+00
  0.00000000E+00  0.00000000E+00  0.00000000E+00
  0.00000000E+00  0.00000000E+00  0.00000000E+00
  0.00000000E+00  0.00000000E+00  0.00000000E+00
  0.00000000E+00  0.00000000E+00  0.00000000E+00
  0.00000000E+00  0.00000000E+00  0.00000000E+00
  0.00000000E+00  0.00000000E+00  0.00000000E+00
  0.00000000E+00  0.00000000E+00  0.00000000E+00
  0.00000000E+00  0.00000000E+00  0.00000000E+00
  0.00000000E+00  0.00000000E+00  0.00000000E+00
  0.00000000E+00  0.00000000E+00  0.00000000E+00
  0.00000000E+00  0.00000000E+00  0.00000000E+00
  0.00000000E+00  0.00000000E+00  0.00000000E+00
  0.00000000E+00  0.00000000E+00  0.00000000E+00
  0.00000000E+00  0.00000000E+00  0.00000000E+00
  0.00000000E+00  0.00000000E+00  0.00000000E+00
  0.00000000E+00  0.00000000E+00  0.00000000E+00
  0.00000000E+00  0.00000000E+00  0.00000000E+00
  0.00000000E+00  0.00000000E+00  0.00000000E+00
  0.00000000E+00  0.00000000E+00  0.00000000E+00
  0.00000000E+00  0.00000000E+00  0.00000000E+00
