CeO2-you-111-you-Ti                     
   1.00000000000000     
     9.8463412018558891   -5.6799124418674989   -0.0173834297372638
     0.0042224552524361   11.3671363910652463    0.0173834268144598
    -0.0191930819557883    0.0332433912961013   21.0634462957510351
   O    Ti   Ce   H 
    53     1    26     1
Selective dynamics
Direct
 -0.0001122242348562 -0.0001173151603475  0.9952510915825543   T   T   T
  0.1136784711590410  0.2213793488769791  0.1488541930214419   T   T   T
  0.2297753650550959  0.1153774344916672  0.3018604229010042   T   T   T
  0.1630769471807983  0.2652160747816483  0.3690100020512666   T   T   T
  0.0008900364188311  0.9987245688339188  0.2296493791363956   T   T   T
  0.2229067274685998  0.1104076015569249  0.0742881646604401   T   T   T
  0.3350367390853597  0.0008565524791118  0.9956440150765561   T   T   T
  0.4401805941024013  0.2266897012344355  0.1529356473786994   T   T   T
  0.5584187294608084  0.1186359349236431  0.3050002718585049   T   T   T
  0.4282672285472880  0.2455563073084817  0.3938449210408980   T   T   T
  0.3359587926901990  0.9981724297260807  0.2263823334315812   T   T   T
  0.5551950594330721  0.1118265883782350  0.0779670368437249   T   T   T
  0.6657712595258931  0.0001728644676077  0.9965268523213878   T   T   T
  0.7851464415291272  0.2226095924654918  0.1512058544819689   T   T   T
  0.8910558552683350  0.1059205734391633  0.3065173584996905   T   T   T
  0.7681828122769004  0.2182247072806915  0.3879869469134224   T   T   T
  0.6670623516829901 -0.0004721918771263  0.2303390505770381   T   T   T
  0.8899359033187428  0.1097079946218863  0.0752215965288600   T   T   T
  0.9979983440270823  0.3315216436658536  0.9949577566196228   T   T   T
  0.1113585672386676  0.5564658496299059  0.1461526836786451   T   T   T
  0.1066241923588928  0.5605546732127801  0.3867100648048646   T   T   T
  0.0164416184143620  0.3426454332330187  0.2330104008522317   T   T   T
  0.2220583312719861  0.4437422076803705  0.0717179667506034   T   T   T
  0.3337000746165796  0.3321651789772474  0.9945184989509528   T   T   T
  0.4450979013497752  0.5521845726981955  0.1475491662042398   T   T   T
  0.5566196908362731  0.4310551284905982  0.3004301395917973   T   T   T
  0.4129000619985103  0.5076203589529598  0.3662606204876717   T   T   T
  0.3215481294535902  0.3484912317544602  0.2428854673070254   T   T   T
  0.5562914372343253  0.4434957669544513  0.0735503280025333   T   T   T
  0.6657684144205732  0.3311295720193849  0.9955395569199917   T   T   T
  0.7769740044980818  0.5538319014656911  0.1490558709017450   T   T   T
  0.8853443900755411  0.4451507511963905  0.3030372739488246   T   T   T
  0.7735067682489190  0.5546050684908842  0.3835228222714809   T   T   T
  0.6706845364766713  0.3316307291840908  0.2259760934687281   T   T   T
  0.8883834146897799  0.4438334146658551  0.0740141411023906   T   T   T
  0.0000237543997312  0.6672151641873596  0.9948236503572926   T   T   T
  0.1113024080791037  0.8896524528446464  0.1502145892290839   T   T   T
  0.2185662823060910  0.7775648374942423  0.3034758909313944   T   T   T
  0.0963419678420540  0.8848716547582928  0.3863235838973210   T   T   T
  0.0002737465835981  0.6649197618992601  0.2279330669226867   T   T   T
  0.2226237838063885  0.7786994878638976  0.0744344725499222   T   T   T
  0.3340038946908903  0.6681937968606007  0.9947572968655737   T   T   T
  0.4438563061012482  0.8825301953845144  0.1514057900547402   T   T   T
  0.5622700777061854  0.7750639917124515  0.3043118553720688   T   T   T
  0.4624190193615434  0.8937982458486220  0.3893821945087003   T   T   T
  0.3256916559189014  0.6502235434293862  0.2323937147578036   T   T   T
  0.5556513181323759  0.7764320120562413  0.0751332267021365   T   T   T
  0.6670222943599047  0.6674318414177872  0.9948607070111736   T   T   T
  0.7772928374497683  0.8882986173825675  0.1511335611114650   T   T   T
  0.8872720137988448  0.7749618656890752  0.3013992258382147   T   T   T
  0.7807341443366966  0.8818365284663404  0.3838043522602781   T   T   T
  0.6654090250263935  0.6618707660475762  0.2288846462661191   T   T   T
  0.8887485113508756  0.7769988855681682  0.0745722756697277   T   T   T
  0.3341869144545458  0.3289835213542951  0.3353351697567951   T   T   T
  0.0016766583668537  0.9948115566836182  0.3412047302139606   T   T   T
  0.2226939176426588  0.1098147980746894  0.1925279451263617   T   T   T
  0.1104007816451822  0.2196730858302653  0.0339937575818008   T   T   T
  0.3314217764764438 -0.0033449855600450  0.3471000828967619   T   T   T
  0.5560837822895435  0.1096780595449031  0.1912374471383223   T   T   T
  0.4440119557536316  0.2218530811772467  0.0355907755966476   T   T   T
  0.6679894388976066  0.9971020712297363  0.3460048167865494   T   T   T
  0.8914022056223846  0.1117967035231230  0.1918984124320016   T   T   T
  0.7782970949208926  0.2216085020090823  0.0361295224656148   T   T   T
  0.9929434219938191  0.3320917891147286  0.3514184599889850   T   T   T
  0.2217601374313705  0.4450885533094012  0.1818942654027149   T   T   T
  0.1103684899205639  0.5565184293395440  0.0330420131781774   T   T   T
  0.5567811419284805  0.4434487407810342  0.1902456802567992   T   T   T
  0.4462360587533435  0.5558578972732433  0.0334523794162498   T   T   T
  0.6727646019251945  0.3352433500885944  0.3411713603502874   T   T   T
  0.8919768081077262  0.4444679950136453  0.1895054534998077   T   T   T
  0.7771684886767491  0.5541647407988642  0.0348215158135894   T   T   T
  0.0013430492178201  0.6661077425135533  0.3442204856151522   T   T   T
  0.2225756250029682  0.7763558665331332  0.1913128918132440   T   T   T
  0.1123151870925864  0.8896585570406182  0.0357082261385831   T   T   T
  0.3362310788130001  0.6729872065175471  0.3506786889470244   T   T   T
  0.5543463008761009  0.7746514001831772  0.1913970300544898   T   T   T
  0.4441822931959406  0.8883267916034777  0.0364653081788531   T   T   T
  0.6662465816355818  0.6598438943241693  0.3403286689938837   T   T   T
  0.8895011510834602  0.7758723568540120  0.1880775395020449   T   T   T
  0.7773730952225706  0.8888452995185894  0.0361721580524086   T   T   T
  0.4208679546241472  0.2604930963140821  0.4387811243285251   T   T   T
 
  0.00000000E+00  0.00000000E+00  0.00000000E+00
  0.00000000E+00  0.00000000E+00  0.00000000E+00
  0.00000000E+00  0.00000000E+00  0.00000000E+00
  0.00000000E+00  0.00000000E+00  0.00000000E+00
  0.00000000E+00  0.00000000E+00  0.00000000E+00
  0.00000000E+00  0.00000000E+00  0.00000000E+00
  0.00000000E+00  0.00000000E+00  0.00000000E+00
  0.00000000E+00  0.00000000E+00  0.00000000E+00
  0.00000000E+00  0.00000000E+00  0.00000000E+00
  0.00000000E+00  0.00000000E+00  0.00000000E+00
  0.00000000E+00  0.00000000E+00  0.00000000E+00
  0.00000000E+00  0.00000000E+00  0.00000000E+00
  0.00000000E+00  0.00000000E+00  0.00000000E+00
  0.00000000E+00  0.00000000E+00  0.00000000E+00
  0.00000000E+00  0.00000000E+00  0.00000000E+00
  0.00000000E+00  0.00000000E+00  0.00000000E+00
  0.00000000E+00  0.00000000E+00  0.00000000E+00
  0.00000000E+00  0.00000000E+00  0.00000000E+00
  0.00000000E+00  0.00000000E+00  0.00000000E+00
  0.00000000E+00  0.00000000E+00  0.00000000E+00
  0.00000000E+00  0.00000000E+00  0.00000000E+00
  0.00000000E+00  0.00000000E+00  0.00000000E+00
  0.00000000E+00  0.00000000E+00  0.00000000E+00
  0.00000000E+00  0.00000000E+00  0.00000000E+00
  0.00000000E+00  0.00000000E+00  0.00000000E+00
  0.00000000E+00  0.00000000E+00  0.00000000E+00
  0.00000000E+00  0.00000000E+00  0.00000000E+00
  0.00000000E+00  0.00000000E+00  0.00000000E+00
  0.00000000E+00  0.00000000E+00  0.00000000E+00
  0.00000000E+00  0.00000000E+00  0.00000000E+00
  0.00000000E+00  0.00000000E+00  0.00000000E+00
  0.00000000E+00  0.00000000E+00  0.00000000E+00
  0.00000000E+00  0.00000000E+00  0.00000000E+00
  0.00000000E+00  0.00000000E+00  0.00000000E+00
  0.00000000E+00  0.00000000E+00  0.00000000E+00
  0.00000000E+00  0.00000000E+00  0.00000000E+00
  0.00000000E+00  0.00000000E+00  0.00000000E+00
  0.00000000E+00  0.00000000E+00  0.00000000E+00
  0.00000000E+00  0.00000000E+00  0.00000000E+00
  0.00000000E+00  0.00000000E+00  0.00000000E+00
  0.00000000E+00  0.00000000E+00  0.00000000E+00
  0.00000000E+00  0.00000000E+00  0.00000000E+00
  0.00000000E+00  0.00000000E+00  0.00000000E+00
  0.00000000E+00  0.00000000E+00  0.00000000E+00
  0.00000000E+00  0.00000000E+00  0.00000000E+00
  0.00000000E+00  0.00000000E+00  0.00000000E+00
  0.00000000E+00  0.00000000E+00  0.00000000E+00
  0.00000000E+00  0.00000000E+00  0.00000000E+00
  0.00000000E+00  0.00000000E+00  0.00000000E+00
  0.00000000E+00  0.00000000E+00  0.00000000E+00
  0.00000000E+00  0.00000000E+00  0.00000000E+00
  0.00000000E+00  0.00000000E+00  0.00000000E+00
  0.00000000E+00  0.00000000E+00  0.00000000E+00
  0.00000000E+00  0.00000000E+00  0.00000000E+00
  0.00000000E+00  0.00000000E+00  0.00000000E+00
  0.00000000E+00  0.00000000E+00  0.00000000E+00
  0.00000000E+00  0.00000000E+00  0.00000000E+00
  0.00000000E+00  0.00000000E+00  0.00000000E+00
  0.00000000E+00  0.00000000E+00  0.00000000E+00
  0.00000000E+00  0.00000000E+00  0.00000000E+00
  0.00000000E+00  0.00000000E+00  0.00000000E+00
  0.00000000E+00  0.00000000E+00  0.00000000E+00
  0.00000000E+00  0.00000000E+00  0.00000000E+00
  0.00000000E+00  0.00000000E+00  0.00000000E+00
  0.00000000E+00  0.00000000E+00  0.00000000E+00
  0.00000000E+00  0.00000000E+00  0.00000000E+00
  0.00000000E+00  0.00000000E+00  0.00000000E+00
  0.00000000E+00  0.00000000E+00  0.00000000E+00
  0.00000000E+00  0.00000000E+00  0.00000000E+00
  0.00000000E+00  0.00000000E+00  0.00000000E+00
  0.00000000E+00  0.00000000E+00  0.00000000E+00
  0.00000000E+00  0.00000000E+00  0.00000000E+00
  0.00000000E+00  0.00000000E+00  0.00000000E+00
  0.00000000E+00  0.00000000E+00  0.00000000E+00
  0.00000000E+00  0.00000000E+00  0.00000000E+00
  0.00000000E+00  0.00000000E+00  0.00000000E+00
  0.00000000E+00  0.00000000E+00  0.00000000E+00
  0.00000000E+00  0.00000000E+00  0.00000000E+00
  0.00000000E+00  0.00000000E+00  0.00000000E+00
  0.00000000E+00  0.00000000E+00  0.00000000E+00
  0.00000000E+00  0.00000000E+00  0.00000000E+00
