CeO2-you-111-you-Bi                     
   1.00000000000000     
     9.9021613725124880   -5.7170159052523282   -0.0000000001729331
    -0.0139054290409182   11.4099448903148346   -0.0033082970747776
    -0.0035732862429518   -0.0061891122757566   20.3889996296802458
   O    Bi   Ce   H 
    53     1    26     1
Selective dynamics
Direct
 -0.0000260110272014  0.0001330526201800  0.9893148127182356   T   T   T
  0.1118473159488377  0.2223009487604409  0.1472625020201968   T   T   T
  0.2297833504374782  0.1154463349712803  0.3089414680811357   T   T   T
  0.0959865991321530  0.2143220224536875  0.3911799356537417   T   T   T
  0.0035277876444420  0.0014807744090568  0.2305222790075812   T   T   T
  0.2221738499070144  0.1110824281972460  0.0701913629207312   T   T   T
  0.3347489711167658  0.0011071918494123  0.9891502412667751   T   T   T
  0.4438637018082521  0.2224956679399773  0.1481355383963808   T   T   T
  0.5513810231604974  0.1166672105709971  0.3071218906197944   T   T   T
  0.4545983652155031  0.2105489249096858  0.4093507836713779   T   T   T
  0.3310338263576915 -0.0012304483278618  0.2291719076932621   T   T   T
  0.5564505072221975  0.1127794903272749  0.0709809977213959   T   T   T
  0.6672407127515472  0.9997508238029936  0.9902265223571415   T   T   T
  0.7776258602039594  0.2205360070410777  0.1485234433357588   T   T   T
  0.8868585315332306  0.1110102283819302  0.3045909536041414   T   T   T
  0.7776536868482463  0.2218834825152320  0.3877737274942106   T   T   T
  0.6619203448849306  0.9968770613443888  0.2317738816842367   T   T   T
  0.8895140227001392  0.1112956264016105  0.0706891874485150   T   T   T
  0.0003827789938033  0.3328180707150578  0.9888836846951319   T   T   T
  0.1108419513965564  0.5557855203311176  0.1462503916070035   T   T   T
  0.2249999713847350  0.4440332099051733  0.3095165800443473   T   T   T
  0.0953367836487329  0.5479925592532632  0.3913721801107490   T   T   T
  0.0031557993206653  0.3349735210129463  0.2291612651752068   T   T   T
  0.2230261593353158  0.4453779921031555  0.0708232039284120   T   T   T
  0.3339433464203370  0.3340672281511583  0.9894370592436572   T   T   T
  0.4444579700209229  0.5542283372060236  0.1494070015042567   T   T   T
  0.5516994121208018  0.4377970689817263  0.3120227879132157   T   T   T
  0.3306086315261849  0.3311478037903171  0.2311184943205653   T   T   T
  0.5558394896564304  0.4445207653131828  0.0713781979640042   T   T   T
  0.6666586835079610  0.3333876407074193  0.9889117969871711   T   T   T
  0.7781896668843624  0.5557145826851384  0.1469402556978701   T   T   T
  0.8885330333803596  0.4425118917003564  0.3040928842000182   T   T   T
  0.7876416069555902  0.5489617357920900  0.3917247006666603   T   T   T
  0.6676654853150514  0.3356967000176347  0.2289398360788772   T   T   T
  0.8888061509987281  0.4435379910071705  0.0698984497961826   T   T   T
  0.9994011454565274  0.6671274832730523  0.9887732976188438   T   T   T
  0.1108265784217807  0.8888094748265998  0.1460941480072026   T   T   T
  0.2182154735293861  0.7800149948012444  0.3058326016703284   T   T   T
  0.1140876031853584  0.8911976369515493  0.3901679805014049   T   T   T
 -0.0002888465505799  0.6660124420877747  0.2283474071319093   T   T   T
  0.2222522895261935  0.7781887070236269  0.0695561937789973   T   T   T
  0.3345291685504739  0.6672744939889120  0.9892862714803066   T   T   T
  0.4445724593925262  0.8898021880574691  0.1475106935935043   T   T   T
  0.5523972311429807  0.7716238169144535  0.3125748920922531   T   T   T
  0.4475331027339490  0.9026122188714182  0.3915793097272185   T   T   T
  0.3311501466658197  0.6676901072446719  0.2278795637345687   T   T   T
  0.5556422366529155  0.7772817668101574  0.0723335824576927   T   T   T
  0.6665738604146418  0.6673394769917346  0.9898229480537436   T   T   T
  0.7785061970724123  0.8901506950302067  0.1493145022637803   T   T   T
  0.8954329559817297  0.7808203749723172  0.3070465166389775   T   T   T
  0.7865921150979734  0.9033759745571018  0.3918591839557404   T   T   T
  0.6691730442234511  0.6664922857432382  0.2287946029772122   T   T   T
  0.8888950476640052  0.7785055655966296  0.0705245457511172   T   T   T
  0.3182547099445033  0.3225952921455971  0.3440897909434784   T   T   T
 -0.0014683882790878  0.0018090132634326  0.3497147053410590   T   T   T
  0.2218581332780753  0.1102169762059886  0.1873696202526607   T   T   T
  0.1113619416709233  0.2224776979300288  0.0299333461609818   T   T   T
  0.3307297565988622 -0.0054147919324838  0.3482895770887067   T   T   T
  0.5542912041414388  0.1109501089425399  0.1892695252166162   T   T   T
  0.4451349284771083  0.2228927457235406  0.0299255715642710   T   T   T
  0.6660226686756191 -0.0004150869972036  0.3485195205023131   T   T   T
  0.8894322531566050  0.1110874205067148  0.1892360439458295   T   T   T
  0.7778893786980007  0.2220156624638540  0.0302360595936473   T   T   T
 -0.0023054742721568  0.3318305917820284  0.3477482105824740   T   T   T
  0.2222693174043826  0.4453790715071765  0.1887860451566327   T   T   T
  0.1114001436511449  0.5554262802766015  0.0292483276935388   T   T   T
  0.5561454940922520  0.4446170691680195  0.1905226008896702   T   T   T
  0.4450283323447796  0.5558535728102607  0.0310061279516018   T   T   T
  0.6743366531893038  0.3374350385930043  0.3468761504827444   T   T   T
  0.8896116391612358  0.4448703953608201  0.1875871149600711   T   T   T
  0.7773838902908414  0.5553442011530273  0.0300501332378512   T   T   T
 -0.0005474264563627  0.6644244982077805  0.3488052573331433   T   T   T
  0.2212845677745067  0.7777831979758888  0.1868771748502335   T   T   T
  0.1109835239093252  0.8891145242114366  0.0288269052431557   T   T   T
  0.3239368635452350  0.6734780024245596  0.3478266126490070   T   T   T
  0.5545190047024534  0.7765995372795972  0.1911955498546724   T   T   T
  0.4450765608589458  0.8891531006531170  0.0305773860233111   T   T   T
  0.6824525789752908  0.6732078736823255  0.3476511328462927   T   T   T
  0.8900752029765795  0.7780340994474638  0.1882331850252187   T   T   T
  0.7777052557258933  0.8888265730693737  0.0310465601214555   T   T   T
  0.4458301098905244  0.2155121835617939  0.4565603174267128   T   T   T
 
  0.00000000E+00  0.00000000E+00  0.00000000E+00
  0.00000000E+00  0.00000000E+00  0.00000000E+00
  0.00000000E+00  0.00000000E+00  0.00000000E+00
  0.00000000E+00  0.00000000E+00  0.00000000E+00
  0.00000000E+00  0.00000000E+00  0.00000000E+00
  0.00000000E+00  0.00000000E+00  0.00000000E+00
  0.00000000E+00  0.00000000E+00  0.00000000E+00
  0.00000000E+00  0.00000000E+00  0.00000000E+00
  0.00000000E+00  0.00000000E+00  0.00000000E+00
  0.00000000E+00  0.00000000E+00  0.00000000E+00
  0.00000000E+00  0.00000000E+00  0.00000000E+00
  0.00000000E+00  0.00000000E+00  0.00000000E+00
  0.00000000E+00  0.00000000E+00  0.00000000E+00
  0.00000000E+00  0.00000000E+00  0.00000000E+00
  0.00000000E+00  0.00000000E+00  0.00000000E+00
  0.00000000E+00  0.00000000E+00  0.00000000E+00
  0.00000000E+00  0.00000000E+00  0.00000000E+00
  0.00000000E+00  0.00000000E+00  0.00000000E+00
  0.00000000E+00  0.00000000E+00  0.00000000E+00
  0.00000000E+00  0.00000000E+00  0.00000000E+00
  0.00000000E+00  0.00000000E+00  0.00000000E+00
  0.00000000E+00  0.00000000E+00  0.00000000E+00
  0.00000000E+00  0.00000000E+00  0.00000000E+00
  0.00000000E+00  0.00000000E+00  0.00000000E+00
  0.00000000E+00  0.00000000E+00  0.00000000E+00
  0.00000000E+00  0.00000000E+00  0.00000000E+00
  0.00000000E+00  0.00000000E+00  0.00000000E+00
  0.00000000E+00  0.00000000E+00  0.00000000E+00
  0.00000000E+00  0.00000000E+00  0.00000000E+00
  0.00000000E+00  0.00000000E+00  0.00000000E+00
  0.00000000E+00  0.00000000E+00  0.00000000E+00
  0.00000000E+00  0.00000000E+00  0.00000000E+00
  0.00000000E+00  0.00000000E+00  0.00000000E+00
  0.00000000E+00  0.00000000E+00  0.00000000E+00
  0.00000000E+00  0.00000000E+00  0.00000000E+00
  0.00000000E+00  0.00000000E+00  0.00000000E+00
  0.00000000E+00  0.00000000E+00  0.00000000E+00
  0.00000000E+00  0.00000000E+00  0.00000000E+00
  0.00000000E+00  0.00000000E+00  0.00000000E+00
  0.00000000E+00  0.00000000E+00  0.00000000E+00
  0.00000000E+00  0.00000000E+00  0.00000000E+00
  0.00000000E+00  0.00000000E+00  0.00000000E+00
  0.00000000E+00  0.00000000E+00  0.00000000E+00
  0.00000000E+00  0.00000000E+00  0.00000000E+00
  0.00000000E+00  0.00000000E+00  0.00000000E+00
  0.00000000E+00  0.00000000E+00  0.00000000E+00
  0.00000000E+00  0.00000000E+00  0.00000000E+00
  0.00000000E+00  0.00000000E+00  0.00000000E+00
  0.00000000E+00  0.00000000E+00  0.00000000E+00
  0.00000000E+00  0.00000000E+00  0.00000000E+00
  0.00000000E+00  0.00000000E+00  0.00000000E+00
  0.00000000E+00  0.00000000E+00  0.00000000E+00
  0.00000000E+00  0.00000000E+00  0.00000000E+00
  0.00000000E+00  0.00000000E+00  0.00000000E+00
  0.00000000E+00  0.00000000E+00  0.00000000E+00
  0.00000000E+00  0.00000000E+00  0.00000000E+00
  0.00000000E+00  0.00000000E+00  0.00000000E+00
  0.00000000E+00  0.00000000E+00  0.00000000E+00
  0.00000000E+00  0.00000000E+00  0.00000000E+00
  0.00000000E+00  0.00000000E+00  0.00000000E+00
  0.00000000E+00  0.00000000E+00  0.00000000E+00
  0.00000000E+00  0.00000000E+00  0.00000000E+00
  0.00000000E+00  0.00000000E+00  0.00000000E+00
  0.00000000E+00  0.00000000E+00  0.00000000E+00
  0.00000000E+00  0.00000000E+00  0.00000000E+00
  0.00000000E+00  0.00000000E+00  0.00000000E+00
  0.00000000E+00  0.00000000E+00  0.00000000E+00
  0.00000000E+00  0.00000000E+00  0.00000000E+00
  0.00000000E+00  0.00000000E+00  0.00000000E+00
  0.00000000E+00  0.00000000E+00  0.00000000E+00
  0.00000000E+00  0.00000000E+00  0.00000000E+00
  0.00000000E+00  0.00000000E+00  0.00000000E+00
  0.00000000E+00  0.00000000E+00  0.00000000E+00
  0.00000000E+00  0.00000000E+00  0.00000000E+00
  0.00000000E+00  0.00000000E+00  0.00000000E+00
  0.00000000E+00  0.00000000E+00  0.00000000E+00
  0.00000000E+00  0.00000000E+00  0.00000000E+00
  0.00000000E+00  0.00000000E+00  0.00000000E+00
  0.00000000E+00  0.00000000E+00  0.00000000E+00
  0.00000000E+00  0.00000000E+00  0.00000000E+00
  0.00000000E+00  0.00000000E+00  0.00000000E+00
