CeO2-you-111-you-Ba                     
   1.00000000000000     
     9.8827063702129507   -5.6774156924061989    0.0023460832274293
     0.0245672787450707   11.3973811590071819   -0.0023460827027671
     0.0031055705199188   -0.0053790051198795   21.1207059511628650
   O    Ba   Ce
    53     1    26
Selective dynamics
Direct
  0.0007391855500750 -0.0002758917708087  0.9958500148886607   T   T   T
  0.1074885866608121  0.2196132315378257  0.1464276956952916   T   T   T
  0.2176188412126392  0.1045542226017418  0.3051849528933841   T   T   T
  0.0743803217439285  0.2080744000745642  0.3857669568852690   T   T   T
 -0.0012381198475247  0.0009776957992391  0.2282494440332307   T   T   T
  0.2219188114212832  0.1103944005064275  0.0759511719564813   T   T   T
  0.3345683671349522  0.0006631370400820  0.9979464635744606   T   T   T
  0.4420712280654996  0.2245947719328604  0.1520589906639984   T   T   T
  0.5566218880023494  0.1100451119976190  0.3001273043893319   T   T   T
  0.4620580816795177  0.2046079183110316  0.3904446728256312   T   T   T
  0.3330368288002767  0.0000178287984445  0.2283106117998935   T   T   T
  0.5561711045494478  0.1104958954507877  0.0777566911665159   T   T   T
  0.6660272202662895  0.0006397797351461  0.9960153968685184   T   T   T
  0.7849134871387186  0.2277512510790624  0.1507822079074809   T   T   T
  0.8793206350758854  0.1072202412239516  0.2990434487416401   T   T   T
  0.7721295425908357  0.2185964806298056  0.3835672617057494   T   T   T
  0.6657323654901788  0.0009346345089815  0.2244750085768681   T   T   T
  0.8872397749965151  0.1095281303998172  0.0736856272064168   T   T   T
 -0.0011896257234502  0.3325426545608121  0.9962143126180332   T   T   T
  0.1108202656858647  0.5558467343095386  0.1471631121969719   T   T   T
  0.1291564016956357  0.5375105983034427  0.3718683753069577   T   T   T
  0.0185428133770445  0.3420898591656480  0.2341575350213003   T   T   T
  0.2228797127669749  0.4437862872345099  0.0717202370418617   T   T   T
  0.3348806610166994  0.3317853389838277  0.9961234433612957   T   T   T
  0.4470527684682432  0.5591784133417345  0.1464276956945796   T   T   T
  0.5621127773857197  0.4490471587767043  0.3051849528968795   T   T   T
  0.4585915999418532  0.5922866782705920  0.3857669568868512   T   T   T
  0.3250350942512064  0.3416309057578700  0.2281906727925807   T   T   T
  0.5562725994939679  0.4447471885789667  0.0759511719564279   T   T   T
  0.6660038629591981  0.3320976328641033  0.9979464635744657   T   T   T
  0.7787027348134375  0.5556997279036505  0.1510173311413372   T   T   T
  0.8858838050473604  0.4430159558255898  0.3039935710041874   T   T   T
  0.7849822068507982  0.5613695951803701  0.3830883815728734   T   T   T
  0.6666491711988533  0.3336291711996076  0.2283106117999961   T   T   T
  0.8890527420140500  0.4452284462478127  0.0752061675573824   T   T   T
 -0.0002131799703839  0.6668801799686060  0.9962273784906963   T   T   T
  0.1109672720938284  0.8879642651833120  0.1510173311412558   T   T   T
  0.2236500441686764  0.7807831949445811  0.3039935710035295   T   T   T
  0.1052974048180465  0.8816847931459496  0.3830883815733069   T   T   T
  0.0017913828903507  0.6648756171067243  0.2292681917038497   T   T   T
  0.2214375537515440  0.7776142579847447  0.0752061675572833   T   T   T
  0.3341233454397582  0.6678566257236849  0.9962143126177708   T   T   T
  0.4389147489226118  0.8817535128614484  0.1507822079080327   T   T   T
  0.5594467587806287  0.7873463649254866  0.2990434487403850   T   T   T
  0.4480695193666801  0.8945374574045374  0.3835672617040957   T   T   T
  0.3245761408344379  0.6481241866236818  0.2341575350210976   T   T   T
  0.5571388696007366  0.7794272250034203  0.0736856272061247   T   T   T
  0.6669428917714439  0.6659278144500431  0.9958500148885524   T   T   T
  0.7777035659577533  0.8889634340424424  0.1488031710622214   T   T   T
  0.8901749148369644  0.7764920851606409  0.3011478965673625   T   T   T
  0.7778140675307004  0.8888529324720894  0.3799007189966940   T   T   T
  0.6656893042019087  0.6679051198486593  0.2282494440330891   T   T   T
  0.8887775029603229  0.7778894970391587  0.0754206326598922   T   T   T
  0.3345507942837851  0.3321152057236026  0.3748215866947472   T   T   T
 -0.0025974754641049 -0.0014881705665315  0.3416012973089490   T   T   T
  0.2222788534117008  0.1144313187795014  0.1928289192321794   T   T   T
  0.1105421047554295  0.2197675901696310  0.0341207826093924   T   T   T
  0.3336729079651267  0.0029947639215875  0.3426630642974026   T   T   T
  0.5550858842858524  0.1115811157186595  0.1894787616292955   T   T   T
  0.4439559499674538  0.2227100500327616  0.0379000133624561   T   T   T
  0.6658108479651423  0.0008561520325243  0.3406229170411584   T   T   T
  0.8889967883897457  0.1110283743693474  0.1879545462950490   T   T   T
  0.7781208741684789  0.2226654604924483  0.0359919246796328   T   T   T
 -0.0180426015470826  0.3202772417905793  0.3448884216863876   T   T   T
  0.2235138326322047  0.4431521673532459  0.1809354302824068   T   T   T
  0.1101485094020645  0.5565184905979653  0.0343201393100293   T   T   T
  0.5522356812217478  0.4443871465872406  0.1928289192321110   T   T   T
  0.4468984098278785  0.5561248952428455  0.0341207826094155   T   T   T
  0.6636722360966540  0.3329930920477575  0.3426630642968568   T   T   T
  0.8902950969921043  0.4451804707639405  0.1899979110561668   T   T   T
  0.7772405965967425  0.5546873292468982  0.0371352415835536   T   T   T
 -0.0011713445621087  0.6678383445743595  0.3415427806721487   T   T   T
  0.2214855292416096  0.7763719030192658  0.1899979110565053   T   T   T
  0.1119796707554144  0.8894264034052405  0.0371352415835275   T   T   T
  0.3463887582007488  0.6847096015350147  0.3448884216891065   T   T   T
  0.5556386256220446  0.7776702116066737  0.1879545462953035   T   T   T
  0.4440005395064664  0.8885461258317484  0.0359919246797531   T   T   T
  0.6681551705668816  0.6692644754577128  0.3416012973077069   T   T   T
  0.8888672679456544  0.7777997320581725  0.1883306848272331   T   T   T
  0.7775246420412155  0.8891423579572388  0.0350092616035925   T   T   T
 
  0.00000000E+00  0.00000000E+00  0.00000000E+00
  0.00000000E+00  0.00000000E+00  0.00000000E+00
  0.00000000E+00  0.00000000E+00  0.00000000E+00
  0.00000000E+00  0.00000000E+00  0.00000000E+00
  0.00000000E+00  0.00000000E+00  0.00000000E+00
  0.00000000E+00  0.00000000E+00  0.00000000E+00
  0.00000000E+00  0.00000000E+00  0.00000000E+00
  0.00000000E+00  0.00000000E+00  0.00000000E+00
  0.00000000E+00  0.00000000E+00  0.00000000E+00
  0.00000000E+00  0.00000000E+00  0.00000000E+00
  0.00000000E+00  0.00000000E+00  0.00000000E+00
  0.00000000E+00  0.00000000E+00  0.00000000E+00
  0.00000000E+00  0.00000000E+00  0.00000000E+00
  0.00000000E+00  0.00000000E+00  0.00000000E+00
  0.00000000E+00  0.00000000E+00  0.00000000E+00
  0.00000000E+00  0.00000000E+00  0.00000000E+00
  0.00000000E+00  0.00000000E+00  0.00000000E+00
  0.00000000E+00  0.00000000E+00  0.00000000E+00
  0.00000000E+00  0.00000000E+00  0.00000000E+00
  0.00000000E+00  0.00000000E+00  0.00000000E+00
  0.00000000E+00  0.00000000E+00  0.00000000E+00
  0.00000000E+00  0.00000000E+00  0.00000000E+00
  0.00000000E+00  0.00000000E+00  0.00000000E+00
  0.00000000E+00  0.00000000E+00  0.00000000E+00
  0.00000000E+00  0.00000000E+00  0.00000000E+00
  0.00000000E+00  0.00000000E+00  0.00000000E+00
  0.00000000E+00  0.00000000E+00  0.00000000E+00
  0.00000000E+00  0.00000000E+00  0.00000000E+00
  0.00000000E+00  0.00000000E+00  0.00000000E+00
  0.00000000E+00  0.00000000E+00  0.00000000E+00
  0.00000000E+00  0.00000000E+00  0.00000000E+00
  0.00000000E+00  0.00000000E+00  0.00000000E+00
  0.00000000E+00  0.00000000E+00  0.00000000E+00
  0.00000000E+00  0.00000000E+00  0.00000000E+00
  0.00000000E+00  0.00000000E+00  0.00000000E+00
  0.00000000E+00  0.00000000E+00  0.00000000E+00
  0.00000000E+00  0.00000000E+00  0.00000000E+00
  0.00000000E+00  0.00000000E+00  0.00000000E+00
  0.00000000E+00  0.00000000E+00  0.00000000E+00
  0.00000000E+00  0.00000000E+00  0.00000000E+00
  0.00000000E+00  0.00000000E+00  0.00000000E+00
  0.00000000E+00  0.00000000E+00  0.00000000E+00
  0.00000000E+00  0.00000000E+00  0.00000000E+00
  0.00000000E+00  0.00000000E+00  0.00000000E+00
  0.00000000E+00  0.00000000E+00  0.00000000E+00
  0.00000000E+00  0.00000000E+00  0.00000000E+00
  0.00000000E+00  0.00000000E+00  0.00000000E+00
  0.00000000E+00  0.00000000E+00  0.00000000E+00
  0.00000000E+00  0.00000000E+00  0.00000000E+00
  0.00000000E+00  0.00000000E+00  0.00000000E+00
  0.00000000E+00  0.00000000E+00  0.00000000E+00
  0.00000000E+00  0.00000000E+00  0.00000000E+00
  0.00000000E+00  0.00000000E+00  0.00000000E+00
  0.00000000E+00  0.00000000E+00  0.00000000E+00
  0.00000000E+00  0.00000000E+00  0.00000000E+00
  0.00000000E+00  0.00000000E+00  0.00000000E+00
  0.00000000E+00  0.00000000E+00  0.00000000E+00
  0.00000000E+00  0.00000000E+00  0.00000000E+00
  0.00000000E+00  0.00000000E+00  0.00000000E+00
  0.00000000E+00  0.00000000E+00  0.00000000E+00
  0.00000000E+00  0.00000000E+00  0.00000000E+00
  0.00000000E+00  0.00000000E+00  0.00000000E+00
  0.00000000E+00  0.00000000E+00  0.00000000E+00
  0.00000000E+00  0.00000000E+00  0.00000000E+00
  0.00000000E+00  0.00000000E+00  0.00000000E+00
  0.00000000E+00  0.00000000E+00  0.00000000E+00
  0.00000000E+00  0.00000000E+00  0.00000000E+00
  0.00000000E+00  0.00000000E+00  0.00000000E+00
  0.00000000E+00  0.00000000E+00  0.00000000E+00
  0.00000000E+00  0.00000000E+00  0.00000000E+00
  0.00000000E+00  0.00000000E+00  0.00000000E+00
  0.00000000E+00  0.00000000E+00  0.00000000E+00
  0.00000000E+00  0.00000000E+00  0.00000000E+00
  0.00000000E+00  0.00000000E+00  0.00000000E+00
  0.00000000E+00  0.00000000E+00  0.00000000E+00
  0.00000000E+00  0.00000000E+00  0.00000000E+00
  0.00000000E+00  0.00000000E+00  0.00000000E+00
  0.00000000E+00  0.00000000E+00  0.00000000E+00
  0.00000000E+00  0.00000000E+00  0.00000000E+00
  0.00000000E+00  0.00000000E+00  0.00000000E+00
