CeO2-you-111-you-Al                     
   1.00000000000000     
     9.8279901216816139   -5.6596280025646610   -0.0175119529249023
     0.0126137557850403   11.3411016774983704    0.0175119500386693
    -0.0194607513401035    0.0337070084344490   20.9489423278169404
   O    Al   Ce   H 
    53     1    26     1
Selective dynamics
Direct
  0.0002364489052144  0.9992136776358175  0.9942946298524956   T   T   T
  0.1153772555690591  0.2219285309251933  0.1485218317932859   T   T   T
  0.2182347792370312  0.0927664935460134  0.3018052176267743   T   T   T
  0.1547795869292596  0.2687457853332444  0.3614529822680689   T   T   T
  0.9994873167120100 -0.0002899497323585  0.2285932268187315   T   T   T
  0.2231416198662416  0.1094965302559583  0.0739291048023922   T   T   T
  0.3354915185708796 -0.0002751522749686  0.9949071654727814   T   T   T
  0.4396876871539858  0.2252996558160460  0.1532850404036953   T   T   T
  0.5468355770628823  0.1086067924457111  0.3084215067055084   T   T   T
  0.4085356754486418  0.2516083155404300  0.3864726545275429   T   T   T
  0.3354262142962735  0.9949784126660449  0.2278254253016677   T   T   T
  0.5560272626628604  0.1117802196670921  0.0777225201381475   T   T   T
  0.6658650915690278  0.0001239417052942  0.9954560322099981   T   T   T
  0.7858547473631309  0.2232209569518542  0.1509292574014659   T   T   T
  0.8902787542461578  0.1084403964945875  0.3052862672790037   T   T   T
  0.7849682919718574  0.2121266479883810  0.3902417328773121   T   T   T
  0.6676692698307113  0.0018574190434189  0.2308793550937002   T   T   T
  0.8910356275837326  0.1106169633913542  0.0744530971483366   T   T   T
  0.9988251461201004  0.3321882993676192  0.9934689347289545   T   T   T
  0.1114947525742783  0.5533847881180395  0.1472386221631051   T   T   T
  0.1029805966533947  0.5404155746645002  0.3837257845787354   T   T   T
  0.0187851792235406  0.3411497175724933  0.2349015022923804   T   T   T
  0.2228806469247052  0.4431493377729571  0.0720146580060897   T   T   T
  0.3341346130862604  0.3318733253310112  0.9935201472007602   T   T   T
  0.4458405300718253  0.5516910020908525  0.1486580741564409   T   T   T
  0.5706477240738418  0.4506670955029536  0.2996480875752397   T   T   T
  0.4189567920327041  0.5168072566926599  0.3672062471022065   T   T   T
  0.3247484932875120  0.3421103228686443  0.2463012709448625   T   T   T
  0.5569735056963738  0.4431668034164058  0.0734072029686706   T   T   T
  0.6665407990301448  0.3310451480421077  0.9943848277023155   T   T   T
  0.7784599870248953  0.5544111051907488  0.1500842581866848   T   T   T
  0.8890876287017905  0.4429340764910670  0.3044360151816205   T   T   T
  0.7859957711581205  0.5695947416545569  0.3886752359416260   T   T   T
  0.6695577895518748  0.3279363167810335  0.2270053063543309   T   T   T
  0.8887989522141518  0.4439427617658175  0.0739122671806012   T   T   T
  0.0004883078573699  0.6668787138728599  0.9936943970188139   T   T   T
  0.1124960759999562  0.8880475222203142  0.1502191431539375   T   T   T
  0.2190479827064213  0.7782691865609392  0.3051035129699318   T   T   T
  0.1088942669580522  0.8863534788266839  0.3875959238628074   T   T   T
  0.0004273200342525  0.6636607981003644  0.2291150407009901   T   T   T
  0.2226516809012527  0.7768816746835246  0.0743226021298847   T   T   T
  0.3342001616419548  0.6673670779201966  0.9937992533525897   T   T   T
  0.4431896126488753  0.8817230162490745  0.1513988141413732   T   T   T
  0.5621879932171830  0.7808308726107390  0.3062319019405499   T   T   T
  0.4480478367510018  0.8968248253599431  0.3903141444299811   T   T   T
  0.3255894123991395  0.6487131718851630  0.2337222720199944   T   T   T
  0.5555925574519862  0.7753985512610636  0.0746373357181667   T   T   T
  0.6672101291718073  0.6666256894123722  0.9936151329201487   T   T   T
  0.7773980078553144  0.8899444890157191  0.1496560197332268   T   T   T
  0.8919406827351807  0.7788277538107975  0.3030542791146675   T   T   T
  0.7844360206847104  0.8892803523321908  0.3855111853046281   T   T   T
  0.6697835775733550  0.6705711618538908  0.2285454792222493   T   T   T
  0.8889914882970809  0.7767521330580952  0.0742704268973065   T   T   T
  0.3349028383652333  0.3434679552252766  0.3362676148579534   T   T   T
  0.0035982755976488  0.9972047396875455  0.3418693644096706   T   T   T
  0.2226679926181173  0.1090657774472148  0.1922461041603650   T   T   T
  0.1114128548314639  0.2199453458438676  0.0330384077562871   T   T   T
  0.3270256820857976 -0.0097496106253178  0.3431347179985285   T   T   T
  0.5565873073677400  0.1103700623080074  0.1917867773366543   T   T   T
  0.4448076050281203  0.2219171236528933  0.0354476927684916   T   T   T
  0.6677374047859141 -0.0016723853992894  0.3474269206818766   T   T   T
  0.8911334524404552  0.1111568064640369  0.1905087050982621   T   T   T
  0.7786475896451290  0.2221452358001261  0.0351517447363139   T   T   T
  0.9929536598074926  0.3270302688702241  0.3474925184048374   T   T   T
  0.2252614185300628  0.4431677940479186  0.1836405634710540   T   T   T
  0.1107020238122102  0.5553657573302075  0.0327597204300321   T   T   T
  0.5583922552889096  0.4441209692134038  0.1928933464276028   T   T   T
  0.4466451664803797  0.5552993784316557  0.0331908591177503   T   T   T
  0.6697145724763878  0.3367676141971457  0.3482742144861091   T   T   T
  0.8907840361248389  0.4434119108605956  0.1907089808094936   T   T   T
  0.7774419827908972  0.5540027198656233  0.0344169119773272   T   T   T
 -0.0020228290165823  0.6634455504198070  0.3454139337843884   T   T   T
  0.2217075467870383  0.7728415182802475  0.1905635507022675   T   T   T
  0.1124459942820222  0.8886746156317896  0.0347885232692547   T   T   T
  0.3378353553886100  0.6695330107132355  0.3529576035987609   T   T   T
  0.5552150277674680  0.7758870207322043  0.1918309710564166   T   T   T
  0.4445232247092898  0.8877430839831362  0.0356793471114905   T   T   T
  0.6659190357902623  0.6611720555875016  0.3423000073875478   T   T   T
  0.8900040328064804  0.7767114899739942  0.1884069644082268   T   T   T
  0.7775182241572781  0.8884672841652445  0.0350681018210694   T   T   T
  0.3945995219619823  0.2644191275352067  0.4311974773152940   T   T   T
 
  0.00000000E+00  0.00000000E+00  0.00000000E+00
  0.00000000E+00  0.00000000E+00  0.00000000E+00
  0.00000000E+00  0.00000000E+00  0.00000000E+00
  0.00000000E+00  0.00000000E+00  0.00000000E+00
  0.00000000E+00  0.00000000E+00  0.00000000E+00
  0.00000000E+00  0.00000000E+00  0.00000000E+00
  0.00000000E+00  0.00000000E+00  0.00000000E+00
  0.00000000E+00  0.00000000E+00  0.00000000E+00
  0.00000000E+00  0.00000000E+00  0.00000000E+00
  0.00000000E+00  0.00000000E+00  0.00000000E+00
  0.00000000E+00  0.00000000E+00  0.00000000E+00
  0.00000000E+00  0.00000000E+00  0.00000000E+00
  0.00000000E+00  0.00000000E+00  0.00000000E+00
  0.00000000E+00  0.00000000E+00  0.00000000E+00
  0.00000000E+00  0.00000000E+00  0.00000000E+00
  0.00000000E+00  0.00000000E+00  0.00000000E+00
  0.00000000E+00  0.00000000E+00  0.00000000E+00
  0.00000000E+00  0.00000000E+00  0.00000000E+00
  0.00000000E+00  0.00000000E+00  0.00000000E+00
  0.00000000E+00  0.00000000E+00  0.00000000E+00
  0.00000000E+00  0.00000000E+00  0.00000000E+00
  0.00000000E+00  0.00000000E+00  0.00000000E+00
  0.00000000E+00  0.00000000E+00  0.00000000E+00
  0.00000000E+00  0.00000000E+00  0.00000000E+00
  0.00000000E+00  0.00000000E+00  0.00000000E+00
  0.00000000E+00  0.00000000E+00  0.00000000E+00
  0.00000000E+00  0.00000000E+00  0.00000000E+00
  0.00000000E+00  0.00000000E+00  0.00000000E+00
  0.00000000E+00  0.00000000E+00  0.00000000E+00
  0.00000000E+00  0.00000000E+00  0.00000000E+00
  0.00000000E+00  0.00000000E+00  0.00000000E+00
  0.00000000E+00  0.00000000E+00  0.00000000E+00
  0.00000000E+00  0.00000000E+00  0.00000000E+00
  0.00000000E+00  0.00000000E+00  0.00000000E+00
  0.00000000E+00  0.00000000E+00  0.00000000E+00
  0.00000000E+00  0.00000000E+00  0.00000000E+00
  0.00000000E+00  0.00000000E+00  0.00000000E+00
  0.00000000E+00  0.00000000E+00  0.00000000E+00
  0.00000000E+00  0.00000000E+00  0.00000000E+00
  0.00000000E+00  0.00000000E+00  0.00000000E+00
  0.00000000E+00  0.00000000E+00  0.00000000E+00
  0.00000000E+00  0.00000000E+00  0.00000000E+00
  0.00000000E+00  0.00000000E+00  0.00000000E+00
  0.00000000E+00  0.00000000E+00  0.00000000E+00
  0.00000000E+00  0.00000000E+00  0.00000000E+00
  0.00000000E+00  0.00000000E+00  0.00000000E+00
  0.00000000E+00  0.00000000E+00  0.00000000E+00
  0.00000000E+00  0.00000000E+00  0.00000000E+00
  0.00000000E+00  0.00000000E+00  0.00000000E+00
  0.00000000E+00  0.00000000E+00  0.00000000E+00
  0.00000000E+00  0.00000000E+00  0.00000000E+00
  0.00000000E+00  0.00000000E+00  0.00000000E+00
  0.00000000E+00  0.00000000E+00  0.00000000E+00
  0.00000000E+00  0.00000000E+00  0.00000000E+00
  0.00000000E+00  0.00000000E+00  0.00000000E+00
  0.00000000E+00  0.00000000E+00  0.00000000E+00
  0.00000000E+00  0.00000000E+00  0.00000000E+00
  0.00000000E+00  0.00000000E+00  0.00000000E+00
  0.00000000E+00  0.00000000E+00  0.00000000E+00
  0.00000000E+00  0.00000000E+00  0.00000000E+00
  0.00000000E+00  0.00000000E+00  0.00000000E+00
  0.00000000E+00  0.00000000E+00  0.00000000E+00
  0.00000000E+00  0.00000000E+00  0.00000000E+00
  0.00000000E+00  0.00000000E+00  0.00000000E+00
  0.00000000E+00  0.00000000E+00  0.00000000E+00
  0.00000000E+00  0.00000000E+00  0.00000000E+00
  0.00000000E+00  0.00000000E+00  0.00000000E+00
  0.00000000E+00  0.00000000E+00  0.00000000E+00
  0.00000000E+00  0.00000000E+00  0.00000000E+00
  0.00000000E+00  0.00000000E+00  0.00000000E+00
  0.00000000E+00  0.00000000E+00  0.00000000E+00
  0.00000000E+00  0.00000000E+00  0.00000000E+00
  0.00000000E+00  0.00000000E+00  0.00000000E+00
  0.00000000E+00  0.00000000E+00  0.00000000E+00
  0.00000000E+00  0.00000000E+00  0.00000000E+00
  0.00000000E+00  0.00000000E+00  0.00000000E+00
  0.00000000E+00  0.00000000E+00  0.00000000E+00
  0.00000000E+00  0.00000000E+00  0.00000000E+00
  0.00000000E+00  0.00000000E+00  0.00000000E+00
  0.00000000E+00  0.00000000E+00  0.00000000E+00
  0.00000000E+00  0.00000000E+00  0.00000000E+00
