CeO2-you-111-you-Co                     
   1.00000000000000     
     9.8945933866637095   -5.7126465305168361   -0.0000000015572387
    -0.0449183006220818   11.3474902766240433   -0.0297441609546280
    -0.0321439100283845   -0.0556748758751002   20.7793442261878951
   O    Co   Ce   H 
    53     1    26     2
Selective dynamics
Direct
  0.9997962031398874  0.9996641074000165  0.9928815920036662   T   T   T
  0.1067099383480539  0.2207492918860865  0.1479829113953670   F   F   F
  0.2346596490072707  0.1443588260987642  0.3116328639983673   T   T   T
  0.0530657947476178  0.1962520788311912  0.4009712315173232   T   T   T
  0.0057660763970160  0.0022191078008214  0.2303175630043346   T   T   T
  0.2224640895529362  0.1115951791057626  0.0733813531802880   F   F   F
  0.3333658400733598  0.0000578371510396  0.9928629676842096   T   T   T
  0.4473723535387890  0.2207492918861576  0.1479829113955091   F   F   F
  0.5603862242944130  0.1167358233873782  0.3055230482810806   T   T   T
  0.4889678197528790  0.2101840276631003  0.4155217726969455   T   T   T
  0.3298648714649110  0.0021766201733918  0.2291821592117627   T   T   T
  0.5574495389338097  0.1103919427236022  0.0732967891596488   F   F   F
  0.6658992853581887  0.9988103724485129  0.9919290094443214   T   T   T
  0.7772168021482457  0.2210996042964481  0.1530578999865284   F   F   F
  0.8838033728364211  0.1073941732960987  0.3023333459703346   T   T   T
  0.7785940919542697  0.2205267079163486  0.3866140427293221   T   T   T
  0.6596102554854050  0.9901078341897203  0.2321813442627964   T   T   T
  0.8862764037894451  0.1103919427229698  0.0732967891594072   F   F   F
  0.0000260537055420  0.3326993293054281  0.9930586213753390   T   T   T
  0.1090930361987716  0.5552513834576231  0.1491565904371868   F   F   F
  0.2437531321888161  0.4424793816471508  0.3126239555127618   T   T   T
  0.1138600869274138  0.5588188876718579  0.3864028696737062   T   T   T
  0.0075258429764544  0.3376069467153859  0.2325645015725016   T   T   T
  0.2223055793693831  0.4448375774373972  0.0740000171446766   F   F   F
  0.3333828607167311  0.3335240346684117  0.9934289759512568   T   T   T
  0.4468354805423971  0.5603389610868064  0.1478099549506453   F   F   F
  0.5334374364710536  0.4389513758011777  0.3133389526704464   T   T   T
  0.3355219848692804  0.3372065831951940  0.2202685427157059   T   T   T
  0.5558659980678229  0.4448375774370845  0.0740000171446127   F   F   F
  0.6662859046793559  0.3326649025962292  0.9932007819014685   T   T   T
  0.7794913472582863  0.5552513834575450  0.1491565904372720   F   F   F
  0.8906362455518483  0.4447903278676121  0.3072681270238943   T   T   T
  0.7789745994960763  0.5572088153957078  0.3856441976455717   T   T   T
  0.6659748897486387  0.3393661967616525  0.2321326739346541   T   T   T
  0.8874680260063528  0.4416020520121791  0.0742379416424441   F   F   F
  0.9985038066738146  0.6639834967908040  0.9927972827954684   T   T   T
  0.1106598655817379  0.8879867311624992  0.1472981326810086   F   F   F
  0.2190667675968123  0.7762436763754490  0.3047357168621799   T   T   T
  0.0998868943880618  0.8869371384900699  0.3871356081420565   T   T   T
 -0.0000529513569832  0.6681752175466722  0.2297499965573366   T   T   T
  0.2216879711447817  0.7772497454898684  0.0724673944485659   F   F   F
  0.3332416339932698  0.6657297171569049  0.9930689579997620   T   T   T
  0.4429857694692245  0.8884322270639586  0.1492082069396119   F   F   F
  0.5446980814396518  0.7521026826256841  0.3115937000597989   T   T   T
  0.4489129172163195  0.8804820449301716  0.3858002581974793   T   T   T
  0.3309511736127506  0.6669740852082837  0.2295817134156581   T   T   T
  0.5566188386530513  0.7799036773064998  0.0735161507614350   F   F   F
  0.6658887381288262  0.6659324009621551  0.9929500103489500   T   T   T
  0.7787794575949221  0.8884322270636886  0.1492082069396048   F   F   F
  0.8892567473860237  0.7784146692259969  0.3041191270941710   T   T   T
  0.7744906154003718  0.8849585522706552  0.3852098077694205   T   T   T
  0.6692543758992849  0.6658608634904259  0.2296389182783100   T   T   T
  0.8888947743452889  0.7772497454895415  0.0724673944484664   F   F   F
  0.3371597327253542  0.3402584394051414  0.3179154684863001   T   T   T
  0.0031079275356585  0.0091322151047548  0.3491421366043386   T   T   T
  0.2229301282678620  0.1125272565367794  0.1888353574849475   F   F   F
  0.1103187091796016  0.2215341870076983  0.0335357073712572   F   F   F
  0.3328360340968272  0.0065687507040503  0.3508186170290049   T   T   T
  0.5544912625572351  0.1105291371977515  0.1905436036978116   F   F   F
  0.4445484778282633  0.2215341870081176  0.0335357073713425   F   F   F
  0.6645154947742971  0.9968035886838310  0.3470952658891891   T   T   T
  0.8893718746393517  0.1105291371965720  0.1905436036977548   F   F   F
  0.7771201104387089  0.2209062208777866  0.0337223649481402   F   F   F
  0.0006293068582733  0.3274176610496792  0.3500962341043046   T   T   T
  0.2219869375667471  0.4452443976418365  0.1884661036588611   F   F   F
  0.1096141987460371  0.5539528671630478  0.0335361815640027   F   F   F
  0.5565914600759712  0.4452443976416447  0.1884661036588184   F   F   F
  0.4445635569015991  0.5557951138026240  0.0328262537049682   F   F   F
  0.6732977968661902  0.3336044704185073  0.3473607859452468   T   T   T
  0.8887017687773238  0.4440695375537160  0.1922024283689581   F   F   F
  0.7776716684172058  0.5539528671629057  0.0335361815640027   F   F   F
  0.0021360102610363  0.6704538193855190  0.3460054130636318   T   T   T
  0.2214680466231087  0.7795232429848511  0.1881457403516436   F   F   F
  0.1107300126787933  0.8881270253576616  0.0323996760990184   F   F   F
  0.3227036283078473  0.6700000877383316  0.3420831784691676   T   T   T
  0.5547004329749612  0.7760668659496162  0.1889665882763936   F   F   F
  0.4446050202393081  0.8884264821390246  0.0328636499310448   F   F   F
  0.6806978297187427  0.6703734737492477  0.3415872059009544   T   T   T
  0.8913881963608290  0.7795232429840766  0.1881457403515441   F   F   F
  0.7771544618991513  0.8884264821382715  0.0328636499308956   F   F   F
  0.3368502049866231  0.3421140565370946  0.3884902297395012   T   T   T
  0.4519473815582480  0.2543913617721070  0.4421201606881038   T   T   T
 
  0.00000000E+00  0.00000000E+00  0.00000000E+00
  0.00000000E+00  0.00000000E+00  0.00000000E+00
  0.00000000E+00  0.00000000E+00  0.00000000E+00
  0.00000000E+00  0.00000000E+00  0.00000000E+00
  0.00000000E+00  0.00000000E+00  0.00000000E+00
  0.00000000E+00  0.00000000E+00  0.00000000E+00
  0.00000000E+00  0.00000000E+00  0.00000000E+00
  0.00000000E+00  0.00000000E+00  0.00000000E+00
  0.00000000E+00  0.00000000E+00  0.00000000E+00
  0.00000000E+00  0.00000000E+00  0.00000000E+00
  0.00000000E+00  0.00000000E+00  0.00000000E+00
  0.00000000E+00  0.00000000E+00  0.00000000E+00
  0.00000000E+00  0.00000000E+00  0.00000000E+00
  0.00000000E+00  0.00000000E+00  0.00000000E+00
  0.00000000E+00  0.00000000E+00  0.00000000E+00
  0.00000000E+00  0.00000000E+00  0.00000000E+00
  0.00000000E+00  0.00000000E+00  0.00000000E+00
  0.00000000E+00  0.00000000E+00  0.00000000E+00
  0.00000000E+00  0.00000000E+00  0.00000000E+00
  0.00000000E+00  0.00000000E+00  0.00000000E+00
  0.00000000E+00  0.00000000E+00  0.00000000E+00
  0.00000000E+00  0.00000000E+00  0.00000000E+00
  0.00000000E+00  0.00000000E+00  0.00000000E+00
  0.00000000E+00  0.00000000E+00  0.00000000E+00
  0.00000000E+00  0.00000000E+00  0.00000000E+00
  0.00000000E+00  0.00000000E+00  0.00000000E+00
  0.00000000E+00  0.00000000E+00  0.00000000E+00
  0.00000000E+00  0.00000000E+00  0.00000000E+00
  0.00000000E+00  0.00000000E+00  0.00000000E+00
  0.00000000E+00  0.00000000E+00  0.00000000E+00
  0.00000000E+00  0.00000000E+00  0.00000000E+00
  0.00000000E+00  0.00000000E+00  0.00000000E+00
  0.00000000E+00  0.00000000E+00  0.00000000E+00
  0.00000000E+00  0.00000000E+00  0.00000000E+00
  0.00000000E+00  0.00000000E+00  0.00000000E+00
  0.00000000E+00  0.00000000E+00  0.00000000E+00
  0.00000000E+00  0.00000000E+00  0.00000000E+00
  0.00000000E+00  0.00000000E+00  0.00000000E+00
  0.00000000E+00  0.00000000E+00  0.00000000E+00
  0.00000000E+00  0.00000000E+00  0.00000000E+00
  0.00000000E+00  0.00000000E+00  0.00000000E+00
  0.00000000E+00  0.00000000E+00  0.00000000E+00
  0.00000000E+00  0.00000000E+00  0.00000000E+00
  0.00000000E+00  0.00000000E+00  0.00000000E+00
  0.00000000E+00  0.00000000E+00  0.00000000E+00
  0.00000000E+00  0.00000000E+00  0.00000000E+00
  0.00000000E+00  0.00000000E+00  0.00000000E+00
  0.00000000E+00  0.00000000E+00  0.00000000E+00
  0.00000000E+00  0.00000000E+00  0.00000000E+00
  0.00000000E+00  0.00000000E+00  0.00000000E+00
  0.00000000E+00  0.00000000E+00  0.00000000E+00
  0.00000000E+00  0.00000000E+00  0.00000000E+00
  0.00000000E+00  0.00000000E+00  0.00000000E+00
  0.00000000E+00  0.00000000E+00  0.00000000E+00
  0.00000000E+00  0.00000000E+00  0.00000000E+00
  0.00000000E+00  0.00000000E+00  0.00000000E+00
  0.00000000E+00  0.00000000E+00  0.00000000E+00
  0.00000000E+00  0.00000000E+00  0.00000000E+00
  0.00000000E+00  0.00000000E+00  0.00000000E+00
  0.00000000E+00  0.00000000E+00  0.00000000E+00
  0.00000000E+00  0.00000000E+00  0.00000000E+00
  0.00000000E+00  0.00000000E+00  0.00000000E+00
  0.00000000E+00  0.00000000E+00  0.00000000E+00
  0.00000000E+00  0.00000000E+00  0.00000000E+00
  0.00000000E+00  0.00000000E+00  0.00000000E+00
  0.00000000E+00  0.00000000E+00  0.00000000E+00
  0.00000000E+00  0.00000000E+00  0.00000000E+00
  0.00000000E+00  0.00000000E+00  0.00000000E+00
  0.00000000E+00  0.00000000E+00  0.00000000E+00
  0.00000000E+00  0.00000000E+00  0.00000000E+00
  0.00000000E+00  0.00000000E+00  0.00000000E+00
  0.00000000E+00  0.00000000E+00  0.00000000E+00
  0.00000000E+00  0.00000000E+00  0.00000000E+00
  0.00000000E+00  0.00000000E+00  0.00000000E+00
  0.00000000E+00  0.00000000E+00  0.00000000E+00
  0.00000000E+00  0.00000000E+00  0.00000000E+00
  0.00000000E+00  0.00000000E+00  0.00000000E+00
  0.00000000E+00  0.00000000E+00  0.00000000E+00
  0.00000000E+00  0.00000000E+00  0.00000000E+00
  0.00000000E+00  0.00000000E+00  0.00000000E+00
  0.00000000E+00  0.00000000E+00  0.00000000E+00
  0.00000000E+00  0.00000000E+00  0.00000000E+00
