CeO2-you-111-you-Hg                     
   1.00000000000000     
     9.8299305991543502   -5.6929545550870531    0.0097450453735961
     0.0000000018842415   11.3859071097117059   -0.0000000011370082
     0.0204595833002283   -0.0000000020455379   21.0936463338865572
   O    Hg   Ce
    53     1    26
Selective dynamics
Direct
  0.0001679518688049  0.0011459937551217  0.9964637342087719   T   T   T
  0.1116525223449854  0.2224927611722750  0.1508234038365215   T   T   T
  0.2163398922526150  0.0982046810680248  0.3019157834028326   T   T   T
  0.0993180813301186  0.2163255406658425  0.3898269651478798   T   T   T
 -0.0026806484167793 -0.0007157588497420  0.2284609321422335   T   T   T
  0.2225612433291989  0.1106022410042157  0.0752494090300552   T   T   T
  0.3324812327856307 -0.0004903665041837  0.9947344077693623   T   T   T
  0.4473776598180794  0.2191271737654406  0.1460610899585452   T   T   T
  0.5590585811363284  0.1098129350703203  0.3033123185435819   T   T   T
  0.4571411357770250  0.2306365072039591  0.3800639844309060   T   T   T
  0.3371533919102251  0.0009243311115874  0.2285671708411642   T   T   T
  0.5562346828756967  0.1093237435286471  0.0736069087615617   T   T   T
  0.6686465211445168  0.0009897605726379  0.9947763557787587   T   T   T
  0.7746853802101449  0.2258948739382673  0.1510653450389149   T   T   T
  0.8899096839971646  0.1116213419985565  0.3048250831159040   T   T   T
  0.7778648694910223  0.2210858593709119  0.3856907430307531   T   T   T
  0.6686547095192892  0.0009938547596793  0.2285766915329367   T   T   T
  0.8867429144083800  0.1100379572040545  0.0770137082298426   T   T   T
  0.0001679518687983  0.3323549581131995  0.9964637342087157   T   T   T
  0.1104459460474765  0.5557502261831830  0.1508123585774851   T   T   T
  0.2163398922490638  0.4514682111824469  0.3019157834035084   T   T   T
  0.1107941323029745  0.5598538298430374  0.3840323860857702   T   T   T
 -0.0026806484153152  0.3313681104332850  0.2284609321422870   T   T   T
  0.2225612433289543  0.4452920023251749  0.0752494090300908   T   T   T
  0.3307472642024116  0.3320401321011198  0.9951287784041236   T   T   T
  0.4473776598158082  0.5615844860538064  0.1460610899582457   T   T   T
  0.4571411357763958  0.5598386285726165  0.3800639844311350   T   T   T
  0.3447556714466521  0.3390443357240450  0.2232021804350529   T   T   T
  0.5541851794862649  0.4437585897434981  0.0711164478497350   T   T   T
  0.6678934748740506  0.3328235215110172  0.9950042198079670   T   T   T
  0.7783052845465357  0.5558196422719944  0.1469008532119004   T   T   T
  0.8908150968061390  0.4428639935961776  0.3044160824914965   T   T   T
  0.7582125733614833  0.5457732866818075  0.3755186538106720   T   T   T
  0.6570727090486679  0.3431842375317267  0.2353221613772704   T   T   T
  0.8900106549262152  0.4448788560552511  0.0748293378610042   T   T   T
  0.0006446740736290  0.6669893370365081  0.9954389992733997   T   T   T
  0.1104459460470643  0.8880297198630021  0.1508123585775153   T   T   T
  0.2202692179434650  0.7768016089712232  0.3019481526960582   T   T   T
  0.1107941323023013  0.8842743024588955  0.3840323860857969   T   T   T
 -0.0032163658894676  0.6650588170543660  0.2295815053160833   T   T   T
  0.2231543899206553  0.7782441949601790  0.0749800578299212   T   T   T
  0.3324812327855303  0.6663055992899161  0.9947344077693079   T   T   T
  0.4466310249067538  0.8899825124533843  0.1494075483231100   T   T   T
  0.5590585811344501  0.7825786460670914  0.3033123185432725   T   T   T
  0.4425815138132623  0.8879577569068368  0.3813177701888237   T   T   T
  0.3371533919103921  0.6695630607991074  0.2285671708409978   T   T   T
  0.5562346828757208  0.7802439393473657  0.0736069087614480   T   T   T
  0.6678934748741686  0.6684029533633811  0.9950042198078426   T   T   T
  0.7746853802090732  0.8821235062713959  0.1510653450391224   T   T   T
  0.8908150968051290  0.7812841032064676  0.3044160824913599   T   T   T
  0.7778648694902861  0.8901120101186077  0.3856907430302012   T   T   T
  0.6570727090511516  0.6472214715198215  0.2353221613768240   T   T   T
  0.8900106549261363  0.7784647988707221  0.0748293378608794   T   T   T
  0.3257174697852912  0.3295252348916983  0.3787725032056321   T   T   T
  0.0052727947399945  0.0034375886703306  0.3437306007014507   T   T   T
  0.2243681679146825  0.1141417660937205  0.1916598148986253   T   T   T
  0.1116914965615041  0.2225122482807469  0.0367218946485899   T   T   T
  0.3316685197277477  0.0002878767884618  0.3415147446028149   T   T   T
  0.5556984973295610  0.1114665127306833  0.1893130998579079   T   T   T
  0.4431849800884283  0.2198001378960073  0.0333211469504120   T   T   T
  0.6675224573439321  0.0004277286722092  0.3438181587874812   T   T   T
  0.8890734629274768  0.1112032314647140  0.1902384224199900   T   T   T
  0.7779733740805228  0.2223099198660619  0.0352607262285589   T   T   T
  0.0052727947384887  0.3351682060734996  0.3437306007011215   T   T   T
  0.2243681679145615  0.4435594018202821  0.1916598148985546   T   T   T
  0.1111275531085261  0.5548885683655501  0.0362006794734328   T   T   T
  0.5517686127930815  0.4425503063932736  0.1807610046324104   T   T   T
  0.4431849800884782  0.5567188421915910  0.0333211469504367   T   T   T
  0.6707547092684036  0.3252529922845802  0.3459931320537152   T   T   T
  0.8883509702491311  0.4450247547118417  0.1900894202261500   T   T   T
  0.7799709311368493  0.5566524655683986  0.0335157573454385   T   T   T
  0.0011802073090168  0.6672571036572236  0.3422729195053461   T   T   T
  0.2229509629833459  0.7781424814924429  0.1884053224937124   T   T   T
  0.1111275531084038  0.8895729847441102  0.0362006794734101   T   T   T
  0.3316685197277596  0.6647146429378292  0.3415147446023399   T   T   T
  0.5556984973330255  0.7775649845980066  0.1893130998578798   T   T   T
  0.4457396315074723  0.8895368157533027  0.0346513852760941   T   T   T
  0.6707547092658944  0.6788347169782535  0.3459931320549641   T   T   T
  0.8883509702525560  0.7766592155431863  0.1900894202261512   T   T   T
  0.7779733740811374  0.8889964542147226  0.0352607262285413   T   T   T
 
  0.00000000E+00  0.00000000E+00  0.00000000E+00
  0.00000000E+00  0.00000000E+00  0.00000000E+00
  0.00000000E+00  0.00000000E+00  0.00000000E+00
  0.00000000E+00  0.00000000E+00  0.00000000E+00
  0.00000000E+00  0.00000000E+00  0.00000000E+00
  0.00000000E+00  0.00000000E+00  0.00000000E+00
  0.00000000E+00  0.00000000E+00  0.00000000E+00
  0.00000000E+00  0.00000000E+00  0.00000000E+00
  0.00000000E+00  0.00000000E+00  0.00000000E+00
  0.00000000E+00  0.00000000E+00  0.00000000E+00
  0.00000000E+00  0.00000000E+00  0.00000000E+00
  0.00000000E+00  0.00000000E+00  0.00000000E+00
  0.00000000E+00  0.00000000E+00  0.00000000E+00
  0.00000000E+00  0.00000000E+00  0.00000000E+00
  0.00000000E+00  0.00000000E+00  0.00000000E+00
  0.00000000E+00  0.00000000E+00  0.00000000E+00
  0.00000000E+00  0.00000000E+00  0.00000000E+00
  0.00000000E+00  0.00000000E+00  0.00000000E+00
  0.00000000E+00  0.00000000E+00  0.00000000E+00
  0.00000000E+00  0.00000000E+00  0.00000000E+00
  0.00000000E+00  0.00000000E+00  0.00000000E+00
  0.00000000E+00  0.00000000E+00  0.00000000E+00
  0.00000000E+00  0.00000000E+00  0.00000000E+00
  0.00000000E+00  0.00000000E+00  0.00000000E+00
  0.00000000E+00  0.00000000E+00  0.00000000E+00
  0.00000000E+00  0.00000000E+00  0.00000000E+00
  0.00000000E+00  0.00000000E+00  0.00000000E+00
  0.00000000E+00  0.00000000E+00  0.00000000E+00
  0.00000000E+00  0.00000000E+00  0.00000000E+00
  0.00000000E+00  0.00000000E+00  0.00000000E+00
  0.00000000E+00  0.00000000E+00  0.00000000E+00
  0.00000000E+00  0.00000000E+00  0.00000000E+00
  0.00000000E+00  0.00000000E+00  0.00000000E+00
  0.00000000E+00  0.00000000E+00  0.00000000E+00
  0.00000000E+00  0.00000000E+00  0.00000000E+00
  0.00000000E+00  0.00000000E+00  0.00000000E+00
  0.00000000E+00  0.00000000E+00  0.00000000E+00
  0.00000000E+00  0.00000000E+00  0.00000000E+00
  0.00000000E+00  0.00000000E+00  0.00000000E+00
  0.00000000E+00  0.00000000E+00  0.00000000E+00
  0.00000000E+00  0.00000000E+00  0.00000000E+00
  0.00000000E+00  0.00000000E+00  0.00000000E+00
  0.00000000E+00  0.00000000E+00  0.00000000E+00
  0.00000000E+00  0.00000000E+00  0.00000000E+00
  0.00000000E+00  0.00000000E+00  0.00000000E+00
  0.00000000E+00  0.00000000E+00  0.00000000E+00
  0.00000000E+00  0.00000000E+00  0.00000000E+00
  0.00000000E+00  0.00000000E+00  0.00000000E+00
  0.00000000E+00  0.00000000E+00  0.00000000E+00
  0.00000000E+00  0.00000000E+00  0.00000000E+00
  0.00000000E+00  0.00000000E+00  0.00000000E+00
  0.00000000E+00  0.00000000E+00  0.00000000E+00
  0.00000000E+00  0.00000000E+00  0.00000000E+00
  0.00000000E+00  0.00000000E+00  0.00000000E+00
  0.00000000E+00  0.00000000E+00  0.00000000E+00
  0.00000000E+00  0.00000000E+00  0.00000000E+00
  0.00000000E+00  0.00000000E+00  0.00000000E+00
  0.00000000E+00  0.00000000E+00  0.00000000E+00
  0.00000000E+00  0.00000000E+00  0.00000000E+00
  0.00000000E+00  0.00000000E+00  0.00000000E+00
  0.00000000E+00  0.00000000E+00  0.00000000E+00
  0.00000000E+00  0.00000000E+00  0.00000000E+00
  0.00000000E+00  0.00000000E+00  0.00000000E+00
  0.00000000E+00  0.00000000E+00  0.00000000E+00
  0.00000000E+00  0.00000000E+00  0.00000000E+00
  0.00000000E+00  0.00000000E+00  0.00000000E+00
  0.00000000E+00  0.00000000E+00  0.00000000E+00
  0.00000000E+00  0.00000000E+00  0.00000000E+00
  0.00000000E+00  0.00000000E+00  0.00000000E+00
  0.00000000E+00  0.00000000E+00  0.00000000E+00
  0.00000000E+00  0.00000000E+00  0.00000000E+00
  0.00000000E+00  0.00000000E+00  0.00000000E+00
  0.00000000E+00  0.00000000E+00  0.00000000E+00
  0.00000000E+00  0.00000000E+00  0.00000000E+00
  0.00000000E+00  0.00000000E+00  0.00000000E+00
  0.00000000E+00  0.00000000E+00  0.00000000E+00
  0.00000000E+00  0.00000000E+00  0.00000000E+00
  0.00000000E+00  0.00000000E+00  0.00000000E+00
  0.00000000E+00  0.00000000E+00  0.00000000E+00
  0.00000000E+00  0.00000000E+00  0.00000000E+00
