CeO2-you-111-you-Tc                     
   1.00000000000000     
     9.9021175223002249   -5.7221574093603635   -0.0204527692015940
    -0.0044746042946972   11.4365625633025250    0.0204527659267855
    -0.0232945596399572    0.0403473592903142   20.5798311179572551
   O    Tc   Ce   H 
    53     1    26     1
Selective dynamics
Direct
  0.9994980457619812  0.0003751719560078  0.9907606226175723   T   T   T
  0.1152815426138818  0.2223926159216897  0.1471387225079370   T   T   T
  0.2362147480533129  0.1227088903960894  0.3036972698145249   T   T   T
  0.1660467828925644  0.2644645347620535  0.3736268724926683   T   T   T
  0.0041709830405100  0.9990777901721102  0.2291104745261887   T   T   T
  0.2218436954713399  0.1098788360190541  0.0710556623713956   T   T   T
  0.3363655548603027  0.0016556328174066  0.9925580009011606   T   T   T
  0.4386080133248982  0.2281213888924495  0.1522805983578242   T   T   T
  0.5577237817063546  0.1101104066615856  0.3057778440272804   T   T   T
  0.4191386400880568  0.2472424985473893  0.4007397435514381   T   T   T
  0.3339798673076024  0.9978680948481506  0.2259724397168586   T   T   T
  0.5545183780101451  0.1118779969870044  0.0770518093352818   T   T   T
  0.6658682358799521  0.0018488187595910  0.9942694409299108   T   T   T
  0.7857258459418541  0.2228459779047136  0.1513675846233153   T   T   T
  0.8949880195060894  0.1045259194847336  0.3075758782055172   T   T   T
  0.7751268050046721  0.2061546610553466  0.3935657953222633   T   T   T
  0.6694112940613527  0.9977833473496894  0.2303720230520264   T   T   T
  0.8905110957194309  0.1098199364612284  0.0726976579753104   T   T   T
  0.9970678533488008  0.3323664713440239  0.9914908854510109   T   T   T
  0.1107264193875670  0.5567661965209407  0.1452786555515274   T   T   T
  0.1072178874340209  0.5600124552911383  0.3896155027340542   T   T   T
  0.0175040177792384  0.3417969285273706  0.2332298205815371   T   T   T
  0.2211261730446855  0.4443978159101958  0.0690042000899651   T   T   T
  0.3337793305793980  0.3333436873236165  0.9913952143119305   T   T   T
  0.4438244912521410  0.5506275044893797  0.1472445120480836   T   T   T
  0.5424914802156747  0.4279916757165701  0.3034192168283620   T   T   T
  0.4013893471429287  0.4998468890727741  0.3729822299300568   T   T   T
  0.3156262549734206  0.3476630248533170  0.2452533615496066   T   T   T
  0.5568611722463442  0.4443009996104280  0.0715485389421530   T   T   T
  0.6650227216552834  0.3307596878588601  0.9926378503078769   T   T   T
  0.7783956235004079  0.5556250752688338  0.1477220108570066   T   T   T
  0.8892919915042840  0.4471341031359345  0.3052754510548035   T   T   T
  0.7801048710171999  0.5676263950402910  0.3880307708421959   T   T   T
  0.6697141054250825  0.3333148420503813  0.2258952067629045   T   T   T
  0.8880012884266572  0.4444763188241960  0.0718840961173506   T   T   T
 -0.0003548622107468  0.6670088338375585  0.9901158721875105   T   T   T
  0.1116968781728586  0.8888676899512240  0.1475106444146573   T   T   T
  0.2206904093578965  0.7783724310676178  0.3050506349167511   T   T   T
  0.0987565346959704  0.8864731620542574  0.3881294612436873   T   T   T
  0.0017114180569048  0.6665152332720721  0.2278053507790690   T   T   T
  0.2219335870478490  0.7787997821188462  0.0716446242479467   T   T   T
  0.3342102101241216  0.6689703543700932  0.9919767467166088   T   T   T
  0.4442115896019104  0.8811605408572187  0.1511968952183391   T   T   T
  0.5620149248406391  0.7716911258558147  0.3075311283875908   T   T   T
  0.4610065837516683  0.8924004297766274  0.3934964129457412   T   T   T
  0.3255075854406144  0.6494307191426281  0.2329892331504919   T   T   T
  0.5566525063680232  0.7763733687459836  0.0729620158740943   T   T   T
  0.6660871378835250  0.6664859205397626  0.9911627049453872   T   T   T
  0.7782675336190128  0.8877536305787164  0.1500112715279074   T   T   T
  0.8895007988576903  0.7768900293155694  0.3021995649129956   T   T   T
  0.7842919500146684  0.8807796697563075  0.3878975410182929   T   T   T
  0.6675552188950010  0.6615494533054367  0.2293766285129514   T   T   T
  0.8891774389098568  0.7781366953285280  0.0710263410189311   T   T   T
  0.3369735274926952  0.3286236360833614  0.3351239724929710   T   T   T
  0.0017464185998558  0.9933220571257010  0.3438316123349279   T   T   T
  0.2216245061135594  0.1070406359452184  0.1896964396599281   T   T   T
  0.1098695524009630  0.2199896880294686  0.0304071553743690   T   T   T
  0.3334132125110894  0.9954108696891942  0.3488603916333849   T   T   T
  0.5572157641940665  0.1098443476289772  0.1928469861285082   T   T   T
  0.4443665813425214  0.2223167003189289  0.0330961173124439   T   T   T
  0.6694948036848487  0.9974478891185996  0.3494661534770068   T   T   T
  0.8923989194957105  0.1113778810847656  0.1917245399235956   T   T   T
  0.7780186520940544  0.2222499556298342  0.0342930422897132   T   T   T
  0.9931697161309817  0.3312495530524320  0.3539676417984793   T   T   T
  0.2196363256623242  0.4468439649237687  0.1802206101680902   T   T   T
  0.1094656847393384  0.5570399591737165  0.0295668509828974   T   T   T
  0.5596120536685871  0.4446360742779322  0.1898538871922489   T   T   T
  0.4464662021141112  0.5563230281653402  0.0306923958693458   T   T   T
  0.6719743163006128  0.3336382289157140  0.3489784145250155   T   T   T
  0.8908314554025716  0.4441857030739237  0.1907957005675196   T   T   T
  0.7770531597492318  0.5544112749816299  0.0316189792775476   T   T   T
  0.0018387078758286  0.6654243321776676  0.3464282370221523   T   T   T
  0.2231841503892492  0.7764902874208550  0.1906679395326218   T   T   T
  0.1121959522494930  0.8896201793998374  0.0313709759519114   T   T   T
  0.3357732430043568  0.6740364673218640  0.3538659105340883   T   T   T
  0.5553606027917992  0.7740635517704086  0.1917835745588793   T   T   T
  0.4444239232102131  0.8886627761563968  0.0343456182566925   T   T   T
  0.6734182117759813  0.6648632516674147  0.3439254315273046   T   T   T
  0.8906057679139541  0.7762466449334872  0.1870387068355123   T   T   T
  0.7774526734701173  0.8892053530707363  0.0331289092890505   T   T   T
  0.4007081140169764  0.2625500491540311  0.4451287691760837   T   T   T
 
  0.00000000E+00  0.00000000E+00  0.00000000E+00
  0.00000000E+00  0.00000000E+00  0.00000000E+00
  0.00000000E+00  0.00000000E+00  0.00000000E+00
  0.00000000E+00  0.00000000E+00  0.00000000E+00
  0.00000000E+00  0.00000000E+00  0.00000000E+00
  0.00000000E+00  0.00000000E+00  0.00000000E+00
  0.00000000E+00  0.00000000E+00  0.00000000E+00
  0.00000000E+00  0.00000000E+00  0.00000000E+00
  0.00000000E+00  0.00000000E+00  0.00000000E+00
  0.00000000E+00  0.00000000E+00  0.00000000E+00
  0.00000000E+00  0.00000000E+00  0.00000000E+00
  0.00000000E+00  0.00000000E+00  0.00000000E+00
  0.00000000E+00  0.00000000E+00  0.00000000E+00
  0.00000000E+00  0.00000000E+00  0.00000000E+00
  0.00000000E+00  0.00000000E+00  0.00000000E+00
  0.00000000E+00  0.00000000E+00  0.00000000E+00
  0.00000000E+00  0.00000000E+00  0.00000000E+00
  0.00000000E+00  0.00000000E+00  0.00000000E+00
  0.00000000E+00  0.00000000E+00  0.00000000E+00
  0.00000000E+00  0.00000000E+00  0.00000000E+00
  0.00000000E+00  0.00000000E+00  0.00000000E+00
  0.00000000E+00  0.00000000E+00  0.00000000E+00
  0.00000000E+00  0.00000000E+00  0.00000000E+00
  0.00000000E+00  0.00000000E+00  0.00000000E+00
  0.00000000E+00  0.00000000E+00  0.00000000E+00
  0.00000000E+00  0.00000000E+00  0.00000000E+00
  0.00000000E+00  0.00000000E+00  0.00000000E+00
  0.00000000E+00  0.00000000E+00  0.00000000E+00
  0.00000000E+00  0.00000000E+00  0.00000000E+00
  0.00000000E+00  0.00000000E+00  0.00000000E+00
  0.00000000E+00  0.00000000E+00  0.00000000E+00
  0.00000000E+00  0.00000000E+00  0.00000000E+00
  0.00000000E+00  0.00000000E+00  0.00000000E+00
  0.00000000E+00  0.00000000E+00  0.00000000E+00
  0.00000000E+00  0.00000000E+00  0.00000000E+00
  0.00000000E+00  0.00000000E+00  0.00000000E+00
  0.00000000E+00  0.00000000E+00  0.00000000E+00
  0.00000000E+00  0.00000000E+00  0.00000000E+00
  0.00000000E+00  0.00000000E+00  0.00000000E+00
  0.00000000E+00  0.00000000E+00  0.00000000E+00
  0.00000000E+00  0.00000000E+00  0.00000000E+00
  0.00000000E+00  0.00000000E+00  0.00000000E+00
  0.00000000E+00  0.00000000E+00  0.00000000E+00
  0.00000000E+00  0.00000000E+00  0.00000000E+00
  0.00000000E+00  0.00000000E+00  0.00000000E+00
  0.00000000E+00  0.00000000E+00  0.00000000E+00
  0.00000000E+00  0.00000000E+00  0.00000000E+00
  0.00000000E+00  0.00000000E+00  0.00000000E+00
  0.00000000E+00  0.00000000E+00  0.00000000E+00
  0.00000000E+00  0.00000000E+00  0.00000000E+00
  0.00000000E+00  0.00000000E+00  0.00000000E+00
  0.00000000E+00  0.00000000E+00  0.00000000E+00
  0.00000000E+00  0.00000000E+00  0.00000000E+00
  0.00000000E+00  0.00000000E+00  0.00000000E+00
  0.00000000E+00  0.00000000E+00  0.00000000E+00
  0.00000000E+00  0.00000000E+00  0.00000000E+00
  0.00000000E+00  0.00000000E+00  0.00000000E+00
  0.00000000E+00  0.00000000E+00  0.00000000E+00
  0.00000000E+00  0.00000000E+00  0.00000000E+00
  0.00000000E+00  0.00000000E+00  0.00000000E+00
  0.00000000E+00  0.00000000E+00  0.00000000E+00
  0.00000000E+00  0.00000000E+00  0.00000000E+00
  0.00000000E+00  0.00000000E+00  0.00000000E+00
  0.00000000E+00  0.00000000E+00  0.00000000E+00
  0.00000000E+00  0.00000000E+00  0.00000000E+00
  0.00000000E+00  0.00000000E+00  0.00000000E+00
  0.00000000E+00  0.00000000E+00  0.00000000E+00
  0.00000000E+00  0.00000000E+00  0.00000000E+00
  0.00000000E+00  0.00000000E+00  0.00000000E+00
  0.00000000E+00  0.00000000E+00  0.00000000E+00
  0.00000000E+00  0.00000000E+00  0.00000000E+00
  0.00000000E+00  0.00000000E+00  0.00000000E+00
  0.00000000E+00  0.00000000E+00  0.00000000E+00
  0.00000000E+00  0.00000000E+00  0.00000000E+00
  0.00000000E+00  0.00000000E+00  0.00000000E+00
  0.00000000E+00  0.00000000E+00  0.00000000E+00
  0.00000000E+00  0.00000000E+00  0.00000000E+00
  0.00000000E+00  0.00000000E+00  0.00000000E+00
  0.00000000E+00  0.00000000E+00  0.00000000E+00
  0.00000000E+00  0.00000000E+00  0.00000000E+00
  0.00000000E+00  0.00000000E+00  0.00000000E+00
