CeO2-you-111-you-Fe                     
   1.00000000000000     
     9.8416082815900676   -5.6820555617039341   -0.0000000000000000
     0.0000000006170993   11.3641091246345525    0.0000000000000000
    -0.0000000000000000    0.0000000000000000   19.8948214410703947
   O    Fe   Ce H
    54     1    26 1
Selective dynamics
Direct
 -0.0002902157818734  0.0003130013531639  0.9834452319813937   T   T   T
  0.1078280226150151  0.2205805113110926  0.1441858009168055   F   F   F
  0.2426674966015817  0.1520019932022624  0.3193883656427843   T   T   T
  0.0560264500491454  0.1946797250165845  0.4073032917037085   T   T   T
  0.0100833821442222  0.0046474313890859  0.2337965150618789   T   T   T
  0.2213574781098114  0.1093819562194537  0.0671668688259567   F   F   F
  0.3339362171350521  0.0003130013531874  0.9834452319813937   T   T   T
  0.4460854886960736  0.2205805113142735  0.1441858009168055   F   F   F
  0.5584133100361746  0.1082536899608991  0.3063964072420320   T   T   T
  0.4719862749674353  0.1946797250094925  0.4073032917037085   T   T   T
  0.3278970492440103  0.0046474313899344  0.2337965150618789   T   T   T
  0.5570311720851430  0.1096358279218775  0.0678182453282160   F   F   F
  0.6666669999999968  0.0000000000000000  0.9828757917123748   T   T   T
  0.7799824750497862  0.2266309501004042  0.1491971478283073   F   F   F
  0.8831743799256266  0.1082536899617998  0.3063964072420320   T   T   T
  0.7764985399437676  0.2196630798863471  0.3959723670030776   T   T   T
  0.6666669999999968  0.0000000000000000  0.2274171682808089   T   T   T
  0.8859386558345782  0.1096358279197207  0.0678182453282160   F   F   F
 -0.0002902157818471  0.3327297828650189  0.9834452319813937   T   T   T
  0.1094467959328495  0.5572202040667629  0.1470888937534727   F   F   F
  0.2426674966036049  0.4239985033993156  0.3193883656427843   T   T   T
  0.1138374659549706  0.5528295340467212  0.3917423863261242   T   T   T
  0.0100833821422923  0.3387689507570513  0.2337965150618789   T   T   T
  0.2213574781101846  0.4453085218903538  0.0671668688259567   F   F   F
  0.3333330000000032  0.3333330000000032  0.9841906892765047   T   T   T
  0.4460854886889069  0.5588389773746406  0.1441858009168055   F   F   F
  0.5146650067948204  0.4239985033984174  0.3193883656427843   T   T   T
  0.4719862749834146  0.6106405499739300  0.4073032917037085   T   T   T
  0.3333330000000032  0.3333330000000032  0.2198896521296601   T   T   T
  0.5572850437800116  0.4453085218901884  0.0671668688259567   F   F   F
  0.6663539986468479  0.3327297828650308  0.9834452319813937   T   T   T
  0.7811064081340298  0.5572202040668829  0.1470888937534727   F   F   F
  0.8874416609558677  0.4415493219114626  0.3116275645409106   T   T   T
  0.7723250680912281  0.5528295340462019  0.3917423863261242   T   T   T
  0.6620195686156094  0.3387689507587563  0.2337965150618789   T   T   T
  0.8891085025101718  0.4448830050207561  0.0672745259271578   F   F   F
  0.0000000000000000  0.6666669999999968  0.9824607733109550   T   T   T
  0.1094467959331210  0.8855605918663594  0.1470888937534727   F   F   F
  0.2251166780876525  0.7792253390441291  0.3116275645409106   T   T   T
  0.1138374659538015  0.8943419319070816  0.3917423863261242   T   T   T
  0.0000000000000000  0.6666669999999968  0.2340604759763813   T   T   T
  0.2217829949805848  0.7775584974898250  0.0672745259271578   F   F   F
  0.3339362171350253  0.6669572157818054  0.9834452319813937   T   T   T
  0.4400350499022829  0.8866845249502106  0.1491971478283073   F   F   F
  0.5584133100382036  0.7834926200773007  0.3063964072420320   T   T   T
  0.4470029201097661  0.8901684600562292  0.3959723670030776   T   T   T
  0.3278970492401684  0.6565836178521570  0.2337965150618789   T   T   T
  0.5570311720802835  0.7807283441584019  0.0678182453282160   F   F   F
  0.6663539986467951  0.6669572157817932  0.9834452319813937   T   T   T
  0.7799824750479248  0.8866845249493839  0.1491971478283073   F   F   F
  0.8874416609564798  0.7792253390444008  0.3116275645409106   T   T   T
  0.7764985399464597  0.8901684600574236  0.3959723670030776   T   T   T
  0.6620195686136974  0.6565836178530141  0.2337965150618789   T   T   T
  0.8891085025092428  0.7775584974894127  0.0672745259271578   F   F   F
  0.3333330000000032  0.3333330000000032  0.3187342659260360   T   T   T
 -0.0031902173772153  0.0038046748097359  0.3571880720346491   T   T   T
  0.2208664813974334  0.1083999627934917  0.1850814326587171   F   F   F
  0.1096613667242856  0.2214971833631943  0.0246227629738327   F   F   F
  0.3403278921871680  0.0038046748086508  0.3571880720346491   T   T   T
  0.5551303705064657  0.1115366294950261  0.1897903849078326   F   F   F
  0.4451688166389047  0.2214971833641262  0.0246227629738327   F   F   F
  0.6666669999999968 -0.0000000000000000  0.3522052686052968   T   T   T
  0.8897402589881038  0.1115366294945688  0.1897903849078326   F   F   F
  0.7777638159969903  0.2221936319943203  0.0258858376995171   F   F   F
 -0.0031902173767340  0.3263381078106069  0.3571880720346491   T   T   T
  0.2208664814005244  0.4457995186039377  0.1850814326587171   F   F   F
  0.1102969478498637  0.5563700521486036  0.0255318150999510   F   F   F
  0.5582670372020490  0.4457995186025660  0.1850814326587171   F   F   F
  0.4451688166368049  0.5570056332726866  0.0246227629738327   F   F   F
  0.6628623251871207  0.3263381078093084  0.3571880720346491   T   T   T
  0.8887251200129940  0.4441162400262553  0.1921949837881328   F   F   F
  0.7794061042992078  0.5563700521490760  0.0255318150999510   F   F   F
  0.0000000000000000  0.6666669999999968  0.3521657538149529   T   T   T
  0.2225497599746178  0.7779418799870028  0.1921949837881328   F   F   F
  0.1102969478509279  0.8872608957023251  0.0255318150999510   F   F   F
  0.3403278921900943  0.6698572173809563  0.3571880720346491   T   T   T
  0.5551303705054352  0.7769267410104053  0.1897903849078326   F   F   F
  0.4444723680067678  0.8889031840030065  0.0258858376995171   F   F   F
  0.6628623251895663  0.6698572173807420  0.3571880720346491   T   T   T
  0.8887251200123888  0.7779418799867344  0.1921949837881328   F   F   F
  0.7777638159962356  0.8889031840026727  0.0258858376995171   F   F   F
0.446598 0.216020 0.433410 T T T 
 
  0.00000000E+00  0.00000000E+00  0.00000000E+00
  0.00000000E+00  0.00000000E+00  0.00000000E+00
  0.00000000E+00  0.00000000E+00  0.00000000E+00
  0.00000000E+00  0.00000000E+00  0.00000000E+00
  0.00000000E+00  0.00000000E+00  0.00000000E+00
  0.00000000E+00  0.00000000E+00  0.00000000E+00
  0.00000000E+00  0.00000000E+00  0.00000000E+00
  0.00000000E+00  0.00000000E+00  0.00000000E+00
  0.00000000E+00  0.00000000E+00  0.00000000E+00
  0.00000000E+00  0.00000000E+00  0.00000000E+00
  0.00000000E+00  0.00000000E+00  0.00000000E+00
  0.00000000E+00  0.00000000E+00  0.00000000E+00
  0.00000000E+00  0.00000000E+00  0.00000000E+00
  0.00000000E+00  0.00000000E+00  0.00000000E+00
  0.00000000E+00  0.00000000E+00  0.00000000E+00
  0.00000000E+00  0.00000000E+00  0.00000000E+00
  0.00000000E+00  0.00000000E+00  0.00000000E+00
  0.00000000E+00  0.00000000E+00  0.00000000E+00
  0.00000000E+00  0.00000000E+00  0.00000000E+00
  0.00000000E+00  0.00000000E+00  0.00000000E+00
  0.00000000E+00  0.00000000E+00  0.00000000E+00
  0.00000000E+00  0.00000000E+00  0.00000000E+00
  0.00000000E+00  0.00000000E+00  0.00000000E+00
  0.00000000E+00  0.00000000E+00  0.00000000E+00
  0.00000000E+00  0.00000000E+00  0.00000000E+00
  0.00000000E+00  0.00000000E+00  0.00000000E+00
  0.00000000E+00  0.00000000E+00  0.00000000E+00
  0.00000000E+00  0.00000000E+00  0.00000000E+00
  0.00000000E+00  0.00000000E+00  0.00000000E+00
  0.00000000E+00  0.00000000E+00  0.00000000E+00
  0.00000000E+00  0.00000000E+00  0.00000000E+00
  0.00000000E+00  0.00000000E+00  0.00000000E+00
  0.00000000E+00  0.00000000E+00  0.00000000E+00
  0.00000000E+00  0.00000000E+00  0.00000000E+00
  0.00000000E+00  0.00000000E+00  0.00000000E+00
  0.00000000E+00  0.00000000E+00  0.00000000E+00
  0.00000000E+00  0.00000000E+00  0.00000000E+00
  0.00000000E+00  0.00000000E+00  0.00000000E+00
  0.00000000E+00  0.00000000E+00  0.00000000E+00
  0.00000000E+00  0.00000000E+00  0.00000000E+00
  0.00000000E+00  0.00000000E+00  0.00000000E+00
  0.00000000E+00  0.00000000E+00  0.00000000E+00
  0.00000000E+00  0.00000000E+00  0.00000000E+00
  0.00000000E+00  0.00000000E+00  0.00000000E+00
  0.00000000E+00  0.00000000E+00  0.00000000E+00
  0.00000000E+00  0.00000000E+00  0.00000000E+00
  0.00000000E+00  0.00000000E+00  0.00000000E+00
  0.00000000E+00  0.00000000E+00  0.00000000E+00
  0.00000000E+00  0.00000000E+00  0.00000000E+00
  0.00000000E+00  0.00000000E+00  0.00000000E+00
  0.00000000E+00  0.00000000E+00  0.00000000E+00
  0.00000000E+00  0.00000000E+00  0.00000000E+00
  0.00000000E+00  0.00000000E+00  0.00000000E+00
  0.00000000E+00  0.00000000E+00  0.00000000E+00
  0.00000000E+00  0.00000000E+00  0.00000000E+00
  0.00000000E+00  0.00000000E+00  0.00000000E+00
  0.00000000E+00  0.00000000E+00  0.00000000E+00
  0.00000000E+00  0.00000000E+00  0.00000000E+00
  0.00000000E+00  0.00000000E+00  0.00000000E+00
  0.00000000E+00  0.00000000E+00  0.00000000E+00
  0.00000000E+00  0.00000000E+00  0.00000000E+00
  0.00000000E+00  0.00000000E+00  0.00000000E+00
  0.00000000E+00  0.00000000E+00  0.00000000E+00
  0.00000000E+00  0.00000000E+00  0.00000000E+00
  0.00000000E+00  0.00000000E+00  0.00000000E+00
  0.00000000E+00  0.00000000E+00  0.00000000E+00
  0.00000000E+00  0.00000000E+00  0.00000000E+00
  0.00000000E+00  0.00000000E+00  0.00000000E+00
  0.00000000E+00  0.00000000E+00  0.00000000E+00
  0.00000000E+00  0.00000000E+00  0.00000000E+00
  0.00000000E+00  0.00000000E+00  0.00000000E+00
  0.00000000E+00  0.00000000E+00  0.00000000E+00
  0.00000000E+00  0.00000000E+00  0.00000000E+00
  0.00000000E+00  0.00000000E+00  0.00000000E+00
  0.00000000E+00  0.00000000E+00  0.00000000E+00
  0.00000000E+00  0.00000000E+00  0.00000000E+00
  0.00000000E+00  0.00000000E+00  0.00000000E+00
  0.00000000E+00  0.00000000E+00  0.00000000E+00
  0.00000000E+00  0.00000000E+00  0.00000000E+00
  0.00000000E+00  0.00000000E+00  0.00000000E+00
  0.00000000E+00  0.00000000E+00  0.00000000E+00
