CeO2-you-111-you-Tl                     
   1.00000000000000     
     9.8738318477186411   -5.7006598447998522   -0.0000000000503731
     0.0054575094357442   11.4107703662215805   -0.0009938312897511
    -0.0010906823132689   -0.0018891168651566   21.2106510094351286
   O    Tl   Ce   H 
    53     1    26     1
Selective dynamics
Direct
  0.9995556717627756  0.0001717873185714  0.9968673801592220   T   T   T
  0.1083697771704613  0.2200531790227694  0.1483597763683459   T   T   T
  0.2242026904273427  0.1030321173300496  0.3009991428293083   T   T   T
  0.1087314635015402  0.2185121674445837  0.3856074217257591   T   T   T
  0.0002964232599591  0.0003523555867702  0.2288299019288997   T   T   T
  0.2225512419091803  0.1110052601534570  0.0744744984601644   T   T   T
  0.3336414560103999 -0.0000065938975955  0.9963455183696914   T   T   T
  0.4461508249044028  0.2206319794012901  0.1484879018401565   T   T   T
  0.5527552240272965  0.1191198231729482  0.3034759003090893   T   T   T
  0.4457388717173596  0.2143873300038970  0.4003257278588729   T   T   T
  0.3339410709826059  0.9969274725640660  0.2267795327257897   T   T   T
  0.5570204778872732  0.1108731128990902  0.0749977793604996   T   T   T
  0.6669061258284730  0.9994800098487051  0.9962308611495865   T   T   T
  0.7772253244104957  0.2229957363546352  0.1510382312102290   T   T   T
  0.8919052111221684  0.1146976902329025  0.3032355635942159   T   T   T
  0.7779274990840174  0.2243522141001161  0.3816233401204269   T   T   T
  0.6651813788219599  0.0000042090537196  0.2309505263564677   T   T   T
  0.8867650218322615  0.1104543125269323  0.0757318108481051   T   T   T
  0.0002988042421531  0.3327279643589617  0.9963548036494584   T   T   T
  0.1105061948875255  0.5549676131580651  0.1484380390072411   T   T   T
  0.2305678456453004  0.4480308558896762  0.3061865963269277   T   T   T
  0.0962331513573543  0.5482593452243858  0.3837064569088061   T   T   T
  0.0046694088339535  0.3357910795512661  0.2290034903530427   T   T   T
  0.2230068994763671  0.4443786599065733  0.0753634785935719   T   T   T
  0.3332524096513411  0.3329464763965757  0.9962680485878160   T   T   T
  0.4458792779448666  0.5580799491632815  0.1495216734419333   T   T   T
  0.5397623972711276  0.4381093342737781  0.3135684253213897   T   T   T
  0.3323139015933433  0.3309647564811353  0.2218547488410001   T   T   T
  0.5540521581888486  0.4438844802047883  0.0755290619314012   T   T   T
  0.6660962624834855  0.3334753136258101  0.9965817245861304   T   T   T
  0.7780443313671429  0.5558904331113043  0.1479501269714135   T   T   T
  0.8897731392728883  0.4425345909524445  0.3002011956370957   T   T   T
  0.7854306279338213  0.5475136457636524  0.3829750551924587   T   T   T
  0.6659339128334902  0.3401548762440516  0.2296641101357682   T   T   T
  0.8887140846390365  0.4431944080078345  0.0746000674816548   T   T   T
 -0.0001936619202640  0.6666376853321243  0.9965521099857658   T   T   T
  0.1105725989373275  0.8886330032265958  0.1479548427273039   T   T   T
  0.2183064799610360  0.7785044770079163  0.3017672136645413   T   T   T
  0.1128737648264529  0.8885233893929607  0.3834528229708004   T   T   T
  0.9989594599297985  0.6662733825635626  0.2270751165737684   T   T   T
  0.2228206805398233  0.7777167099932424  0.0746098866142619   T   T   T
  0.3336152251704296  0.6662216554171773  0.9966887166582564   T   T   T
  0.4468890726294744  0.8899981648020991  0.1491481763415616   T   T   T
  0.5549987117477675  0.7761437772717964  0.3079147062860874   T   T   T
  0.4485587768618022  0.9041858535780788  0.3840812154821845   T   T   T
  0.3323630612419862  0.6676411086801732  0.2264622319254223   T   T   T
  0.5561751302602445  0.7779968790456105  0.0756049955072537   T   T   T
  0.6664594388309331  0.6662649052170372  0.9965393186110122   T   T   T
  0.7769281308047610  0.8890233161062001  0.1510633197667057   T   T   T
  0.8950004921234803  0.7807007720089734  0.3032374817373564   T   T   T
  0.7875925708922288  0.9042098343758929  0.3847913002164913   T   T   T
  0.6671976000919233  0.6632385136259960  0.2284521843410194   T   T   T
  0.8883799933899410  0.7785900170643753  0.0750110105774090   T   T   T
  0.3198950761098778  0.3173039951846154  0.3394751551359775   T   T   T
  0.0010481964959278  0.0009255050771673  0.3433240226773395   T   T   T
  0.2221420412567637  0.1101378623901907  0.1872742740034359   T   T   T
  0.1109019135001546  0.2221785136287585  0.0358999177870858   T   T   T
  0.3296943882309296 -0.0062686020677580  0.3413220896173447   T   T   T
  0.5551475640822422  0.1116267646163331  0.1893590541039105   T   T   T
  0.4445818597814923  0.2219718578701657  0.0355605256615470   T   T   T
  0.6675347519528189  0.0015203093304777  0.3433269678844495   T   T   T
  0.8897780745475553  0.1116612093277961  0.1898640420305762   T   T   T
  0.7775776742910122  0.2217319867033354  0.0360583255648713   T   T   T
  0.0018722308055720  0.3346930228754693  0.3422716202127664   T   T   T
  0.2236812671168860  0.4442113296301355  0.1889540170561837   T   T   T
  0.1113077058530290  0.5549287510273350  0.0355813831374267   T   T   T
  0.5530226969110363  0.4438794618650822  0.1882776787484690   T   T   T
  0.4445084884391189  0.5557707682732671  0.0359405347689344   T   T   T
  0.6746617471365243  0.3372019654160698  0.3415856200187802   T   T   T
  0.8895498109184633  0.4457842381957324  0.1880939490092930   T   T   T
  0.7773309831405854  0.5554511349795155  0.0358976303133012   T   T   T
 -0.0004907516234861  0.6643874064665538  0.3423884323372036   T   T   T
  0.2222886159673269  0.7774630121249877  0.1869038321994503   T   T   T
  0.1108735787651845  0.8887140442939030  0.0352740285090188   T   T   T
  0.3264466642572778  0.6734601433121772  0.3418048737189577   T   T   T
  0.5553119397478479  0.7774721987624134  0.1910592410777903   T   T   T
  0.4455192567479586  0.8889610994203587  0.0361441634387846   T   T   T
  0.6812388294271482  0.6750130340312599  0.3427198428177326   T   T   T
  0.8890588956900873  0.7776585485430075  0.1884836134774009   T   T   T
  0.7770877820231968  0.8887821743027626  0.0366450749448654   T   T   T
  0.4396846298262732  0.2153908742785735  0.4460625215780770   T   T   T
 
  0.00000000E+00  0.00000000E+00  0.00000000E+00
  0.00000000E+00  0.00000000E+00  0.00000000E+00
  0.00000000E+00  0.00000000E+00  0.00000000E+00
  0.00000000E+00  0.00000000E+00  0.00000000E+00
  0.00000000E+00  0.00000000E+00  0.00000000E+00
  0.00000000E+00  0.00000000E+00  0.00000000E+00
  0.00000000E+00  0.00000000E+00  0.00000000E+00
  0.00000000E+00  0.00000000E+00  0.00000000E+00
  0.00000000E+00  0.00000000E+00  0.00000000E+00
  0.00000000E+00  0.00000000E+00  0.00000000E+00
  0.00000000E+00  0.00000000E+00  0.00000000E+00
  0.00000000E+00  0.00000000E+00  0.00000000E+00
  0.00000000E+00  0.00000000E+00  0.00000000E+00
  0.00000000E+00  0.00000000E+00  0.00000000E+00
  0.00000000E+00  0.00000000E+00  0.00000000E+00
  0.00000000E+00  0.00000000E+00  0.00000000E+00
  0.00000000E+00  0.00000000E+00  0.00000000E+00
  0.00000000E+00  0.00000000E+00  0.00000000E+00
  0.00000000E+00  0.00000000E+00  0.00000000E+00
  0.00000000E+00  0.00000000E+00  0.00000000E+00
  0.00000000E+00  0.00000000E+00  0.00000000E+00
  0.00000000E+00  0.00000000E+00  0.00000000E+00
  0.00000000E+00  0.00000000E+00  0.00000000E+00
  0.00000000E+00  0.00000000E+00  0.00000000E+00
  0.00000000E+00  0.00000000E+00  0.00000000E+00
  0.00000000E+00  0.00000000E+00  0.00000000E+00
  0.00000000E+00  0.00000000E+00  0.00000000E+00
  0.00000000E+00  0.00000000E+00  0.00000000E+00
  0.00000000E+00  0.00000000E+00  0.00000000E+00
  0.00000000E+00  0.00000000E+00  0.00000000E+00
  0.00000000E+00  0.00000000E+00  0.00000000E+00
  0.00000000E+00  0.00000000E+00  0.00000000E+00
  0.00000000E+00  0.00000000E+00  0.00000000E+00
  0.00000000E+00  0.00000000E+00  0.00000000E+00
  0.00000000E+00  0.00000000E+00  0.00000000E+00
  0.00000000E+00  0.00000000E+00  0.00000000E+00
  0.00000000E+00  0.00000000E+00  0.00000000E+00
  0.00000000E+00  0.00000000E+00  0.00000000E+00
  0.00000000E+00  0.00000000E+00  0.00000000E+00
  0.00000000E+00  0.00000000E+00  0.00000000E+00
  0.00000000E+00  0.00000000E+00  0.00000000E+00
  0.00000000E+00  0.00000000E+00  0.00000000E+00
  0.00000000E+00  0.00000000E+00  0.00000000E+00
  0.00000000E+00  0.00000000E+00  0.00000000E+00
  0.00000000E+00  0.00000000E+00  0.00000000E+00
  0.00000000E+00  0.00000000E+00  0.00000000E+00
  0.00000000E+00  0.00000000E+00  0.00000000E+00
  0.00000000E+00  0.00000000E+00  0.00000000E+00
  0.00000000E+00  0.00000000E+00  0.00000000E+00
  0.00000000E+00  0.00000000E+00  0.00000000E+00
  0.00000000E+00  0.00000000E+00  0.00000000E+00
  0.00000000E+00  0.00000000E+00  0.00000000E+00
  0.00000000E+00  0.00000000E+00  0.00000000E+00
  0.00000000E+00  0.00000000E+00  0.00000000E+00
  0.00000000E+00  0.00000000E+00  0.00000000E+00
  0.00000000E+00  0.00000000E+00  0.00000000E+00
  0.00000000E+00  0.00000000E+00  0.00000000E+00
  0.00000000E+00  0.00000000E+00  0.00000000E+00
  0.00000000E+00  0.00000000E+00  0.00000000E+00
  0.00000000E+00  0.00000000E+00  0.00000000E+00
  0.00000000E+00  0.00000000E+00  0.00000000E+00
  0.00000000E+00  0.00000000E+00  0.00000000E+00
  0.00000000E+00  0.00000000E+00  0.00000000E+00
  0.00000000E+00  0.00000000E+00  0.00000000E+00
  0.00000000E+00  0.00000000E+00  0.00000000E+00
  0.00000000E+00  0.00000000E+00  0.00000000E+00
  0.00000000E+00  0.00000000E+00  0.00000000E+00
  0.00000000E+00  0.00000000E+00  0.00000000E+00
  0.00000000E+00  0.00000000E+00  0.00000000E+00
  0.00000000E+00  0.00000000E+00  0.00000000E+00
  0.00000000E+00  0.00000000E+00  0.00000000E+00
  0.00000000E+00  0.00000000E+00  0.00000000E+00
  0.00000000E+00  0.00000000E+00  0.00000000E+00
  0.00000000E+00  0.00000000E+00  0.00000000E+00
  0.00000000E+00  0.00000000E+00  0.00000000E+00
  0.00000000E+00  0.00000000E+00  0.00000000E+00
  0.00000000E+00  0.00000000E+00  0.00000000E+00
  0.00000000E+00  0.00000000E+00  0.00000000E+00
  0.00000000E+00  0.00000000E+00  0.00000000E+00
  0.00000000E+00  0.00000000E+00  0.00000000E+00
  0.00000000E+00  0.00000000E+00  0.00000000E+00
