CeO2-you-111-you-Al                     
   1.00000000000000     
     9.8167869533514764   -5.6835245312516198    0.0201492516547379
     0.0000000035196058   11.3670470683470644   -0.0000000023091253
     0.0446673836093700   -0.0000000045035073   20.9248234401578301
   O    Al   Ce
    53     1    26
Selective dynamics
Direct
 -0.0005231742295008  0.0010583113899344  0.9951643437536640   T   T   T
  0.1197956412001633  0.2265643205999011  0.1519743988371816   T   T   T
  0.2078663382613494  0.0793743451517956  0.2978969858628446   T   T   T
  0.1516137820038183  0.2424733910014072  0.3677852384092170   T   T   T
 -0.0061432940241142 -0.0005276121246867  0.2281824732584753   T   T   T
  0.2222061209675799  0.1099657544143565  0.0740390066322855   T   T   T
  0.3339160000465417 -0.0001319141769531  0.9940600180136084   T   T   T
  0.4424134553271016  0.2230925642188921  0.1494987151827060   T   T   T
  0.5542764221694830  0.1072989741078281  0.3074730021887381   T   T   T
  0.4345793585978903  0.2546281335123752  0.3621057976894512   T   T   T
  0.3389475787128061 -0.0017373564992682  0.2281355407826820   T   T   T
  0.5547814022589299  0.1121333873801066  0.0746641535464317   T   T   T
  0.6692968870903860  0.0013149435460842  0.9957713117652913   T   T   T
  0.7732343061227951  0.2248518203241547  0.1514303159564558   T   T   T
  0.8925635158255754  0.1129482579116156  0.3081189798961096   T   T   T
  0.7799197338945008  0.2195523417469974  0.3885416238993898   T   T   T
  0.6683331385967820  0.0008330692976020  0.2307586768589251   T   T   T
  0.8894704100900116  0.1114017050446709  0.0779433077984540   T   T   T
 -0.0005231742287394  0.3317515143802313  0.9951643437532600   T   T   T
  0.1108025266980384  0.5548792168792100  0.1508630686524424   T   T   T
  0.2078663382582839  0.4618249931031783  0.2978969858669931   T   T   T
  0.1120245970018616  0.5587603793520637  0.3885551665069832   T   T   T
 -0.0061432940235844  0.3277173180955111  0.2281824732583902   T   T   T
  0.2222061209668660  0.4455733665528360  0.0740390066325041   T   T   T
  0.3325874038775054  0.3329602019387428  0.9944704065672675   T   T   T
  0.4424134553245685  0.5526548911091295  0.1494987151826897   T   T   T
  0.4345793585988817  0.5132852250926528  0.3621057976898933   T   T   T
  0.3442477616176787  0.3387903808045796  0.2458572988930498   T   T   T
  0.5552263708926413  0.4442791854466536  0.0734393411262051   T   T   T
  0.6683167912446235  0.3336985739810266  0.9944971097053839   T   T   T
  0.7769099612039742  0.5551219806013217  0.1486144004745446   T   T   T
  0.8941842037677762  0.4447206993640425  0.3055013412076412   T   T   T
  0.7692368702712173  0.5512854351373554  0.3815825719522693   T   T   T
  0.6585971389915647  0.3421268048195376  0.2357791435087093   T   T   T
  0.8901267965865440  0.4451399626309384  0.0748158238980027   T   T   T
  0.0013642483803182  0.6673491241903499  0.9943921597057372   T   T   T
  0.1108025266967601  0.8892573098180089  0.1508630686524141   T   T   T
  0.2207142130457377  0.7770241065223702  0.3042798565645100   T   T   T
  0.1120245969997927  0.8865982176479759  0.3885551665070355   T   T   T
 -0.0017242699561964  0.6658048650203507  0.2300406531313772   T   T   T
  0.2224419362990704  0.7778879681492810  0.0748320053088544   T   T   T
  0.3339160000461750  0.6673819142235087  0.9940600180137928   T   T   T
  0.4482685914199959  0.8908012957107705  0.1488226320116879   T   T   T
  0.5542764221661498  0.7803104480623462  0.3074730021886058   T   T   T
  0.4403814225761198  0.8868577112872175  0.3866041338330954   T   T   T
  0.3389475787145873  0.6740189352161867  0.2281355407827950   T   T   T
  0.5547814022582810  0.7759810148779694  0.0746641535467165   T   T   T
  0.6683167912447857  0.6679512172646367  0.9944971097056265   T   T   T
  0.7732343061227863  0.8817154857969990  0.1514303159560674   T   T   T
  0.8941842037649491  0.7827965043992317  0.3055013412079976   T   T   T
  0.7799197338883244  0.8937003921411041  0.3885416238995809   T   T   T
  0.6585971389915778  0.6498033341762585  0.2357791435091478   T   T   T
  0.8901267965866762  0.7783198339558131  0.0748158238979371   T   T   T
  0.3312638289242495  0.3322984144728939  0.3374803442117761   T   T   T
  0.0062811724509475  0.0034629055066649  0.3444894176183383   T   T   T
  0.2217079646239920  0.1097166685047559  0.1916252185559033   T   T   T
  0.1118761201290811  0.2226045600645219  0.0357592144876098   T   T   T
  0.3301345423244580 -0.0005727022760746  0.3433364705902456   T   T   T
  0.5555322509856344  0.1116672338354138  0.1915092615873299   T   T   T
  0.4440615178331562  0.2211358711109204  0.0336932939172786   T   T   T
  0.6674047649531358  0.0003688824768161  0.3479694359503522   T   T   T
  0.8879870899155846  0.1106600449577408  0.1912054051841548   T   T   T
  0.7780878870477881  0.2230231362658000  0.0357035933034084   T   T   T
  0.0062811724475243  0.3361512669421551  0.3444894176185528   T   T   T
  0.2217079646248505  0.4453242961167115  0.1916252185561421   T   T   T
  0.1114077703442443  0.5552721261420882  0.0348689357789268   T   T   T
  0.5524213553386894  0.4428766776675163  0.1853836003312945   T   T   T
  0.4440615178326444  0.5562596467225709  0.0336932939173944   T   T   T
  0.6677170264780649  0.3282434547064492  0.3497873372275282   T   T   T
  0.8875145701114564  0.4450833042461665  0.1917158578200033   T   T   T
  0.7796387411811948  0.5564863705904151  0.0341050392416892   T   T   T
  0.0005678888368028  0.6669509444207442  0.3457195746039554   T   T   T
  0.2228581491061301  0.7780960745539620  0.1890083639862017   T   T   T
  0.1114077703441433  0.8894696442030929  0.0348689357789257   T   T   T
  0.3301345423262462  0.6640412445973253  0.3433364705907720   T   T   T
  0.5555322509887243  0.7771980171499486  0.1915092615871935   T   T   T
  0.4457561679942300  0.8895450839972014  0.0351396155744641   T   T   T
  0.6677170264857395  0.6728065717758399  0.3497873372262265   T   T   T
  0.8875145701146880  0.7757642658697592  0.1917158578198560   T   T   T
  0.7780878870489041  0.8883977507823991  0.0357035933034670   T   T   T
 
  0.00000000E+00  0.00000000E+00  0.00000000E+00
  0.00000000E+00  0.00000000E+00  0.00000000E+00
  0.00000000E+00  0.00000000E+00  0.00000000E+00
  0.00000000E+00  0.00000000E+00  0.00000000E+00
  0.00000000E+00  0.00000000E+00  0.00000000E+00
  0.00000000E+00  0.00000000E+00  0.00000000E+00
  0.00000000E+00  0.00000000E+00  0.00000000E+00
  0.00000000E+00  0.00000000E+00  0.00000000E+00
  0.00000000E+00  0.00000000E+00  0.00000000E+00
  0.00000000E+00  0.00000000E+00  0.00000000E+00
  0.00000000E+00  0.00000000E+00  0.00000000E+00
  0.00000000E+00  0.00000000E+00  0.00000000E+00
  0.00000000E+00  0.00000000E+00  0.00000000E+00
  0.00000000E+00  0.00000000E+00  0.00000000E+00
  0.00000000E+00  0.00000000E+00  0.00000000E+00
  0.00000000E+00  0.00000000E+00  0.00000000E+00
  0.00000000E+00  0.00000000E+00  0.00000000E+00
  0.00000000E+00  0.00000000E+00  0.00000000E+00
  0.00000000E+00  0.00000000E+00  0.00000000E+00
  0.00000000E+00  0.00000000E+00  0.00000000E+00
  0.00000000E+00  0.00000000E+00  0.00000000E+00
  0.00000000E+00  0.00000000E+00  0.00000000E+00
  0.00000000E+00  0.00000000E+00  0.00000000E+00
  0.00000000E+00  0.00000000E+00  0.00000000E+00
  0.00000000E+00  0.00000000E+00  0.00000000E+00
  0.00000000E+00  0.00000000E+00  0.00000000E+00
  0.00000000E+00  0.00000000E+00  0.00000000E+00
  0.00000000E+00  0.00000000E+00  0.00000000E+00
  0.00000000E+00  0.00000000E+00  0.00000000E+00
  0.00000000E+00  0.00000000E+00  0.00000000E+00
  0.00000000E+00  0.00000000E+00  0.00000000E+00
  0.00000000E+00  0.00000000E+00  0.00000000E+00
  0.00000000E+00  0.00000000E+00  0.00000000E+00
  0.00000000E+00  0.00000000E+00  0.00000000E+00
  0.00000000E+00  0.00000000E+00  0.00000000E+00
  0.00000000E+00  0.00000000E+00  0.00000000E+00
  0.00000000E+00  0.00000000E+00  0.00000000E+00
  0.00000000E+00  0.00000000E+00  0.00000000E+00
  0.00000000E+00  0.00000000E+00  0.00000000E+00
  0.00000000E+00  0.00000000E+00  0.00000000E+00
  0.00000000E+00  0.00000000E+00  0.00000000E+00
  0.00000000E+00  0.00000000E+00  0.00000000E+00
  0.00000000E+00  0.00000000E+00  0.00000000E+00
  0.00000000E+00  0.00000000E+00  0.00000000E+00
  0.00000000E+00  0.00000000E+00  0.00000000E+00
  0.00000000E+00  0.00000000E+00  0.00000000E+00
  0.00000000E+00  0.00000000E+00  0.00000000E+00
  0.00000000E+00  0.00000000E+00  0.00000000E+00
  0.00000000E+00  0.00000000E+00  0.00000000E+00
  0.00000000E+00  0.00000000E+00  0.00000000E+00
  0.00000000E+00  0.00000000E+00  0.00000000E+00
  0.00000000E+00  0.00000000E+00  0.00000000E+00
  0.00000000E+00  0.00000000E+00  0.00000000E+00
  0.00000000E+00  0.00000000E+00  0.00000000E+00
  0.00000000E+00  0.00000000E+00  0.00000000E+00
  0.00000000E+00  0.00000000E+00  0.00000000E+00
  0.00000000E+00  0.00000000E+00  0.00000000E+00
  0.00000000E+00  0.00000000E+00  0.00000000E+00
  0.00000000E+00  0.00000000E+00  0.00000000E+00
  0.00000000E+00  0.00000000E+00  0.00000000E+00
  0.00000000E+00  0.00000000E+00  0.00000000E+00
  0.00000000E+00  0.00000000E+00  0.00000000E+00
  0.00000000E+00  0.00000000E+00  0.00000000E+00
  0.00000000E+00  0.00000000E+00  0.00000000E+00
  0.00000000E+00  0.00000000E+00  0.00000000E+00
  0.00000000E+00  0.00000000E+00  0.00000000E+00
  0.00000000E+00  0.00000000E+00  0.00000000E+00
  0.00000000E+00  0.00000000E+00  0.00000000E+00
  0.00000000E+00  0.00000000E+00  0.00000000E+00
  0.00000000E+00  0.00000000E+00  0.00000000E+00
  0.00000000E+00  0.00000000E+00  0.00000000E+00
  0.00000000E+00  0.00000000E+00  0.00000000E+00
  0.00000000E+00  0.00000000E+00  0.00000000E+00
  0.00000000E+00  0.00000000E+00  0.00000000E+00
  0.00000000E+00  0.00000000E+00  0.00000000E+00
  0.00000000E+00  0.00000000E+00  0.00000000E+00
  0.00000000E+00  0.00000000E+00  0.00000000E+00
  0.00000000E+00  0.00000000E+00  0.00000000E+00
  0.00000000E+00  0.00000000E+00  0.00000000E+00
  0.00000000E+00  0.00000000E+00  0.00000000E+00
