CeO2-you-111-you-Hg                     
   1.00000000000000     
     9.8423850000000002   -5.6825039999999998    0.0000000000000000
     0.0000000000000000   11.3650059999999993    0.0000000000000000
     0.0000000000000000    0.0000000000000000   21.0000000000000000
   O    Hg   Ce
    53     1    26
Selective dynamics
Direct
  0.0000916676361350  0.0003299773319012  0.9943491066691449   T   T   T
  0.1065749219577596  0.2212250099117462  0.1486167860470225   T   T   T
  0.2167315214849478  0.1001300429698923  0.3009545474486670   T   T   T
  0.0966702706435604  0.2165147486267517  0.3876729363752384   T   T   T
 -0.0022210576028959 -0.0007674802036612  0.2281194186274899   T   T   T
  0.2229598490903091  0.1125866981806149  0.0737781981179163   T   T   T
  0.3335713096957695  0.0003299773319012  0.9943491066691449   T   T   T
  0.4479830879539827  0.2212250099117462  0.1486167860470225   T   T   T
  0.5572034093829669  0.1110385444292755  0.3040414525061231   T   T   T
  0.4531774779831873  0.2165147486267517  0.3876729363752384   T   T   T
  0.3347865773992379 -0.0007674802036612  0.2281194186274899   T   T   T
  0.5578084803072650  0.1113361449478693  0.0738170378235910   T   T   T
  0.6665816248747518 -0.0001707502504900  0.9933740968441510   T   T   T
  0.7776079854289211  0.2218819708578485  0.1529644163327754   T   T   T
  0.8871691350463090  0.1110385444292755  0.3040414525061231   T   T   T
  0.7762473887696817  0.2191607775393696  0.3851476896993468   T   T   T
  0.6617729077775730 -0.0097881844448471  0.2324381365540504   T   T   T
  0.8868616646406045  0.1113361449478693  0.0738170378235910   T   T   T
  0.0007641595560258  0.3340950538364363  0.9945633677634501   T   T   T
  0.1103490003844076  0.5545777734542585  0.1493465073704317   T   T   T
  0.2380063693425521  0.4557031149273202  0.3110185924906992   T   T   T
  0.1101716231728644  0.5588889296497374  0.3852007521703879   T   T   T
  0.0064680383985068  0.3367391372767579  0.2323324719795681   T   T   T
  0.2235176396400523  0.4447942607495085  0.0748491608746507   T   T   T
  0.3335191712898219  0.3337053425796407  0.9945025250907169   T   T   T
  0.4465954381992743  0.5598588763985570  0.1497991219182848   T   T   T
  0.5510307455847763  0.4557031149273202  0.3110185924906992   T   T   T
  0.3329137589991061  0.3324945179982091  0.2208839993092826   T   T   T
  0.5546106211094640  0.4447942607495085  0.0748491608746507   T   T   T
  0.6666648942804040  0.3340950538364363  0.9945633677634501   T   T   T
  0.7775617730698471  0.5545777734542585  0.1493465073704317   T   T   T
  0.8885869801396056  0.4438399602792107  0.3054735246805271   T   T   T
  0.7820503064768689  0.5588889296497374  0.3852007521703879   T   T   T
  0.6636050988782448  0.3367391372767579  0.2323324719795681   T   T   T
  0.8879795271861759  0.4426250543723513  0.0748352145116630   T   T   T
 -0.0002406029969963  0.6661857940060042  0.9945722326071699   T   T   T
  0.1113093492753931  0.8892856985507830  0.1473070925027481   T   T   T
  0.2192402867470960  0.7797525854482467  0.3033243105638015   T   T   T
  0.1113510753010941  0.8893691506021849  0.3862097268670692   T   T   T
  0.0002511778478492  0.6671693556956949  0.2285467269200827   T   T   T
  0.2223984143421668  0.7777419929545420  0.0734463970878535   T   T   T
  0.3330182537976490  0.6661358543591999  0.9942911892700326   T   T   T
  0.4457729164685449  0.8893725046908721  0.1481587400375931   T   T   T
  0.5447047655928126  0.7560755311856174  0.3135610791676610   T   T   T
  0.4424639927835628  0.8893191613417054  0.3834181573844791   T   T   T
  0.3326923632121039  0.6706800665727047  0.2288934589511372   T   T   T
  0.5556571292001806  0.7779802584003528  0.0736677827615825   T   T   T
  0.6664506005615539  0.6661358543591999  0.9942911892700326   T   T   T
  0.7769325882223230  0.8893725046908721  0.1481587400375931   T   T   T
  0.8938452987011540  0.7797525854482467  0.3033243105638015   T   T   T
  0.7801881685581391  0.8893191613417054  0.3834181573844791   T   T   T
  0.6713207033606041  0.6706800665727047  0.2288934589511372   T   T   T
  0.8886765786123784  0.7777419929545420  0.0734463970878535   T   T   T
  0.3269131488480331  0.3204932976960631  0.3528019194653643   T   T   T
  0.0046422431121080  0.0045043719457271  0.3445004549610598   T   T   T
  0.2229579406202035  0.1125828812404037  0.1889787460350291   T   T   T
  0.1110599545989148  0.2227512848646410  0.0347357582288743   T   T   T
  0.3331951288336222  0.0045043719457271  0.3445004549610598   T   T   T
  0.5547897214446027  0.1104869261957766  0.1901372568190466   T   T   T
  0.4450243302657222  0.2227512848646410  0.0347357582288743   T   T   T
  0.6661637745369589 -0.0010064509260759  0.3455088635007382   T   T   T
  0.8890312047511746  0.1104869261957766  0.1901372568190466   T   T   T
  0.7777682995650724  0.2222025991301510  0.0345821259158374   T   T   T
  0.0006156830408901  0.3318735254779993  0.3457630401573750   T   T   T
  0.2241397421495791  0.4436334928106568  0.1904965608703190   T   T   T
  0.1110082399288446  0.5549551651823772  0.0347171286312453   T   T   T
  0.5528277506610855  0.4436334928106568  0.1904965608703190   T   T   T
  0.4444388402254507  0.5555456804509099  0.0340957890346042   T   T   T
  0.6645918424371030  0.3318735254779993  0.3457630401573750   T   T   T
  0.8894403399083965  0.4455466798167926  0.1909049558422136   T   T   T
  0.7772799252535287  0.5549551651823772  0.0347171286312453   T   T   T
  0.0005649350235598  0.6677968700471164  0.3451732989314154   T   T   T
  0.2215536195772493  0.7788689303808686  0.1869243089158887   T   T   T
  0.1113276383288686  0.8893222766577338  0.0331643792230435   T   T   T
  0.3224686619812689  0.6723717970096974  0.3402411636875783   T   T   T
  0.5552784073001457  0.7772228146002841  0.1883050830223953   T   T   T
  0.4452654753191130  0.8892507540098958  0.0335973475838038   T   T   T
  0.6832361350284316  0.6723717970096974  0.3402411636875783   T   T   T
  0.8906483108036224  0.7788689303808686  0.1869243089158887   T   T   T
  0.7773182786907790  0.8892507540098958  0.0335973475838038   T   T   T
 
  0.00000000E+00  0.00000000E+00  0.00000000E+00
  0.00000000E+00  0.00000000E+00  0.00000000E+00
  0.00000000E+00  0.00000000E+00  0.00000000E+00
  0.00000000E+00  0.00000000E+00  0.00000000E+00
  0.00000000E+00  0.00000000E+00  0.00000000E+00
  0.00000000E+00  0.00000000E+00  0.00000000E+00
  0.00000000E+00  0.00000000E+00  0.00000000E+00
  0.00000000E+00  0.00000000E+00  0.00000000E+00
  0.00000000E+00  0.00000000E+00  0.00000000E+00
  0.00000000E+00  0.00000000E+00  0.00000000E+00
  0.00000000E+00  0.00000000E+00  0.00000000E+00
  0.00000000E+00  0.00000000E+00  0.00000000E+00
  0.00000000E+00  0.00000000E+00  0.00000000E+00
  0.00000000E+00  0.00000000E+00  0.00000000E+00
  0.00000000E+00  0.00000000E+00  0.00000000E+00
  0.00000000E+00  0.00000000E+00  0.00000000E+00
  0.00000000E+00  0.00000000E+00  0.00000000E+00
  0.00000000E+00  0.00000000E+00  0.00000000E+00
  0.00000000E+00  0.00000000E+00  0.00000000E+00
  0.00000000E+00  0.00000000E+00  0.00000000E+00
  0.00000000E+00  0.00000000E+00  0.00000000E+00
  0.00000000E+00  0.00000000E+00  0.00000000E+00
  0.00000000E+00  0.00000000E+00  0.00000000E+00
  0.00000000E+00  0.00000000E+00  0.00000000E+00
  0.00000000E+00  0.00000000E+00  0.00000000E+00
  0.00000000E+00  0.00000000E+00  0.00000000E+00
  0.00000000E+00  0.00000000E+00  0.00000000E+00
  0.00000000E+00  0.00000000E+00  0.00000000E+00
  0.00000000E+00  0.00000000E+00  0.00000000E+00
  0.00000000E+00  0.00000000E+00  0.00000000E+00
  0.00000000E+00  0.00000000E+00  0.00000000E+00
  0.00000000E+00  0.00000000E+00  0.00000000E+00
  0.00000000E+00  0.00000000E+00  0.00000000E+00
  0.00000000E+00  0.00000000E+00  0.00000000E+00
  0.00000000E+00  0.00000000E+00  0.00000000E+00
  0.00000000E+00  0.00000000E+00  0.00000000E+00
  0.00000000E+00  0.00000000E+00  0.00000000E+00
  0.00000000E+00  0.00000000E+00  0.00000000E+00
  0.00000000E+00  0.00000000E+00  0.00000000E+00
  0.00000000E+00  0.00000000E+00  0.00000000E+00
  0.00000000E+00  0.00000000E+00  0.00000000E+00
  0.00000000E+00  0.00000000E+00  0.00000000E+00
  0.00000000E+00  0.00000000E+00  0.00000000E+00
  0.00000000E+00  0.00000000E+00  0.00000000E+00
  0.00000000E+00  0.00000000E+00  0.00000000E+00
  0.00000000E+00  0.00000000E+00  0.00000000E+00
  0.00000000E+00  0.00000000E+00  0.00000000E+00
  0.00000000E+00  0.00000000E+00  0.00000000E+00
  0.00000000E+00  0.00000000E+00  0.00000000E+00
  0.00000000E+00  0.00000000E+00  0.00000000E+00
  0.00000000E+00  0.00000000E+00  0.00000000E+00
  0.00000000E+00  0.00000000E+00  0.00000000E+00
  0.00000000E+00  0.00000000E+00  0.00000000E+00
  0.00000000E+00  0.00000000E+00  0.00000000E+00
  0.00000000E+00  0.00000000E+00  0.00000000E+00
  0.00000000E+00  0.00000000E+00  0.00000000E+00
  0.00000000E+00  0.00000000E+00  0.00000000E+00
  0.00000000E+00  0.00000000E+00  0.00000000E+00
  0.00000000E+00  0.00000000E+00  0.00000000E+00
  0.00000000E+00  0.00000000E+00  0.00000000E+00
  0.00000000E+00  0.00000000E+00  0.00000000E+00
  0.00000000E+00  0.00000000E+00  0.00000000E+00
  0.00000000E+00  0.00000000E+00  0.00000000E+00
  0.00000000E+00  0.00000000E+00  0.00000000E+00
  0.00000000E+00  0.00000000E+00  0.00000000E+00
  0.00000000E+00  0.00000000E+00  0.00000000E+00
  0.00000000E+00  0.00000000E+00  0.00000000E+00
  0.00000000E+00  0.00000000E+00  0.00000000E+00
  0.00000000E+00  0.00000000E+00  0.00000000E+00
  0.00000000E+00  0.00000000E+00  0.00000000E+00
  0.00000000E+00  0.00000000E+00  0.00000000E+00
  0.00000000E+00  0.00000000E+00  0.00000000E+00
  0.00000000E+00  0.00000000E+00  0.00000000E+00
  0.00000000E+00  0.00000000E+00  0.00000000E+00
  0.00000000E+00  0.00000000E+00  0.00000000E+00
  0.00000000E+00  0.00000000E+00  0.00000000E+00
  0.00000000E+00  0.00000000E+00  0.00000000E+00
  0.00000000E+00  0.00000000E+00  0.00000000E+00
  0.00000000E+00  0.00000000E+00  0.00000000E+00
  0.00000000E+00  0.00000000E+00  0.00000000E+00
