CeO2-you-111-you-Pb                     
   1.00000000000000     
     9.8384165263087944   -5.7164072728305086    0.0037081973281239
     0.0000000012027571   11.4328125356694574   -0.0000000004257709
     0.0075790041653975   -0.0000000007135320   20.8696912856661605
   O    Pb   Ce   H 
    53     1    26     1
Selective dynamics
Direct
  0.9987764002610696  0.0015336570150366  0.9939570196149236   T   T   T
  0.1151855323247069  0.2244551299743912  0.1495520415003165   T   T   T
  0.2250274041551075  0.1054316314611272  0.3056555888262341   T   T   T
  0.0975864255737831  0.2159174207484372  0.3884713147413656   T   T   T
  0.0021020764842761  0.0024199180829518  0.2282909293517018   T   T   T
  0.2215168978470062  0.1102527593513499  0.0725829981699234   T   T   T
  0.3328552956950281  0.9996826347372822  0.9926380907102300   T   T   T
  0.4441927188315725  0.2195026735464666  0.1455925585816840   T   T   T
  0.5496395646028253  0.1066536182629909  0.3047148112559924   T   T   T
  0.4524927553413945  0.1899286223292521  0.4100171776177913   T   T   T
  0.3323144901943155 -0.0022292058654001  0.2277395799704589   T   T   T
  0.5558740696403892  0.1100709136945755  0.0725561180162012   T   T   T
  0.6677410582556773  0.0006376091926284  0.9928500348515560   T   T   T
  0.7752807293493531  0.2272446682704244  0.1506743016551571   T   T   T
  0.8896543949086257  0.1105225267529138  0.3030148270868193   T   T   T
  0.7839158322881993  0.2174223796289397  0.3868279162539982   T   T   T
  0.6674308569029108  0.0043278798407981  0.2272764987073674   T   T   T
  0.8862019254756034  0.1096376733549435  0.0759200706187484   T   T   T
  0.9985804955156408  0.3312053175233091  0.9945468456800227   T   T   T
  0.1097889573060602  0.5553164327390546  0.1495983888185420   T   T   T
  0.2220777046413892  0.4470606259213777  0.3045003321180809   T   T   T
  0.1112345867200272  0.5583725305270023  0.3858561566110872   T   T   T
  0.0005246028645162  0.3327674158025935  0.2283055698742561   T   T   T
  0.2218612308077791  0.4454511294427349  0.0730852483621939   T   T   T
  0.3312235013659293  0.3326966334739587  0.9928292410966307   T   T   T
  0.4462788121917042  0.5591584595147965  0.1453935532126450   T   T   T
  0.4645778118980300  0.5864184112707360  0.3865800922257260   T   T   T
  0.3462030284860890  0.3399478369066097  0.2281247708560148   T   T   T
  0.5554774209817990  0.4436990749890459  0.0701791546862162   T   T   T
  0.6668720808066075  0.3325862833373251  0.9924485780920674   T   T   T
  0.7798022731263596  0.5582535269180164  0.1462019506422936   T   T   T
  0.8944939148489409  0.4457223070454695  0.3044245109659806   T   T   T
  0.7672615340445800  0.5611201216562538  0.3795269477980220   T   T   T
  0.6566460938132106  0.3426942115399954  0.2334689252657639   T   T   T
  0.8887092375130895  0.4449001105581731  0.0729182350136706   T   T   T
  0.0002139695062734  0.6669523089368116  0.9927479123977221   T   T   T
  0.1097122032076231  0.8880964293058738  0.1489807933122609   T   T   T
  0.2205530945347758  0.7743410367462158  0.3029421191887374   T   T   T
  0.1108653000059960  0.8832428443800356  0.3855749138694072   T   T   T
  0.9974503246001799  0.6670990606756046  0.2293306425549646   T   T   T
  0.2219956014538004  0.7775434893773399  0.0729292024305085   T   T   T
  0.3330293466003161  0.6665087293653743  0.9926247958803456   T   T   T
  0.4449212599983381  0.8883766886861697  0.1484931592352716   T   T   T
  0.5619976658980909  0.7884717193102596  0.3017072369830130   T   T   T
  0.4424642296651606  0.8852658023599016  0.3847879320404328   T   T   T
  0.3351290517672212  0.6665594718202107  0.2283828313929052   T   T   T
  0.5565520117928919  0.7794620786355942  0.0720605975623255   T   T   T
  0.6666086431845936  0.6673754833385084  0.9924087688634560   T   T   T
  0.7748331158868620  0.8820529067417787  0.1513939028736776   T   T   T
  0.8925623091275009  0.7858533826168860  0.3040280626961285   T   T   T
  0.7818660676556113  0.8965592674483561  0.3870962382311803   T   T   T
  0.6557882446844676  0.6456293296617529  0.2361794229720225   T   T   T
  0.8891621733220255  0.7789706598807654  0.0721488662066642   T   T   T
  0.3217876401588715  0.3318206581642028  0.3522455800794338   T   T   T
  0.0046149723050409  0.0046743761419825  0.3442602056805075   T   T   T
  0.2244177681460698  0.1127813362313404  0.1902705366916213   T   T   T
  0.1111406807616209  0.2224001689814289  0.0343027065669408   T   T   T
  0.3280616091888234  0.9886499803347177  0.3440262409375360   T   T   T
  0.5543218373817957  0.1122793786979308  0.1898372588615673   T   T   T
  0.4433443065402141  0.2199581157282713  0.0312706886807848   T   T   T
  0.6677323043161462  0.0034028159439756  0.3438278216282326   T   T   T
  0.8894757768840889  0.1122983540580032  0.1895764369773413   T   T   T
  0.7772139732751817  0.2223885867145608  0.0339171134390419   T   T   T
  0.0026754254816030  0.3346332248771488  0.3447044023297412   T   T   T
  0.2245334502069030  0.4447518003912316  0.1899144791503664   T   T   T
  0.1104293803083757  0.5548652987063956  0.0339938571729657   T   T   T
  0.5543616434195320  0.4438694158520367  0.1805698056896403   T   T   T
  0.4434301028051069  0.5566365442059465  0.0311901450083436   T   T   T
  0.6732980765317170  0.3281423920004164  0.3515324772285739   T   T   T
  0.8873205982598427  0.4452078868891461  0.1903564247435588   T   T   T
  0.7798193267332212  0.5567618496109797  0.0314450473320231   T   T   T
 -0.0013272605137191  0.6656650032281040  0.3440241745077027   T   T   T
  0.2220813073759884  0.7772265979621896  0.1877821342449644   T   T   T
  0.1106478890688637  0.8894456652566255  0.0337392839594159   T   T   T
  0.3356494476276388  0.6671795313217604  0.3449788631662092   T   T   T
  0.5547661502219190  0.7775241066614382  0.1890370021371819   T   T   T
  0.4454295991897234  0.8893617466190191  0.0331203145394629   T   T   T
  0.6739747036500683  0.6860973488168514  0.3487676879101447   T   T   T
  0.8884608240077072  0.7771859762086298  0.1899397703853114   T   T   T
  0.7775555284504507  0.8888978218749914  0.0333479926132070   T   T   T
  0.4307186102618721  0.1983263896876816  0.4542177707975851   T   T   T
 
  0.00000000E+00  0.00000000E+00  0.00000000E+00
  0.00000000E+00  0.00000000E+00  0.00000000E+00
  0.00000000E+00  0.00000000E+00  0.00000000E+00
  0.00000000E+00  0.00000000E+00  0.00000000E+00
  0.00000000E+00  0.00000000E+00  0.00000000E+00
  0.00000000E+00  0.00000000E+00  0.00000000E+00
  0.00000000E+00  0.00000000E+00  0.00000000E+00
  0.00000000E+00  0.00000000E+00  0.00000000E+00
  0.00000000E+00  0.00000000E+00  0.00000000E+00
  0.00000000E+00  0.00000000E+00  0.00000000E+00
  0.00000000E+00  0.00000000E+00  0.00000000E+00
  0.00000000E+00  0.00000000E+00  0.00000000E+00
  0.00000000E+00  0.00000000E+00  0.00000000E+00
  0.00000000E+00  0.00000000E+00  0.00000000E+00
  0.00000000E+00  0.00000000E+00  0.00000000E+00
  0.00000000E+00  0.00000000E+00  0.00000000E+00
  0.00000000E+00  0.00000000E+00  0.00000000E+00
  0.00000000E+00  0.00000000E+00  0.00000000E+00
  0.00000000E+00  0.00000000E+00  0.00000000E+00
  0.00000000E+00  0.00000000E+00  0.00000000E+00
  0.00000000E+00  0.00000000E+00  0.00000000E+00
  0.00000000E+00  0.00000000E+00  0.00000000E+00
  0.00000000E+00  0.00000000E+00  0.00000000E+00
  0.00000000E+00  0.00000000E+00  0.00000000E+00
  0.00000000E+00  0.00000000E+00  0.00000000E+00
  0.00000000E+00  0.00000000E+00  0.00000000E+00
  0.00000000E+00  0.00000000E+00  0.00000000E+00
  0.00000000E+00  0.00000000E+00  0.00000000E+00
  0.00000000E+00  0.00000000E+00  0.00000000E+00
  0.00000000E+00  0.00000000E+00  0.00000000E+00
  0.00000000E+00  0.00000000E+00  0.00000000E+00
  0.00000000E+00  0.00000000E+00  0.00000000E+00
  0.00000000E+00  0.00000000E+00  0.00000000E+00
  0.00000000E+00  0.00000000E+00  0.00000000E+00
  0.00000000E+00  0.00000000E+00  0.00000000E+00
  0.00000000E+00  0.00000000E+00  0.00000000E+00
  0.00000000E+00  0.00000000E+00  0.00000000E+00
  0.00000000E+00  0.00000000E+00  0.00000000E+00
  0.00000000E+00  0.00000000E+00  0.00000000E+00
  0.00000000E+00  0.00000000E+00  0.00000000E+00
  0.00000000E+00  0.00000000E+00  0.00000000E+00
  0.00000000E+00  0.00000000E+00  0.00000000E+00
  0.00000000E+00  0.00000000E+00  0.00000000E+00
  0.00000000E+00  0.00000000E+00  0.00000000E+00
  0.00000000E+00  0.00000000E+00  0.00000000E+00
  0.00000000E+00  0.00000000E+00  0.00000000E+00
  0.00000000E+00  0.00000000E+00  0.00000000E+00
  0.00000000E+00  0.00000000E+00  0.00000000E+00
  0.00000000E+00  0.00000000E+00  0.00000000E+00
  0.00000000E+00  0.00000000E+00  0.00000000E+00
  0.00000000E+00  0.00000000E+00  0.00000000E+00
  0.00000000E+00  0.00000000E+00  0.00000000E+00
  0.00000000E+00  0.00000000E+00  0.00000000E+00
  0.00000000E+00  0.00000000E+00  0.00000000E+00
  0.00000000E+00  0.00000000E+00  0.00000000E+00
  0.00000000E+00  0.00000000E+00  0.00000000E+00
  0.00000000E+00  0.00000000E+00  0.00000000E+00
  0.00000000E+00  0.00000000E+00  0.00000000E+00
  0.00000000E+00  0.00000000E+00  0.00000000E+00
  0.00000000E+00  0.00000000E+00  0.00000000E+00
  0.00000000E+00  0.00000000E+00  0.00000000E+00
  0.00000000E+00  0.00000000E+00  0.00000000E+00
  0.00000000E+00  0.00000000E+00  0.00000000E+00
  0.00000000E+00  0.00000000E+00  0.00000000E+00
  0.00000000E+00  0.00000000E+00  0.00000000E+00
  0.00000000E+00  0.00000000E+00  0.00000000E+00
  0.00000000E+00  0.00000000E+00  0.00000000E+00
  0.00000000E+00  0.00000000E+00  0.00000000E+00
  0.00000000E+00  0.00000000E+00  0.00000000E+00
  0.00000000E+00  0.00000000E+00  0.00000000E+00
  0.00000000E+00  0.00000000E+00  0.00000000E+00
  0.00000000E+00  0.00000000E+00  0.00000000E+00
  0.00000000E+00  0.00000000E+00  0.00000000E+00
  0.00000000E+00  0.00000000E+00  0.00000000E+00
  0.00000000E+00  0.00000000E+00  0.00000000E+00
  0.00000000E+00  0.00000000E+00  0.00000000E+00
  0.00000000E+00  0.00000000E+00  0.00000000E+00
  0.00000000E+00  0.00000000E+00  0.00000000E+00
  0.00000000E+00  0.00000000E+00  0.00000000E+00
  0.00000000E+00  0.00000000E+00  0.00000000E+00
  0.00000000E+00  0.00000000E+00  0.00000000E+00
