CeO2-you-111-you-Y                      
   1.00000000000000     
     9.8423285068543471   -5.6824713837050949    0.0000000000000000
     0.0000000000781951   11.3649407675571066    0.0000000000000000
     0.0000000000000000    0.0000000000000000   21.2959993005800960
   O    Y    Ce   H 
    54     1    26     1
Selective dynamics
Direct
 -0.0000045005816962  0.0000241669230281  0.9976789455834996   T   T   T
  0.1109851103620159  0.2221590551810309  0.1501324082139277   F   F   F
  0.2299054621985908  0.1126256307313596  0.3043253629072229   T   T   T
  0.1079124572164759  0.2199209882358203  0.3805047778489852   T   T   T
  0.0011575318274355  0.0006248971153567  0.2296783236416787   T   T   T
  0.2222397391459623  0.1111464782919143  0.0762748438666918   F   F   F
  0.3332267858262980  0.0001488687206169  0.9976156733818335   T   T   T
  0.4445069448190111  0.2221590551810522  0.1501324082139277   F   F   F
  0.5507535178629849  0.1154842846857595  0.3049539945914396   T   T   T
  0.4421164524820971  0.2237991249663621  0.3971758444594614   T   T   T
  0.3328687136678995 -0.0021668245642921  0.2287601129861110   T   T   T
  0.5555589703483719  0.1111080296516249  0.0762528560833573   F   F   F
  0.6667254657819198 -0.0000688841376511  0.9975340568252827   T   T   T
  0.7777266908726332  0.2221193817452800  0.1500891702794789   F   F   F
  0.8878508520390864  0.1105165177889676  0.3028603139417870   T   T   T
  0.7771203397659416  0.2232038852690738  0.3813122052706197   T   T   T
  0.6657048788814003  0.0018436263985848  0.2296435198861234   T   T   T
  0.8888830593032537  0.1111080296516249  0.0762528560833573   F   F   F
  0.9998709286678468  0.3330742237077685  0.9976317457246969   T   T   T
  0.1111497194577780  0.5555172805422544  0.1502155288710014   F   F   F
  0.2216555456812601  0.4451951586856479  0.3027308539321253   T   T   T
  0.1114126742432380  0.5556087866521020  0.3825715798425399   T   T   T
  0.9994274718614812  0.3324207931864335  0.2291112318304161   T   T   T
  0.2222397391459552  0.4444262608540370  0.0762748438666918   F   F   F
  0.3333466878960368  0.3331293337086967  0.9975413833709670   T   T   T
  0.4445069448189685  0.5556818896379170  0.1501324082139277   F   F   F
  0.5535399266661705  0.4365304365801159  0.3043365981319417   T   T   T
  0.4471360167338185  0.5590830237698715  0.3803423308311246   T   T   T
  0.3325560791773639  0.3336679022037122  0.2286754419649933   T   T   T
  0.5555205217080896  0.4444262608540370  0.0762748438666918   F   F   F
  0.6667451746122567  0.3333939837154050  0.9974919852875248   T   T   T
  0.7777005610844654  0.5555172805422472  0.1502155288710014   F   F   F
  0.8911760283761463  0.4457272993069381  0.3029853092958476   T   T   T
  0.7785323353532194  0.5541499965920721  0.3822167350891111   T   T   T
  0.6685601697904792  0.3333224869273847  0.2288142477863822   T   T   T
  0.8888368622959177  0.4443397245918490  0.0763137742584732   F   F   F
 -0.0000244311670958  0.6669848523759582  0.9978668438920417   T   T   T
  0.1111497194577566  0.8889664389155030  0.1502155288710014   F   F   F
  0.2210859268573726  0.7756724928917490  0.3028359710652876   T   T   T
  0.1123792863861850  0.8882060445712505  0.3822735412345833   T   T   T
 -0.0004591175168822  0.6669775484070875  0.2292152160737143   T   T   T
  0.2223262754081929  0.7778301377040790  0.0763137742584732   F   F   F
  0.3333273193178734  0.6666769616420416  0.9975314247856573   T   T   T
  0.4445466182547548  0.8889403091273635  0.1500891702794789   F   F   F
  0.5571248416847174  0.7794548172072088  0.3026890003659722   T   T   T
  0.4435778623284125  0.8888501267317214  0.3813076893918674   T   T   T
  0.3347487692421046  0.6675694635441530  0.2290928770424724   T   T   T
  0.5555589703483719  0.7777839406967431  0.0762528560833573   F   F   F
  0.6668863708562847  0.6670280840905858  0.9976850053728848   T   T   T
  0.7777266908726048  0.8889403091273564  0.1500891702794789   F   F   F
  0.8890467384854560  0.7777113831781818  0.3038873726409740   T   T   T
  0.7767651643279772  0.8897439583596900  0.3818317789701125   T   T   T
  0.6658826756365985  0.6651810880206575  0.2296368147735537   T   T   T
  0.8888368622958893  0.7778301377040648  0.0763137742584732   F   F   F
  0.3294313775719551  0.3371547934857640  0.3382269662906545   T   T   T
  0.0015501363997790  0.0024714542760891  0.3425449002032815   T   T   T
  0.2225212385921438  0.1117094771842275  0.1901431340306630   F   F   F
  0.1112088474369912  0.2222709237184901  0.0371649709478774   F   F   F
  0.3282797053380132 -0.0071110408489682  0.3407860205133018   T   T   T
  0.5555055827462141  0.1111614172537969  0.1894735596066042   F   F   F
  0.4443950762814950  0.2222709237184830  0.0371649709478774   F   F   F
  0.6666972768093865  0.0001131055642038  0.3423400449998407   T   T   T
  0.8889898345075835  0.1111614172537969  0.1894735596066042   F   F   F
  0.7777819559864696  0.2222299119729385  0.0370636564175939   F   F   F
  0.0026338146145773  0.3327499052003992  0.3425913388937954   T   T   T
  0.2225212385922646  0.4441447614079124  0.1901431340306630   F   F   F
  0.1111877101097321  0.5554792898903003  0.0371828301767962   F   F   F
  0.5549575228155987  0.4441447614078555  0.1901431340306630   F   F   F
  0.4443950762815092  0.5554581525630340  0.0371649709478774   F   F   F
  0.6736584241448091  0.3382515470576801  0.3408009202879670   T   T   T
  0.8888620839222057  0.4443901678443893  0.1897434022671831   F   F   F
  0.7776245797805572  0.5554792898902861  0.0371828301767962   F   F   F
  0.0003936130751553  0.6663270800124912  0.3427117532790776   T   T   T
  0.2222758321555602  0.7778049160777911  0.1897434022671831   F   F   F
  0.1111877101097178  0.8890424202194183  0.0371828301767962   F   F   F
  0.3343450171270493  0.6643638861255482  0.3425421699696094   T   T   T
  0.5555055827462070  0.7776771654924062  0.1894735596066042   F   F   F
  0.4444360880270466  0.8888850440135272  0.0370636564175939   F   F   F
  0.6643790881874486  0.6651618113628943  0.3425220283076023   T   T   T
  0.8888620839222412  0.7778049160778053  0.1897434022671831   F   F   F
  0.7777819559864767  0.8888850440135343  0.0370636564175939   F   F   F
  0.4429174506113373  0.2224362190810357  0.4428747723588481   T   T   T
 
  0.00000000E+00  0.00000000E+00  0.00000000E+00
  0.00000000E+00  0.00000000E+00  0.00000000E+00
  0.00000000E+00  0.00000000E+00  0.00000000E+00
  0.00000000E+00  0.00000000E+00  0.00000000E+00
  0.00000000E+00  0.00000000E+00  0.00000000E+00
  0.00000000E+00  0.00000000E+00  0.00000000E+00
  0.00000000E+00  0.00000000E+00  0.00000000E+00
  0.00000000E+00  0.00000000E+00  0.00000000E+00
  0.00000000E+00  0.00000000E+00  0.00000000E+00
  0.00000000E+00  0.00000000E+00  0.00000000E+00
  0.00000000E+00  0.00000000E+00  0.00000000E+00
  0.00000000E+00  0.00000000E+00  0.00000000E+00
  0.00000000E+00  0.00000000E+00  0.00000000E+00
  0.00000000E+00  0.00000000E+00  0.00000000E+00
  0.00000000E+00  0.00000000E+00  0.00000000E+00
  0.00000000E+00  0.00000000E+00  0.00000000E+00
  0.00000000E+00  0.00000000E+00  0.00000000E+00
  0.00000000E+00  0.00000000E+00  0.00000000E+00
  0.00000000E+00  0.00000000E+00  0.00000000E+00
  0.00000000E+00  0.00000000E+00  0.00000000E+00
  0.00000000E+00  0.00000000E+00  0.00000000E+00
  0.00000000E+00  0.00000000E+00  0.00000000E+00
  0.00000000E+00  0.00000000E+00  0.00000000E+00
  0.00000000E+00  0.00000000E+00  0.00000000E+00
  0.00000000E+00  0.00000000E+00  0.00000000E+00
  0.00000000E+00  0.00000000E+00  0.00000000E+00
  0.00000000E+00  0.00000000E+00  0.00000000E+00
  0.00000000E+00  0.00000000E+00  0.00000000E+00
  0.00000000E+00  0.00000000E+00  0.00000000E+00
  0.00000000E+00  0.00000000E+00  0.00000000E+00
  0.00000000E+00  0.00000000E+00  0.00000000E+00
  0.00000000E+00  0.00000000E+00  0.00000000E+00
  0.00000000E+00  0.00000000E+00  0.00000000E+00
  0.00000000E+00  0.00000000E+00  0.00000000E+00
  0.00000000E+00  0.00000000E+00  0.00000000E+00
  0.00000000E+00  0.00000000E+00  0.00000000E+00
  0.00000000E+00  0.00000000E+00  0.00000000E+00
  0.00000000E+00  0.00000000E+00  0.00000000E+00
  0.00000000E+00  0.00000000E+00  0.00000000E+00
  0.00000000E+00  0.00000000E+00  0.00000000E+00
  0.00000000E+00  0.00000000E+00  0.00000000E+00
  0.00000000E+00  0.00000000E+00  0.00000000E+00
  0.00000000E+00  0.00000000E+00  0.00000000E+00
  0.00000000E+00  0.00000000E+00  0.00000000E+00
  0.00000000E+00  0.00000000E+00  0.00000000E+00
  0.00000000E+00  0.00000000E+00  0.00000000E+00
  0.00000000E+00  0.00000000E+00  0.00000000E+00
  0.00000000E+00  0.00000000E+00  0.00000000E+00
  0.00000000E+00  0.00000000E+00  0.00000000E+00
  0.00000000E+00  0.00000000E+00  0.00000000E+00
  0.00000000E+00  0.00000000E+00  0.00000000E+00
  0.00000000E+00  0.00000000E+00  0.00000000E+00
  0.00000000E+00  0.00000000E+00  0.00000000E+00
  0.00000000E+00  0.00000000E+00  0.00000000E+00
  0.00000000E+00  0.00000000E+00  0.00000000E+00
  0.00000000E+00  0.00000000E+00  0.00000000E+00
  0.00000000E+00  0.00000000E+00  0.00000000E+00
  0.00000000E+00  0.00000000E+00  0.00000000E+00
  0.00000000E+00  0.00000000E+00  0.00000000E+00
  0.00000000E+00  0.00000000E+00  0.00000000E+00
  0.00000000E+00  0.00000000E+00  0.00000000E+00
  0.00000000E+00  0.00000000E+00  0.00000000E+00
  0.00000000E+00  0.00000000E+00  0.00000000E+00
  0.00000000E+00  0.00000000E+00  0.00000000E+00
  0.00000000E+00  0.00000000E+00  0.00000000E+00
  0.00000000E+00  0.00000000E+00  0.00000000E+00
  0.00000000E+00  0.00000000E+00  0.00000000E+00
  0.00000000E+00  0.00000000E+00  0.00000000E+00
  0.00000000E+00  0.00000000E+00  0.00000000E+00
  0.00000000E+00  0.00000000E+00  0.00000000E+00
  0.00000000E+00  0.00000000E+00  0.00000000E+00
  0.00000000E+00  0.00000000E+00  0.00000000E+00
  0.00000000E+00  0.00000000E+00  0.00000000E+00
  0.00000000E+00  0.00000000E+00  0.00000000E+00
  0.00000000E+00  0.00000000E+00  0.00000000E+00
  0.00000000E+00  0.00000000E+00  0.00000000E+00
  0.00000000E+00  0.00000000E+00  0.00000000E+00
  0.00000000E+00  0.00000000E+00  0.00000000E+00
  0.00000000E+00  0.00000000E+00  0.00000000E+00
  0.00000000E+00  0.00000000E+00  0.00000000E+00
  0.00000000E+00  0.00000000E+00  0.00000000E+00
  0.00000000E+00  0.00000000E+00  0.00000000E+00
