CeO2-you-111-you-Ru                     
   1.00000000000000     
     9.8077497205313904   -5.6625073079619348    0.0000000009139535
     0.0432451271018966   11.3999153754152047    0.0171910279970044
     0.0183156279305837    0.0317235927439419   21.1593050469403288
   O    Ru   Ce
    53     1    26
Selective dynamics
Direct
 -0.0009708169203371  0.0000949916398811  0.9965919863375812   T   T   T
  0.1063334338598717  0.2199982525670410  0.1480185010621426   T   T   T
  0.2194758219758088  0.1056186439519978  0.2968875808616098   T   T   T
  0.1383649568108699  0.2212103277438921  0.3811866572539181   T   T   T
 -0.0034689416895270 -0.0021029247272374  0.2278379704646211   T   T   T
  0.2218079577858631  0.1102829155716872  0.0741602806129022   T   T   T
  0.3343988085602546  0.0000949916398592  0.9965919863375841   T   T   T
  0.4469978187068704  0.2199982525665424  0.1480185010621169   T   T   T
  0.5554920828330345  0.1191796291833783  0.3048107791803417   T   T   T
  0.4161783709364311  0.2212103277457398  0.3811866572547516   T   T   T
  0.3346990169619263 -0.0021029247278880  0.2278379704646389   T   T   T
  0.5586326360564572  0.1107070377438139  0.0758288773185807   T   T   T
  0.6666424444515811 -0.0000491110967920  0.9953803049811386   T   T   T
  0.7797609670355483  0.2261879340711740  0.1532260946763415   T   T   T
  0.8970215463507952  0.1191796291838511  0.3048107791803352   T   T   T
  0.7796603338583378  0.2259866677165644  0.3828435206798680   T   T   T
  0.6678087128460257  0.0022834256921688  0.2319249035634944   T   T   T
  0.8854084016873823  0.1107070377439963  0.0758288773185747   T   T   T
  0.0010293410509739  0.3332706241586720  0.9963304520940480   T   T   T
  0.1098675363888623  0.5545274003237936  0.1488950568267881   T   T   T
  0.2557630599194796  0.4387525226451860  0.3141663092112247   T   T   T
  0.0988928622319956  0.5441210982996512  0.3819790858299074   T   T   T
  0.0130719458425888  0.3406962795417095  0.2327216000811962   T   T   T
  0.2234463225398290  0.4441323801457124  0.0757923766914110   T   T   T
  0.3332109610969148  0.3330889221939083  0.9961455669825098   T   T   T
  0.4471291977466235  0.5609263954935438  0.1494174721209082   T   T   T
  0.5163234627236553  0.4387525226478109  0.3141663092124799   T   T   T
  0.3310974273091118  0.3288618546187706  0.2197580602714990   T   T   T
  0.5540200576056431  0.4441323801455467  0.0757923766914124   T   T   T
  0.6655752831074776  0.3332706241585522  0.9963304520940471   T   T   T
  0.7779928639349419  0.5545274003235480  0.1488950568267932   T   T   T
  0.8863272962756558  0.4393205925506223  0.3016732268902174   T   T   T
  0.7785612360677264  0.5441210983006378  0.3819790858297358   T   T   T
  0.6609583336992443  0.3406962795416637  0.2327216000811880   T   T   T
  0.8880869398930353  0.4428398797861303  0.0749285107346655   T   T   T
  0.0004069011500688  0.6674808022999121  0.9966969659340649   T   T   T
  0.1100390357807640  0.8867450715611109  0.1485846067017652   T   T   T
  0.2183297710162186  0.7791230568683836  0.3030531803912349   T   T   T
  0.1105116693654442  0.8876903387312193  0.3831114824716995   T   T   T
 -0.0010495132973586  0.6645679734047210  0.2286160593546412   T   T   T
  0.2237265560469700  0.7777741506421235  0.0754023206094567   T   T   T
  0.3329144974470896  0.6659084471535784  0.9961312385021222   T   T   T
  0.4472348025247348  0.8896436560684472  0.1509442592685526   T   T   T
  0.5566588470636077  0.7799836941306875  0.3067489526385476   T   T   T
  0.4494259540687979  0.9050405607805075  0.3848541131539319   T   T   T
  0.3292778258454374  0.6626370248263249  0.2288740857978842   T   T   T
  0.5558897848746205  0.7784455697492821  0.0751902680829544   T   T   T
  0.6663269497066006  0.6659084471535202  0.9961312385021222   T   T   T
  0.7757418535441011  0.8896436560688331  0.1509442592685369   T   T   T
  0.8941262858544243  0.7791230568700012  0.3030531803912585   T   T   T
  0.7889476067144117  0.9050405607812532  0.3848541131539661   T   T   T
  0.6666921989807556  0.6626370248267265  0.2288740857978404   T   T   T
  0.8873805945952177  0.7777741506421216  0.0754023206094653   T   T   T
  0.3228958977570346  0.3124587955207356  0.3408303405406303   T   T   T
  0.0035582438438971 -0.0003312703654455  0.3423782854980222   T   T   T
  0.2212381670816467  0.1091433341631812  0.1868169297127834   T   T   T
  0.1105029779045241  0.2221412492055514  0.0355178919942138   T   T   T
  0.3294434857935254 -0.0003312703635375  0.3423782854980632   T   T   T
  0.5552922101058041  0.1119004659075530  0.1904770864482108   T   T   T
  0.4449712713010278  0.2221412492056848  0.0355178919942374   T   T   T
  0.6687080288298500  0.0040820576623279  0.3451058198386210   T   T   T
  0.8899422558009376  0.1119004659063625  0.1904770864483067   T   T   T
  0.7778744301428706  0.2224148602855403  0.0360615271461167   T   T   T
  0.0041395068878610  0.3340620984048517  0.3432201122290020   T   T   T
  0.2258727485298744  0.4438845701057586  0.1884157956005073   T   T   T
  0.1115596888828506  0.5555940668454731  0.0362472087648809   T   T   T
  0.5513458215769871  0.4438845701067643  0.1884157956007109   T   T   T
  0.4449399860442788  0.5565479720884526  0.0353976464489294   T   T   T
  0.6632565915167039  0.3340620984037690  0.3432201122293332   T   T   T
  0.8896483379302335  0.4459626758604853  0.1901636051199813   T   T   T
  0.7773673779628618  0.5555940668457394  0.0362472087648741   T   T   T
 -0.0021917894295847  0.6622834211428341  0.3419566433676369   T   T   T
  0.2224614947867776  0.7767716768300224  0.1886109444766713   T   T   T
  0.1109704073818200  0.8886078147636410  0.0354680179958313   T   T   T
  0.3300058388065001  0.6739133179045503  0.3431349197782434   T   T   T
  0.5559033613473499  0.7784727226946845  0.1922276195629707   T   T   T
  0.4460808045092181  0.8894536972505440  0.0362564014884446   T   T   T
  0.6772404790983194  0.6739133179004391  0.3431349197771549   T   T   T
  0.8876431820424644  0.7767716768294467  0.1886109444766998   T   T   T
  0.7767058927415109  0.8894536972507047  0.0362564014884114   T   T   T
 
  0.00000000E+00  0.00000000E+00  0.00000000E+00
  0.00000000E+00  0.00000000E+00  0.00000000E+00
  0.00000000E+00  0.00000000E+00  0.00000000E+00
  0.00000000E+00  0.00000000E+00  0.00000000E+00
  0.00000000E+00  0.00000000E+00  0.00000000E+00
  0.00000000E+00  0.00000000E+00  0.00000000E+00
  0.00000000E+00  0.00000000E+00  0.00000000E+00
  0.00000000E+00  0.00000000E+00  0.00000000E+00
  0.00000000E+00  0.00000000E+00  0.00000000E+00
  0.00000000E+00  0.00000000E+00  0.00000000E+00
  0.00000000E+00  0.00000000E+00  0.00000000E+00
  0.00000000E+00  0.00000000E+00  0.00000000E+00
  0.00000000E+00  0.00000000E+00  0.00000000E+00
  0.00000000E+00  0.00000000E+00  0.00000000E+00
  0.00000000E+00  0.00000000E+00  0.00000000E+00
  0.00000000E+00  0.00000000E+00  0.00000000E+00
  0.00000000E+00  0.00000000E+00  0.00000000E+00
  0.00000000E+00  0.00000000E+00  0.00000000E+00
  0.00000000E+00  0.00000000E+00  0.00000000E+00
  0.00000000E+00  0.00000000E+00  0.00000000E+00
  0.00000000E+00  0.00000000E+00  0.00000000E+00
  0.00000000E+00  0.00000000E+00  0.00000000E+00
  0.00000000E+00  0.00000000E+00  0.00000000E+00
  0.00000000E+00  0.00000000E+00  0.00000000E+00
  0.00000000E+00  0.00000000E+00  0.00000000E+00
  0.00000000E+00  0.00000000E+00  0.00000000E+00
  0.00000000E+00  0.00000000E+00  0.00000000E+00
  0.00000000E+00  0.00000000E+00  0.00000000E+00
  0.00000000E+00  0.00000000E+00  0.00000000E+00
  0.00000000E+00  0.00000000E+00  0.00000000E+00
  0.00000000E+00  0.00000000E+00  0.00000000E+00
  0.00000000E+00  0.00000000E+00  0.00000000E+00
  0.00000000E+00  0.00000000E+00  0.00000000E+00
  0.00000000E+00  0.00000000E+00  0.00000000E+00
  0.00000000E+00  0.00000000E+00  0.00000000E+00
  0.00000000E+00  0.00000000E+00  0.00000000E+00
  0.00000000E+00  0.00000000E+00  0.00000000E+00
  0.00000000E+00  0.00000000E+00  0.00000000E+00
  0.00000000E+00  0.00000000E+00  0.00000000E+00
  0.00000000E+00  0.00000000E+00  0.00000000E+00
  0.00000000E+00  0.00000000E+00  0.00000000E+00
  0.00000000E+00  0.00000000E+00  0.00000000E+00
  0.00000000E+00  0.00000000E+00  0.00000000E+00
  0.00000000E+00  0.00000000E+00  0.00000000E+00
  0.00000000E+00  0.00000000E+00  0.00000000E+00
  0.00000000E+00  0.00000000E+00  0.00000000E+00
  0.00000000E+00  0.00000000E+00  0.00000000E+00
  0.00000000E+00  0.00000000E+00  0.00000000E+00
  0.00000000E+00  0.00000000E+00  0.00000000E+00
  0.00000000E+00  0.00000000E+00  0.00000000E+00
  0.00000000E+00  0.00000000E+00  0.00000000E+00
  0.00000000E+00  0.00000000E+00  0.00000000E+00
  0.00000000E+00  0.00000000E+00  0.00000000E+00
  0.00000000E+00  0.00000000E+00  0.00000000E+00
  0.00000000E+00  0.00000000E+00  0.00000000E+00
  0.00000000E+00  0.00000000E+00  0.00000000E+00
  0.00000000E+00  0.00000000E+00  0.00000000E+00
  0.00000000E+00  0.00000000E+00  0.00000000E+00
  0.00000000E+00  0.00000000E+00  0.00000000E+00
  0.00000000E+00  0.00000000E+00  0.00000000E+00
  0.00000000E+00  0.00000000E+00  0.00000000E+00
  0.00000000E+00  0.00000000E+00  0.00000000E+00
  0.00000000E+00  0.00000000E+00  0.00000000E+00
  0.00000000E+00  0.00000000E+00  0.00000000E+00
  0.00000000E+00  0.00000000E+00  0.00000000E+00
  0.00000000E+00  0.00000000E+00  0.00000000E+00
  0.00000000E+00  0.00000000E+00  0.00000000E+00
  0.00000000E+00  0.00000000E+00  0.00000000E+00
  0.00000000E+00  0.00000000E+00  0.00000000E+00
  0.00000000E+00  0.00000000E+00  0.00000000E+00
  0.00000000E+00  0.00000000E+00  0.00000000E+00
  0.00000000E+00  0.00000000E+00  0.00000000E+00
  0.00000000E+00  0.00000000E+00  0.00000000E+00
  0.00000000E+00  0.00000000E+00  0.00000000E+00
  0.00000000E+00  0.00000000E+00  0.00000000E+00
  0.00000000E+00  0.00000000E+00  0.00000000E+00
  0.00000000E+00  0.00000000E+00  0.00000000E+00
  0.00000000E+00  0.00000000E+00  0.00000000E+00
  0.00000000E+00  0.00000000E+00  0.00000000E+00
  0.00000000E+00  0.00000000E+00  0.00000000E+00
