CeO2-you-111-you-Mo                     
   1.00000000000000     
     9.9067134145705875   -5.7231419913711017    0.0205265532099032
    -0.0000000067425906   11.4462819568701981   -0.0000000024472249
     0.0461583761300208   -0.0000000048352299   20.8353348744512310
   O    Mo   Ce   H 
    53     1    26     1
Selective dynamics
Direct
 -0.0011780974313405  0.0030852280581783  0.9939536329574185   T   T   T
  0.1117672691920908  0.2186802205303323  0.1469753983384558   T   T   T
  0.2476781699410896  0.1401506050601709  0.3090131333784049   T   T   T
  0.1572972485444420  0.2498540526948807  0.3871011037897218   T   T   T
  0.0097074809374907  0.0047890202960618  0.2296896976240719   T   T   T
  0.2221878337692300  0.1103769010422140  0.0709879131315341   T   T   T
  0.3353263066684886  0.0029363215494787  0.9917355997691703   T   T   T
  0.4415862643748157  0.2243375968047293  0.1464553686572641   T   T   T
  0.5468803324176115  0.1065191697938393  0.3050078591212379   T   T   T
  0.4510859141927376  0.1786833839903871  0.4145049457005143   T   T   T
  0.3267541472252015  0.0027235875843777  0.2280240340752634   T   T   T
  0.5552130087100711  0.1135087921187009  0.0737647150954861   T   T   T
  0.6685274742226285  0.0026151692161354  0.9944647226504088   T   T   T
  0.7717293011875688  0.2242848061449628  0.1537673543196541   T   T   T
  0.8881093674128244  0.1103643039790363  0.3049311091240781   T   T   T
  0.7703437677983769  0.2095318112696523  0.3898362178346932   T   T   T
  0.6623208108076724  0.9956175932515786  0.2314410365086876   T   T   T
  0.8855196339309449  0.1117206255194632  0.0767481036261563   T   T   T
  0.9973812626731496  0.3315115500840410  0.9943012919120677   T   T   T
  0.1058191735658568  0.5616458972619274  0.1457886428194994   T   T   T
  0.2446718673325138  0.4496970873882496  0.3090602883602991   T   T   T
  0.1206992352334305  0.5715573501521134  0.3844002822847248   T   T   T
  0.9977586864958656  0.3347651866606992  0.2294885483509185   T   T   T
  0.2222588387499067  0.4473281117269614  0.0689305519465371   T   T   T
  0.3343729098971476  0.3346871496431427  0.9931834290491444   T   T   T
  0.4517599192924521  0.5608383413076687  0.1451940060709372   T   T   T
  0.4637418338513852  0.4230902475369500  0.3636938465799433   T   T   T
  0.3426987243440235  0.3394569447960702  0.2360852133752738   T   T   T
  0.5586324154642589  0.4465156246162186  0.0701435191076052   T   T   T
  0.6673906223503610  0.3340504154630766  0.9924287323264802   T   T   T
  0.7798999453861397  0.5591814031841489  0.1466339592580814   T   T   T
  0.8883228353264574  0.4486285952140217  0.3047094511842087   T   T   T
  0.7870010619347997  0.5613568473035391  0.3888767247076881   T   T   T
  0.6534180502240062  0.3436986207244803  0.2338150845377658   T   T   T
  0.8864600862997247  0.4435882211992879  0.0726903094121835   T   T   T
  0.0001040830893954  0.6673697297252748  0.9923288600305785   T   T   T
  0.1089519543455926  0.8899874551837550  0.1462636142619893   T   T   T
  0.2203635304908153  0.7820557145607090  0.3006349695884911   T   T   T
  0.1213814483114289  0.8888159200123008  0.3858167117299299   T   T   T
  0.9984469355928438  0.6694187425147160  0.2284668761114464   T   T   T
  0.2230038065532935  0.7818652751648560  0.0711068945172244   T   T   T
  0.3373275565604321  0.6718005447653927  0.9932750343117071   T   T   T
  0.4444854873966514  0.8927263634610061  0.1497046144565781   T   T   T
  0.5423891060600536  0.7666610448857905  0.3105903225054875   T   T   T
  0.4351078430237366  0.8845965066008262  0.3865673635467046   T   T   T
  0.3321704937222739  0.6739718130810768  0.2289619322560511   T   T   T
  0.5574761691045015  0.7829771984409101  0.0748626165369767   T   T   T
  0.6672586438348438  0.6709485980055813  0.9935428375336834   T   T   T
  0.7772418996848202  0.8863043944360863  0.1533864625293636   T   T   T
  0.8905872955358793  0.7807594986338828  0.3045908277611856   T   T   T
  0.7707455925053716  0.8948693846737105  0.3905828128618422   T   T   T
  0.6581713424583439  0.6513747753421085  0.2333727294513665   T   T   T
  0.8894305019326193  0.7801075090101409  0.0719743079987518   T   T   T
  0.2993685608965369  0.3232819646593352  0.3284744708582468   T   T   T
 -0.0015879840672336  0.9986273321116459  0.3492426749600625   T   T   T
  0.2201695925337243  0.1096324212534444  0.1845011696022850   T   T   T
  0.1101781388496221  0.2235696997935525  0.0332146079341386   T   T   T
  0.3313758697566520  0.9947327572533351  0.3467228355480301   T   T   T
  0.5520351266685248  0.1131195248916372  0.1917102942961053   T   T   T
  0.4449403831470014  0.2227069689297726  0.0305622447503654   T   T   T
  0.6673036111867907  0.0003416710371801  0.3467534275202738   T   T   T
  0.8896341851303652  0.1133978710439363  0.1926829804269565   T   T   T
  0.7770484853449217  0.2234642581336435  0.0353205860860747   T   T   T
 -0.0068912425456772  0.3356725128255157  0.3474922732283570   T   T   T
  0.2206618627101133  0.4486247156671432  0.1846581444601665   T   T   T
  0.1101791152664063  0.5565504873018232  0.0328621526393668   T   T   T
  0.5594253517902905  0.4486753275035608  0.1801596503155193   T   T   T
  0.4457077132678965  0.5600499675701116  0.0313401191068137   T   T   T
  0.6673571075079791  0.3291774743244898  0.3551399800896076   T   T   T
  0.8867974410790594  0.4456852346989380  0.1915974312195153   T   T   T
  0.7803619428922660  0.5579011083280486  0.0315489582308345   T   T   T
  0.9958847117954173  0.6666551446055019  0.3447297166781928   T   T   T
  0.2201843082968988  0.7804661222979791  0.1853912615640605   T   T   T
  0.1108171127067822  0.8907652091402226  0.0314803958778714   T   T   T
  0.3250452467518880  0.6818632580747019  0.3401855765128327   T   T   T
  0.5540080623697197  0.7771562647898058  0.1910424363682104   T   T   T
  0.4466786360042654  0.8924597071831131  0.0337951138826981   T   T   T
  0.6783894980349624  0.6762596759347643  0.3505019595634827   T   T   T
  0.8887710786705295  0.7789557000110990  0.1904183322207620   T   T   T
  0.7778744620571217  0.8913877510173984  0.0354454010767023   T   T   T
  0.4115362293708630  0.2124086179533958  0.4455041900076583   T   T   T
 
  0.00000000E+00  0.00000000E+00  0.00000000E+00
  0.00000000E+00  0.00000000E+00  0.00000000E+00
  0.00000000E+00  0.00000000E+00  0.00000000E+00
  0.00000000E+00  0.00000000E+00  0.00000000E+00
  0.00000000E+00  0.00000000E+00  0.00000000E+00
  0.00000000E+00  0.00000000E+00  0.00000000E+00
  0.00000000E+00  0.00000000E+00  0.00000000E+00
  0.00000000E+00  0.00000000E+00  0.00000000E+00
  0.00000000E+00  0.00000000E+00  0.00000000E+00
  0.00000000E+00  0.00000000E+00  0.00000000E+00
  0.00000000E+00  0.00000000E+00  0.00000000E+00
  0.00000000E+00  0.00000000E+00  0.00000000E+00
  0.00000000E+00  0.00000000E+00  0.00000000E+00
  0.00000000E+00  0.00000000E+00  0.00000000E+00
  0.00000000E+00  0.00000000E+00  0.00000000E+00
  0.00000000E+00  0.00000000E+00  0.00000000E+00
  0.00000000E+00  0.00000000E+00  0.00000000E+00
  0.00000000E+00  0.00000000E+00  0.00000000E+00
  0.00000000E+00  0.00000000E+00  0.00000000E+00
  0.00000000E+00  0.00000000E+00  0.00000000E+00
  0.00000000E+00  0.00000000E+00  0.00000000E+00
  0.00000000E+00  0.00000000E+00  0.00000000E+00
  0.00000000E+00  0.00000000E+00  0.00000000E+00
  0.00000000E+00  0.00000000E+00  0.00000000E+00
  0.00000000E+00  0.00000000E+00  0.00000000E+00
  0.00000000E+00  0.00000000E+00  0.00000000E+00
  0.00000000E+00  0.00000000E+00  0.00000000E+00
  0.00000000E+00  0.00000000E+00  0.00000000E+00
  0.00000000E+00  0.00000000E+00  0.00000000E+00
  0.00000000E+00  0.00000000E+00  0.00000000E+00
  0.00000000E+00  0.00000000E+00  0.00000000E+00
  0.00000000E+00  0.00000000E+00  0.00000000E+00
  0.00000000E+00  0.00000000E+00  0.00000000E+00
  0.00000000E+00  0.00000000E+00  0.00000000E+00
  0.00000000E+00  0.00000000E+00  0.00000000E+00
  0.00000000E+00  0.00000000E+00  0.00000000E+00
  0.00000000E+00  0.00000000E+00  0.00000000E+00
  0.00000000E+00  0.00000000E+00  0.00000000E+00
  0.00000000E+00  0.00000000E+00  0.00000000E+00
  0.00000000E+00  0.00000000E+00  0.00000000E+00
  0.00000000E+00  0.00000000E+00  0.00000000E+00
  0.00000000E+00  0.00000000E+00  0.00000000E+00
  0.00000000E+00  0.00000000E+00  0.00000000E+00
  0.00000000E+00  0.00000000E+00  0.00000000E+00
  0.00000000E+00  0.00000000E+00  0.00000000E+00
  0.00000000E+00  0.00000000E+00  0.00000000E+00
  0.00000000E+00  0.00000000E+00  0.00000000E+00
  0.00000000E+00  0.00000000E+00  0.00000000E+00
  0.00000000E+00  0.00000000E+00  0.00000000E+00
  0.00000000E+00  0.00000000E+00  0.00000000E+00
  0.00000000E+00  0.00000000E+00  0.00000000E+00
  0.00000000E+00  0.00000000E+00  0.00000000E+00
  0.00000000E+00  0.00000000E+00  0.00000000E+00
  0.00000000E+00  0.00000000E+00  0.00000000E+00
  0.00000000E+00  0.00000000E+00  0.00000000E+00
  0.00000000E+00  0.00000000E+00  0.00000000E+00
  0.00000000E+00  0.00000000E+00  0.00000000E+00
  0.00000000E+00  0.00000000E+00  0.00000000E+00
  0.00000000E+00  0.00000000E+00  0.00000000E+00
  0.00000000E+00  0.00000000E+00  0.00000000E+00
  0.00000000E+00  0.00000000E+00  0.00000000E+00
  0.00000000E+00  0.00000000E+00  0.00000000E+00
  0.00000000E+00  0.00000000E+00  0.00000000E+00
  0.00000000E+00  0.00000000E+00  0.00000000E+00
  0.00000000E+00  0.00000000E+00  0.00000000E+00
  0.00000000E+00  0.00000000E+00  0.00000000E+00
  0.00000000E+00  0.00000000E+00  0.00000000E+00
  0.00000000E+00  0.00000000E+00  0.00000000E+00
  0.00000000E+00  0.00000000E+00  0.00000000E+00
  0.00000000E+00  0.00000000E+00  0.00000000E+00
  0.00000000E+00  0.00000000E+00  0.00000000E+00
  0.00000000E+00  0.00000000E+00  0.00000000E+00
  0.00000000E+00  0.00000000E+00  0.00000000E+00
  0.00000000E+00  0.00000000E+00  0.00000000E+00
  0.00000000E+00  0.00000000E+00  0.00000000E+00
  0.00000000E+00  0.00000000E+00  0.00000000E+00
  0.00000000E+00  0.00000000E+00  0.00000000E+00
  0.00000000E+00  0.00000000E+00  0.00000000E+00
  0.00000000E+00  0.00000000E+00  0.00000000E+00
  0.00000000E+00  0.00000000E+00  0.00000000E+00
  0.00000000E+00  0.00000000E+00  0.00000000E+00
