CeO2-you-111-you-Ni                     
   1.00000000000000     
     9.8864953867214354   -5.7079711474224455   -0.0000000012273416
    -0.0378154252860952   11.3504420522509726   -0.0235540315798074
    -0.0256574251026684   -0.0444399563412426   20.9875683142953342
   O    Ni   Ce   H 
    53     1    26     2
Selective dynamics
Direct
 -0.0001706932298937  0.9998470680301107  0.9950562640586736   T   T   T
  0.1085986319690591  0.2216697038007283  0.1487949286358230   F   F   F
  0.2396820926757350  0.1324177606652740  0.3090602775758926   T   T   T
  0.0723655468997954  0.2045108859957047  0.3934083580323489   T   T   T
  0.0067483490669865  0.0036065798882494  0.2298388576603023   T   T   T
  0.2223130948561263  0.1112931897122635  0.0745648871451579   F   F   F
  0.3329197392220182  0.9997256546543564  0.9949020214610599   T   T   T
  0.4464040718315445  0.2216697038003588  0.1487949286358798   F   F   F
  0.5482695728038512  0.1070963931373386  0.3045145272900553   T   T   T
  0.4593812672778052  0.1883726956881072  0.4133513546892904   T   T   T
  0.3287460345203134 -0.0001351412622492  0.2287004013913757   T   T   T
  0.5567337956907110  0.1108858280323375  0.0746097953187430   F   F   F
  0.6666650052389210  0.9992204559756543  0.9946139662860334   T   T   T
  0.7774644875875296  0.2215949751753854  0.1530525687454229   F   F   F
  0.8864491672531420  0.1088099166297830  0.3008744081412856   T   T   T
  0.7815765877223567  0.2127599999025171  0.3855675024360202   T   T   T
  0.6608734972356293  0.9923483688409913  0.2313637021884204   T   T   T
  0.8874860323412506  0.1108858280324014  0.0746097953186506   F   F   F
  0.0000030148155503  0.3326005455335333  0.9950731696994444   T   T   T
  0.1093759496610431  0.5551218796645330  0.1496206184174724   F   F   F
  0.2466132010690281  0.4497204378878621  0.3127689819034951   T   T   T
  0.1141356145423123  0.5592007200116901  0.3850732688956258   T   T   T
  0.0085242086245791  0.3378219964676584  0.2317789470170508   T   T   T
  0.2226787828701191  0.4453045733358607  0.0752257117710897   F   F   F
  0.3332029487575490  0.3329582725817582  0.9951634129971115   T   T   T
  0.4458362755525727  0.5583405511062622  0.1490954560477249   F   F   F
  0.5307890863317065  0.4514858474884066  0.3176063438270200   T   T   T
  0.3346302320387855  0.3352357749237684  0.2216324987928391   T   T   T
  0.5559597904652165  0.4453045733356475  0.0752257117710684   F   F   F
  0.6658771481717189  0.3323234301013842  0.9950125219768589   T   T   T
  0.7790789300036067  0.5551218796643127  0.1496206184175364   F   F   F
  0.8938593688071008  0.4474746276716907  0.3055573959910139   T   T   T
  0.7882829466772118  0.5730415158874090  0.3868430627495906   T   T   T
  0.6632091833689845  0.3382494347879546  0.2308930831523146   T   T   T
  0.8880471604112401  0.4427603208221313  0.0751236589484350   F   F   F
  0.9993678106223551  0.6651981827296626  0.9949364284795822   T   T   T
  0.1106557822886458  0.8879785645764287  0.1477928945606379   F   F   F
  0.2207345463768357  0.7785559209963038  0.3034020917368473   T   T   T
  0.1157485589369960  0.8938111093102532  0.3837419108062394   T   T   T
  0.0010304612598506  0.6690288390144644  0.2289582748258158   T   T   T
  0.2224146980378947  0.7773839170131822  0.0740372597667687   F   F   F
  0.3339013433322467  0.6661299313074588  0.9948597381604579   T   T   T
  0.4435973753338018  0.8888304500670472  0.1496379597786088   F   F   F
  0.5467922810722501  0.7599717653116314  0.3114622131418068   T   T   T
  0.4407564106127524  0.8847412239769047  0.3841300459261851   T   T   T
  0.3315744306317162  0.6674303073479382  0.2289780051500868   T   T   T
  0.5562670133993848  0.7792000267984562  0.0750495281006778   F   F   F
  0.6658047583707469  0.6659993575416738  0.9949333025619295   T   T   T
  0.7785660747334973  0.8888304500673954  0.1496379597785946   F   F   F
  0.8940658350672480  0.7824330853380639  0.3027211403151956   T   T   T
  0.7802314642178417  0.8905597214807615  0.3835337929740747   T   T   T
  0.6698431035244754  0.6675264910575042  0.2291513032473769   T   T   T
  0.8883022189756034  0.7773839170131609  0.0740372597667758   F   F   F
  0.3290830558973681  0.3317456460417245  0.3141339578919885   T   T   T
  0.0061159139379958  0.0107635503916729  0.3463675795841785   T   T   T
  0.2222427152144064  0.1111524304292431  0.1892578317020153   F   F   F
  0.1106772727291983  0.2217303590518753  0.0350227848290459   F   F   F
  0.3320007562310929  0.0004472549534066  0.3452282963433760   T   T   T
  0.5544180659484468  0.1107225784791197  0.1904293390402714   F   F   F
  0.4443860863229077  0.2217303590522093  0.0350227848290885   F   F   F
  0.6661583636937226  0.0001107143560512  0.3456439617938266   T   T   T
  0.8896385125293591  0.1107225784778265  0.1904293390403069   F   F   F
  0.7774118688090823  0.2214897376180289  0.0354114281395965   F   F   F
  0.0002301219733900  0.3288331521219186  0.3475139131452962   T   T   T
  0.2220883512005329  0.4454132294049273  0.1889063296282387   F   F   F
  0.1100896873302446  0.5543627373302300  0.0352158206783031   F   F   F
  0.5566588782054822  0.4454132294053039  0.1889063296283311   F   F   F
  0.4444427212107627  0.5555534424213704  0.0345362363585977   F   F   F
  0.6661953339653587  0.3355894597453987  0.3501369847010182   T   T   T
  0.8889187700460255  0.4445035400914961  0.1920505633917244   F   F   F
  0.7776060500001236  0.5543627373303650  0.0352158206783386   F   F   F
  0.0006504580474251  0.6679464894427840  0.3445720886418622   T   T   T
  0.2215863879391478  0.7793994903688670  0.1883392382126701   F   F   F
  0.1109156816755927  0.8884983633512320  0.0339618488016100   F   F   F
  0.3239588470079637  0.6698054401967780  0.3410567403192790   T   T   T
  0.5549927448460039  0.7766514896918366  0.1891181912628497   F   F   F
  0.4445075387468691  0.8885322577417512  0.0346003239869717   F   F   F
  0.6831398788459714  0.6745578513273044  0.3411181122529705   T   T   T
  0.8911461024289054  0.7793994903684123  0.1883392382126701   F   F   F
  0.7773577189946579  0.8885322577414314  0.0346003239869503   F   F   F
  0.4297857128713963  0.5250313748537508  0.4156181441748587   T   T   T
  0.4220423843551913  0.2133056819055744  0.4490687351702010   T   T   T
 
  0.00000000E+00  0.00000000E+00  0.00000000E+00
  0.00000000E+00  0.00000000E+00  0.00000000E+00
  0.00000000E+00  0.00000000E+00  0.00000000E+00
  0.00000000E+00  0.00000000E+00  0.00000000E+00
  0.00000000E+00  0.00000000E+00  0.00000000E+00
  0.00000000E+00  0.00000000E+00  0.00000000E+00
  0.00000000E+00  0.00000000E+00  0.00000000E+00
  0.00000000E+00  0.00000000E+00  0.00000000E+00
  0.00000000E+00  0.00000000E+00  0.00000000E+00
  0.00000000E+00  0.00000000E+00  0.00000000E+00
  0.00000000E+00  0.00000000E+00  0.00000000E+00
  0.00000000E+00  0.00000000E+00  0.00000000E+00
  0.00000000E+00  0.00000000E+00  0.00000000E+00
  0.00000000E+00  0.00000000E+00  0.00000000E+00
  0.00000000E+00  0.00000000E+00  0.00000000E+00
  0.00000000E+00  0.00000000E+00  0.00000000E+00
  0.00000000E+00  0.00000000E+00  0.00000000E+00
  0.00000000E+00  0.00000000E+00  0.00000000E+00
  0.00000000E+00  0.00000000E+00  0.00000000E+00
  0.00000000E+00  0.00000000E+00  0.00000000E+00
  0.00000000E+00  0.00000000E+00  0.00000000E+00
  0.00000000E+00  0.00000000E+00  0.00000000E+00
  0.00000000E+00  0.00000000E+00  0.00000000E+00
  0.00000000E+00  0.00000000E+00  0.00000000E+00
  0.00000000E+00  0.00000000E+00  0.00000000E+00
  0.00000000E+00  0.00000000E+00  0.00000000E+00
  0.00000000E+00  0.00000000E+00  0.00000000E+00
  0.00000000E+00  0.00000000E+00  0.00000000E+00
  0.00000000E+00  0.00000000E+00  0.00000000E+00
  0.00000000E+00  0.00000000E+00  0.00000000E+00
  0.00000000E+00  0.00000000E+00  0.00000000E+00
  0.00000000E+00  0.00000000E+00  0.00000000E+00
  0.00000000E+00  0.00000000E+00  0.00000000E+00
  0.00000000E+00  0.00000000E+00  0.00000000E+00
  0.00000000E+00  0.00000000E+00  0.00000000E+00
  0.00000000E+00  0.00000000E+00  0.00000000E+00
  0.00000000E+00  0.00000000E+00  0.00000000E+00
  0.00000000E+00  0.00000000E+00  0.00000000E+00
  0.00000000E+00  0.00000000E+00  0.00000000E+00
  0.00000000E+00  0.00000000E+00  0.00000000E+00
  0.00000000E+00  0.00000000E+00  0.00000000E+00
  0.00000000E+00  0.00000000E+00  0.00000000E+00
  0.00000000E+00  0.00000000E+00  0.00000000E+00
  0.00000000E+00  0.00000000E+00  0.00000000E+00
  0.00000000E+00  0.00000000E+00  0.00000000E+00
  0.00000000E+00  0.00000000E+00  0.00000000E+00
  0.00000000E+00  0.00000000E+00  0.00000000E+00
  0.00000000E+00  0.00000000E+00  0.00000000E+00
  0.00000000E+00  0.00000000E+00  0.00000000E+00
  0.00000000E+00  0.00000000E+00  0.00000000E+00
  0.00000000E+00  0.00000000E+00  0.00000000E+00
  0.00000000E+00  0.00000000E+00  0.00000000E+00
  0.00000000E+00  0.00000000E+00  0.00000000E+00
  0.00000000E+00  0.00000000E+00  0.00000000E+00
  0.00000000E+00  0.00000000E+00  0.00000000E+00
  0.00000000E+00  0.00000000E+00  0.00000000E+00
  0.00000000E+00  0.00000000E+00  0.00000000E+00
  0.00000000E+00  0.00000000E+00  0.00000000E+00
  0.00000000E+00  0.00000000E+00  0.00000000E+00
  0.00000000E+00  0.00000000E+00  0.00000000E+00
  0.00000000E+00  0.00000000E+00  0.00000000E+00
  0.00000000E+00  0.00000000E+00  0.00000000E+00
  0.00000000E+00  0.00000000E+00  0.00000000E+00
  0.00000000E+00  0.00000000E+00  0.00000000E+00
  0.00000000E+00  0.00000000E+00  0.00000000E+00
  0.00000000E+00  0.00000000E+00  0.00000000E+00
  0.00000000E+00  0.00000000E+00  0.00000000E+00
  0.00000000E+00  0.00000000E+00  0.00000000E+00
  0.00000000E+00  0.00000000E+00  0.00000000E+00
  0.00000000E+00  0.00000000E+00  0.00000000E+00
  0.00000000E+00  0.00000000E+00  0.00000000E+00
  0.00000000E+00  0.00000000E+00  0.00000000E+00
  0.00000000E+00  0.00000000E+00  0.00000000E+00
  0.00000000E+00  0.00000000E+00  0.00000000E+00
  0.00000000E+00  0.00000000E+00  0.00000000E+00
  0.00000000E+00  0.00000000E+00  0.00000000E+00
  0.00000000E+00  0.00000000E+00  0.00000000E+00
  0.00000000E+00  0.00000000E+00  0.00000000E+00
  0.00000000E+00  0.00000000E+00  0.00000000E+00
  0.00000000E+00  0.00000000E+00  0.00000000E+00
  0.00000000E+00  0.00000000E+00  0.00000000E+00
  0.00000000E+00  0.00000000E+00  0.00000000E+00
