CeO2-you-111-you-Y                      
   1.00000000000000     
     9.8634396836856819   -5.6946599257103383    0.0000000002539930
     0.0104594922566310   11.4074342179786150    0.0048333759215423
     0.0052045299893471    0.0090145088382767   21.2075270147286830
   O    Y    Ce H
    53     1    26 2
Selective dynamics
Direct
  0.0001080683283354  0.0000847408664334  0.9974509783640018   T   T   T
  0.1096611221446496  0.2224344129313165  0.1496062678376604   F   F   F
  0.2186733020605219  0.1040136041217606  0.3003381344128199   T   T   T
  0.1074723815980909  0.2172594263720305  0.3803986716556698   T   T   T
 -0.0014181476748058 -0.0004039399162628  0.2275754948078612   T   T   T
  0.2221255155896650  0.1109180311793144  0.0757228265304658   F   F   F
  0.3333096725381078  0.0000847408664197  0.9974509783640043   T   T   T
  0.4461062907864540  0.2224344129310730  0.1496062678376597   F   F   F
  0.5577066192593755  0.1129110025877851  0.3019174363800051   T   T   T
  0.4431200447733578  0.2172594263721126  0.3803986716556546   T   T   T
  0.3343472077585738 -0.0004039399165957  0.2275754948078585   T   T   T
  0.5563869685036451  0.1113536357568485  0.0760784845389312   F   F   F
  0.6664461986244211 -0.0004416027511421  0.9977462170182810   T   T   T
  0.7780313192139552  0.2227286384279241  0.1520616578488447   F   F   F
  0.8885383833287205  0.1129110025881821  0.3019174363800018   T   T   T
  0.7777721610212939  0.2222103220425124  0.3814081051947434   T   T   T
  0.6636622414848249 -0.0060095170305143  0.2303371240423936   T   T   T
  0.8883006672532302  0.1113536357569116  0.0760784845389302   F   F   F
  0.0001763520202099  0.3331168314569183  0.9979173847408725   T   T   T
  0.1100926325163197  0.5544754826841003  0.1498678368289176   F   F   F
  0.2393244913048314  0.4509895043815250  0.3091851444130962   T   T   T
  0.1045790622177538  0.5535834672424698  0.3825879084842650   T   T   T
  0.0068729099447637  0.3369090240956634  0.2307742974600416   T   T   T
  0.2229344412572056  0.4448475904246044  0.0767135237125516   F   F   F
  0.3331106480711045  0.3328882961422697  0.9980034185936798   T   T   T
  0.4445214939482494  0.5557109878967358  0.1512957537923479   F   F   F
  0.5449990130766498  0.4509895043826058  0.3091851444131623   T   T   T
  0.3308514021801039  0.3283698043607764  0.2266886134697321   T   T   T
  0.5552471491673290  0.4448475904245569  0.0767135237125523   F   F   F
  0.6662744794366474  0.3331168314568805  0.9979173847408733   T   T   T
  0.7777158501677385  0.5544754826840355  0.1498678368289165   F   F   F
  0.8880010401956142  0.4426680803912564  0.3021938156949738   T   T   T
  0.7823374050247990  0.5535834672431281  0.3825879084842197   T   T   T
  0.6633701141507948  0.3369090240955656  0.2307742974600630   T   T   T
  0.8885472683695544  0.4437605367391097  0.0760850706608079   F   F   F
  0.0003294256408081  0.6673258512815505  0.9978743309895505   T   T   T
  0.1108895744993110  0.8884461489983501  0.1484809635645960   F   F   F
  0.2195039167945580  0.7804220707057552  0.3020722194101720   T   T   T
  0.1109818095533130  0.8886306191062984  0.3832894365908557   T   T   T
 -0.0002023436523099  0.6662623126952968  0.2281735805217383   T   T   T
  0.2224406265651734  0.7777728783814661  0.0756605825359097   F   F   F
  0.3335583774491928  0.6668492969779105  0.9980355766834405   T   T   T
  0.4456573755849240  0.8899505462123588  0.1495167388100420   F   F   F
  0.5488481518728755  0.7643623037452660  0.3086945981098787   T   T   T
  0.4477548670924876  0.8972121694633793  0.3826555964827336   T   T   T
  0.3316487268957539  0.6688007821717746  0.2273919343733017   T   T   T
  0.5551176158714249  0.7769012317428116  0.0767294568559363   F   F   F
  0.6666239195287349  0.6668492969778993  0.9980355766834389   T   T   T
  0.7776261706276254  0.8899505462125447  0.1495167388100432   F   F   F
  0.8942511539125920  0.7804220707069308  0.3020722194101276   T   T   T
  0.7827903023721006  0.8972121694639481  0.3826555964827254   T   T   T
  0.6704850552761138  0.6688007821720685  0.2273919343732846   T   T   T
  0.8886652518163648  0.7777728783814968  0.0756605825359089   F   F   F
  0.3221612063175633  0.3109894126328923  0.3333205871980549   T   T   T
  0.0013566410837681  0.0023734726933697  0.3433031866166952   T   T   T
  0.2212403903266210  0.1091477806535780  0.1878466238326154   F   F   F
  0.1109603010538781  0.2226119112882666  0.0371083761790411   F   F   F
  0.3343498316094614  0.0023734726945250  0.3433031866166863   T   T   T
  0.5549354896616906  0.1108295131753830  0.1900630931424583   F   F   F
  0.4449846102344343  0.2226119112883488  0.0371083761790400   F   F   F
  0.6674411367100760  0.0015482734214853  0.3431933433168458   T   T   T
  0.8892280235133179  0.1108295131748669  0.1900630931424526   F   F   F
  0.7778427748267127  0.2223515496533989  0.0373061686664483   F   F   F
  0.0025934889521146  0.3330563162314222  0.3429418328032373   T   T   T
  0.2232756318502439  0.4446190110936340  0.1905078187213149   F   F   F
  0.1110629371159920  0.5551628335631515  0.0372803787085387   F   F   F
  0.5546773792442219  0.4446190110940311  0.1905078187213142   F   F   F
  0.4444341936850220  0.5555363873700012  0.0371844237623627   F   F   F
  0.6637968272800557  0.3330563162315809  0.3429418328032502   T   T   T
  0.8892871767754454  0.4452403535508165  0.1904923624997651   F   F   F
  0.7774328964471867  0.5551628335632202  0.0372803787085403   F   F   F
 -0.0007074891590574  0.6652520216824102  0.3430377361074525   T   T   T
  0.2217315601539755  0.7785152274749635  0.1878836124429845   F   F   F
  0.1111768396959384  0.8890206793919375  0.0356039706421842   F   F   F
  0.3250807981686319  0.6746599846747514  0.3395142453195183   T   T   T
  0.5553931882426004  0.7774523764852782  0.1896971344165476   F   F   F
  0.4449475476771596  0.8891825650425855  0.0369271513798817   F   F   F
  0.6829121865038847  0.6746599846714688  0.3395142453194775   T   T   T
  0.8901166673205180  0.7785152274746323  0.1878836124429719   F   F   F
  0.7775680173654158  0.8891825650425805  0.0369271513798837   F   F   F
0.3521612063175633 0.3709894126328923 0.403321 T T T
0.446598 0.216020 0.433410 T T T 
 
  0.00000000E+00  0.00000000E+00  0.00000000E+00
  0.00000000E+00  0.00000000E+00  0.00000000E+00
  0.00000000E+00  0.00000000E+00  0.00000000E+00
  0.00000000E+00  0.00000000E+00  0.00000000E+00
  0.00000000E+00  0.00000000E+00  0.00000000E+00
  0.00000000E+00  0.00000000E+00  0.00000000E+00
  0.00000000E+00  0.00000000E+00  0.00000000E+00
  0.00000000E+00  0.00000000E+00  0.00000000E+00
  0.00000000E+00  0.00000000E+00  0.00000000E+00
  0.00000000E+00  0.00000000E+00  0.00000000E+00
  0.00000000E+00  0.00000000E+00  0.00000000E+00
  0.00000000E+00  0.00000000E+00  0.00000000E+00
  0.00000000E+00  0.00000000E+00  0.00000000E+00
  0.00000000E+00  0.00000000E+00  0.00000000E+00
  0.00000000E+00  0.00000000E+00  0.00000000E+00
  0.00000000E+00  0.00000000E+00  0.00000000E+00
  0.00000000E+00  0.00000000E+00  0.00000000E+00
  0.00000000E+00  0.00000000E+00  0.00000000E+00
  0.00000000E+00  0.00000000E+00  0.00000000E+00
  0.00000000E+00  0.00000000E+00  0.00000000E+00
  0.00000000E+00  0.00000000E+00  0.00000000E+00
  0.00000000E+00  0.00000000E+00  0.00000000E+00
  0.00000000E+00  0.00000000E+00  0.00000000E+00
  0.00000000E+00  0.00000000E+00  0.00000000E+00
  0.00000000E+00  0.00000000E+00  0.00000000E+00
  0.00000000E+00  0.00000000E+00  0.00000000E+00
  0.00000000E+00  0.00000000E+00  0.00000000E+00
  0.00000000E+00  0.00000000E+00  0.00000000E+00
  0.00000000E+00  0.00000000E+00  0.00000000E+00
  0.00000000E+00  0.00000000E+00  0.00000000E+00
  0.00000000E+00  0.00000000E+00  0.00000000E+00
  0.00000000E+00  0.00000000E+00  0.00000000E+00
  0.00000000E+00  0.00000000E+00  0.00000000E+00
  0.00000000E+00  0.00000000E+00  0.00000000E+00
  0.00000000E+00  0.00000000E+00  0.00000000E+00
  0.00000000E+00  0.00000000E+00  0.00000000E+00
  0.00000000E+00  0.00000000E+00  0.00000000E+00
  0.00000000E+00  0.00000000E+00  0.00000000E+00
  0.00000000E+00  0.00000000E+00  0.00000000E+00
  0.00000000E+00  0.00000000E+00  0.00000000E+00
  0.00000000E+00  0.00000000E+00  0.00000000E+00
  0.00000000E+00  0.00000000E+00  0.00000000E+00
  0.00000000E+00  0.00000000E+00  0.00000000E+00
  0.00000000E+00  0.00000000E+00  0.00000000E+00
  0.00000000E+00  0.00000000E+00  0.00000000E+00
  0.00000000E+00  0.00000000E+00  0.00000000E+00
  0.00000000E+00  0.00000000E+00  0.00000000E+00
  0.00000000E+00  0.00000000E+00  0.00000000E+00
  0.00000000E+00  0.00000000E+00  0.00000000E+00
  0.00000000E+00  0.00000000E+00  0.00000000E+00
  0.00000000E+00  0.00000000E+00  0.00000000E+00
  0.00000000E+00  0.00000000E+00  0.00000000E+00
  0.00000000E+00  0.00000000E+00  0.00000000E+00
  0.00000000E+00  0.00000000E+00  0.00000000E+00
  0.00000000E+00  0.00000000E+00  0.00000000E+00
  0.00000000E+00  0.00000000E+00  0.00000000E+00
  0.00000000E+00  0.00000000E+00  0.00000000E+00
  0.00000000E+00  0.00000000E+00  0.00000000E+00
  0.00000000E+00  0.00000000E+00  0.00000000E+00
  0.00000000E+00  0.00000000E+00  0.00000000E+00
  0.00000000E+00  0.00000000E+00  0.00000000E+00
  0.00000000E+00  0.00000000E+00  0.00000000E+00
  0.00000000E+00  0.00000000E+00  0.00000000E+00
  0.00000000E+00  0.00000000E+00  0.00000000E+00
  0.00000000E+00  0.00000000E+00  0.00000000E+00
  0.00000000E+00  0.00000000E+00  0.00000000E+00
  0.00000000E+00  0.00000000E+00  0.00000000E+00
  0.00000000E+00  0.00000000E+00  0.00000000E+00
  0.00000000E+00  0.00000000E+00  0.00000000E+00
  0.00000000E+00  0.00000000E+00  0.00000000E+00
  0.00000000E+00  0.00000000E+00  0.00000000E+00
  0.00000000E+00  0.00000000E+00  0.00000000E+00
  0.00000000E+00  0.00000000E+00  0.00000000E+00
  0.00000000E+00  0.00000000E+00  0.00000000E+00
  0.00000000E+00  0.00000000E+00  0.00000000E+00
  0.00000000E+00  0.00000000E+00  0.00000000E+00
  0.00000000E+00  0.00000000E+00  0.00000000E+00
  0.00000000E+00  0.00000000E+00  0.00000000E+00
  0.00000000E+00  0.00000000E+00  0.00000000E+00
  0.00000000E+00  0.00000000E+00  0.00000000E+00
