CeO2-you-111-you-Pd                     
   1.00000000000000     
     9.8407277926077672   -5.7034591373138852    0.0049026423384079
    -0.0189762798966484   11.3740483885446650   -0.0049026414973334
     0.0057117553690380   -0.0098930499079391   20.9782519937804466
   O    Pd   Ce   H 
    53     1    26     1
Selective dynamics
Direct
  0.0002874958382524 -0.0000581512008453  0.9942198653628895   T   T   T
  0.1025504774255187  0.2174976267099640  0.1457465172843964   T   T   T
  0.2364863970092338  0.1382386694610422  0.3092478293247447   T   T   T
  0.1251241350718995  0.2510200475556534  0.3778886550196109   T   T   T
  0.0054141282388008  0.0022309260882449  0.2308832175517167   T   T   T
  0.2226741868619991  0.1116074534529807  0.0745767867633108   T   T   T
  0.3341985983656712  0.0013503776071708  0.9947230052807939   T   T   T
  0.4473336677404752  0.2198926951528727  0.1489540526762844   T   T   T
  0.5611959462574903  0.1163381373758026  0.3050169567951758   T   T   T
  0.4859036325007038  0.2038889225430432  0.4154926761920975   T   T   T
  0.3313121683753825  0.0012214473020824  0.2290679386603801   T   T   T
  0.5576348682363910  0.1088961336979558  0.0760403146118147   T   T   T
  0.6657271003522293  0.0009828170058289  0.9922931143713235   T   T   T
  0.7837716297983260  0.2250062715205437  0.1527271217621125   T   T   T
  0.8887239079313433  0.1091515037472850  0.3047704754487903   T   T   T
  0.7814741544273497  0.2211060390334727  0.3866295629919930   T   T   T
  0.6669477968528901  0.9993626611114029  0.2296928725355901   T   T   T
  0.8843389193285646  0.1078200497752508  0.0734801208205789   T   T   T
  0.9984236114709280  0.3320130369077718  0.9937763767059765   T   T   T
  0.1103547040295232  0.5570259992695181  0.1466888141099239   T   T   T
  0.1147925269737800  0.5498935688906197  0.3792468443877309   T   T   T
  0.0189599212219457  0.3434234303746224  0.2349622524542848   T   T   T
  0.2223403877981686  0.4444635763890771  0.0707517868773020   T   T   T
  0.3338656520784634  0.3321913856391502  0.9936980383673299   T   T   T
  0.4495461012606894  0.5645546627011618  0.1446803678402304   T   T   T
  0.5283336942412952  0.4195060628540555  0.3101656281482839   T   T   T
  0.4173572887994993  0.5400892663730519  0.3751077074281415   T   T   T
  0.3302006198288706  0.3389838353315519  0.2142716274479682   T   T   T
  0.5555517704104349  0.4442144914652497  0.0738347622330894   T   T   T
  0.6656221832485537  0.3316513498696628  0.9944468366827164   T   T   T
  0.7799580674086577  0.5562873857821824  0.1488176108454942   T   T   T
  0.8865546852183261  0.4437543682926217  0.3048943921239998   T   T   T
  0.7718352492721350  0.5545188965076948  0.3817761062573055   T   T   T
  0.6674262286600408  0.3375960139325404  0.2293631881896699   T   T   T
  0.8878740006573466  0.4434607621242087  0.0737063269857233   T   T   T
  0.0000973021524391  0.6674275521284321  0.9945559532313837   T   T   T
  0.1098327627430404  0.8867951729696214  0.1496405472648675   T   T   T
  0.2205774404345970  0.7770146722992066  0.3051831194437516   T   T   T
  0.0955373531836547  0.8851158519334819  0.3845488553052258   T   T   T
 -0.0001368798491246  0.6660308070081487  0.2297880039643428   T   T   T
  0.2236560805588858  0.7792620672876194  0.0738931427254905   T   T   T
  0.3337105739398800  0.6675279668315507  0.9933313224554383   T   T   T
  0.4417974159710044  0.8829535627205201  0.1525496578431506   T   T   T
  0.5573756200456534  0.7772568191120796  0.3034895963156468   T   T   T
  0.4528684116757051  0.8816364964342198  0.3876150098145548   T   T   T
  0.3235158894398890  0.6475119098997968  0.2345815685826019   T   T   T
  0.5588251401711077  0.7826021904584736  0.0725053609630832   T   T   T
  0.6666071877690872  0.6662807037432764  0.9929863488650309   T   T   T
  0.7776819526440161  0.8874782282383117  0.1517181336457504   T   T   T
  0.8849609534008028  0.7762999719397708  0.3024489795572202   T   T   T
  0.7763583691770293  0.8850830766766679  0.3835145103671954   T   T   T
  0.6610776581514719  0.6572052073692007  0.2310687944651931   T   T   T
  0.8872241518927481  0.7780237081732534  0.0739118222187447   T   T   T
  0.3237050470137782  0.3385211288215503  0.3440494111415492   T   T   T
  0.0039137455063544  0.0041800692268184  0.3432487400843828   T   T   T
  0.2251309992415050  0.1148214947541877  0.1904576381523023   T   T   T
  0.1095920692741097  0.2196545736575417  0.0324663166187421   T   T   T
  0.3331404551340423  0.0040415229270866  0.3499242458124116   T   T   T
  0.5555144369473523  0.1106575294153420  0.1917593099588943   T   T   T
  0.4446992750201141  0.2215256959834012  0.0346019661026178   T   T   T
  0.6673862660033536 -0.0021717987555532  0.3461338200380210   T   T   T
  0.8900637398159635  0.1110556792379703  0.1905426806281957   T   T   T
  0.7772105752042979  0.2210448827511590  0.0342925133148590   T   T   T
  0.9928640294238348  0.3295725391467025  0.3471042603305981   T   T   T
  0.2232810886227120  0.4437326961441347  0.1799060151172102   T   T   T
  0.1101550366862620  0.5568544021667531  0.0326685610892277   T   T   T
  0.5518308817265525  0.4410801252714716  0.1886461881221776   T   T   T
  0.4468327081448814  0.5570938759851193  0.0316539803544741   T   T   T
  0.6663313084250868  0.3329391768387221  0.3450196530170361   T   T   T
  0.8900151303219367  0.4450765809235601  0.1899615878908310   T   T   T
  0.7775469011434779  0.5549185100395970  0.0346457150308460   T   T   T
  0.9981992105883920  0.6688719198502850  0.3425080087089635   T   T   T
  0.2222700430005707  0.7782853615058914  0.1912045642193559   T   T   T
  0.1118702033909632  0.8893164678086258  0.0356026375694823   T   T   T
  0.3370172224828570  0.6743851228235931  0.3465370961795045   T   T   T
  0.5549464893061615  0.7761289197689157  0.1901483843247185   T   T   T
  0.4452126807625644  0.8894181564717947  0.0342590459859549   T   T   T
  0.6575677581186317  0.6581150042740137  0.3424987759981181   T   T   T
  0.8885330303326190  0.7770018024037406  0.1893106364425187   T   T   T
  0.7771637713858610  0.8892376860615590  0.0336719766273538   T   T   T
  0.4507186102826846  0.2455291886278906  0.4445397935723477   T   T   T
 
  0.00000000E+00  0.00000000E+00  0.00000000E+00
  0.00000000E+00  0.00000000E+00  0.00000000E+00
  0.00000000E+00  0.00000000E+00  0.00000000E+00
  0.00000000E+00  0.00000000E+00  0.00000000E+00
  0.00000000E+00  0.00000000E+00  0.00000000E+00
  0.00000000E+00  0.00000000E+00  0.00000000E+00
  0.00000000E+00  0.00000000E+00  0.00000000E+00
  0.00000000E+00  0.00000000E+00  0.00000000E+00
  0.00000000E+00  0.00000000E+00  0.00000000E+00
  0.00000000E+00  0.00000000E+00  0.00000000E+00
  0.00000000E+00  0.00000000E+00  0.00000000E+00
  0.00000000E+00  0.00000000E+00  0.00000000E+00
  0.00000000E+00  0.00000000E+00  0.00000000E+00
  0.00000000E+00  0.00000000E+00  0.00000000E+00
  0.00000000E+00  0.00000000E+00  0.00000000E+00
  0.00000000E+00  0.00000000E+00  0.00000000E+00
  0.00000000E+00  0.00000000E+00  0.00000000E+00
  0.00000000E+00  0.00000000E+00  0.00000000E+00
  0.00000000E+00  0.00000000E+00  0.00000000E+00
  0.00000000E+00  0.00000000E+00  0.00000000E+00
  0.00000000E+00  0.00000000E+00  0.00000000E+00
  0.00000000E+00  0.00000000E+00  0.00000000E+00
  0.00000000E+00  0.00000000E+00  0.00000000E+00
  0.00000000E+00  0.00000000E+00  0.00000000E+00
  0.00000000E+00  0.00000000E+00  0.00000000E+00
  0.00000000E+00  0.00000000E+00  0.00000000E+00
  0.00000000E+00  0.00000000E+00  0.00000000E+00
  0.00000000E+00  0.00000000E+00  0.00000000E+00
  0.00000000E+00  0.00000000E+00  0.00000000E+00
  0.00000000E+00  0.00000000E+00  0.00000000E+00
  0.00000000E+00  0.00000000E+00  0.00000000E+00
  0.00000000E+00  0.00000000E+00  0.00000000E+00
  0.00000000E+00  0.00000000E+00  0.00000000E+00
  0.00000000E+00  0.00000000E+00  0.00000000E+00
  0.00000000E+00  0.00000000E+00  0.00000000E+00
  0.00000000E+00  0.00000000E+00  0.00000000E+00
  0.00000000E+00  0.00000000E+00  0.00000000E+00
  0.00000000E+00  0.00000000E+00  0.00000000E+00
  0.00000000E+00  0.00000000E+00  0.00000000E+00
  0.00000000E+00  0.00000000E+00  0.00000000E+00
  0.00000000E+00  0.00000000E+00  0.00000000E+00
  0.00000000E+00  0.00000000E+00  0.00000000E+00
  0.00000000E+00  0.00000000E+00  0.00000000E+00
  0.00000000E+00  0.00000000E+00  0.00000000E+00
  0.00000000E+00  0.00000000E+00  0.00000000E+00
  0.00000000E+00  0.00000000E+00  0.00000000E+00
  0.00000000E+00  0.00000000E+00  0.00000000E+00
  0.00000000E+00  0.00000000E+00  0.00000000E+00
  0.00000000E+00  0.00000000E+00  0.00000000E+00
  0.00000000E+00  0.00000000E+00  0.00000000E+00
  0.00000000E+00  0.00000000E+00  0.00000000E+00
  0.00000000E+00  0.00000000E+00  0.00000000E+00
  0.00000000E+00  0.00000000E+00  0.00000000E+00
  0.00000000E+00  0.00000000E+00  0.00000000E+00
  0.00000000E+00  0.00000000E+00  0.00000000E+00
  0.00000000E+00  0.00000000E+00  0.00000000E+00
  0.00000000E+00  0.00000000E+00  0.00000000E+00
  0.00000000E+00  0.00000000E+00  0.00000000E+00
  0.00000000E+00  0.00000000E+00  0.00000000E+00
  0.00000000E+00  0.00000000E+00  0.00000000E+00
  0.00000000E+00  0.00000000E+00  0.00000000E+00
  0.00000000E+00  0.00000000E+00  0.00000000E+00
  0.00000000E+00  0.00000000E+00  0.00000000E+00
  0.00000000E+00  0.00000000E+00  0.00000000E+00
  0.00000000E+00  0.00000000E+00  0.00000000E+00
  0.00000000E+00  0.00000000E+00  0.00000000E+00
  0.00000000E+00  0.00000000E+00  0.00000000E+00
  0.00000000E+00  0.00000000E+00  0.00000000E+00
  0.00000000E+00  0.00000000E+00  0.00000000E+00
  0.00000000E+00  0.00000000E+00  0.00000000E+00
  0.00000000E+00  0.00000000E+00  0.00000000E+00
  0.00000000E+00  0.00000000E+00  0.00000000E+00
  0.00000000E+00  0.00000000E+00  0.00000000E+00
  0.00000000E+00  0.00000000E+00  0.00000000E+00
  0.00000000E+00  0.00000000E+00  0.00000000E+00
  0.00000000E+00  0.00000000E+00  0.00000000E+00
  0.00000000E+00  0.00000000E+00  0.00000000E+00
  0.00000000E+00  0.00000000E+00  0.00000000E+00
  0.00000000E+00  0.00000000E+00  0.00000000E+00
  0.00000000E+00  0.00000000E+00  0.00000000E+00
  0.00000000E+00  0.00000000E+00  0.00000000E+00
