CeO2-you-111-you-Pt                     
   1.00000000000000     
     9.8194997738855925   -5.6692912080755651    0.0000000008101934
     0.0104111215151144   11.3566130111161350    0.0149700759784374
     0.0153316939422782    0.0265552683133540   21.2692258314980762
   O    Pt   Ce   H 
    53     1    26     2
Selective dynamics
Direct
 -0.0001861337107694  0.0004904577297180  0.9971515875209577   T   T   T
  0.1036883149297694  0.2195504282559213  0.1485430608377598   F   F   F
  0.2345930348885657  0.1242866356363767  0.3007247852295362   T   T   T
  0.1286143010212375  0.2161504621356809  0.3873592969671130   T   T   T
  0.0011764412308234 -0.0010061271417535  0.2285913362078750   T   T   T
  0.2224463999556932  0.1115597999114755  0.0754423098381594   F   F   F
  0.3341157003308811  0.0007720420231257  0.9966431466992720   T   T   T
  0.4491951133260557  0.2195504282559710  0.1485430608377456   F   F   F
  0.5488845471643826  0.1177289269621469  0.3063789751498764   T   T   T
  0.4151646473425354  0.2204063635719227  0.3997235149034593   T   T   T
  0.3323146607324269  0.9973684198546752  0.2279811715395233   T   T   T
  0.5589073125192954  0.1106479598187207  0.0759464221109099   F   F   F
  0.6670627932681331  0.0004629285677136  0.9953961881886423   T   T   T
  0.7786704771946447  0.2240069543894592  0.1546062875499246   F   F   F
  0.8896968403277221  0.1095494209260321  0.3033830185829766   T   T   T
  0.7659388357225524  0.2180456837600413  0.3852847726563486   T   T   T
  0.6618007073286815  0.9965474873826701  0.2328349073038212   T   T   T
  0.8850746472994402  0.1106479598189409  0.0759464221109170   F   F   F
  0.0006552066125776  0.3336608128013149  0.9966742980656408   T   T   T
  0.1094318659411471  0.5540534269035930  0.1499798642685022   F   F   F
  0.2586292446211994  0.4436423285521884  0.3125853046852384   T   T   T
  0.1226846522895116  0.5706904249313596  0.3828678186030752   T   T   T
  0.0107903697454089  0.3391413426284662  0.2317478358484814   T   T   T
  0.2233616295106629  0.4446134386443958  0.0763873392392327   F   F   F
  0.3333334380173394  0.3335233988837019  0.9966568587001923   T   T   T
  0.4481181865914721  0.5629043731826258  0.1493026163244551   F   F   F
  0.5242972500522347  0.4262598269694991  0.3156168924735040   T   T   T
  0.3330276188869359  0.3316388345175050  0.2136600663989222   T   T   T
  0.5545858091335703  0.4446134386442111  0.0763873392392114   F   F   F
  0.6662667704071219  0.3342217001469963  0.9968917970473822   T   T   T
  0.7779545609629608  0.5540534269034865  0.1499798642684880   F   F   F
  0.8887226086433597  0.4472609220525604  0.3036242893402581   T   T   T
  0.7844299481102935  0.5491506228510549  0.3855808959441172   T   T   T
  0.6646068064385531  0.3384376804974931  0.2324493593595295   T   T   T
  0.8877557359599422  0.4421774719200684  0.0765618276414912   F   F   F
  0.0001956450243101  0.6670566667329620  0.9973930651620418   T   T   T
  0.1102553836085178  0.8871777672172527  0.1485703680675527   F   F   F
  0.2212814352498349  0.7798269742015010  0.3005887418008993   T   T   T
  0.1156322320057848  0.8925892201647956  0.3813565202480102   T   T   T
  0.0005602032473892  0.6681140377405804  0.2286249871082612   T   T   T
  0.2235215740980436  0.7780169008810915  0.0757763938321290   F   F   F
  0.3326978915245705  0.6662560715931715  0.9966466831717000   T   T   T
  0.4475188521217177  0.8884308184626519  0.1496399293744162   F   F   F
  0.5453680177515848  0.7688067922815981  0.3099125068349852   T   T   T
  0.4377492891767903  0.8902896291423618  0.3825740114289201   T   T   T
  0.3290032967613540  0.6640708360968036  0.2298844178795125   T   T   T
  0.5561054950177180  0.7788769900356058  0.0746051327673101   F   F   F
  0.6670596048866140  0.6664390862031241  0.9963396379933296   T   T   T
  0.7742449663410937  0.8884308184629930  0.1496399293744020   F   F   F
  0.8940177255674993  0.7805862405943789  0.3039570523219161   T   T   T
  0.7838980239253264  0.9027991968275773  0.3852577110211725   T   T   T
  0.6667984158624419  0.6638250675675862  0.2294895080701735   T   T   T
  0.8878283267831151  0.7780169008811058  0.0757763938321574   F   F   F
  0.3274295814243193  0.3264729685285307  0.3548840205338331   T   T   T
  0.0047270159213105  0.0053201950740738  0.3423525473141130   T   T   T
  0.2216545885329850  0.1099761770630252  0.1883476693212245   F   F   F
  0.1106180815931452  0.2224540144738612  0.0366868401729832   F   F   F
  0.3269985238817724 -0.0026418197493432  0.3395794649876517   T   T   T
  0.5551976893466133  0.1106850751998536  0.1907703721353329   F   F   F
  0.4451689328807191  0.2224540144740601  0.0366868401730258   F   F   F
  0.6685146899070530  0.0019594676676528  0.3456062431826506   T   T   T
  0.8888213858529781  0.1106850751989370  0.1907703721353400   F   F   F
  0.7779091298390171  0.2224842596778700  0.0366500581814933   F   F   F
  0.0080695227759415  0.3335568984503303  0.3474631240553854   T   T   T
  0.2251208381694596  0.4428520651099106  0.1888328212710562   F   F   F
  0.1109282638803109  0.5551773179465940  0.0371246811537773   F   F   F
  0.5510652269388743  0.4428520651095269  0.1888328212715322   F   F   F
  0.4447332451377406  0.5561344902754968  0.0355979213859783   F   F   F
  0.6736536906242604  0.3383613508287135  0.3430785788531618   T   T   T
  0.8892806700737026  0.4452273401478379  0.1920154233533964   F   F   F
  0.7775820540664924  0.5551773179468711  0.0371246811537773   F   F   F
 -0.0005085557458827  0.6666679379318906  0.3424720916058668   T   T   T
  0.2222991016024025  0.7776560440484275  0.1877942211984376   F   F   F
  0.1113720685490378  0.8894111370980227  0.0360032455164898   F   F   F
  0.3277275388867671  0.6742481101483400  0.3393281457951785   T   T   T
  0.5555629189765270  0.7777918379528046  0.1896403991507043   F   F   F
  0.4459635726693136  0.8895807205551804  0.0359039799640470   F   F   F
  0.6762257724848654  0.6695862426486048  0.3435620714992537   T   T   T
  0.8886899424454739  0.7776560440479159  0.1877942211983807   F   F   F
  0.7769501478860050  0.8895807205551520  0.0359039799639902   F   F   F
  0.3793711652832411  0.4403292682225052  0.4051288206774269   T   T   T
  0.4007580936732064  0.2225646856088060  0.4447136826419689   T   T   T
 
  0.00000000E+00  0.00000000E+00  0.00000000E+00
  0.00000000E+00  0.00000000E+00  0.00000000E+00
  0.00000000E+00  0.00000000E+00  0.00000000E+00
  0.00000000E+00  0.00000000E+00  0.00000000E+00
  0.00000000E+00  0.00000000E+00  0.00000000E+00
  0.00000000E+00  0.00000000E+00  0.00000000E+00
  0.00000000E+00  0.00000000E+00  0.00000000E+00
  0.00000000E+00  0.00000000E+00  0.00000000E+00
  0.00000000E+00  0.00000000E+00  0.00000000E+00
  0.00000000E+00  0.00000000E+00  0.00000000E+00
  0.00000000E+00  0.00000000E+00  0.00000000E+00
  0.00000000E+00  0.00000000E+00  0.00000000E+00
  0.00000000E+00  0.00000000E+00  0.00000000E+00
  0.00000000E+00  0.00000000E+00  0.00000000E+00
  0.00000000E+00  0.00000000E+00  0.00000000E+00
  0.00000000E+00  0.00000000E+00  0.00000000E+00
  0.00000000E+00  0.00000000E+00  0.00000000E+00
  0.00000000E+00  0.00000000E+00  0.00000000E+00
  0.00000000E+00  0.00000000E+00  0.00000000E+00
  0.00000000E+00  0.00000000E+00  0.00000000E+00
  0.00000000E+00  0.00000000E+00  0.00000000E+00
  0.00000000E+00  0.00000000E+00  0.00000000E+00
  0.00000000E+00  0.00000000E+00  0.00000000E+00
  0.00000000E+00  0.00000000E+00  0.00000000E+00
  0.00000000E+00  0.00000000E+00  0.00000000E+00
  0.00000000E+00  0.00000000E+00  0.00000000E+00
  0.00000000E+00  0.00000000E+00  0.00000000E+00
  0.00000000E+00  0.00000000E+00  0.00000000E+00
  0.00000000E+00  0.00000000E+00  0.00000000E+00
  0.00000000E+00  0.00000000E+00  0.00000000E+00
  0.00000000E+00  0.00000000E+00  0.00000000E+00
  0.00000000E+00  0.00000000E+00  0.00000000E+00
  0.00000000E+00  0.00000000E+00  0.00000000E+00
  0.00000000E+00  0.00000000E+00  0.00000000E+00
  0.00000000E+00  0.00000000E+00  0.00000000E+00
  0.00000000E+00  0.00000000E+00  0.00000000E+00
  0.00000000E+00  0.00000000E+00  0.00000000E+00
  0.00000000E+00  0.00000000E+00  0.00000000E+00
  0.00000000E+00  0.00000000E+00  0.00000000E+00
  0.00000000E+00  0.00000000E+00  0.00000000E+00
  0.00000000E+00  0.00000000E+00  0.00000000E+00
  0.00000000E+00  0.00000000E+00  0.00000000E+00
  0.00000000E+00  0.00000000E+00  0.00000000E+00
  0.00000000E+00  0.00000000E+00  0.00000000E+00
  0.00000000E+00  0.00000000E+00  0.00000000E+00
  0.00000000E+00  0.00000000E+00  0.00000000E+00
  0.00000000E+00  0.00000000E+00  0.00000000E+00
  0.00000000E+00  0.00000000E+00  0.00000000E+00
  0.00000000E+00  0.00000000E+00  0.00000000E+00
  0.00000000E+00  0.00000000E+00  0.00000000E+00
  0.00000000E+00  0.00000000E+00  0.00000000E+00
  0.00000000E+00  0.00000000E+00  0.00000000E+00
  0.00000000E+00  0.00000000E+00  0.00000000E+00
  0.00000000E+00  0.00000000E+00  0.00000000E+00
  0.00000000E+00  0.00000000E+00  0.00000000E+00
  0.00000000E+00  0.00000000E+00  0.00000000E+00
  0.00000000E+00  0.00000000E+00  0.00000000E+00
  0.00000000E+00  0.00000000E+00  0.00000000E+00
  0.00000000E+00  0.00000000E+00  0.00000000E+00
  0.00000000E+00  0.00000000E+00  0.00000000E+00
  0.00000000E+00  0.00000000E+00  0.00000000E+00
  0.00000000E+00  0.00000000E+00  0.00000000E+00
  0.00000000E+00  0.00000000E+00  0.00000000E+00
  0.00000000E+00  0.00000000E+00  0.00000000E+00
  0.00000000E+00  0.00000000E+00  0.00000000E+00
  0.00000000E+00  0.00000000E+00  0.00000000E+00
  0.00000000E+00  0.00000000E+00  0.00000000E+00
  0.00000000E+00  0.00000000E+00  0.00000000E+00
  0.00000000E+00  0.00000000E+00  0.00000000E+00
  0.00000000E+00  0.00000000E+00  0.00000000E+00
  0.00000000E+00  0.00000000E+00  0.00000000E+00
  0.00000000E+00  0.00000000E+00  0.00000000E+00
  0.00000000E+00  0.00000000E+00  0.00000000E+00
  0.00000000E+00  0.00000000E+00  0.00000000E+00
  0.00000000E+00  0.00000000E+00  0.00000000E+00
  0.00000000E+00  0.00000000E+00  0.00000000E+00
  0.00000000E+00  0.00000000E+00  0.00000000E+00
  0.00000000E+00  0.00000000E+00  0.00000000E+00
  0.00000000E+00  0.00000000E+00  0.00000000E+00
  0.00000000E+00  0.00000000E+00  0.00000000E+00
  0.00000000E+00  0.00000000E+00  0.00000000E+00
  0.00000000E+00  0.00000000E+00  0.00000000E+00
