CeO2-you-111-you-Fe                     
   1.00000000000000     
     9.8885049813099108   -5.7091313869885925   -0.0000000009276013
    -0.0339219555875994   11.3595062178783586   -0.0177316629572133
    -0.0197352008691768   -0.0341823647912599   20.4304266234275822
   O    Fe   Ce   H 
    53     1    26     2
Selective dynamics
Direct
  0.9998462640523641  0.0002822855963867  0.9893172885232376   T   T   T
  0.1093649119554527  0.2211293718411156  0.1465613760520270   F   F   F
  0.2426530704025651  0.1419059439730328  0.3151904672403856   T   T   T
  0.0588957309343310  0.1981770177768559  0.4031035291487260   T   T   T
  0.0090323534693436  0.0045954418577145  0.2315026926145168   T   T   T
  0.2219888901400680  0.1106447802799195  0.0705020553522857   F   F   F
  0.3346602758495314  0.0008023870345729  0.9890870838965585   T   T   T
  0.4450974598870800  0.2211293718406395  0.1465613760519275   F   F   F
  0.5530665400306221  0.1152346871361705  0.3070705326872768   T   T   T
  0.4754675243690779  0.1954322518504436  0.4170758801954849   T   T   T
  0.3295648202755404  0.0023984299959325  0.2308798697933311   T   T   T
  0.5573546510236085  0.1110325274516839  0.0715949247002428   F   F   F
  0.6670063122240052  0.9995486167311615  0.9888577756847567   T   T   T
  0.7775996968463232  0.2218653936935482  0.1523764285061944   F   F   F
  0.8853965098603120  0.1095859466341166  0.3036148171977822   T   T   T
  0.7767792023572531  0.2215096903466071  0.3891850527875506   T   T   T
  0.6622134344239671  0.9966803404931212  0.2309291749663961   T   T   T
  0.8870118764273585  0.1110325274506891  0.0715949246998591   F   F   F
  0.9997237724654596  0.3324167171831270  0.9893339656336714   T   T   T
  0.1096769075475166  0.5564678578156830  0.1476612811386460   F   F   F
  0.2426939879506256  0.4316109764305399  0.3171247037414524   T   T   T
  0.0988856720209759  0.5499252689355180  0.3900772110628463   T   T   T
  0.0103259611746201  0.3387365862379957  0.2322653606769441   T   T   T
  0.2215378442151419  0.4449466217324627  0.0715356650549168   F   F   F
  0.3336240865567233  0.3340332148337658  0.9898645489876108   T   T   T
  0.4458354116996119  0.5583388234013498  0.1468252520517197   F   F   F
  0.5245547168250684  0.4269557716081656  0.3198853117364929   T   T   T
  0.3348892789498222  0.3350341314851696  0.2230954597907625   T   T   T
  0.5567427775167033  0.4449466217321500  0.0715356650548884   F   F   F
  0.6663155592361654  0.3327488225109930  0.9892215474399366   T   T   T
  0.7801239502674662  0.5564678578154059  0.1476612811386744   F   F   F
  0.8874979126892300  0.4406024384583231  0.3058900438488849   T   T   T
  0.7836258087978214  0.5476399068130893  0.3905840172186912   T   T   T
  0.6629109948152249  0.3391305734182019  0.2323944513873670   T   T   T
  0.8876876253422665  0.4420412506847455  0.0718610142897518   F   F   F
  0.9990797895889478  0.6650861460930859  0.9892884181141255   T   T   T
  0.1109118892523142  0.8884907785035168  0.1467565621323672   F   F   F
  0.2199167273814117  0.7807393346049493  0.3061092721398007   T   T   T
  0.1179513254436464  0.8956247369846612  0.3897076832112329   T   T   T
 -0.0006430570744500  0.6670173694242494  0.2301323845704294   T   T   T
  0.2225075076381486  0.7788413810564450  0.0705891592355812   F   F   F
  0.3335927361750237  0.6664674397660568  0.9895484005819255   T   T   T
  0.4430095100882738  0.8877695630165903  0.1492451483124384   F   F   F
  0.5535862347765775  0.7729347070454115  0.3104337948913674   T   T   T
  0.4464587535449070  0.8995594673402063  0.3906885578052521   T   T   T
  0.3285358760264351  0.6621429618797875  0.2292507679830476   T   T   T
  0.5564045455134803  0.7794750910274644  0.0717699917790497   F   F   F
  0.6662302129589133  0.6667165407173651  0.9896684174801758   T   T   T
  0.7780930529287673  0.8877695630163061  0.1492451483123034   F   F   F
  0.8954082659775124  0.7829560606222200  0.3079494100246590   T   T   T
  0.7821027353487577  0.9009876794534915  0.3925543605937909   T   T   T
  0.6670077573806615  0.6611275350630446  0.2299380898594389   T   T   T
  0.8896668734185269  0.7788413810558623  0.0705891592354462   F   F   F
  0.3347073305214802  0.3347962080178618  0.3192113453280289   T   T   T
  0.0006502504756734  0.0084499389134910  0.3533298257656493   T   T   T
  0.2219507877412994  0.1105685754829651  0.1876176121338347   F   F   F
  0.1101186296702252  0.2214904028718365  0.0299995510255258   F   F   F
  0.3328181154787264 -0.0002018459471859  0.3508302631482377   T   T   T
  0.5545993828520892  0.1107732198179860  0.1906809810099830   F   F   F
  0.4447047732020621  0.2214904028719928  0.0299995510255613   F   F   F
  0.6648133819386663  0.9979466608432740  0.3492859298074894   T   T   T
  0.8895078369652651  0.1107732198167710  0.1906809810099190   F   F   F
  0.7773785654380418  0.2214231308761896  0.0308865319978722   F   F   F
  0.9984665386274753  0.3276354948302574  0.3524717825742614   T   T   T
  0.2212179090881676  0.4457438324816465  0.1866569410320693   F   F   F
  0.1098324672582223  0.5548826377317653  0.0305909113731460   F   F   F
  0.5578599233945809  0.4457438324837142  0.1866569410323251   F   F   F
  0.4448839606524686  0.5564359213054360  0.0297911352601758   F   F   F
  0.6721745404786131  0.3335347646175373  0.3508297457182205   T   T   T
  0.8887228717969649  0.4441117435934672  0.1920939745460117   F   F   F
  0.7783831704735888  0.5548826377319500  0.0305909113731744   F   F   F
  0.0006227022455212  0.6660373037032360  0.3483630119962244   T   T   T
  0.2220846647749823  0.7795752094204218  0.1890271814850308   F   F   F
  0.1109959901531354  0.8886589803057063  0.0295459742391984   F   F   F
  0.3259268537804733  0.6705993113784691  0.3485053594091296   T   T   T
  0.5546606897120583  0.7759873794235475  0.1905498777048891   F   F   F
  0.4448846263366448  0.8887841364889724  0.0306065023108530   F   F   F
  0.6801153073790011  0.6734999672922070  0.3487242307290928   T   T   T
  0.8908235446448529  0.7795752094201944  0.1890271814849953   F   F   F
  0.7772325101524302  0.8887841364884252  0.0306065023106115   F   F   F
  0.3318624953257807  0.3364836317457629  0.3945301229729938   T   T   T
  0.4347934371418896  0.2342111576049115  0.4454062132290959   T   T   T
 
  0.00000000E+00  0.00000000E+00  0.00000000E+00
  0.00000000E+00  0.00000000E+00  0.00000000E+00
  0.00000000E+00  0.00000000E+00  0.00000000E+00
  0.00000000E+00  0.00000000E+00  0.00000000E+00
  0.00000000E+00  0.00000000E+00  0.00000000E+00
  0.00000000E+00  0.00000000E+00  0.00000000E+00
  0.00000000E+00  0.00000000E+00  0.00000000E+00
  0.00000000E+00  0.00000000E+00  0.00000000E+00
  0.00000000E+00  0.00000000E+00  0.00000000E+00
  0.00000000E+00  0.00000000E+00  0.00000000E+00
  0.00000000E+00  0.00000000E+00  0.00000000E+00
  0.00000000E+00  0.00000000E+00  0.00000000E+00
  0.00000000E+00  0.00000000E+00  0.00000000E+00
  0.00000000E+00  0.00000000E+00  0.00000000E+00
  0.00000000E+00  0.00000000E+00  0.00000000E+00
  0.00000000E+00  0.00000000E+00  0.00000000E+00
  0.00000000E+00  0.00000000E+00  0.00000000E+00
  0.00000000E+00  0.00000000E+00  0.00000000E+00
  0.00000000E+00  0.00000000E+00  0.00000000E+00
  0.00000000E+00  0.00000000E+00  0.00000000E+00
  0.00000000E+00  0.00000000E+00  0.00000000E+00
  0.00000000E+00  0.00000000E+00  0.00000000E+00
  0.00000000E+00  0.00000000E+00  0.00000000E+00
  0.00000000E+00  0.00000000E+00  0.00000000E+00
  0.00000000E+00  0.00000000E+00  0.00000000E+00
  0.00000000E+00  0.00000000E+00  0.00000000E+00
  0.00000000E+00  0.00000000E+00  0.00000000E+00
  0.00000000E+00  0.00000000E+00  0.00000000E+00
  0.00000000E+00  0.00000000E+00  0.00000000E+00
  0.00000000E+00  0.00000000E+00  0.00000000E+00
  0.00000000E+00  0.00000000E+00  0.00000000E+00
  0.00000000E+00  0.00000000E+00  0.00000000E+00
  0.00000000E+00  0.00000000E+00  0.00000000E+00
  0.00000000E+00  0.00000000E+00  0.00000000E+00
  0.00000000E+00  0.00000000E+00  0.00000000E+00
  0.00000000E+00  0.00000000E+00  0.00000000E+00
  0.00000000E+00  0.00000000E+00  0.00000000E+00
  0.00000000E+00  0.00000000E+00  0.00000000E+00
  0.00000000E+00  0.00000000E+00  0.00000000E+00
  0.00000000E+00  0.00000000E+00  0.00000000E+00
  0.00000000E+00  0.00000000E+00  0.00000000E+00
  0.00000000E+00  0.00000000E+00  0.00000000E+00
  0.00000000E+00  0.00000000E+00  0.00000000E+00
  0.00000000E+00  0.00000000E+00  0.00000000E+00
  0.00000000E+00  0.00000000E+00  0.00000000E+00
  0.00000000E+00  0.00000000E+00  0.00000000E+00
  0.00000000E+00  0.00000000E+00  0.00000000E+00
  0.00000000E+00  0.00000000E+00  0.00000000E+00
  0.00000000E+00  0.00000000E+00  0.00000000E+00
  0.00000000E+00  0.00000000E+00  0.00000000E+00
  0.00000000E+00  0.00000000E+00  0.00000000E+00
  0.00000000E+00  0.00000000E+00  0.00000000E+00
  0.00000000E+00  0.00000000E+00  0.00000000E+00
  0.00000000E+00  0.00000000E+00  0.00000000E+00
  0.00000000E+00  0.00000000E+00  0.00000000E+00
  0.00000000E+00  0.00000000E+00  0.00000000E+00
  0.00000000E+00  0.00000000E+00  0.00000000E+00
  0.00000000E+00  0.00000000E+00  0.00000000E+00
  0.00000000E+00  0.00000000E+00  0.00000000E+00
  0.00000000E+00  0.00000000E+00  0.00000000E+00
  0.00000000E+00  0.00000000E+00  0.00000000E+00
  0.00000000E+00  0.00000000E+00  0.00000000E+00
  0.00000000E+00  0.00000000E+00  0.00000000E+00
  0.00000000E+00  0.00000000E+00  0.00000000E+00
  0.00000000E+00  0.00000000E+00  0.00000000E+00
  0.00000000E+00  0.00000000E+00  0.00000000E+00
  0.00000000E+00  0.00000000E+00  0.00000000E+00
  0.00000000E+00  0.00000000E+00  0.00000000E+00
  0.00000000E+00  0.00000000E+00  0.00000000E+00
  0.00000000E+00  0.00000000E+00  0.00000000E+00
  0.00000000E+00  0.00000000E+00  0.00000000E+00
  0.00000000E+00  0.00000000E+00  0.00000000E+00
  0.00000000E+00  0.00000000E+00  0.00000000E+00
  0.00000000E+00  0.00000000E+00  0.00000000E+00
  0.00000000E+00  0.00000000E+00  0.00000000E+00
  0.00000000E+00  0.00000000E+00  0.00000000E+00
  0.00000000E+00  0.00000000E+00  0.00000000E+00
  0.00000000E+00  0.00000000E+00  0.00000000E+00
  0.00000000E+00  0.00000000E+00  0.00000000E+00
  0.00000000E+00  0.00000000E+00  0.00000000E+00
  0.00000000E+00  0.00000000E+00  0.00000000E+00
  0.00000000E+00  0.00000000E+00  0.00000000E+00
