CeO2-you-111-you-Ca                     
   1.00000000000000     
     9.8514133484285260   -5.6805637473543014    0.0071891768441111
     0.0061944800385027   11.3718546488748196   -0.0071891756121677
     0.0078019002788867   -0.0135132869020937   20.4113414082253755
   O    Ca   Ce   H 
    53     1    26     2
Selective dynamics
Direct
  0.0001883078485947  0.9996032891567620  0.9892981456643466   T   T   T
  0.1082662470236428  0.2198807043241757  0.1458284550109781   F   F   F
  0.2277896810753342  0.1091580830626958  0.3071835569221719   T   T   T
  0.1057711890524837  0.2282372280520735  0.3828487107792112   T   T   T
  0.0008122727781505  0.0021228156460585  0.2308596033355101   T   T   T
  0.2220975948978818  0.1100630953585409  0.0714037758387178   F   F   F
  0.3351395277065998  0.0004308878121250  0.9899905956859195   T   T   T
  0.4422733393535765  0.2243926606455275  0.1505358211939836   F   F   F
  0.5511003093345221  0.1150178158614828  0.3100733068157276   T   T   T
  0.4463843930740536  0.2208223042156897  0.4080546040074308   T   T   T
  0.3345840140302360 -0.0005874789755343  0.2294103101670497   T   T   T
  0.5561189477902957  0.1105480522102411  0.0740120523702288   F   F   F
  0.6658481885392084  0.0008775032287653  0.9893390667519540   T   T   T
  0.7846025779718033  0.2261035161095322  0.1506997447223242   F   F   F
  0.8807412375828031  0.1063741761410717  0.3066178140483894   T   T   T
  0.7741383500870184  0.2194089345778560  0.3941243367141437   T   T   T
  0.6649753082500763  0.0023227168313758  0.2295045217427066   T   T   T
  0.8879930981145421  0.1098447510466158  0.0706095510380180   F   F   F
  0.9987433725382674  0.3320777833678443  0.9888203966570103   T   T   T
  0.1105527439177862  0.5561142560800079  0.1469239411489909   F   F   F
  0.1285027840078934  0.5376835168951709  0.3818804106383841   T   T   T
  0.0192340987746727  0.3405170337052482  0.2370925888626472   T   T   T
  0.2226665210121794  0.4439994789886939  0.0687727129858686   F   F   F
  0.3342782393588069  0.3318209666633145  0.9889151262059648   T   T   T
  0.4467852956792910  0.5584007529778816  0.1458284550107578   F   F   F
  0.5579705519087845  0.4397436387879400  0.3072804349796181   T   T   T
  0.4379945638702748  0.5616265478666022  0.3824713682582888   T   T   T
  0.3251574632225124  0.3419630679074629  0.2317571787224910   T   T   T
  0.5566039046414204  0.4445684051019327  0.0714037758385615   F   F   F
  0.6663244662905223  0.3315734334282456  0.9902134472726576   T   T   T
  0.7787980552867424  0.5555528067811650  0.1500742208036527   F   F   F
  0.8831232766243531  0.4361802766196353  0.3083311916572786   T   T   T
  0.7650027623903403  0.5488892451907911  0.3933637524191047   T   T   T
  0.6668121713508317  0.3320300181810451  0.2294773945446772   T   T   T
  0.8884296479833438  0.4442960300624321  0.0716313149985410   F   F   F
  0.0007374402007093  0.6666624095113100  0.9893226243403096   T   T   T
  0.1111141932173041  0.8878689447111583  0.1500742208036741   F   F   F
  0.2300239990057004  0.7838473935792338  0.3085274789698080   T   T   T
  0.1162262818901661  0.9015961584781108  0.3930364700512365   T   T   T
  0.0010138513115526  0.6655516693696590  0.2305816293441549   T   T   T
  0.2223699699372474  0.7782373520162125  0.0716313149985623   F   F   F
  0.3339123574016843  0.6674851989402265  0.9888809831704785   T   T   T
  0.4405624838914903  0.8820644220282574  0.1506997447223810   F   F   F
  0.5599794044982301  0.7868414903760634  0.3066443017199535   T   T   T
  0.4469764039440330  0.8933006048090880  0.3940830911022392   T   T   T
  0.3255929470805602  0.6476945905233733  0.2368234026934800   T   T   T
  0.5568222489536794  0.7786739018854547  0.0706095510378475   F   F   F
  0.6677410063015837  0.6665836153971262  0.9886537874719026   T   T   T
  0.7779090075077164  0.8887579924926570  0.1482440056940533   F   F   F
  0.8856252025949907  0.7794384731105568  0.3073049033542646   T   T   T
  0.7769445965091420  0.8897460964243109  0.3910976697689010   T   T   T
  0.6633718476293533  0.6659754315266806  0.2309771389300912   T   T   T
  0.8889998874392333  0.7776671125611898  0.0713538751476079   F   F   F
  0.3371535488302388  0.3298490631876888  0.3509928541416106   T   T   T
  0.0015334196583773  0.0018909290947180  0.3483707820337586   T   T   T
  0.2224429110347046  0.1132546694969250  0.1921695860538577   F   F   F
  0.1104265835810665  0.2197936821564710  0.0287218810149739   F   F   F
  0.3274078870007452 -0.0033789417179538  0.3482568565786490   T   T   T
  0.5556213712914939  0.1110456287107908  0.1906474053888374   F   F   F
  0.4445113631604727  0.2221546368395622  0.0317112885560107   F   F   F
  0.6659986576980279  0.0008127470336272  0.3506219654679065   T   T   T
  0.8892485214253583  0.1111574884875424  0.1898299134337620   F   F   F
  0.7782254627888108  0.2222450639267990  0.0309320413564151   F   F   F
  0.9874197859690962  0.3221807638021960  0.3520993637742183   T   T   T
  0.2232308150744942  0.4434351849186768  0.1817141229472057   F   F   F
  0.1103248699131143  0.5563421300864491  0.0292296848917815   F   F   F
  0.5534123305019918  0.4442230889639447  0.1921695860537014   F   F   F
  0.4468723178430238  0.5562404164186390  0.0287218810150733   F   F   F
  0.6702357753556722  0.3391582135513099  0.3482248562828841   T   T   T
  0.8898352997587224  0.4447711597768276  0.1914072442844770   F   F   F
  0.7776101242665305  0.5545334213137920  0.0315079796695343   F   F   F
 -0.0004408246246147  0.6664733509805849  0.3521241226440983   T   T   T
  0.2218948402260779  0.7768317002474845  0.1914072442844699   F   F   F
  0.1121335786870148  0.8890568757339494  0.0315079796694988   F   F   F
  0.3441382996630752  0.6798537240231863  0.3519890138860484   T   T   T
  0.5555095115079638  0.7774184785735656  0.1898299134337194   F   F   F
  0.4444209360726106  0.8884415372114773  0.0309320413565004   F   F   F
  0.6645044215810114  0.6650515734012027  0.3483276624384123   T   T   T
  0.8888571918345036  0.7778098081671772  0.1894121556905120   F   F   F
  0.7776817595274395  0.8889852404719605  0.0302822087860690   F   F   F
  0.3251869289983321  0.3402959785089371  0.4930471548033313   T   T   T
  0.4457642239181149  0.2219901571430538  0.4556750160387495   T   T   T
 
  0.00000000E+00  0.00000000E+00  0.00000000E+00
  0.00000000E+00  0.00000000E+00  0.00000000E+00
  0.00000000E+00  0.00000000E+00  0.00000000E+00
  0.00000000E+00  0.00000000E+00  0.00000000E+00
  0.00000000E+00  0.00000000E+00  0.00000000E+00
  0.00000000E+00  0.00000000E+00  0.00000000E+00
  0.00000000E+00  0.00000000E+00  0.00000000E+00
  0.00000000E+00  0.00000000E+00  0.00000000E+00
  0.00000000E+00  0.00000000E+00  0.00000000E+00
  0.00000000E+00  0.00000000E+00  0.00000000E+00
  0.00000000E+00  0.00000000E+00  0.00000000E+00
  0.00000000E+00  0.00000000E+00  0.00000000E+00
  0.00000000E+00  0.00000000E+00  0.00000000E+00
  0.00000000E+00  0.00000000E+00  0.00000000E+00
  0.00000000E+00  0.00000000E+00  0.00000000E+00
  0.00000000E+00  0.00000000E+00  0.00000000E+00
  0.00000000E+00  0.00000000E+00  0.00000000E+00
  0.00000000E+00  0.00000000E+00  0.00000000E+00
  0.00000000E+00  0.00000000E+00  0.00000000E+00
  0.00000000E+00  0.00000000E+00  0.00000000E+00
  0.00000000E+00  0.00000000E+00  0.00000000E+00
  0.00000000E+00  0.00000000E+00  0.00000000E+00
  0.00000000E+00  0.00000000E+00  0.00000000E+00
  0.00000000E+00  0.00000000E+00  0.00000000E+00
  0.00000000E+00  0.00000000E+00  0.00000000E+00
  0.00000000E+00  0.00000000E+00  0.00000000E+00
  0.00000000E+00  0.00000000E+00  0.00000000E+00
  0.00000000E+00  0.00000000E+00  0.00000000E+00
  0.00000000E+00  0.00000000E+00  0.00000000E+00
  0.00000000E+00  0.00000000E+00  0.00000000E+00
  0.00000000E+00  0.00000000E+00  0.00000000E+00
  0.00000000E+00  0.00000000E+00  0.00000000E+00
  0.00000000E+00  0.00000000E+00  0.00000000E+00
  0.00000000E+00  0.00000000E+00  0.00000000E+00
  0.00000000E+00  0.00000000E+00  0.00000000E+00
  0.00000000E+00  0.00000000E+00  0.00000000E+00
  0.00000000E+00  0.00000000E+00  0.00000000E+00
  0.00000000E+00  0.00000000E+00  0.00000000E+00
  0.00000000E+00  0.00000000E+00  0.00000000E+00
  0.00000000E+00  0.00000000E+00  0.00000000E+00
  0.00000000E+00  0.00000000E+00  0.00000000E+00
  0.00000000E+00  0.00000000E+00  0.00000000E+00
  0.00000000E+00  0.00000000E+00  0.00000000E+00
  0.00000000E+00  0.00000000E+00  0.00000000E+00
  0.00000000E+00  0.00000000E+00  0.00000000E+00
  0.00000000E+00  0.00000000E+00  0.00000000E+00
  0.00000000E+00  0.00000000E+00  0.00000000E+00
  0.00000000E+00  0.00000000E+00  0.00000000E+00
  0.00000000E+00  0.00000000E+00  0.00000000E+00
  0.00000000E+00  0.00000000E+00  0.00000000E+00
  0.00000000E+00  0.00000000E+00  0.00000000E+00
  0.00000000E+00  0.00000000E+00  0.00000000E+00
  0.00000000E+00  0.00000000E+00  0.00000000E+00
  0.00000000E+00  0.00000000E+00  0.00000000E+00
  0.00000000E+00  0.00000000E+00  0.00000000E+00
  0.00000000E+00  0.00000000E+00  0.00000000E+00
  0.00000000E+00  0.00000000E+00  0.00000000E+00
  0.00000000E+00  0.00000000E+00  0.00000000E+00
  0.00000000E+00  0.00000000E+00  0.00000000E+00
  0.00000000E+00  0.00000000E+00  0.00000000E+00
  0.00000000E+00  0.00000000E+00  0.00000000E+00
  0.00000000E+00  0.00000000E+00  0.00000000E+00
  0.00000000E+00  0.00000000E+00  0.00000000E+00
  0.00000000E+00  0.00000000E+00  0.00000000E+00
  0.00000000E+00  0.00000000E+00  0.00000000E+00
  0.00000000E+00  0.00000000E+00  0.00000000E+00
  0.00000000E+00  0.00000000E+00  0.00000000E+00
  0.00000000E+00  0.00000000E+00  0.00000000E+00
  0.00000000E+00  0.00000000E+00  0.00000000E+00
  0.00000000E+00  0.00000000E+00  0.00000000E+00
  0.00000000E+00  0.00000000E+00  0.00000000E+00
  0.00000000E+00  0.00000000E+00  0.00000000E+00
  0.00000000E+00  0.00000000E+00  0.00000000E+00
  0.00000000E+00  0.00000000E+00  0.00000000E+00
  0.00000000E+00  0.00000000E+00  0.00000000E+00
  0.00000000E+00  0.00000000E+00  0.00000000E+00
  0.00000000E+00  0.00000000E+00  0.00000000E+00
  0.00000000E+00  0.00000000E+00  0.00000000E+00
  0.00000000E+00  0.00000000E+00  0.00000000E+00
  0.00000000E+00  0.00000000E+00  0.00000000E+00
  0.00000000E+00  0.00000000E+00  0.00000000E+00
  0.00000000E+00  0.00000000E+00  0.00000000E+00
