CeO2-you-111-you-Hf                     
   1.00000000000000     
     9.8275325578233925   -5.6739289345181376    0.0000000009305697
     0.0379791903897464   11.4136377551919406    0.0177497162897079
     0.0193671628769887    0.0335449044223166   20.6701582249474498
   O    Hf   Ce   H 
    53     1    26     2
Selective dynamics
Direct
  0.9992811588306547  0.9997145464197306  0.9922940490830595   T   T   T
  0.1111634977537079  0.2227062037143810  0.1478602308618662   F   F   F
  0.2338813117601948  0.1187157551540365  0.3047220818738489   T   T   T
  0.1254366673021232  0.2244881838911990  0.3820255404173850   T   T   T
  0.0020896833887904 -0.0000978856497930  0.2293801219608369   T   T   T
  0.2216829450464033  0.1100328900930307  0.0711591743756443   F   F   F
  0.3342429102004172  0.9998809002104475  0.9923974485612728   T   T   T
  0.4448757059605626  0.2227062037144378  0.1478602308619728   F   F   F
  0.5502762672880936  0.1186457460488097  0.3090052572489147   T   T   T
  0.4230004462193519  0.2296652042642895  0.3991801225068556   T   T   T
  0.3317192482011024  0.9971289477601420  0.2287626669333561   T   T   T
  0.5571129673835316  0.1118036641702602  0.0733595382056649   F   F   F
  0.6666408340903646  0.9996370991702804  0.9927722894976334   T   T   T
  0.7791858284771749  0.2250376569542496  0.1520597922051508   F   F   F
  0.8917498465673284  0.1122847874577611  0.3055621292104903   T   T   T
  0.7790217882661198  0.2221114763225712  0.3865661770337596   T   T   T
  0.6650432122494186  0.0017789267409424  0.2324179109780905   T   T   T
  0.8880246967867791  0.1118036641703384  0.0733595382056507   F   F   F
  0.0005999695414496  0.3334726199507849  0.9923389830994687   T   T   T
  0.1100564610898189  0.5539398975767753  0.1487765856881111   F   F   F
  0.2346711918985742  0.4387409702054430  0.3069440567879297   T   T   T
  0.0973622536459511  0.5438758196401546  0.3878533232340065   T   T   T
  0.0050328825684473  0.3348230536367000  0.2314921875799604   T   T   T
  0.2232182223993533  0.4451114249294363  0.0736165832340561   F   F   F
  0.3339043505841513  0.3336956392733787  0.9924212465194461   T   T   T
  0.4441196755654886  0.5549073511309430  0.1509508957757149   F   F   F
  0.5336252146751186  0.4276175588316748  0.3092900132877437   T   T   T
  0.3284360826593744  0.3272914300504770  0.2297680696656503   T   T   T
  0.5552272025300127  0.4451114249294363  0.0736165832340703   F   F   F
  0.6664484795558965  0.3333548134299023  0.9923617954033481   T   T   T
  0.7772164364872793  0.5539398975769032  0.1487765856881325   F   F   F
  0.8887625842239623  0.4413224920617720  0.3042477283861804   T   T   T
  0.7817339808418108  0.5444349361609112  0.3877985192584862   T   T   T
  0.6658891485735753  0.3359146813800890  0.2312022729644516   T   T   T
  0.8884099439184254  0.4434858878367649  0.0728580239481218   F   F   F
  0.0001872571664559  0.6669374267462367  0.9922566355658941   T   T   T
  0.1102405492345824  0.8871480984687636  0.1469288435589675   F   F   F
  0.2181915950288511  0.7781323267237893  0.3061436437227062   T   T   T
  0.1131287460958483  0.8908482623142477  0.3881316455251506   T   T   T
 -0.0006126955104153  0.6664230424028955  0.2291780535957796   T   T   T
  0.2227764055904800  0.7772260236526378  0.0726567350650598   F   F   F
  0.3339591024276975  0.6669423177288017  0.9925222467030073   T   T   T
  0.4465416059095233  0.8902802620173702  0.1495931715375605   F   F   F
  0.5567013506481613  0.7790692487249898  0.3094429592403017   T   T   T
  0.4472885982246514  0.9021946091274105  0.3899309570895672   T   T   T
  0.3317510577246193  0.6663502090228487  0.2292213580424414   T   T   T
  0.5548831200795377  0.7764322401590391  0.0740297142439843   F   F   F
  0.6662243050573190  0.6666854077448657  0.9924503642813524   T   T   T
  0.7770716561078927  0.8902802620174981  0.1495931715375107   F   F   F
  0.8947337907574966  0.7794542822093260  0.3064249013380889   T   T   T
  0.7882727862938942  0.9033572729494357  0.3898876487119851   T   T   T
  0.6674443109026666  0.6642455789718008  0.2299257326669516   T   T   T
  0.8877826180621824  0.7772260236526947  0.0726567350650527   F   F   F
  0.3205358476508920  0.3220500947181364  0.3325022370557708   T   T   T
  0.0022059701278085  0.0007999413821711  0.3468794935682371   T   T   T
  0.2196456918777869  0.1059583837546896  0.1853273282315513   F   F   F
  0.1108685751636571  0.2229217623657078  0.0324508374494812   F   F   F
  0.3280942665032081 -0.0076590779221132  0.3461139813726906   T   T   T
  0.5548830833461480  0.1116123915596248  0.1906182892374915   F   F   F
  0.4453861872021818  0.2229217623658712  0.0324508374494812   F   F   F
  0.6675841510782383 -0.0001444189456526  0.3485537011247826   T   T   T
  0.8900633082138683  0.1116123915595253  0.1906182892375696   F   F   F
  0.7780771288467463  0.2228202576933214  0.0335101812725753   F   F   F
  0.0035168081987382  0.3315249625540627  0.3466138659876136   T   T   T
  0.2242742757316520  0.4455870596563756  0.1902570327638884   F   F   F
  0.1115357274844442  0.5555352460726226  0.0329999219351365   F   F   F
  0.5546467839244045  0.4455870596559137  0.1902570327638742   F   F   F
  0.4447712034399771  0.5562104068798561  0.0330441845450764   F   F   F
  0.6721970258638174  0.3365993008104303  0.3453190934309067   T   T   T
  0.8895382347787617  0.4457424695579419  0.1906509853942353   F   F   F
  0.7773325185881532  0.5555352460727008  0.0329999219351222   F   F   F
  0.9991184140943572  0.6632616026402600  0.3462142044125268   T   T   T
  0.2222307397393521  0.7773085513404183  0.1888060101701470   F   F   F
  0.1107210603453694  0.8881091206907712  0.0312111769443604   F   F   F
  0.3297137467544919  0.6660853821196666  0.3495043707552515   T   T   T
  0.5561019566819496  0.7788699133642467  0.1922612973020108   F   F   F
  0.4453416011983862  0.8891138214948242  0.0334268210756150   F   F   F
  0.6707550350834725  0.6660018763428085  0.3488388938869820   T   T   T
  0.8884108116005862  0.7773085513401412  0.1888060101702038   F   F   F
  0.7771052202964910  0.8891138214947603  0.0334268210756363   F   F   F
  0.4177478210723236  0.5053716811402110  0.3935980981592225   T   T   T
  0.4153579548607822  0.2382020608507335  0.4456198259463451   T   T   T
 
  0.00000000E+00  0.00000000E+00  0.00000000E+00
  0.00000000E+00  0.00000000E+00  0.00000000E+00
  0.00000000E+00  0.00000000E+00  0.00000000E+00
  0.00000000E+00  0.00000000E+00  0.00000000E+00
  0.00000000E+00  0.00000000E+00  0.00000000E+00
  0.00000000E+00  0.00000000E+00  0.00000000E+00
  0.00000000E+00  0.00000000E+00  0.00000000E+00
  0.00000000E+00  0.00000000E+00  0.00000000E+00
  0.00000000E+00  0.00000000E+00  0.00000000E+00
  0.00000000E+00  0.00000000E+00  0.00000000E+00
  0.00000000E+00  0.00000000E+00  0.00000000E+00
  0.00000000E+00  0.00000000E+00  0.00000000E+00
  0.00000000E+00  0.00000000E+00  0.00000000E+00
  0.00000000E+00  0.00000000E+00  0.00000000E+00
  0.00000000E+00  0.00000000E+00  0.00000000E+00
  0.00000000E+00  0.00000000E+00  0.00000000E+00
  0.00000000E+00  0.00000000E+00  0.00000000E+00
  0.00000000E+00  0.00000000E+00  0.00000000E+00
  0.00000000E+00  0.00000000E+00  0.00000000E+00
  0.00000000E+00  0.00000000E+00  0.00000000E+00
  0.00000000E+00  0.00000000E+00  0.00000000E+00
  0.00000000E+00  0.00000000E+00  0.00000000E+00
  0.00000000E+00  0.00000000E+00  0.00000000E+00
  0.00000000E+00  0.00000000E+00  0.00000000E+00
  0.00000000E+00  0.00000000E+00  0.00000000E+00
  0.00000000E+00  0.00000000E+00  0.00000000E+00
  0.00000000E+00  0.00000000E+00  0.00000000E+00
  0.00000000E+00  0.00000000E+00  0.00000000E+00
  0.00000000E+00  0.00000000E+00  0.00000000E+00
  0.00000000E+00  0.00000000E+00  0.00000000E+00
  0.00000000E+00  0.00000000E+00  0.00000000E+00
  0.00000000E+00  0.00000000E+00  0.00000000E+00
  0.00000000E+00  0.00000000E+00  0.00000000E+00
  0.00000000E+00  0.00000000E+00  0.00000000E+00
  0.00000000E+00  0.00000000E+00  0.00000000E+00
  0.00000000E+00  0.00000000E+00  0.00000000E+00
  0.00000000E+00  0.00000000E+00  0.00000000E+00
  0.00000000E+00  0.00000000E+00  0.00000000E+00
  0.00000000E+00  0.00000000E+00  0.00000000E+00
  0.00000000E+00  0.00000000E+00  0.00000000E+00
  0.00000000E+00  0.00000000E+00  0.00000000E+00
  0.00000000E+00  0.00000000E+00  0.00000000E+00
  0.00000000E+00  0.00000000E+00  0.00000000E+00
  0.00000000E+00  0.00000000E+00  0.00000000E+00
  0.00000000E+00  0.00000000E+00  0.00000000E+00
  0.00000000E+00  0.00000000E+00  0.00000000E+00
  0.00000000E+00  0.00000000E+00  0.00000000E+00
  0.00000000E+00  0.00000000E+00  0.00000000E+00
  0.00000000E+00  0.00000000E+00  0.00000000E+00
  0.00000000E+00  0.00000000E+00  0.00000000E+00
  0.00000000E+00  0.00000000E+00  0.00000000E+00
  0.00000000E+00  0.00000000E+00  0.00000000E+00
  0.00000000E+00  0.00000000E+00  0.00000000E+00
  0.00000000E+00  0.00000000E+00  0.00000000E+00
  0.00000000E+00  0.00000000E+00  0.00000000E+00
  0.00000000E+00  0.00000000E+00  0.00000000E+00
  0.00000000E+00  0.00000000E+00  0.00000000E+00
  0.00000000E+00  0.00000000E+00  0.00000000E+00
  0.00000000E+00  0.00000000E+00  0.00000000E+00
  0.00000000E+00  0.00000000E+00  0.00000000E+00
  0.00000000E+00  0.00000000E+00  0.00000000E+00
  0.00000000E+00  0.00000000E+00  0.00000000E+00
  0.00000000E+00  0.00000000E+00  0.00000000E+00
  0.00000000E+00  0.00000000E+00  0.00000000E+00
  0.00000000E+00  0.00000000E+00  0.00000000E+00
  0.00000000E+00  0.00000000E+00  0.00000000E+00
  0.00000000E+00  0.00000000E+00  0.00000000E+00
  0.00000000E+00  0.00000000E+00  0.00000000E+00
  0.00000000E+00  0.00000000E+00  0.00000000E+00
  0.00000000E+00  0.00000000E+00  0.00000000E+00
  0.00000000E+00  0.00000000E+00  0.00000000E+00
  0.00000000E+00  0.00000000E+00  0.00000000E+00
  0.00000000E+00  0.00000000E+00  0.00000000E+00
  0.00000000E+00  0.00000000E+00  0.00000000E+00
  0.00000000E+00  0.00000000E+00  0.00000000E+00
  0.00000000E+00  0.00000000E+00  0.00000000E+00
  0.00000000E+00  0.00000000E+00  0.00000000E+00
  0.00000000E+00  0.00000000E+00  0.00000000E+00
  0.00000000E+00  0.00000000E+00  0.00000000E+00
  0.00000000E+00  0.00000000E+00  0.00000000E+00
  0.00000000E+00  0.00000000E+00  0.00000000E+00
  0.00000000E+00  0.00000000E+00  0.00000000E+00
