CeO2-you-111-you-W                      
   1.00000000000000     
     9.8569955155784985   -5.6909393813943518    0.0000000005368914
     0.0313157546001655   11.4361172343986421    0.0099395578231943
     0.0107297235775559    0.0185844232291978   20.7922285279205781
   O    W    Ce   H 
    53     1    26     2
Selective dynamics
Direct
  0.9985115402033562  0.9996818461217882  0.9945405683219635   T   T   T
  0.1121281387365869  0.2234822412348194  0.1475986100164519   F   F   F
  0.2368048141918796  0.1314272348871089  0.3015912096198290   T   T   T
  0.1880060976210311  0.2544314658690297  0.3935222615740230   T   T   T
  0.0043801814139055  0.0012098017843832  0.2277280715418170   T   T   T
  0.2212833258664944  0.1092336517329713  0.0714028005088636   F   F   F
  0.3348474811901497  0.9994702586706925  0.9940353688251571   T   T   T
  0.4446871024983423  0.2234822412341586  0.1475986100165798   F   F   F
  0.5588922023361148  0.1136254841683889  0.3053197732603420   T   T   T
  0.4164563294002700  0.2314701491865432  0.3959667893071920   T   T   T
  0.3295001417721907  0.9987168180832586  0.2270299512154745   T   T   T
  0.5577253802773754  0.1120202596622590  0.0751985553427374   F   F   F
  0.6670733512517688  0.9997499168295145  0.9948416161053695   T   T   T
  0.7803067472036602  0.2272794944069858  0.1534381775216005   F   F   F
  0.9008296426071271  0.1227008815419103  0.3088036478568327   T   T   T
  0.7868634303872923  0.2238366054754006  0.3900736096519672   T   T   T
  0.6705692320113076  0.0015775301496687  0.2305107488496716   T   T   T
  0.8876288793850691  0.1120202596625504  0.0751985553427446   F   F   F
  0.9994085925024678  0.3319209188135598  0.9938387400934959   T   T   T
  0.1093512726861618  0.5534713693048658  0.1478852986231942   F   F   F
  0.2465060906408411  0.4307906066475373  0.3084577333097840   T   T   T
  0.1001005265236380  0.5416873708810496  0.3862019259084778   T   T   T
  0.0104034858226282  0.3401456713101212  0.2317703944462979   T   T   T
  0.2224502361738914  0.4447421485542904  0.0734712491917691   F   F   F
  0.3331173346537525  0.3327630127842586  0.9939298782437723   T   T   T
  0.4430419976837072  0.5527519953689861  0.1495884157463720   F   F   F
  0.5027959165625616  0.4360144880838858  0.3218623618543190   T   T   T
  0.3298293799612979  0.3263688031068582  0.2294114411178641   T   T   T
  0.5556259123801652  0.4447421485542407  0.0734712491917691   F   F   F
  0.6658432544000416  0.3325640192677724  0.9936146623624893   T   T   T
  0.7774530966181743  0.5534713693045745  0.1478852986232440   F   F   F
  0.8898851153789599  0.4433616316418045  0.3037970563264359   T   T   T
  0.7789821435580097  0.5667223296126063  0.3846564829917642   T   T   T
  0.6591225701629682  0.3423275026370854  0.2324315253154409   T   T   T
  0.8884382132239068  0.4435424264476850  0.0727657542859106   F   F   F
  0.0002133279491170  0.6673629977264625  0.9932678087744310   T   T   T
  0.1095654020210475  0.8857978040405783  0.1463624515960973   F   F   F
  0.2187175582338182  0.7711778067810996  0.3036538799532441   T   T   T
  0.1045820974392859  0.8726232841073368  0.3891130835085852   T   T   T
  0.9982973085026769  0.6671704862862606  0.2280340174578565   T   T   T
  0.2231648267012574  0.7766736354915196  0.0732031928110430   F   F   F
  0.3339190063112564  0.6663414407717763  0.9936704328582596   T   T   T
  0.4468935911188723  0.8902787712500313  0.1502646252603910   F   F   F
  0.5617907648346047  0.7778458575272283  0.3041708178949208   T   T   T
  0.4611172811361823  0.8953900761954566  0.3900872112477083   T   T   T
  0.3311173684373043  0.6608296438838308  0.2283081746857470   T   T   T
  0.5549052764848525  0.7764765529697826  0.0745228340908710   F   F   F
  0.6655583162193794  0.6668409876975903  0.9936777280616691   T   T   T
  0.7767181801314038  0.8902787712502089  0.1502646252603483   F   F   F
  0.8888353643544878  0.7798053880177908  0.3033472892265365   T   T   T
  0.7738070124534471  0.8881739408267127  0.3892250688356785   T   T   T
  0.6644651031040116  0.6577364304180033  0.2308709713197738   T   T   T
  0.8868418087902867  0.7766736354914556  0.0732031928110501   F   F   F
  0.3150652577411651  0.3118700289938948  0.3283659837354003   T   T   T
  0.0015013699234756  0.9949990748166324  0.3512007040313172   T   T   T
  0.2187794433532559  0.1042258867103385  0.1835090731490254   F   F   F
  0.1099824703960763  0.2223163165107493  0.0331681069520897   F   F   F
  0.3328754635159346  0.9887921380997355  0.3484284685800781   T   T   T
  0.5543787010245396  0.1120407056035475  0.1916989117725834   F   F   F
  0.4456668461143778  0.2223163165109625  0.0331681069520968   F   F   F
  0.6687434279208523  0.0019181761273994  0.3475241665631220   T   T   T
  0.8909960045780778  0.1120407056028938  0.1916989117727894   F   F   F
  0.7777608755556855  0.2221877511113206  0.0350803161016060   F   F   F
  0.9943243851432919  0.3376693238086269  0.3461375542562871   T   T   T
  0.2246033996368482  0.4456501143752902  0.1883952479112878   F   F   F
  0.1116239993562829  0.5554134677103306  0.0335312236157606   F   F   F
  0.5543807147410789  0.4456501143764271  0.1883952479108828   F   F   F
  0.4445718263624769  0.5558116527245431  0.0331500090777510   F   F   F
  0.6688310882930921  0.3355262807619079  0.3504523726975161   T   T   T
  0.8902127287600763  0.4470914575203864  0.1892264318742107   F   F   F
  0.7771224683543281  0.5554134677105651  0.0335312236157463   F   F   F
  0.0004326666546485  0.6676301343203802  0.3447747477689306   T   T   T
  0.2226897397644478  0.7774220584579794  0.1891012048068816   F   F   F
  0.1101492594727134  0.8869655189455088  0.0322609789593713   F   F   F
  0.3374452880804372  0.6697976408508860  0.3503391818990032   T   T   T
  0.5559082880829038  0.7784825761648335  0.1914507358170709   F   F   F
  0.4454103918752708  0.8891128529489691  0.0349925114626544   F   F   F
  0.6767109809332746  0.6788305573680299  0.3477913618793150   T   T   T
  0.8880653186936698  0.7774220584579794  0.1891012048069882   F   F   F
  0.7770354610738366  0.8891128529490544  0.0349925114626757   F   F   F
  0.4844157387869718  0.6077642208188805  0.4061786227589493   T   T   T
  0.3847122742924735  0.2381784366199832  0.4385419108410887   T   T   T
 
  0.00000000E+00  0.00000000E+00  0.00000000E+00
  0.00000000E+00  0.00000000E+00  0.00000000E+00
  0.00000000E+00  0.00000000E+00  0.00000000E+00
  0.00000000E+00  0.00000000E+00  0.00000000E+00
  0.00000000E+00  0.00000000E+00  0.00000000E+00
  0.00000000E+00  0.00000000E+00  0.00000000E+00
  0.00000000E+00  0.00000000E+00  0.00000000E+00
  0.00000000E+00  0.00000000E+00  0.00000000E+00
  0.00000000E+00  0.00000000E+00  0.00000000E+00
  0.00000000E+00  0.00000000E+00  0.00000000E+00
  0.00000000E+00  0.00000000E+00  0.00000000E+00
  0.00000000E+00  0.00000000E+00  0.00000000E+00
  0.00000000E+00  0.00000000E+00  0.00000000E+00
  0.00000000E+00  0.00000000E+00  0.00000000E+00
  0.00000000E+00  0.00000000E+00  0.00000000E+00
  0.00000000E+00  0.00000000E+00  0.00000000E+00
  0.00000000E+00  0.00000000E+00  0.00000000E+00
  0.00000000E+00  0.00000000E+00  0.00000000E+00
  0.00000000E+00  0.00000000E+00  0.00000000E+00
  0.00000000E+00  0.00000000E+00  0.00000000E+00
  0.00000000E+00  0.00000000E+00  0.00000000E+00
  0.00000000E+00  0.00000000E+00  0.00000000E+00
  0.00000000E+00  0.00000000E+00  0.00000000E+00
  0.00000000E+00  0.00000000E+00  0.00000000E+00
  0.00000000E+00  0.00000000E+00  0.00000000E+00
  0.00000000E+00  0.00000000E+00  0.00000000E+00
  0.00000000E+00  0.00000000E+00  0.00000000E+00
  0.00000000E+00  0.00000000E+00  0.00000000E+00
  0.00000000E+00  0.00000000E+00  0.00000000E+00
  0.00000000E+00  0.00000000E+00  0.00000000E+00
  0.00000000E+00  0.00000000E+00  0.00000000E+00
  0.00000000E+00  0.00000000E+00  0.00000000E+00
  0.00000000E+00  0.00000000E+00  0.00000000E+00
  0.00000000E+00  0.00000000E+00  0.00000000E+00
  0.00000000E+00  0.00000000E+00  0.00000000E+00
  0.00000000E+00  0.00000000E+00  0.00000000E+00
  0.00000000E+00  0.00000000E+00  0.00000000E+00
  0.00000000E+00  0.00000000E+00  0.00000000E+00
  0.00000000E+00  0.00000000E+00  0.00000000E+00
  0.00000000E+00  0.00000000E+00  0.00000000E+00
  0.00000000E+00  0.00000000E+00  0.00000000E+00
  0.00000000E+00  0.00000000E+00  0.00000000E+00
  0.00000000E+00  0.00000000E+00  0.00000000E+00
  0.00000000E+00  0.00000000E+00  0.00000000E+00
  0.00000000E+00  0.00000000E+00  0.00000000E+00
  0.00000000E+00  0.00000000E+00  0.00000000E+00
  0.00000000E+00  0.00000000E+00  0.00000000E+00
  0.00000000E+00  0.00000000E+00  0.00000000E+00
  0.00000000E+00  0.00000000E+00  0.00000000E+00
  0.00000000E+00  0.00000000E+00  0.00000000E+00
  0.00000000E+00  0.00000000E+00  0.00000000E+00
  0.00000000E+00  0.00000000E+00  0.00000000E+00
  0.00000000E+00  0.00000000E+00  0.00000000E+00
  0.00000000E+00  0.00000000E+00  0.00000000E+00
  0.00000000E+00  0.00000000E+00  0.00000000E+00
  0.00000000E+00  0.00000000E+00  0.00000000E+00
  0.00000000E+00  0.00000000E+00  0.00000000E+00
  0.00000000E+00  0.00000000E+00  0.00000000E+00
  0.00000000E+00  0.00000000E+00  0.00000000E+00
  0.00000000E+00  0.00000000E+00  0.00000000E+00
  0.00000000E+00  0.00000000E+00  0.00000000E+00
  0.00000000E+00  0.00000000E+00  0.00000000E+00
  0.00000000E+00  0.00000000E+00  0.00000000E+00
  0.00000000E+00  0.00000000E+00  0.00000000E+00
  0.00000000E+00  0.00000000E+00  0.00000000E+00
  0.00000000E+00  0.00000000E+00  0.00000000E+00
  0.00000000E+00  0.00000000E+00  0.00000000E+00
  0.00000000E+00  0.00000000E+00  0.00000000E+00
  0.00000000E+00  0.00000000E+00  0.00000000E+00
  0.00000000E+00  0.00000000E+00  0.00000000E+00
  0.00000000E+00  0.00000000E+00  0.00000000E+00
  0.00000000E+00  0.00000000E+00  0.00000000E+00
  0.00000000E+00  0.00000000E+00  0.00000000E+00
  0.00000000E+00  0.00000000E+00  0.00000000E+00
  0.00000000E+00  0.00000000E+00  0.00000000E+00
  0.00000000E+00  0.00000000E+00  0.00000000E+00
  0.00000000E+00  0.00000000E+00  0.00000000E+00
  0.00000000E+00  0.00000000E+00  0.00000000E+00
  0.00000000E+00  0.00000000E+00  0.00000000E+00
  0.00000000E+00  0.00000000E+00  0.00000000E+00
  0.00000000E+00  0.00000000E+00  0.00000000E+00
  0.00000000E+00  0.00000000E+00  0.00000000E+00
