CeO2-you-111-you-In                     
   1.00000000000000     
     9.8503223024340159   -5.6870866018270956    0.0000000005234767
     0.0155238340482827   11.4010592696020741    0.0099744722104691
     0.0107968259562429    0.0187006479432592   20.9204396210637036
   O    In   Ce   H 
    53     1    26     2
Selective dynamics
Direct
  0.9997262397734028  0.0000541420137081  0.9949319697066965   T   T   T
  0.1088532893612140  0.2217047417150937  0.1486778195410352   F   F   F
  0.2364044032984541  0.1220456523474968  0.3079327651782351   T   T   T
  0.1006749895968346  0.2150465463945483  0.3854597505233530   T   T   T
  0.0039004558966930  0.0010287466410298  0.2299646595424062   T   T   T
  0.2222776770003776  0.1112223540007591  0.0730908756225617   F   F   F
  0.3338234869678987  0.0002550720354226  0.9947314116203281   T   T   T
  0.4461844523534850  0.2217047417146176  0.1486778195410352   F   F   F
  0.5511169110360938  0.1163573201901887  0.3047837929965213   T   T   T
  0.4530064228053886  0.2164379472632970  0.4025882989869762   T   T   T
  0.3301495444900887 -0.0020892140303887  0.2286400786464429   T   T   T
  0.5572342712167853  0.1115600891204949  0.0745852251895371   F   F   F
  0.6672474005959563 -0.0000028730133606  0.9945804126598021   T   T   T
  0.7785847813853550  0.2238355627707520  0.1527123547521612   F   F   F
  0.8859935737852808  0.1077977211519464  0.3043148175181624   T   T   T
  0.7739381143497780  0.2199351047881945  0.3834212201819921   T   T   T
  0.6612922694721189  0.9947361696572075  0.2326035237699571   T   T   T
  0.8876598179038169  0.1115600891207507  0.0745852251895371   F   F   F
  0.0006026558484763  0.3334637350165578  0.9949122407267204   T   T   T
  0.1101652638610631  0.5547189385630418  0.1494163631864396   F   F   F
  0.2208541116915697  0.4409897821930536  0.3041435120188581   T   T   T
  0.0949317309166212  0.5475699126886934  0.3870455260263884   T   T   T
 -0.0001253574814030  0.3321271633745693  0.2300679801895152   T   T   T
  0.2229889741813267  0.4447758217904365  0.0750294772584539   F   F   F
  0.3335745107243114  0.3338396566967631  0.9948468493895303   T   T   T
  0.4453917447808706  0.5574514895621121  0.1500421540578145   F   F   F
  0.5516032512682723  0.4440459486730318  0.3084059388920317   T   T   T
  0.3330825143531083  0.3315825311183159  0.2259957225332371   T   T   T
  0.5551208476089471  0.4447758217903228  0.0750294772584539   F   F   F
  0.6665907358274136  0.3337913117929380  0.9945596732853562   T   T   T
  0.7778866747019322  0.5547189385628641  0.1494163631864396   F   F   F
  0.8872899102939532  0.4447239484934588  0.3039607711856427   T   T   T
  0.7795647929907089  0.5567194828343142  0.3855128239855942   T   T   T
  0.6656268546057977  0.3352933924315195  0.2303865364462511   T   T   T
  0.8882287660443922  0.4431235320887694  0.0747199102620186   F   F   F
 -0.0000911463807671  0.6667985860771559  0.9949306046333486   T   T   T
  0.1109447496242950  0.8885564992481250  0.1475021734332387   F   F   F
  0.2189788433097485  0.7789648063181689  0.3050361268270745   T   T   T
  0.1122529607367534  0.8904596755651915  0.3855249529570974   T   T   T
  0.0001830374970462  0.6683567345059913  0.2289038326581602   T   T   T
  0.2226479811887287  0.7772963987326875  0.0738604765606183   F   F   F
  0.3338327947227580  0.6665323959789020  0.9944378143704012   T   T   T
  0.4459962950110778  0.8897037839166941  0.1490333227414808   F   F   F
  0.5559971369183097  0.7633436656124245  0.3117279843550260   T   T   T
  0.4506022161044147  0.9016039826800784  0.3859849698263819   T   T   T
  0.3347529356511375  0.6697650317016113  0.2281888689625503   T   T   T
  0.5556043721519472  0.7778747443038867  0.0747258118839866   F   F   F
  0.6665960213556922  0.6668046823946677  0.9948834336723368   T   T   T
  0.7770404889058682  0.8897037839169926  0.1490333227414808   F   F   F
  0.8914290760054687  0.7788573735562178  0.3042519589134796   T   T   T
  0.7817126422628017  0.8886276865912314  0.3860388255497015   T   T   T
  0.6701663350490855  0.6678285243636634  0.2293708480728146   T   T   T
  0.8879814175441041  0.7772963987327657  0.0738604765606254   F   F   F
  0.3222351749548349  0.3303308950716606  0.3417411285641118   T   T   T
  0.0038729053722150  0.0047886364280058  0.3460897736986576   T   T   T
  0.2213463947613761  0.1093597895232250  0.1873453117227299   F   F   F
  0.1111337857794297  0.2230513359027810  0.0346672413700020   F   F   F
  0.3304970850371552 -0.0040071101826932  0.3441919381740873   T   T   T
  0.5548687780701300  0.1110296252754068  0.1902944014220367   F   F   F
  0.4452505501235038  0.2230513359030226  0.0346672413700091   F   F   F
  0.6650127778312602 -0.0018728944919071  0.3461323676779623   T   T   T
  0.8894948472047588  0.1110296252745826  0.1902944014220580   F   F   F
  0.7780200907887576  0.2227061815774292  0.0351966539532285   F   F   F
 -0.0001816344197274  0.3306885639663140  0.3445536992289910   T   T   T
  0.2244221722330551  0.4445762634088126  0.1903413272882020   F   F   F
  0.1113563185130815  0.5552689416885812  0.0349522298907843   F   F   F
  0.5534880911771154  0.4445762634097719  0.1903413272882304   F   F   F
  0.4445897392049218  0.5558474784096887  0.0346014984340002   F   F   F
  0.6704516175206228  0.3365155687566428  0.3431702671605175   T   T   T
  0.8894679215460997  0.4456018430921560  0.1907499330847813   F   F   F
  0.7772456231755172  0.5552689416887588  0.0349522298907843   F   F   F
  0.0011911131825375  0.6657825873683281  0.3452282145201393   T   T   T
  0.2219768923218268  0.7780898816331998  0.1877788144751804   F   F   F
  0.1111390121634130  0.8889450243269366  0.0331917275120901   F   F   F
  0.3241779576840936  0.6648213339456053  0.3459947615466131   T   T   T
  0.5554593715355409  0.7775847430710598  0.1901036180155344   F   F   F
  0.4453324226934043  0.8892879634501085  0.0346256375137912   F   F   F
  0.6809459304390340  0.6712509257818410  0.3418858885503589   T   T   T
  0.8894459893106585  0.7780898816327735  0.1877788144751875   F   F   F
  0.7772885407566719  0.8892879634500375  0.0346256375137841   F   F   F
  0.3994758940489641  0.4693132367003897  0.4023828217133496   T   T   T
  0.4458808190526092  0.2243591543618459  0.4485279882704706   T   T   T
 
  0.00000000E+00  0.00000000E+00  0.00000000E+00
  0.00000000E+00  0.00000000E+00  0.00000000E+00
  0.00000000E+00  0.00000000E+00  0.00000000E+00
  0.00000000E+00  0.00000000E+00  0.00000000E+00
  0.00000000E+00  0.00000000E+00  0.00000000E+00
  0.00000000E+00  0.00000000E+00  0.00000000E+00
  0.00000000E+00  0.00000000E+00  0.00000000E+00
  0.00000000E+00  0.00000000E+00  0.00000000E+00
  0.00000000E+00  0.00000000E+00  0.00000000E+00
  0.00000000E+00  0.00000000E+00  0.00000000E+00
  0.00000000E+00  0.00000000E+00  0.00000000E+00
  0.00000000E+00  0.00000000E+00  0.00000000E+00
  0.00000000E+00  0.00000000E+00  0.00000000E+00
  0.00000000E+00  0.00000000E+00  0.00000000E+00
  0.00000000E+00  0.00000000E+00  0.00000000E+00
  0.00000000E+00  0.00000000E+00  0.00000000E+00
  0.00000000E+00  0.00000000E+00  0.00000000E+00
  0.00000000E+00  0.00000000E+00  0.00000000E+00
  0.00000000E+00  0.00000000E+00  0.00000000E+00
  0.00000000E+00  0.00000000E+00  0.00000000E+00
  0.00000000E+00  0.00000000E+00  0.00000000E+00
  0.00000000E+00  0.00000000E+00  0.00000000E+00
  0.00000000E+00  0.00000000E+00  0.00000000E+00
  0.00000000E+00  0.00000000E+00  0.00000000E+00
  0.00000000E+00  0.00000000E+00  0.00000000E+00
  0.00000000E+00  0.00000000E+00  0.00000000E+00
  0.00000000E+00  0.00000000E+00  0.00000000E+00
  0.00000000E+00  0.00000000E+00  0.00000000E+00
  0.00000000E+00  0.00000000E+00  0.00000000E+00
  0.00000000E+00  0.00000000E+00  0.00000000E+00
  0.00000000E+00  0.00000000E+00  0.00000000E+00
  0.00000000E+00  0.00000000E+00  0.00000000E+00
  0.00000000E+00  0.00000000E+00  0.00000000E+00
  0.00000000E+00  0.00000000E+00  0.00000000E+00
  0.00000000E+00  0.00000000E+00  0.00000000E+00
  0.00000000E+00  0.00000000E+00  0.00000000E+00
  0.00000000E+00  0.00000000E+00  0.00000000E+00
  0.00000000E+00  0.00000000E+00  0.00000000E+00
  0.00000000E+00  0.00000000E+00  0.00000000E+00
  0.00000000E+00  0.00000000E+00  0.00000000E+00
  0.00000000E+00  0.00000000E+00  0.00000000E+00
  0.00000000E+00  0.00000000E+00  0.00000000E+00
  0.00000000E+00  0.00000000E+00  0.00000000E+00
  0.00000000E+00  0.00000000E+00  0.00000000E+00
  0.00000000E+00  0.00000000E+00  0.00000000E+00
  0.00000000E+00  0.00000000E+00  0.00000000E+00
  0.00000000E+00  0.00000000E+00  0.00000000E+00
  0.00000000E+00  0.00000000E+00  0.00000000E+00
  0.00000000E+00  0.00000000E+00  0.00000000E+00
  0.00000000E+00  0.00000000E+00  0.00000000E+00
  0.00000000E+00  0.00000000E+00  0.00000000E+00
  0.00000000E+00  0.00000000E+00  0.00000000E+00
  0.00000000E+00  0.00000000E+00  0.00000000E+00
  0.00000000E+00  0.00000000E+00  0.00000000E+00
  0.00000000E+00  0.00000000E+00  0.00000000E+00
  0.00000000E+00  0.00000000E+00  0.00000000E+00
  0.00000000E+00  0.00000000E+00  0.00000000E+00
  0.00000000E+00  0.00000000E+00  0.00000000E+00
  0.00000000E+00  0.00000000E+00  0.00000000E+00
  0.00000000E+00  0.00000000E+00  0.00000000E+00
  0.00000000E+00  0.00000000E+00  0.00000000E+00
  0.00000000E+00  0.00000000E+00  0.00000000E+00
  0.00000000E+00  0.00000000E+00  0.00000000E+00
  0.00000000E+00  0.00000000E+00  0.00000000E+00
  0.00000000E+00  0.00000000E+00  0.00000000E+00
  0.00000000E+00  0.00000000E+00  0.00000000E+00
  0.00000000E+00  0.00000000E+00  0.00000000E+00
  0.00000000E+00  0.00000000E+00  0.00000000E+00
  0.00000000E+00  0.00000000E+00  0.00000000E+00
  0.00000000E+00  0.00000000E+00  0.00000000E+00
  0.00000000E+00  0.00000000E+00  0.00000000E+00
  0.00000000E+00  0.00000000E+00  0.00000000E+00
  0.00000000E+00  0.00000000E+00  0.00000000E+00
  0.00000000E+00  0.00000000E+00  0.00000000E+00
  0.00000000E+00  0.00000000E+00  0.00000000E+00
  0.00000000E+00  0.00000000E+00  0.00000000E+00
  0.00000000E+00  0.00000000E+00  0.00000000E+00
  0.00000000E+00  0.00000000E+00  0.00000000E+00
  0.00000000E+00  0.00000000E+00  0.00000000E+00
  0.00000000E+00  0.00000000E+00  0.00000000E+00
  0.00000000E+00  0.00000000E+00  0.00000000E+00
  0.00000000E+00  0.00000000E+00  0.00000000E+00
