CeO2-you-111-you-V                      
   1.00000000000000     
     9.8185291003654775   -5.6687307847348212    0.0000000017166181
     0.0496735372381683   11.4234966589933382    0.0330911136874583
     0.0362642158852654    0.0628114537915946   20.4396957206150205
   O    V    Ce H
    53     1    26 2
Selective dynamics
Direct
 -0.0010094204438378  0.0005160447114196  0.9903225588532869   T   T   T
  0.1121137909726780  0.2228300022512025  0.1478933700894457   F   F   F
  0.2210778692026185  0.1088227384033322  0.2995034007392901   T   T   T
  0.1619510729028674  0.2324634140964691  0.3805431431467927   T   T   T
 -0.0010210487200460 -0.0027215956507388  0.2286580990756369   T   T   T
  0.2219936678482287  0.1106543356966965  0.0694963526586995   F   F   F
  0.3348584651551617  0.0005160447112010  0.9903225588532418   T   T   T
  0.4440492112783950  0.2228300022509435  0.1478933700895041   F   F   F
  0.5489040940800911  0.1135140303450767  0.3087869695920561   T   T   T
  0.4038453411948639  0.2324634141006868  0.3805431431476508   T   T   T
  0.3316324530694723 -0.0027215956511331  0.2286580990756225   T   T   T
  0.5571822043598351  0.1126184314365957  0.0725439888586320   F   F   F
  0.6664828717769311 -0.0003682564462805  0.9914200149823493   T   T   T
  0.7788243393461564  0.2243146786919901  0.1511689504412066   F   F   F
  0.8979439362655376  0.1135140303453070  0.3087869695919440   T   T   T
  0.7760240093868997  0.2187140187739531  0.3892493780085388   T   T   T
  0.6681340882440533  0.0029341764876714  0.2333696255367010   T   T   T
  0.8887702270767046  0.1126184314367064  0.0725439888586466   F   F   F
  0.0005403626565873  0.3345604082507730  0.9904895799479619   T   T   T
  0.1114248924736526  0.5547546185317318  0.1487980142579665   F   F   F
  0.2538214006444569  0.4410986758788211  0.3128809279603267   T   T   T
  0.1015655660601702  0.5526575105088285  0.3908635919949809   T   T   T
  0.0073988132580254  0.3369091764264199  0.2323553744141538   T   T   T
  0.2230706875306186  0.4444310601979802  0.0728003596851415   F   F   F
  0.3341145038345317  0.3348960076693347  0.9902838603767244   T   T   T
  0.4426480474654654  0.5519640949311473  0.1524743264575170   F   F   F
  0.5206112752354435  0.4410986758829227  0.3128809279609233   T   T   T
  0.3249719800832412  0.3166109601670474  0.2342517145482382   T   T   T
  0.5546943726674506  0.4444310601980160  0.0728003596851673   F   F   F
  0.6673540455938637  0.3345604082507136  0.9904895799479887   T   T   T
  0.7766627260579999  0.5547546185317056  0.1487980142579704   F   F   F
  0.8884264760800411  0.4435189521604050  0.3054442345957729   T   T   T
  0.7844249444480930  0.5526575105093013  0.3908635919948087   T   T   T
  0.6628443631685350  0.3369091764264536  0.2323553744142314   T   T   T
  0.8886546634521341  0.4439753269045378  0.0721636559182653   F   F   F
  0.0001782674462103  0.6670235348919302  0.9904866433389695   T   T   T
  0.1104221439186905  0.8875112878375473  0.1454840502494126   F   F   F
  0.2197217363740284  0.7803174005047832  0.3065783026300670   T   T   T
  0.1131126432232105  0.8928922864457705  0.3884420263274831   T   T   T
 -0.0000015066325577  0.6666639867347752  0.2292141748750386   T   T   T
  0.2235364588179032  0.7778003731571316  0.0714212042571031   F   F   F
  0.3343958357683984  0.6670373070715123  0.9908570092362213   T   T   T
  0.4476276081810951  0.8909109377497495  0.1495015856630580   F   F   F
  0.5571282568970714  0.7809225137935752  0.3115606932538104   T   T   T
  0.4457646356136132  0.9029971169950244  0.3928652287696862   T   T   T
  0.3311520743334355  0.6664519033740285  0.2296890622011019   T   T   T
  0.5542757431619791  0.7752174863239433  0.0738585602330434   F   F   F
  0.6659744713031372  0.6670373070714914  0.9908570092362188   T   T   T
  0.7766163295686038  0.8909109377500507  0.1495015856630647   F   F   F
  0.8939286641326586  0.7803174005063784  0.3065783026300516   T   T   T
  0.7905654813833406  0.9029971169952101  0.3928652287695354   T   T   T
  0.6686328290403599  0.6664519033744163  0.2296890622011048   T   T   T
  0.8875969143394851  0.7778003731573304  0.0714212042571421   F   F   F
  0.3093394183881593  0.2853458367776700  0.3303236072912696   T   T   T
 -0.0021418938162985 -0.0050722446432413  0.3468902946156974   T   T   T
  0.2195636013004012  0.1057942026014543  0.1836454889282509   F   F   F
  0.1113386079380633  0.2242719888134685  0.0308039296374339   F   F   F
  0.3304026491732150 -0.0050722446418258  0.3468902946157207   T   T   T
  0.5549196510038774  0.1118537102549343  0.1907396348514550   F   F   F
  0.4462663808755024  0.2242719888135788  0.0308039296374416   F   F   F
  0.6687668906825982  0.0041997813667788  0.3508712462269588   T   T   T
  0.8902680592501386  0.1118537102541877  0.1907396348514556   F   F   F
  0.7784862692704768  0.2236385385410132  0.0322855840839872   F   F   F
  0.0047298493620854  0.3375520478979805  0.3485115124529628   T   T   T
  0.2246479592897700  0.4438891084499837  0.1933718442250501   F   F   F
  0.1124118366145426  0.5558529137371757  0.0319218164967938   F   F   F
  0.5525751491618979  0.4438891084507077  0.1933718442251194   F   F   F
  0.4445386570381389  0.5557453140761773  0.0324093185861636   F   F   F
  0.6661561985363645  0.3375520478983773  0.3485115124530582   T   T   T
  0.8896985602117878  0.4460631204232307  0.1901247008613163   F   F   F
  0.7767740771226758  0.5558529137373569  0.0319218164968204   F   F   F
 -0.0020683871337563  0.6625302257327021  0.3483762860008759   T   T   T
  0.2219206558934314  0.7765269396196960  0.1882152013157549   F   F   F
  0.1109008817626184  0.8884687635255230  0.0288966219337978   F   F   F
  0.3282953409319929  0.6705187025827876  0.3482119219673018   T   T   T
  0.5560085170518489  0.7786830341036659  0.1928540827320194   F   F   F
  0.4456970532191272  0.8893135441387802  0.0319946742105477   F   F   F
  0.6755563616484146  0.6705187025779872  0.3482119219670385   T   T   T
  0.8879392837256406  0.7765269396191783  0.1882152013157530   F   F   F
  0.7769494909197082  0.8893135441387812  0.0319946742105644   F   F   F
0.43593394183881593 0.53853458367776700 0.40324 T T T
0.446598 0.216020 0.433410 T T T 
 
  0.00000000E+00  0.00000000E+00  0.00000000E+00
  0.00000000E+00  0.00000000E+00  0.00000000E+00
  0.00000000E+00  0.00000000E+00  0.00000000E+00
  0.00000000E+00  0.00000000E+00  0.00000000E+00
  0.00000000E+00  0.00000000E+00  0.00000000E+00
  0.00000000E+00  0.00000000E+00  0.00000000E+00
  0.00000000E+00  0.00000000E+00  0.00000000E+00
  0.00000000E+00  0.00000000E+00  0.00000000E+00
  0.00000000E+00  0.00000000E+00  0.00000000E+00
  0.00000000E+00  0.00000000E+00  0.00000000E+00
  0.00000000E+00  0.00000000E+00  0.00000000E+00
  0.00000000E+00  0.00000000E+00  0.00000000E+00
  0.00000000E+00  0.00000000E+00  0.00000000E+00
  0.00000000E+00  0.00000000E+00  0.00000000E+00
  0.00000000E+00  0.00000000E+00  0.00000000E+00
  0.00000000E+00  0.00000000E+00  0.00000000E+00
  0.00000000E+00  0.00000000E+00  0.00000000E+00
  0.00000000E+00  0.00000000E+00  0.00000000E+00
  0.00000000E+00  0.00000000E+00  0.00000000E+00
  0.00000000E+00  0.00000000E+00  0.00000000E+00
  0.00000000E+00  0.00000000E+00  0.00000000E+00
  0.00000000E+00  0.00000000E+00  0.00000000E+00
  0.00000000E+00  0.00000000E+00  0.00000000E+00
  0.00000000E+00  0.00000000E+00  0.00000000E+00
  0.00000000E+00  0.00000000E+00  0.00000000E+00
  0.00000000E+00  0.00000000E+00  0.00000000E+00
  0.00000000E+00  0.00000000E+00  0.00000000E+00
  0.00000000E+00  0.00000000E+00  0.00000000E+00
  0.00000000E+00  0.00000000E+00  0.00000000E+00
  0.00000000E+00  0.00000000E+00  0.00000000E+00
  0.00000000E+00  0.00000000E+00  0.00000000E+00
  0.00000000E+00  0.00000000E+00  0.00000000E+00
  0.00000000E+00  0.00000000E+00  0.00000000E+00
  0.00000000E+00  0.00000000E+00  0.00000000E+00
  0.00000000E+00  0.00000000E+00  0.00000000E+00
  0.00000000E+00  0.00000000E+00  0.00000000E+00
  0.00000000E+00  0.00000000E+00  0.00000000E+00
  0.00000000E+00  0.00000000E+00  0.00000000E+00
  0.00000000E+00  0.00000000E+00  0.00000000E+00
  0.00000000E+00  0.00000000E+00  0.00000000E+00
  0.00000000E+00  0.00000000E+00  0.00000000E+00
  0.00000000E+00  0.00000000E+00  0.00000000E+00
  0.00000000E+00  0.00000000E+00  0.00000000E+00
  0.00000000E+00  0.00000000E+00  0.00000000E+00
  0.00000000E+00  0.00000000E+00  0.00000000E+00
  0.00000000E+00  0.00000000E+00  0.00000000E+00
  0.00000000E+00  0.00000000E+00  0.00000000E+00
  0.00000000E+00  0.00000000E+00  0.00000000E+00
  0.00000000E+00  0.00000000E+00  0.00000000E+00
  0.00000000E+00  0.00000000E+00  0.00000000E+00
  0.00000000E+00  0.00000000E+00  0.00000000E+00
  0.00000000E+00  0.00000000E+00  0.00000000E+00
  0.00000000E+00  0.00000000E+00  0.00000000E+00
  0.00000000E+00  0.00000000E+00  0.00000000E+00
  0.00000000E+00  0.00000000E+00  0.00000000E+00
  0.00000000E+00  0.00000000E+00  0.00000000E+00
  0.00000000E+00  0.00000000E+00  0.00000000E+00
  0.00000000E+00  0.00000000E+00  0.00000000E+00
  0.00000000E+00  0.00000000E+00  0.00000000E+00
  0.00000000E+00  0.00000000E+00  0.00000000E+00
  0.00000000E+00  0.00000000E+00  0.00000000E+00
  0.00000000E+00  0.00000000E+00  0.00000000E+00
  0.00000000E+00  0.00000000E+00  0.00000000E+00
  0.00000000E+00  0.00000000E+00  0.00000000E+00
  0.00000000E+00  0.00000000E+00  0.00000000E+00
  0.00000000E+00  0.00000000E+00  0.00000000E+00
  0.00000000E+00  0.00000000E+00  0.00000000E+00
  0.00000000E+00  0.00000000E+00  0.00000000E+00
  0.00000000E+00  0.00000000E+00  0.00000000E+00
  0.00000000E+00  0.00000000E+00  0.00000000E+00
  0.00000000E+00  0.00000000E+00  0.00000000E+00
  0.00000000E+00  0.00000000E+00  0.00000000E+00
  0.00000000E+00  0.00000000E+00  0.00000000E+00
  0.00000000E+00  0.00000000E+00  0.00000000E+00
  0.00000000E+00  0.00000000E+00  0.00000000E+00
  0.00000000E+00  0.00000000E+00  0.00000000E+00
  0.00000000E+00  0.00000000E+00  0.00000000E+00
  0.00000000E+00  0.00000000E+00  0.00000000E+00
  0.00000000E+00  0.00000000E+00  0.00000000E+00
  0.00000000E+00  0.00000000E+00  0.00000000E+00
