CeO2-you-111-you-Au                     
   1.00000000000000     
     9.8531005916904313   -5.6667772354808976    0.0067500015763851
    -0.0000000008374350   11.3335524750321106   -0.0000000007878922
     0.0141250959619239   -0.0000000014189260   20.9218330154156398
   O    Au   Ce   H 
    53     1    26     1
Selective dynamics
Direct
  0.0010681553390341  0.0020190335990691  0.9937607927569881   T   T   T
  0.1084659432610259  0.2204793288479606  0.1476014631511163   T   T   T
  0.2372937570648053  0.1344942497473137  0.3119462995775568   T   T   T
  0.0604414072348644  0.1960925617066828  0.3976808780415821   T   T   T
  0.0077646949479305  0.0042755903687236  0.2299823255120360   T   T   T
  0.2238871063223214  0.1116284960537148  0.0730651096030437   T   T   T
  0.3341060114718177 -0.0000544948838916  0.9921818473893060   T   T   T
  0.4482952337386912  0.2173274502658786  0.1451336394417316   T   T   T
  0.5465644522627362  0.1067325068608899  0.3059360232660890   T   T   T
  0.4471116999914022  0.2235307549593950  0.4037415350520095   T   T   T
  0.3277198179439112 -0.0002215551142034  0.2301337937191518   T   T   T
  0.5572486800165473  0.1083910399176748  0.0723089440448066   T   T   T
  0.6687351804581814  0.0010035953339032  0.9914237611252994   T   T   T
  0.7748050803688863  0.2243631862597410  0.1516388639818854   T   T   T
  0.8846686141898932  0.1075387563032632  0.3015264030511449   T   T   T
  0.7785806033369083  0.2145719227700403  0.3871046924935980   T   T   T
  0.6633039387412765  0.9997317002545784  0.2293373985531334   T   T   T
  0.8850079200216006  0.1087104216419898  0.0748485611103445   T   T   T
  0.0011109955168866  0.3329006062707086  0.9940676159220803   T   T   T
  0.1095474233644247  0.5553505834247189  0.1495030323471855   T   T   T
  0.2247782084459701  0.4328419905855669  0.3059828759705239   T   T   T
  0.1175279843999981  0.5576070265276213  0.3850118815736682   T   T   T
  0.0020274444562268  0.3333671759329532  0.2287532309122322   T   T   T
  0.2235712842153751  0.4454608871354914  0.0733857572528355   T   T   T
  0.3331260662046903  0.3332733926091112  0.9925619220322973   T   T   T
  0.4494630603261413  0.5635235965370466  0.1452188273483991   T   T   T
  0.4567112087792467  0.5451700412841471  0.3783955748534799   T   T   T
  0.3432867601747830  0.3376093937894792  0.2168989636912009   T   T   T
  0.5562540836780444  0.4439268490093484  0.0704148136303483   T   T   T
  0.6679232971130785  0.3327574555192096  0.9923570980361089   T   T   T
  0.7806399766543723  0.5584381742242210  0.1463900669975379   T   T   T
  0.8967753583186827  0.4468718758025924  0.3055146186614390   T   T   T
  0.7761235016190643  0.5642609638542416  0.3821046861340043   T   T   T
  0.6592408618587778  0.3424269148007243  0.2333937384451635   T   T   T
  0.8889740534261433  0.4436271348769934  0.0733399698767320   T   T   T
  0.0010669881881359  0.6666883843462599  0.9930184188709857   T   T   T
  0.1098417204173347  0.8873883250329562  0.1482951094350033   T   T   T
  0.2218456921880778  0.7746226425901767  0.3033636513933340   T   T   T
  0.1158031601265645  0.8892173746988860  0.3839672643234012   T   T   T
  0.9985837702859687  0.6673489753737244  0.2298774235764289   T   T   T
  0.2233664946520555  0.7779928153634619  0.0732395220446267   T   T   T
  0.3338227084549037  0.6667908718986350  0.9925289431261816   T   T   T
  0.4429747767029874  0.8876956348328857  0.1506198473440961   T   T   T
  0.5558300359043401  0.7788238398698003  0.3049839692226112   T   T   T
  0.4393083653194333  0.8830461178166140  0.3849401709804472   T   T   T
  0.3317021266734463  0.6616411907095744  0.2303294529040519   T   T   T
  0.5581998837932329  0.7824980025773945  0.0725839922744283   T   T   T
  0.6672863399401676  0.6677355115791596  0.9925628770594788   T   T   T
  0.7756997296714255  0.8831144275013926  0.1526421622664709   T   T   T
  0.8926531141420238  0.7850632803163549  0.3046496114941807   T   T   T
  0.7750967953040542  0.8904528574416201  0.3872858648958424   T   T   T
  0.6583470978286472  0.6471468932334347  0.2359106023283208   T   T   T
  0.8897457790268041  0.7798469318629710  0.0722836830742647   T   T   T
  0.3447657113443006  0.3398017576559560  0.3490340344390964   T   T   T
  0.0044961828992304  0.0097774064540097  0.3472955733552646   T   T   T
  0.2245892660453363  0.1150164608375893  0.1889783885546464   T   T   T
  0.1116604534773074  0.2224588151160833  0.0336489267807508   T   T   T
  0.3285017403818160 -0.0069467390855614  0.3437870647955055   T   T   T
  0.5540128593766747  0.1113850421962355  0.1907386980181627   T   T   T
  0.4445976727168219  0.2199660570551918  0.0310513244559388   T   T   T
  0.6645038258669665 -0.0002448910172711  0.3453385075014426   T   T   T
  0.8887228513295885  0.1111700480140324  0.1901173770403904   T   T   T
  0.7776038625645654  0.2216584746952381  0.0336600028497534   T   T   T
  0.0016267791915618  0.3277934332939896  0.3473158627305568   T   T   T
  0.2234429890578849  0.4419381095964838  0.1891468598283872   T   T   T
  0.1110740109200478  0.5548826279953912  0.0341927229934487   T   T   T
  0.5552804331233253  0.4436529401255206  0.1799586256384164   T   T   T
  0.4445921806242336  0.5574153054393624  0.0313796639864938   T   T   T
  0.6749555895348976  0.3317029153582358  0.3502023519118733   T   T   T
  0.8882526884840989  0.4441787829360235  0.1910036616660428   T   T   T
  0.7807783022038988  0.5569731204658052  0.0319009304882095   T   T   T
  0.0013292923175877  0.6668965618975773  0.3437527891878620   T   T   T
  0.2212946706933727  0.7767833787986851  0.1883624591192271   T   T   T
  0.1113798027585053  0.8894796522365778  0.0338370520366982   T   T   T
  0.3315138936859798  0.6590671733560157  0.3438313048298132   T   T   T
  0.5543226450087457  0.7763544645728992  0.1903227634899948   T   T   T
  0.4460842914537376  0.8895089094520051  0.0329481312250332   T   T   T
  0.6753434380846517  0.6798782831642373  0.3476415216362240   T   T   T
  0.8900571469786027  0.7784988922542088  0.1906577159017316   T   T   T
  0.7779404681631221  0.8894342251512471  0.0331768484818090   T   T   T
  0.4249945078297587  0.2359521078620307  0.4473232648870976   T   T   T
 
  0.00000000E+00  0.00000000E+00  0.00000000E+00
  0.00000000E+00  0.00000000E+00  0.00000000E+00
  0.00000000E+00  0.00000000E+00  0.00000000E+00
  0.00000000E+00  0.00000000E+00  0.00000000E+00
  0.00000000E+00  0.00000000E+00  0.00000000E+00
  0.00000000E+00  0.00000000E+00  0.00000000E+00
  0.00000000E+00  0.00000000E+00  0.00000000E+00
  0.00000000E+00  0.00000000E+00  0.00000000E+00
  0.00000000E+00  0.00000000E+00  0.00000000E+00
  0.00000000E+00  0.00000000E+00  0.00000000E+00
  0.00000000E+00  0.00000000E+00  0.00000000E+00
  0.00000000E+00  0.00000000E+00  0.00000000E+00
  0.00000000E+00  0.00000000E+00  0.00000000E+00
  0.00000000E+00  0.00000000E+00  0.00000000E+00
  0.00000000E+00  0.00000000E+00  0.00000000E+00
  0.00000000E+00  0.00000000E+00  0.00000000E+00
  0.00000000E+00  0.00000000E+00  0.00000000E+00
  0.00000000E+00  0.00000000E+00  0.00000000E+00
  0.00000000E+00  0.00000000E+00  0.00000000E+00
  0.00000000E+00  0.00000000E+00  0.00000000E+00
  0.00000000E+00  0.00000000E+00  0.00000000E+00
  0.00000000E+00  0.00000000E+00  0.00000000E+00
  0.00000000E+00  0.00000000E+00  0.00000000E+00
  0.00000000E+00  0.00000000E+00  0.00000000E+00
  0.00000000E+00  0.00000000E+00  0.00000000E+00
  0.00000000E+00  0.00000000E+00  0.00000000E+00
  0.00000000E+00  0.00000000E+00  0.00000000E+00
  0.00000000E+00  0.00000000E+00  0.00000000E+00
  0.00000000E+00  0.00000000E+00  0.00000000E+00
  0.00000000E+00  0.00000000E+00  0.00000000E+00
  0.00000000E+00  0.00000000E+00  0.00000000E+00
  0.00000000E+00  0.00000000E+00  0.00000000E+00
  0.00000000E+00  0.00000000E+00  0.00000000E+00
  0.00000000E+00  0.00000000E+00  0.00000000E+00
  0.00000000E+00  0.00000000E+00  0.00000000E+00
  0.00000000E+00  0.00000000E+00  0.00000000E+00
  0.00000000E+00  0.00000000E+00  0.00000000E+00
  0.00000000E+00  0.00000000E+00  0.00000000E+00
  0.00000000E+00  0.00000000E+00  0.00000000E+00
  0.00000000E+00  0.00000000E+00  0.00000000E+00
  0.00000000E+00  0.00000000E+00  0.00000000E+00
  0.00000000E+00  0.00000000E+00  0.00000000E+00
  0.00000000E+00  0.00000000E+00  0.00000000E+00
  0.00000000E+00  0.00000000E+00  0.00000000E+00
  0.00000000E+00  0.00000000E+00  0.00000000E+00
  0.00000000E+00  0.00000000E+00  0.00000000E+00
  0.00000000E+00  0.00000000E+00  0.00000000E+00
  0.00000000E+00  0.00000000E+00  0.00000000E+00
  0.00000000E+00  0.00000000E+00  0.00000000E+00
  0.00000000E+00  0.00000000E+00  0.00000000E+00
  0.00000000E+00  0.00000000E+00  0.00000000E+00
  0.00000000E+00  0.00000000E+00  0.00000000E+00
  0.00000000E+00  0.00000000E+00  0.00000000E+00
  0.00000000E+00  0.00000000E+00  0.00000000E+00
  0.00000000E+00  0.00000000E+00  0.00000000E+00
  0.00000000E+00  0.00000000E+00  0.00000000E+00
  0.00000000E+00  0.00000000E+00  0.00000000E+00
  0.00000000E+00  0.00000000E+00  0.00000000E+00
  0.00000000E+00  0.00000000E+00  0.00000000E+00
  0.00000000E+00  0.00000000E+00  0.00000000E+00
  0.00000000E+00  0.00000000E+00  0.00000000E+00
  0.00000000E+00  0.00000000E+00  0.00000000E+00
  0.00000000E+00  0.00000000E+00  0.00000000E+00
  0.00000000E+00  0.00000000E+00  0.00000000E+00
  0.00000000E+00  0.00000000E+00  0.00000000E+00
  0.00000000E+00  0.00000000E+00  0.00000000E+00
  0.00000000E+00  0.00000000E+00  0.00000000E+00
  0.00000000E+00  0.00000000E+00  0.00000000E+00
  0.00000000E+00  0.00000000E+00  0.00000000E+00
  0.00000000E+00  0.00000000E+00  0.00000000E+00
  0.00000000E+00  0.00000000E+00  0.00000000E+00
  0.00000000E+00  0.00000000E+00  0.00000000E+00
  0.00000000E+00  0.00000000E+00  0.00000000E+00
  0.00000000E+00  0.00000000E+00  0.00000000E+00
  0.00000000E+00  0.00000000E+00  0.00000000E+00
  0.00000000E+00  0.00000000E+00  0.00000000E+00
  0.00000000E+00  0.00000000E+00  0.00000000E+00
  0.00000000E+00  0.00000000E+00  0.00000000E+00
  0.00000000E+00  0.00000000E+00  0.00000000E+00
  0.00000000E+00  0.00000000E+00  0.00000000E+00
  0.00000000E+00  0.00000000E+00  0.00000000E+00
