CeO2-you-111-you-Hg                     
   1.00000000000000     
     9.8292150828747875   -5.6930540959102558    0.0104842658773298
     0.0000000019385902   11.3861061914195290   -0.0000000012251360
     0.0220630686403782   -0.0000000022110212   21.0849428826154366
   O    Hg   Ce   H 
    53     1    26     2
Selective dynamics
Direct
 -0.0000678650822208  0.0003336395667801  0.9962682564581148   T   T   T
  0.1115708791565027  0.2224519395780362  0.1506883674088826   F   F   F
  0.2182199451228176  0.0953965545979252  0.3050481765725194   T   T   T
  0.0783774807760119  0.2045587720802410  0.3998019722832093   T   T   T
 -0.0005482994489592 -0.0003001765277366  0.2286562648490814   T   T   T
  0.2226121366767941  0.1106353353510272  0.0751830718140170   F   F   F
  0.3327224195117351 -0.0002302928234844  0.9947342098660209   T   T   T
  0.4475329376468906  0.2192613421336560  0.1460201219692934   F   F   F
  0.5571270410634407  0.1131250246468798  0.3038556153452619   T   T   T
  0.4706924079940349  0.2011794594874721  0.4030614794254480   T   T   T
  0.3367384127509928 -0.0004613670511849  0.2285496560000627   T   T   T
  0.5562093258567842  0.1092850341033014  0.0735553893566561   F   F   F
  0.6690865662174387  0.0013530527698030  0.9945713627482429   T   T   T
  0.7747583222757086  0.2259753299224130  0.1511163899555967   F   F   F
  0.8938911643847943  0.1127354785681770  0.3041037843845204   T   T   T
  0.7811569076861272  0.2226074975250234  0.3842060956127786   T   T   T
  0.6693187996463754  0.0038743809369949  0.2286824616831150   T   T   T
  0.8864608085059729  0.1098969042529276  0.0771690377525545   F   F   F
 -0.0001133499657501  0.3316886486240245  0.9961638380903141   T   T   T
  0.1105583061119191  0.5557297712892790  0.1507873243307998   F   F   F
  0.2167709962271272  0.4497462118116702  0.3032230483796552   T   T   T
  0.1084124340954876  0.5570001324397600  0.3855800193034763   T   T   T
 -0.0021532247353015  0.3316112920967430  0.2281864298979219   T   T   T
  0.2226121366765597  0.4453098013258199  0.0751830718140525   F   F   F
  0.3305246577724768  0.3320160951490150  0.9949927446418383   T   T   T
  0.4475329376447448  0.5616055955141945  0.1460201219690447   F   F   F
  0.4682414001326639  0.5930172243148797  0.3879920023758633   T   T   T
  0.3435796705508124  0.3376065767043747  0.2215620993914741   T   T   T
  0.5541310542008731  0.4437315271008444  0.0710612331089777   F   F   F
  0.6679404868560859  0.3332564232904918  0.9947188212934137   T   T   T
  0.7780884154240084  0.5557112077109139  0.1468765949074466   F   F   F
  0.8922610528817457  0.4427999083835757  0.3042812083733899   T   T   T
  0.7543640908977890  0.5400502698160879  0.3760501288269209   T   T   T
  0.6575146186410176  0.3436612130327708  0.2361366122386531   T   T   T
  0.8899732288911792  0.4448530188569535  0.0748031092991681   F   F   F
  0.0006949350162213  0.6673143158396819  0.9953943738403968   T   T   T
  0.1105583061115283  0.8881625348214257  0.1507873243308140   F   F   F
  0.2179413744939016  0.7744064647337401  0.3029520352193376   T   T   T
  0.1092695626924295  0.8808157599126725  0.3866590353331029   T   T   T
  0.9962757688433405  0.6647043252182776  0.2296095183894816   T   T   T
  0.2232010434324678  0.7782675217161028  0.0750232309146313   F   F   F
  0.3322234509393579  0.6661306699569192  0.9945453908967802   T   T   T
  0.4465475465458226  0.8899407732729188  0.1493823995389292   F   F   F
  0.5619138838083070  0.7867951759251104  0.3005820302493047   T   T   T
  0.4439219260719995  0.8881033028374737  0.3808516386719519   T   T   T
  0.3365442743364713  0.6688297799652424  0.2284503259054383   T   T   T
  0.5562093258569121  0.7802572917539194  0.0735553893565566   F   F   F
  0.6683939046766829  0.6689555233584433  0.9947378555601659   T   T   T
  0.7747583222747920  0.8821159923528583  0.1511163899558241   F   F   F
  0.8906623965335682  0.7803464742086601  0.3053290943748707   T   T   T
  0.7789310127878328  0.8932111895907762  0.3848972526652311   T   T   T
  0.6566480190646479  0.6467458560770100  0.2353297969248593   T   T   T
  0.8899732288910940  0.7784532100339874  0.0748031092990473   F   F   F
  0.2550774133911182  0.2951479829144529  0.4503601153362782   T   T   T
  0.0054670987447495  0.0008339006050680  0.3433055125135606   T   T   T
  0.2243962536468871  0.1141983431393214  0.1916527655589562   F   F   F
  0.1116499134069073  0.2224914567034233  0.0366880153143541   F   F   F
  0.3279286986891319 -0.0077006598449531  0.3426172206396114   T   T   T
  0.5557181145207366  0.1115227428532890  0.1892737472519883   F   F   F
  0.4432395828038196  0.2198183207089386  0.0332266460916699   F   F   F
  0.6683378296872495  0.0011248526187913  0.3430487050619342   T   T   T
  0.8891196977361986  0.1112263488689536  0.1902676708554196   F   F   F
  0.7779449247728891  0.2222382607026958  0.0352031230035621   F   F   F
  0.0090230196130753  0.3373832015018256  0.3428726574404639   T   T   T
  0.2243962536467308  0.4435309105070573  0.1916527655588922   F   F   F
  0.1111353327549267  0.5548832913492987  0.0361766912342247   F   F   F
  0.5518215066144450  0.4425767533041309  0.1807022964586977   F   F   F
  0.4432395828039617  0.5567552620942067  0.0332266460916841   F   F   F
  0.6771437206271554  0.3262150399971911  0.3457320872471026   T   T   T
  0.8882080694473657  0.4449748767481907  0.1901343613892763   F   F   F
  0.7799363893059876  0.5566351946528911  0.0334781040327528   F   F   F
  0.0006201630431705  0.6656720169648843  0.3431343348964373   T   T   T
  0.2229512079599374  0.7781426039807258  0.1884514820752017   F   F   F
  0.1111353327548628  0.8895860414067656  0.0361766912342105   F   F   F
  0.3354451069323800  0.6631873531308338  0.3432052306389448   T   T   T
  0.5557181145238133  0.7775283716665484  0.1892737472519528   F   F   F
  0.4457354217919658  0.8895347108956457  0.0345694299858792   F   F   F
  0.6671968033208664  0.6801151826611573  0.3475698643329669   T   T   T
  0.8882080694504992  0.7765661927046992  0.1901343613893047   F   F   F
  0.7779449247735428  0.8890396640702960  0.0352031230035337   F   F   F
  0.3895648264060493  0.3593028274567473  0.4939743604685436   T   T   T
  0.4512528485811703  0.2331264738790390  0.4423871331872999   T   T   T
 
  0.00000000E+00  0.00000000E+00  0.00000000E+00
  0.00000000E+00  0.00000000E+00  0.00000000E+00
  0.00000000E+00  0.00000000E+00  0.00000000E+00
  0.00000000E+00  0.00000000E+00  0.00000000E+00
  0.00000000E+00  0.00000000E+00  0.00000000E+00
  0.00000000E+00  0.00000000E+00  0.00000000E+00
  0.00000000E+00  0.00000000E+00  0.00000000E+00
  0.00000000E+00  0.00000000E+00  0.00000000E+00
  0.00000000E+00  0.00000000E+00  0.00000000E+00
  0.00000000E+00  0.00000000E+00  0.00000000E+00
  0.00000000E+00  0.00000000E+00  0.00000000E+00
  0.00000000E+00  0.00000000E+00  0.00000000E+00
  0.00000000E+00  0.00000000E+00  0.00000000E+00
  0.00000000E+00  0.00000000E+00  0.00000000E+00
  0.00000000E+00  0.00000000E+00  0.00000000E+00
  0.00000000E+00  0.00000000E+00  0.00000000E+00
  0.00000000E+00  0.00000000E+00  0.00000000E+00
  0.00000000E+00  0.00000000E+00  0.00000000E+00
  0.00000000E+00  0.00000000E+00  0.00000000E+00
  0.00000000E+00  0.00000000E+00  0.00000000E+00
  0.00000000E+00  0.00000000E+00  0.00000000E+00
  0.00000000E+00  0.00000000E+00  0.00000000E+00
  0.00000000E+00  0.00000000E+00  0.00000000E+00
  0.00000000E+00  0.00000000E+00  0.00000000E+00
  0.00000000E+00  0.00000000E+00  0.00000000E+00
  0.00000000E+00  0.00000000E+00  0.00000000E+00
  0.00000000E+00  0.00000000E+00  0.00000000E+00
  0.00000000E+00  0.00000000E+00  0.00000000E+00
  0.00000000E+00  0.00000000E+00  0.00000000E+00
  0.00000000E+00  0.00000000E+00  0.00000000E+00
  0.00000000E+00  0.00000000E+00  0.00000000E+00
  0.00000000E+00  0.00000000E+00  0.00000000E+00
  0.00000000E+00  0.00000000E+00  0.00000000E+00
  0.00000000E+00  0.00000000E+00  0.00000000E+00
  0.00000000E+00  0.00000000E+00  0.00000000E+00
  0.00000000E+00  0.00000000E+00  0.00000000E+00
  0.00000000E+00  0.00000000E+00  0.00000000E+00
  0.00000000E+00  0.00000000E+00  0.00000000E+00
  0.00000000E+00  0.00000000E+00  0.00000000E+00
  0.00000000E+00  0.00000000E+00  0.00000000E+00
  0.00000000E+00  0.00000000E+00  0.00000000E+00
  0.00000000E+00  0.00000000E+00  0.00000000E+00
  0.00000000E+00  0.00000000E+00  0.00000000E+00
  0.00000000E+00  0.00000000E+00  0.00000000E+00
  0.00000000E+00  0.00000000E+00  0.00000000E+00
  0.00000000E+00  0.00000000E+00  0.00000000E+00
  0.00000000E+00  0.00000000E+00  0.00000000E+00
  0.00000000E+00  0.00000000E+00  0.00000000E+00
  0.00000000E+00  0.00000000E+00  0.00000000E+00
  0.00000000E+00  0.00000000E+00  0.00000000E+00
  0.00000000E+00  0.00000000E+00  0.00000000E+00
  0.00000000E+00  0.00000000E+00  0.00000000E+00
  0.00000000E+00  0.00000000E+00  0.00000000E+00
  0.00000000E+00  0.00000000E+00  0.00000000E+00
  0.00000000E+00  0.00000000E+00  0.00000000E+00
  0.00000000E+00  0.00000000E+00  0.00000000E+00
  0.00000000E+00  0.00000000E+00  0.00000000E+00
  0.00000000E+00  0.00000000E+00  0.00000000E+00
  0.00000000E+00  0.00000000E+00  0.00000000E+00
  0.00000000E+00  0.00000000E+00  0.00000000E+00
  0.00000000E+00  0.00000000E+00  0.00000000E+00
  0.00000000E+00  0.00000000E+00  0.00000000E+00
  0.00000000E+00  0.00000000E+00  0.00000000E+00
  0.00000000E+00  0.00000000E+00  0.00000000E+00
  0.00000000E+00  0.00000000E+00  0.00000000E+00
  0.00000000E+00  0.00000000E+00  0.00000000E+00
  0.00000000E+00  0.00000000E+00  0.00000000E+00
  0.00000000E+00  0.00000000E+00  0.00000000E+00
  0.00000000E+00  0.00000000E+00  0.00000000E+00
  0.00000000E+00  0.00000000E+00  0.00000000E+00
  0.00000000E+00  0.00000000E+00  0.00000000E+00
  0.00000000E+00  0.00000000E+00  0.00000000E+00
  0.00000000E+00  0.00000000E+00  0.00000000E+00
  0.00000000E+00  0.00000000E+00  0.00000000E+00
  0.00000000E+00  0.00000000E+00  0.00000000E+00
  0.00000000E+00  0.00000000E+00  0.00000000E+00
  0.00000000E+00  0.00000000E+00  0.00000000E+00
  0.00000000E+00  0.00000000E+00  0.00000000E+00
  0.00000000E+00  0.00000000E+00  0.00000000E+00
  0.00000000E+00  0.00000000E+00  0.00000000E+00
  0.00000000E+00  0.00000000E+00  0.00000000E+00
  0.00000000E+00  0.00000000E+00  0.00000000E+00
