CeO2-you-111-you-Zn                     
   1.00000000000000     
     9.8946253629782284   -5.7126649919462684   -0.0000000014522119
    -0.0440879618334332   11.3489653883517274   -0.0277069836478195
    -0.0299847830364404   -0.0519351588506735   20.9451833422218172
   O    Zn   Ce   H 
    53     1    26     2
Selective dynamics
Direct
  0.0001117842145287  0.0000106661292666  0.9946692839371706   T   T   T
  0.1071023081875637  0.2208647639684216  0.1482542204203341   F   F   F
  0.2340191264121192  0.1297233367101135  0.3116151542671386   T   T   T
  0.0660177416544414  0.2030872439141121  0.3935825481370590   T   T   T
  0.0064134008183870  0.0028766889392492  0.2303506876714448   T   T   T
  0.2224970049503838  0.1116610099009847  0.0742867277849584   F   F   F
  0.3327306364076620 -0.0001943631932719  0.9945882385742558   T   T   T
  0.4470954557805200  0.2208647639679668  0.1482542204203341   F   F   F
  0.5510469774357094  0.1116354333481912  0.3046640671791788   T   T   T
  0.4697134562780313  0.2060200666296336  0.4048182795790543   T   T   T
  0.3289704280182211  0.0009269822099863  0.2299445410377134   T   T   T
  0.5569902729501948  0.1105482426828317  0.0741088149161513   F   F   F
  0.6662855154791160  0.9987053742176267  0.9938671270397716   T   T   T
  0.7771768028549673  0.2210196057100120  0.1530018942027382   F   F   F
  0.8823271532026968  0.1064375452353269  0.3016326326163707   T   T   T
  0.7740203825702057  0.2182827371758344  0.3828620729762153   T   T   T
  0.6584373583676891  0.9899448988849846  0.2326708487423588   T   T   T
  0.8868919697320621  0.1105482426822633  0.0741088149159950   F   F   F
  0.9998856764679146  0.3322993315291341  0.9946218619516108   T   T   T
  0.1095421938702685  0.5554656144749970  0.1491899667487004   F   F   F
  0.2245692495359289  0.4468233137076233  0.3065677907135775   T   T   T
  0.1114418510798738  0.5605612162230762  0.3860038921976672   T   T   T
  0.0024053530534879  0.3342768612060484  0.2302191479299786   T   T   T
  0.2223087701733775  0.4450337324720266  0.0746847582616752   F   F   F
  0.3330736941217145  0.3328912682275365  0.9948696918131731   T   T   T
  0.4466702561412816  0.5600085122836020  0.1480069165506421   F   F   F
  0.5688421386139053  0.4497866234506388  0.3040939612780102   T   T   T
  0.3352417156575798  0.3364081396992683  0.2244354306587121   T   T   T
  0.5560589622983585  0.4450337324718987  0.0746847582616681   F   F   F
  0.6660415423756012  0.3323874489733130  0.9944600433101639   T   T   T
  0.7792564206045398  0.5554656144746062  0.1491899667487289   F   F   F
  0.8904909357136529  0.4467264309244561  0.3053396952264377   T   T   T
  0.7841244163260254  0.5598358007134511  0.3869289211157009   T   T   T
  0.6675798771041129  0.3326148013107780  0.2292115841780616   T   T   T
  0.8877367901336655  0.4421395802665771  0.0748409008446345   F   F   F
  0.9988442733521269  0.6649115533366782  0.9945023732284592   T   T   T
  0.1107079713998473  0.8880829427988957  0.1475533474148492   F   F   F
  0.2201964753784811  0.7786808572034812  0.3037553925820460   T   T   T
  0.1143897293331892  0.8919330242096210  0.3846778040704123   T   T   T
  0.0008807508939606  0.6690525175835416  0.2295690638140941   T   T   T
  0.2221531810777577  0.7775600786141013  0.0734787697411505   F   F   F
  0.3336347450707152  0.6659943286320704  0.9943811574293147   T   T   T
  0.4431427056157631  0.8885423829665839  0.1496098372040606   F   F   F
  0.5415829256449649  0.7504164472809977  0.3128694744966729   T   T   T
  0.4410345933215250  0.8864267705621317  0.3820803574419984   T   T   T
  0.3317106027273528  0.6690680100007800  0.2288442643904594   T   T   T
  0.5565695764324516  0.7798051528650731  0.0744999043130861   F   F   F
  0.6657935425420026  0.6660337943685161  0.9947198529134977   T   T   T
  0.7787326773508525  0.8885423829665342  0.1496098372040393   F   F   F
  0.8915559532891918  0.7790620312380724  0.3043755873033752   T   T   T
  0.7755009152177682  0.8861717856919357  0.3828293562986986   T   T   T
  0.6706039772374777  0.6709466154811697  0.2283616163750614   T   T   T
  0.8887398975365670  0.7775600786137957  0.0734787697411008   F   F   F
  0.3199274065687770  0.3348949187121589  0.3313098663911005   T   T   T
  0.0033206823291341  0.0088178308159023  0.3468106844944712   T   T   T
  0.2229261731656820  0.1125193463319789  0.1888967773718022   F   F   F
  0.1103682124029035  0.2214195150995266  0.0344989805464735   F   F   F
  0.3306184331277297  0.0029324900923455  0.3447560534798217   T   T   T
  0.5544550473287160  0.1104925278046451  0.1904897848950142   F   F   F
  0.4443843026966547  0.2214195150996900  0.0344989805464948   F   F   F
  0.6633335336946176  0.9958398373688283  0.3453075060172093   T   T   T
  0.8893714804750061  0.1104925278037143  0.1904897848950142   F   F   F
  0.7771280376889678  0.2209220753777856  0.0348580655715480   F   F   F
 -0.0010395328133152  0.3290913240486537  0.3463199177611886   T   T   T
  0.2218519159385366  0.4448686404085294  0.1880518884017377   F   F   F
  0.1097450967961251  0.5542120859908479  0.0346841624621916   F   F   F
  0.5563507244711232  0.4448686404090409  0.1880518884017590   F   F   F
  0.4445378943813694  0.5557437887625909  0.0339191490966044   F   F   F
  0.6717269546172761  0.3363463184854863  0.3437872591081326   T   T   T
  0.8887907203777203  0.4442474407548431  0.1919998598288615   F   F   F
  0.7777999891949250  0.5542120859908763  0.0346841624621987   F   F   F
  0.0016843701634896  0.6695148908547444  0.3456327764051220   T   T   T
  0.2215445962164750  0.7796439707686176  0.1882631521501494   F   F   F
  0.1108986897510533  0.8884643795021887  0.0336932669391601   F   F   F
  0.3202032702462924  0.6664081127947211  0.3407970629007850   T   T   T
  0.5546491616857168  0.7759643233713405  0.1890558606379003   F   F   F
  0.4445741797304521  0.8885359909069948  0.0342327230043722   F   F   F
  0.6799745791469085  0.6666084744604448  0.3406383992511175   T   T   T
  0.8914323745515418  0.7796439707684399  0.1882631521501352   F   F   F
  0.7772948111761337  0.8885359909064192  0.0342327230042869   F   F   F
  0.3915470268451674  0.4135054854076032  0.3974576097239192   T   T   T
  0.4303729043810425  0.2595699142919468  0.4213459833531418   T   T   T
 
  0.00000000E+00  0.00000000E+00  0.00000000E+00
  0.00000000E+00  0.00000000E+00  0.00000000E+00
  0.00000000E+00  0.00000000E+00  0.00000000E+00
  0.00000000E+00  0.00000000E+00  0.00000000E+00
  0.00000000E+00  0.00000000E+00  0.00000000E+00
  0.00000000E+00  0.00000000E+00  0.00000000E+00
  0.00000000E+00  0.00000000E+00  0.00000000E+00
  0.00000000E+00  0.00000000E+00  0.00000000E+00
  0.00000000E+00  0.00000000E+00  0.00000000E+00
  0.00000000E+00  0.00000000E+00  0.00000000E+00
  0.00000000E+00  0.00000000E+00  0.00000000E+00
  0.00000000E+00  0.00000000E+00  0.00000000E+00
  0.00000000E+00  0.00000000E+00  0.00000000E+00
  0.00000000E+00  0.00000000E+00  0.00000000E+00
  0.00000000E+00  0.00000000E+00  0.00000000E+00
  0.00000000E+00  0.00000000E+00  0.00000000E+00
  0.00000000E+00  0.00000000E+00  0.00000000E+00
  0.00000000E+00  0.00000000E+00  0.00000000E+00
  0.00000000E+00  0.00000000E+00  0.00000000E+00
  0.00000000E+00  0.00000000E+00  0.00000000E+00
  0.00000000E+00  0.00000000E+00  0.00000000E+00
  0.00000000E+00  0.00000000E+00  0.00000000E+00
  0.00000000E+00  0.00000000E+00  0.00000000E+00
  0.00000000E+00  0.00000000E+00  0.00000000E+00
  0.00000000E+00  0.00000000E+00  0.00000000E+00
  0.00000000E+00  0.00000000E+00  0.00000000E+00
  0.00000000E+00  0.00000000E+00  0.00000000E+00
  0.00000000E+00  0.00000000E+00  0.00000000E+00
  0.00000000E+00  0.00000000E+00  0.00000000E+00
  0.00000000E+00  0.00000000E+00  0.00000000E+00
  0.00000000E+00  0.00000000E+00  0.00000000E+00
  0.00000000E+00  0.00000000E+00  0.00000000E+00
  0.00000000E+00  0.00000000E+00  0.00000000E+00
  0.00000000E+00  0.00000000E+00  0.00000000E+00
  0.00000000E+00  0.00000000E+00  0.00000000E+00
  0.00000000E+00  0.00000000E+00  0.00000000E+00
  0.00000000E+00  0.00000000E+00  0.00000000E+00
  0.00000000E+00  0.00000000E+00  0.00000000E+00
  0.00000000E+00  0.00000000E+00  0.00000000E+00
  0.00000000E+00  0.00000000E+00  0.00000000E+00
  0.00000000E+00  0.00000000E+00  0.00000000E+00
  0.00000000E+00  0.00000000E+00  0.00000000E+00
  0.00000000E+00  0.00000000E+00  0.00000000E+00
  0.00000000E+00  0.00000000E+00  0.00000000E+00
  0.00000000E+00  0.00000000E+00  0.00000000E+00
  0.00000000E+00  0.00000000E+00  0.00000000E+00
  0.00000000E+00  0.00000000E+00  0.00000000E+00
  0.00000000E+00  0.00000000E+00  0.00000000E+00
  0.00000000E+00  0.00000000E+00  0.00000000E+00
  0.00000000E+00  0.00000000E+00  0.00000000E+00
  0.00000000E+00  0.00000000E+00  0.00000000E+00
  0.00000000E+00  0.00000000E+00  0.00000000E+00
  0.00000000E+00  0.00000000E+00  0.00000000E+00
  0.00000000E+00  0.00000000E+00  0.00000000E+00
  0.00000000E+00  0.00000000E+00  0.00000000E+00
  0.00000000E+00  0.00000000E+00  0.00000000E+00
  0.00000000E+00  0.00000000E+00  0.00000000E+00
  0.00000000E+00  0.00000000E+00  0.00000000E+00
  0.00000000E+00  0.00000000E+00  0.00000000E+00
  0.00000000E+00  0.00000000E+00  0.00000000E+00
  0.00000000E+00  0.00000000E+00  0.00000000E+00
  0.00000000E+00  0.00000000E+00  0.00000000E+00
  0.00000000E+00  0.00000000E+00  0.00000000E+00
  0.00000000E+00  0.00000000E+00  0.00000000E+00
  0.00000000E+00  0.00000000E+00  0.00000000E+00
  0.00000000E+00  0.00000000E+00  0.00000000E+00
  0.00000000E+00  0.00000000E+00  0.00000000E+00
  0.00000000E+00  0.00000000E+00  0.00000000E+00
  0.00000000E+00  0.00000000E+00  0.00000000E+00
  0.00000000E+00  0.00000000E+00  0.00000000E+00
  0.00000000E+00  0.00000000E+00  0.00000000E+00
  0.00000000E+00  0.00000000E+00  0.00000000E+00
  0.00000000E+00  0.00000000E+00  0.00000000E+00
  0.00000000E+00  0.00000000E+00  0.00000000E+00
  0.00000000E+00  0.00000000E+00  0.00000000E+00
  0.00000000E+00  0.00000000E+00  0.00000000E+00
  0.00000000E+00  0.00000000E+00  0.00000000E+00
  0.00000000E+00  0.00000000E+00  0.00000000E+00
  0.00000000E+00  0.00000000E+00  0.00000000E+00
  0.00000000E+00  0.00000000E+00  0.00000000E+00
  0.00000000E+00  0.00000000E+00  0.00000000E+00
  0.00000000E+00  0.00000000E+00  0.00000000E+00
