CeO2-you-111-you-Nb                     
   1.00000000000000     
     9.8355892315446969   -5.6785804569581906    0.0000000006345379
     0.0399187865379594   11.4263002773247102    0.0122385008889978
     0.0132330320226935    0.0229202799946159   20.9827945804203644
   O    Nb   Ce   H 
    53     1    26     2
Selective dynamics
Direct
  0.9980677956141423  0.9995445964128449  0.9954349451372165   T   T   T
  0.1115516993987029  0.2225072358724205  0.1484307642887828   F   F   F
  0.2354463720760451  0.1274727760775289  0.3029037088896278   T   T   T
  0.1384589849167437  0.2338741499930091  0.3785318646900862   T   T   T
  0.0029478439814233 -0.0003035911947124  0.2289720681077992   T   T   T
  0.2214510939287706  0.1095691878575735  0.0721768436451171   F   F   F
  0.3347188182493767  0.9990041109846436  0.9956661402093739   T   T   T
  0.4442885364737421  0.2225072358722073  0.1484307642888112   F   F   F
  0.5598548184381981  0.1225066234572790  0.3062084358297229   T   T   T
  0.4221190025880580  0.2355859094094369  0.3951920235413501   T   T   T
  0.3309317339796011  0.9978885561903357  0.2269805838263839   T   T   T
  0.5578962772394860  0.1118895499433563  0.0762498353050844   F   F   F
  0.6669481567201135  0.9997570496698265  0.9962340835646905   T   T   T
  0.7801003732298355  0.2268667464596348  0.1535822259111370   F   F   F
  0.8950689723048324  0.1148142579143646  0.3053998702331964   T   T   T
  0.7841356070279744  0.2278383053394740  0.3850408101012124   T   T   T
  0.6676028427826790  0.0019091792953145  0.2314290029987288   T   T   T
  0.8873272727039065  0.1118895499434487  0.0762498353050418   F   F   F
  0.0001395797236201  0.3324621158941416  0.9956781305088901   T   T   T
  0.1102277237297073  0.5542298666691110  0.1488917553046889   F   F   F
  0.2451637775817862  0.4402741816070968  0.3051361991165639   T   T   T
  0.0988401191034953  0.5420694124661939  0.3846048130538763   T   T   T
  0.0089024710821232  0.3373637095224054  0.2321747054941003   T   T   T
  0.2230771200701227  0.4443837373696340  0.0750929918058532   F   F   F
  0.3329898786322628  0.3327725005979999  0.9953712369510340   T   T   T
  0.4435414229212071  0.5537508458428917  0.1511423769252929   F   F   F
  0.5233063655035123  0.4265270344251776  0.3070483701300852   T   T   T
  0.3272169784549402  0.3266996750734329  0.2286017175138332   T   T   T
  0.5546406172993485  0.4443837373695203  0.0750929918058674   F   F   F
  0.6657488483876784  0.3324448878136333  0.9955740462706979   T   T   T
  0.7773351429393784  0.5542298666689973  0.1488917553046960   F   F   F
  0.8891654430027667  0.4416493694854929  0.3022541777114857   T   T   T
  0.7795571592422025  0.5435193567862957  0.3835557736246240   T   T   T
  0.6657109115545314  0.3398592316521885  0.2308289339294442   T   T   T
  0.8886008798270808  0.4438677596540117  0.0745991967251030   F   F   F
  0.0000356303103103  0.6669709032574822  0.9953842582374017   T   T   T
  0.1097902816904153  0.8862475633801949  0.1465695133503928   F   F   F
  0.2164186013013555  0.7739123694848251  0.3054194309775049   T   T   T
  0.0976128803414894  0.8847239209879290  0.3861985698924776   T   T   T
 -0.0007282618210177  0.6670505323864508  0.2284103320036782   T   T   T
  0.2233082258097028  0.7767552487297849  0.0741386211698014   F   F   F
  0.3342213573102920  0.6662057872874024  0.9954102163584073   T   T   T
  0.4471456938292491  0.8904956371789652  0.1506416801514447   F   F   F
  0.5579578485311618  0.7771070394344435  0.3057004882621000   T   T   T
  0.4616792641750818  0.8970465356696327  0.3892823733590560   T   T   T
  0.3312223791538189  0.6654663931401299  0.2284461544293893   T   T   T
  0.5546181604904916  0.7759023209809826  0.0758759037931327   F   F   F
  0.6660784885627075  0.6664677592071956  0.9955307988091768   T   T   T
  0.7766829433496767  0.8904956371790789  0.1506416801513808   F   F   F
  0.8913461131721304  0.7786968438030114  0.3032267936687965   T   T   T
  0.7897714720811989  0.9018301621097669  0.3867217179480407   T   T   T
  0.6666100154489569  0.6622156204841468  0.2284995274605899   T   T   T
  0.8867800229200782  0.7767552487297351  0.0741386211698227   F   F   F
  0.3163912537506368  0.3204790381314470  0.3280213953941222   T   T   T
  0.0016204659114411  0.9984784281912201  0.3448056514878417   T   T   T
  0.2190339267735411  0.1047348535480381  0.1842871497724659   F   F   F
  0.1103836541594632  0.2224831809414809  0.0348400103221636   F   F   F
  0.3312594442447648  0.9957153395592749  0.3485556626018296   T   T   T
  0.5547279031448369  0.1120501177645465  0.1913681782397987   F   F   F
  0.4454325267820138  0.2224831809416159  0.0348400103221707   F   F   F
  0.6683368069890882 -0.0005688875526694  0.3466575842824574   T   T   T
  0.8906562146194474  0.1120501177640563  0.1913681782398982   F   F   F
  0.7780504707799736  0.2227669415598541  0.0366680024411181   F   F   F
  0.0026495093345730  0.3336609696655941  0.3451697250140718   T   T   T
  0.2250002723854365  0.4453796429142685  0.1900064666660697   F   F   F
  0.1119008017413279  0.5553893270411621  0.0353833385666320   F   F   F
  0.5537133705296355  0.4453796429149364  0.1900064666659276   F   F   F
  0.4444570393209659  0.5555820786417911  0.0349412062861418   F   F   F
  0.6732093390192623  0.3357108757152759  0.3427599116596141   T   T   T
  0.8901350099783301  0.4469360199570005  0.1901346953511123   F   F   F
  0.7768215252999369  0.5553893270412686  0.0353833385666320   F   F   F
 -0.0005371191362552  0.6650965980677420  0.3433634447773021   T   T   T
  0.2227185327545556  0.7774152528146914  0.1886989722823671   F   F   F
  0.1103211929548493  0.8873093859097878  0.0333104691668069   F   F   F
  0.3322330569954281  0.6709179087364413  0.3467338368725429   T   T   T
  0.5561288096739005  0.7789236193474451  0.1919711927086993   F   F   F
  0.4456471873271823  0.8890343070810331  0.0361936167486760   F   F   F
  0.6723268790904314  0.6671659550980095  0.3450613620445590   T   T   T
  0.8880297200601603  0.7774152528147127  0.1886989722824453   F   F   F
  0.7767201197539109  0.8890343070810189  0.0361936167486760   F   F   F
  0.3973270260152652  0.4648768545192473  0.3930399588640233   T   T   T
  0.4191386675160056  0.2622810670795083  0.4388593572036441   T   T   T
 
  0.00000000E+00  0.00000000E+00  0.00000000E+00
  0.00000000E+00  0.00000000E+00  0.00000000E+00
  0.00000000E+00  0.00000000E+00  0.00000000E+00
  0.00000000E+00  0.00000000E+00  0.00000000E+00
  0.00000000E+00  0.00000000E+00  0.00000000E+00
  0.00000000E+00  0.00000000E+00  0.00000000E+00
  0.00000000E+00  0.00000000E+00  0.00000000E+00
  0.00000000E+00  0.00000000E+00  0.00000000E+00
  0.00000000E+00  0.00000000E+00  0.00000000E+00
  0.00000000E+00  0.00000000E+00  0.00000000E+00
  0.00000000E+00  0.00000000E+00  0.00000000E+00
  0.00000000E+00  0.00000000E+00  0.00000000E+00
  0.00000000E+00  0.00000000E+00  0.00000000E+00
  0.00000000E+00  0.00000000E+00  0.00000000E+00
  0.00000000E+00  0.00000000E+00  0.00000000E+00
  0.00000000E+00  0.00000000E+00  0.00000000E+00
  0.00000000E+00  0.00000000E+00  0.00000000E+00
  0.00000000E+00  0.00000000E+00  0.00000000E+00
  0.00000000E+00  0.00000000E+00  0.00000000E+00
  0.00000000E+00  0.00000000E+00  0.00000000E+00
  0.00000000E+00  0.00000000E+00  0.00000000E+00
  0.00000000E+00  0.00000000E+00  0.00000000E+00
  0.00000000E+00  0.00000000E+00  0.00000000E+00
  0.00000000E+00  0.00000000E+00  0.00000000E+00
  0.00000000E+00  0.00000000E+00  0.00000000E+00
  0.00000000E+00  0.00000000E+00  0.00000000E+00
  0.00000000E+00  0.00000000E+00  0.00000000E+00
  0.00000000E+00  0.00000000E+00  0.00000000E+00
  0.00000000E+00  0.00000000E+00  0.00000000E+00
  0.00000000E+00  0.00000000E+00  0.00000000E+00
  0.00000000E+00  0.00000000E+00  0.00000000E+00
  0.00000000E+00  0.00000000E+00  0.00000000E+00
  0.00000000E+00  0.00000000E+00  0.00000000E+00
  0.00000000E+00  0.00000000E+00  0.00000000E+00
  0.00000000E+00  0.00000000E+00  0.00000000E+00
  0.00000000E+00  0.00000000E+00  0.00000000E+00
  0.00000000E+00  0.00000000E+00  0.00000000E+00
  0.00000000E+00  0.00000000E+00  0.00000000E+00
  0.00000000E+00  0.00000000E+00  0.00000000E+00
  0.00000000E+00  0.00000000E+00  0.00000000E+00
  0.00000000E+00  0.00000000E+00  0.00000000E+00
  0.00000000E+00  0.00000000E+00  0.00000000E+00
  0.00000000E+00  0.00000000E+00  0.00000000E+00
  0.00000000E+00  0.00000000E+00  0.00000000E+00
  0.00000000E+00  0.00000000E+00  0.00000000E+00
  0.00000000E+00  0.00000000E+00  0.00000000E+00
  0.00000000E+00  0.00000000E+00  0.00000000E+00
  0.00000000E+00  0.00000000E+00  0.00000000E+00
  0.00000000E+00  0.00000000E+00  0.00000000E+00
  0.00000000E+00  0.00000000E+00  0.00000000E+00
  0.00000000E+00  0.00000000E+00  0.00000000E+00
  0.00000000E+00  0.00000000E+00  0.00000000E+00
  0.00000000E+00  0.00000000E+00  0.00000000E+00
  0.00000000E+00  0.00000000E+00  0.00000000E+00
  0.00000000E+00  0.00000000E+00  0.00000000E+00
  0.00000000E+00  0.00000000E+00  0.00000000E+00
  0.00000000E+00  0.00000000E+00  0.00000000E+00
  0.00000000E+00  0.00000000E+00  0.00000000E+00
  0.00000000E+00  0.00000000E+00  0.00000000E+00
  0.00000000E+00  0.00000000E+00  0.00000000E+00
  0.00000000E+00  0.00000000E+00  0.00000000E+00
  0.00000000E+00  0.00000000E+00  0.00000000E+00
  0.00000000E+00  0.00000000E+00  0.00000000E+00
  0.00000000E+00  0.00000000E+00  0.00000000E+00
  0.00000000E+00  0.00000000E+00  0.00000000E+00
  0.00000000E+00  0.00000000E+00  0.00000000E+00
  0.00000000E+00  0.00000000E+00  0.00000000E+00
  0.00000000E+00  0.00000000E+00  0.00000000E+00
  0.00000000E+00  0.00000000E+00  0.00000000E+00
  0.00000000E+00  0.00000000E+00  0.00000000E+00
  0.00000000E+00  0.00000000E+00  0.00000000E+00
  0.00000000E+00  0.00000000E+00  0.00000000E+00
  0.00000000E+00  0.00000000E+00  0.00000000E+00
  0.00000000E+00  0.00000000E+00  0.00000000E+00
  0.00000000E+00  0.00000000E+00  0.00000000E+00
  0.00000000E+00  0.00000000E+00  0.00000000E+00
  0.00000000E+00  0.00000000E+00  0.00000000E+00
  0.00000000E+00  0.00000000E+00  0.00000000E+00
  0.00000000E+00  0.00000000E+00  0.00000000E+00
  0.00000000E+00  0.00000000E+00  0.00000000E+00
  0.00000000E+00  0.00000000E+00  0.00000000E+00
  0.00000000E+00  0.00000000E+00  0.00000000E+00
