CeO2-you-111-you-Re                     
   1.00000000000000     
     9.9006876709193179   -5.7298225147641455   -0.0193017039738930
    -0.0118277039704104   11.4391568298638138    0.0193017007924678
    -0.0216393177585385    0.0374803961041634   21.0229901050066488
   O    Re   Ce   H 
    53     1    26     2
Selective dynamics
Direct
  0.9995089384986865  0.0001645726340455  0.9958450560128103   T   T   T
  0.1160940976774185  0.2234550302548755  0.1486604560839311   F   F   F
  0.2599849986885862  0.1397365773061698  0.3070552261091650   T   T   T
  0.1587546702906953  0.2687950127027952  0.3603439158583731   T   T   T
  0.0092931068893314  0.0023203123859304  0.2307698808612512   T   T   T
  0.2221814575495884  0.1096588854480700  0.0741272321853543   F   F   F
  0.3359143527157483  0.0018590563729921  0.9966391002320403   T   T   T
  0.4382165965737883  0.2284494034319806  0.1531191298384798   F   F   F
  0.5593337536853291  0.1081987504742917  0.3032606375245285   T   T   T
  0.4402429609015949  0.2285370439342184  0.3990122664498468   T   T   T
  0.3319895952792488  0.9983762092731553  0.2265268379075378   T   T   T
  0.5539305575118547  0.1127364424867139  0.0795381600118859   F   F   F
  0.6654428821323281  0.0009076617894599  0.9991187938700578   T   T   T
  0.7841308279161794  0.2228889904525744  0.1524559399891530   F   F   F
  0.8912589053970085  0.1023790555253723  0.3053842608277663   T   T   T
  0.7760912432403567  0.2069071266462909  0.3898782422473467   T   T   T
  0.6688463219980771  0.9981990273336273  0.2292346968933225   T   T   T
  0.8906599909527984  0.1106213750390594  0.0765870846182821   F   F   F
  0.9968023615626327  0.3314152978353315  0.9963033401444805   T   T   T
  0.1099494266058940  0.5567175733966394  0.1462878719064165   F   F   F
  0.1051743888580007  0.5626297977067908  0.3867535881652339   T   T   T
  0.0117189314751927  0.3398412038257073  0.2318413230722022   T   T   T
  0.2214518692755334  0.4452141307254962  0.0720175499869811   F   F   F
  0.3332713091083480  0.3331917510606187  0.9959626520269036   T   T   T
  0.4432109697516893  0.5505729023243120  0.1486604560847056   F   F   F
  0.5258427593462267  0.4047847657011628  0.3063582360528476   T   T   T
  0.4022336021345924  0.5097569350544007  0.3613612718622770   T   T   T
  0.3153803943344629  0.3510639637167524  0.2402584065841747   T   T   T
  0.5570081145492694  0.4444845424479169  0.0741272321853117   F   F   F
  0.6653661264508720  0.3312513689539017  0.9966785450497386   T   T   T
  0.7774470325362586  0.5550062963938842  0.1488913233888240   F   F   F
  0.8909580965409430  0.4510464796090508  0.3026954995511273   T   T   T
  0.7755485454944741  0.5681043220953002  0.3828132640599529   T   T   T
  0.6685504046304257  0.3344630432116967  0.2265077227308402   T   T   T
  0.8873444734295859  0.4439550796375045  0.0746371081206050   F   F   F
  0.9998832982026101  0.6671736535937539  0.9953106386620320   T   T   T
  0.1116607036054447  0.8892199674627292  0.1488913233887814   F   F   F
  0.2166047237910138  0.7761687576681593  0.3025847621407089   T   T   T
  0.0989746665981259  0.8907463634753754  0.3831115006932116   T   T   T
 -0.0006576549799199  0.6675292553276947  0.2270079378886294   T   T   T
  0.2227109203616209  0.7793225265691248  0.0746371081207897   F   F   F
  0.3342786569226623  0.6694773599023471  0.9961406983016082   T   T   T
  0.4437770095454781  0.8825361720793197  0.1524559399885064   F   F   F
  0.5649112106448199  0.7759785892010148  0.3052838810092572   T   T   T
  0.4610191397357586  0.8914740126394233  0.3895922778160329   T   T   T
  0.3274896838443545  0.6553997339624588  0.2315480233554604   T   T   T
  0.5560456249625574  0.7760070090491737  0.0765870846184598   F   F   F
  0.6667285071739719  0.6680173504191723  0.9960111731340668   T   T   T
  0.7781470375341897  0.8885199624664963  0.1513276732332116   F   F   F
  0.8882437298969680  0.7799540807920748  0.3001475734481261   T   T   T
  0.7850652464773962  0.8816539226328131  0.3855807701309666   T   T   T
  0.6650599155099823  0.6578114472663417  0.2307869927349188   T   T   T
  0.8889280514955331  0.7777389485041368  0.0740963167703086   F   F   F
  0.3439496936693869  0.3228528902980543  0.3443959365958158   T   T   T
  0.9988361303031260  0.9944010639414635  0.3418239890480779   T   T   T
  0.2215053636569664  0.1078122349667368  0.1894973147271060   F   F   F
  0.1100339454620567  0.2204593887123565  0.0345558687918270   F   F   F
  0.3358850390813815  0.9916668200383236  0.3462036232848754   T   T   T
  0.5563281753895666  0.1103388246160009  0.1930669419832256   F   F   F
  0.4443012277278484  0.2223647722737212  0.0364836195168934   F   F   F
  0.6695539711363336  0.9979247858294727  0.3461914164381736   T   T   T
  0.8918179296823467  0.1120401318378796  0.1919623902398158   F   F   F
  0.7778372934154447  0.2224435509367524  0.0381797501090375   F   F   F
  0.9929303315897120  0.3342510555013342  0.3495224681144467   T   T   T
  0.2195410611233939  0.4471249388735998  0.1815018007815112   F   F   F
  0.1097827002836311  0.5568842997152288  0.0335431936808419   F   F   F
  0.5588547650287694  0.4451606363396650  0.1894973147270562   F   F   F
  0.4462066112862786  0.5566330545375706  0.0345558687915215   F   F   F
  0.6751888786252089  0.3311646949932672  0.3463779772895654   T   T   T
  0.8900702747810030  0.4443504788049566  0.1908389149916871   F   F   F
  0.7769947088572593  0.5543689834299741  0.0351768455557533   F   F   F
  0.0002406291884774  0.6670355476460040  0.3430149197986570   T   T   T
  0.2223155212002865  0.7765967252303128  0.1908389149920424   F   F   F
  0.1122980165715859  0.8896722911446204  0.0351768455559593   F   F   F
  0.3335810411204665  0.6738560896328298  0.3494649584552303   T   T   T
  0.5546268681548270  0.7748490703185027  0.1919623902392971   F   F   F
  0.4442224490629343  0.8888297065857742  0.0381797501089167   F   F   F
  0.6719262676323146  0.6680770875865889  0.3419339488436658   T   T   T
  0.8901010015629964  0.7765659984372064  0.1870288157814670   F   F   F
  0.7773391556658993  0.8893278443343249  0.0372845516976952   F   F   F
  0.3334988200666225  0.3300890612038565  0.4227768996059794   T   T   T
  0.4251477039609091  0.2388912106938300  0.4435620354801595   T   T   T
 
  0.00000000E+00  0.00000000E+00  0.00000000E+00
  0.00000000E+00  0.00000000E+00  0.00000000E+00
  0.00000000E+00  0.00000000E+00  0.00000000E+00
  0.00000000E+00  0.00000000E+00  0.00000000E+00
  0.00000000E+00  0.00000000E+00  0.00000000E+00
  0.00000000E+00  0.00000000E+00  0.00000000E+00
  0.00000000E+00  0.00000000E+00  0.00000000E+00
  0.00000000E+00  0.00000000E+00  0.00000000E+00
  0.00000000E+00  0.00000000E+00  0.00000000E+00
  0.00000000E+00  0.00000000E+00  0.00000000E+00
  0.00000000E+00  0.00000000E+00  0.00000000E+00
  0.00000000E+00  0.00000000E+00  0.00000000E+00
  0.00000000E+00  0.00000000E+00  0.00000000E+00
  0.00000000E+00  0.00000000E+00  0.00000000E+00
  0.00000000E+00  0.00000000E+00  0.00000000E+00
  0.00000000E+00  0.00000000E+00  0.00000000E+00
  0.00000000E+00  0.00000000E+00  0.00000000E+00
  0.00000000E+00  0.00000000E+00  0.00000000E+00
  0.00000000E+00  0.00000000E+00  0.00000000E+00
  0.00000000E+00  0.00000000E+00  0.00000000E+00
  0.00000000E+00  0.00000000E+00  0.00000000E+00
  0.00000000E+00  0.00000000E+00  0.00000000E+00
  0.00000000E+00  0.00000000E+00  0.00000000E+00
  0.00000000E+00  0.00000000E+00  0.00000000E+00
  0.00000000E+00  0.00000000E+00  0.00000000E+00
  0.00000000E+00  0.00000000E+00  0.00000000E+00
  0.00000000E+00  0.00000000E+00  0.00000000E+00
  0.00000000E+00  0.00000000E+00  0.00000000E+00
  0.00000000E+00  0.00000000E+00  0.00000000E+00
  0.00000000E+00  0.00000000E+00  0.00000000E+00
  0.00000000E+00  0.00000000E+00  0.00000000E+00
  0.00000000E+00  0.00000000E+00  0.00000000E+00
  0.00000000E+00  0.00000000E+00  0.00000000E+00
  0.00000000E+00  0.00000000E+00  0.00000000E+00
  0.00000000E+00  0.00000000E+00  0.00000000E+00
  0.00000000E+00  0.00000000E+00  0.00000000E+00
  0.00000000E+00  0.00000000E+00  0.00000000E+00
  0.00000000E+00  0.00000000E+00  0.00000000E+00
  0.00000000E+00  0.00000000E+00  0.00000000E+00
  0.00000000E+00  0.00000000E+00  0.00000000E+00
  0.00000000E+00  0.00000000E+00  0.00000000E+00
  0.00000000E+00  0.00000000E+00  0.00000000E+00
  0.00000000E+00  0.00000000E+00  0.00000000E+00
  0.00000000E+00  0.00000000E+00  0.00000000E+00
  0.00000000E+00  0.00000000E+00  0.00000000E+00
  0.00000000E+00  0.00000000E+00  0.00000000E+00
  0.00000000E+00  0.00000000E+00  0.00000000E+00
  0.00000000E+00  0.00000000E+00  0.00000000E+00
  0.00000000E+00  0.00000000E+00  0.00000000E+00
  0.00000000E+00  0.00000000E+00  0.00000000E+00
  0.00000000E+00  0.00000000E+00  0.00000000E+00
  0.00000000E+00  0.00000000E+00  0.00000000E+00
  0.00000000E+00  0.00000000E+00  0.00000000E+00
  0.00000000E+00  0.00000000E+00  0.00000000E+00
  0.00000000E+00  0.00000000E+00  0.00000000E+00
  0.00000000E+00  0.00000000E+00  0.00000000E+00
  0.00000000E+00  0.00000000E+00  0.00000000E+00
  0.00000000E+00  0.00000000E+00  0.00000000E+00
  0.00000000E+00  0.00000000E+00  0.00000000E+00
  0.00000000E+00  0.00000000E+00  0.00000000E+00
  0.00000000E+00  0.00000000E+00  0.00000000E+00
  0.00000000E+00  0.00000000E+00  0.00000000E+00
  0.00000000E+00  0.00000000E+00  0.00000000E+00
  0.00000000E+00  0.00000000E+00  0.00000000E+00
  0.00000000E+00  0.00000000E+00  0.00000000E+00
  0.00000000E+00  0.00000000E+00  0.00000000E+00
  0.00000000E+00  0.00000000E+00  0.00000000E+00
  0.00000000E+00  0.00000000E+00  0.00000000E+00
  0.00000000E+00  0.00000000E+00  0.00000000E+00
  0.00000000E+00  0.00000000E+00  0.00000000E+00
  0.00000000E+00  0.00000000E+00  0.00000000E+00
  0.00000000E+00  0.00000000E+00  0.00000000E+00
  0.00000000E+00  0.00000000E+00  0.00000000E+00
  0.00000000E+00  0.00000000E+00  0.00000000E+00
  0.00000000E+00  0.00000000E+00  0.00000000E+00
  0.00000000E+00  0.00000000E+00  0.00000000E+00
  0.00000000E+00  0.00000000E+00  0.00000000E+00
  0.00000000E+00  0.00000000E+00  0.00000000E+00
  0.00000000E+00  0.00000000E+00  0.00000000E+00
  0.00000000E+00  0.00000000E+00  0.00000000E+00
  0.00000000E+00  0.00000000E+00  0.00000000E+00
  0.00000000E+00  0.00000000E+00  0.00000000E+00
