CeO2-you-111-you-Sb                     
   1.00000000000000     
     9.8441232501382814   -5.7114742792296660    0.0042558884393028
     0.0000000002073876   11.4229465485933144   -0.0000000004986555
     0.0090010183268086   -0.0000000009066971   20.9792539983072395
   O    Sb   Ce
    53     1    26
Selective dynamics
Direct
 -0.0009347749029253  0.0007102631717774  0.9956345529701710   T   T   T
  0.1165760530518370  0.2249545265259342  0.1506639507556729   T   T   T
  0.2235878971878759  0.1217241929343510  0.3045676133216125   T   T   T
  0.1137052146581527  0.2235191073291084  0.3849805770816780   T   T   T
  0.0011590264490061  0.0006732881505190  0.2287573747723602   T   T   T
  0.2209912384301247  0.1099931512452507  0.0743159541011284   T   T   T
  0.3327874764174492 -0.0005519297429539  0.9950293707226728   T   T   T
  0.4440790080908729  0.2210345131172973  0.1462334469704347   T   T   T
  0.5607815879737207  0.1068776417023746  0.3009864040219770   T   T   T
  0.4513340713581680  0.1988378908696938  0.3878852644994503   T   T   T
  0.3321301477426450  0.0021411141112450  0.2295922774313620   T   T   T
  0.5554294057817049  0.1096287837204842  0.0744427989358572   T   T   T
  0.6685298693492280  0.0009314346748698  0.9957163475257925   T   T   T
  0.7757071297813971  0.2270554512171710  0.1514049495865079   T   T   T
  0.8915790851053419  0.1124560425524161  0.3038587615871501   T   T   T
  0.7830441307909635  0.2199878180708822  0.3866860300625989   T   T   T
  0.6710251136893577  0.0021790568447439  0.2263155079659377   T   T   T
  0.8887900128685469  0.1110615064340227  0.0774506075151298   T   T   T
 -0.0009347749027431  0.3316879619249052  0.9956345529701648   T   T   T
  0.1103256790714458  0.5554299140671602  0.1502571099975623   T   T   T
  0.2235878971875880  0.4351967042545021  0.3045676133215810   T   T   T
  0.1079682282612723  0.5539439249874326  0.3825034271800459   T   T   T
  0.0011590264498064  0.3338187382984140  0.2287573747724274   T   T   T
  0.2209912384298804  0.4443310871848519  0.0743159541011625   T   T   T
  0.3307800523726848  0.3320565261862672  0.9949482670896274   T   T   T
  0.4440790080897412  0.5563784949745613  0.1462334469702685   T   T   T
  0.4513340713564992  0.5858301804891466  0.3878852644991553   T   T   T
  0.3477581131024537  0.3405455565513699  0.2317485236569509   T   T   T
  0.5556760663074890  0.4445040331540793  0.0711810258123684   T   T   T
  0.6672348137025784  0.3317431434233467  0.9948606075660901   T   T   T
  0.7794746631771488  0.5564043315878845  0.1467781377756628   T   T   T
  0.8911156271133445  0.4425733501588314  0.3035044831966218   T   T   T
  0.7642236989765403  0.5487788494877843  0.3781560294615226   T   T   T
  0.6558648947029874  0.3423294138476420  0.2339750201852545   T   T   T
  0.8893723036926743  0.4445626242874301  0.0741875448020742   T   T   T
  0.0001317707404249  0.6667328853700447  0.9949207484103103   T   T   T
  0.1103256790712513  0.8882297650036638  0.1502571099975318   T   T   T
  0.2215444817363315  0.7774392408679831  0.3037633222430198   T   T   T
  0.1079682282604620  0.8873583032726288  0.3825034271799786   T   T   T
 -0.0023777329370219  0.6654781335306507  0.2296855669279199   T   T   T
  0.2221077326977625  0.7777208663487950  0.0750742753747881   T   T   T
  0.3327874764172574  0.6666734061603996  0.9950293707226504   T   T   T
  0.4440458216349337  0.8886899108175533  0.1509291874405975   T   T   T
  0.5607815879716374  0.7872369462717391  0.3009864040220294   T   T   T
  0.4475086789587558  0.8904213394796238  0.3839762692124766   T   T   T
  0.3321301477427868  0.6633230336322149  0.2295922774314064   T   T   T
  0.5554294057815530  0.7791336220612695  0.0744427989358344   T   T   T
  0.6672348137024915  0.6688246702792549  0.9948606075660325   T   T   T
  0.7757071297807689  0.8819846785638537  0.1514049495866187   T   T   T
  0.8911156271120180  0.7818752769514650  0.3035044831966268   T   T   T
  0.7830441307884690  0.8963893127178082  0.3866860300623992   T   T   T
  0.6558648947031223  0.6468684808553880  0.2339750201851816   T   T   T
  0.8893723036927226  0.7781426794050829  0.0741875448019999   T   T   T
  0.3036180235889949  0.3184755117941755  0.3422596461168657   T   T   T
 -0.0003812726734156 -0.0019827673710779  0.3438780494541894   T   T   T
  0.2239421090084833  0.1120404524359007  0.1894696736386997   T   T   T
  0.1110415108440488  0.2221872554221626  0.0352533935744058   T   T   T
  0.3371245405538322  0.0009851078524581  0.3456810249889167   T   T   T
  0.5552337852112312  0.1120284798954849  0.1902086221931008   T   T   T
  0.4434528579573585  0.2200349031127123  0.0330886922427890   T   T   T
  0.6683380492705325  0.0008355246357868  0.3434367394807776   T   T   T
  0.8899938654184643  0.1116634327097607  0.1901371199318324   T   T   T
  0.7778964009589503  0.2223954932429360  0.0355418808423604   T   T   T
 -0.0003812726754596  0.3349344946979726  0.3438780494542161   T   T   T
  0.2239421090090853  0.4452346565718484  0.1894696736387146   T   T   T
  0.1105941594117939  0.5551230161242923  0.0356863800787033   T   T   T
  0.5554223055725265  0.4443771527845161  0.1814366414626133   T   T   T
  0.4434528579576395  0.5567519548441118  0.0330886922428265   T   T   T
  0.6675262113914429  0.3227781693131559  0.3503230943389815   T   T   T
  0.8873398355597925  0.4446379390523051  0.1906340749649505   T   T   T
  0.7798921276973676  0.5566130638487685  0.0331795168782757   T   T   T
 -0.0018020043573956  0.6657659978223543  0.3424490860589419   T   T   T
  0.2225214684082585  0.7779277342047696  0.1902649582564153   T   T   T
  0.1105941594115595  0.8888051432883816  0.0356863800786669   T   T   T
  0.3371245405547066  0.6694734327008540  0.3456810249887743   T   T   T
  0.5552337852141058  0.7765383053155117  0.1902086221931274   T   T   T
  0.4449269200208517  0.8891304600100159  0.0356883462708649   T   T   T
  0.6675262113933356  0.6780810420790030  0.3503230943393735   T   T   T
  0.8873398355618669  0.7760348965116236  0.1906340749649260   T   T   T
  0.7778964009594541  0.8888339077160040  0.0355418808423663   T   T   T
 
  0.00000000E+00  0.00000000E+00  0.00000000E+00
  0.00000000E+00  0.00000000E+00  0.00000000E+00
  0.00000000E+00  0.00000000E+00  0.00000000E+00
  0.00000000E+00  0.00000000E+00  0.00000000E+00
  0.00000000E+00  0.00000000E+00  0.00000000E+00
  0.00000000E+00  0.00000000E+00  0.00000000E+00
  0.00000000E+00  0.00000000E+00  0.00000000E+00
  0.00000000E+00  0.00000000E+00  0.00000000E+00
  0.00000000E+00  0.00000000E+00  0.00000000E+00
  0.00000000E+00  0.00000000E+00  0.00000000E+00
  0.00000000E+00  0.00000000E+00  0.00000000E+00
  0.00000000E+00  0.00000000E+00  0.00000000E+00
  0.00000000E+00  0.00000000E+00  0.00000000E+00
  0.00000000E+00  0.00000000E+00  0.00000000E+00
  0.00000000E+00  0.00000000E+00  0.00000000E+00
  0.00000000E+00  0.00000000E+00  0.00000000E+00
  0.00000000E+00  0.00000000E+00  0.00000000E+00
  0.00000000E+00  0.00000000E+00  0.00000000E+00
  0.00000000E+00  0.00000000E+00  0.00000000E+00
  0.00000000E+00  0.00000000E+00  0.00000000E+00
  0.00000000E+00  0.00000000E+00  0.00000000E+00
  0.00000000E+00  0.00000000E+00  0.00000000E+00
  0.00000000E+00  0.00000000E+00  0.00000000E+00
  0.00000000E+00  0.00000000E+00  0.00000000E+00
  0.00000000E+00  0.00000000E+00  0.00000000E+00
  0.00000000E+00  0.00000000E+00  0.00000000E+00
  0.00000000E+00  0.00000000E+00  0.00000000E+00
  0.00000000E+00  0.00000000E+00  0.00000000E+00
  0.00000000E+00  0.00000000E+00  0.00000000E+00
  0.00000000E+00  0.00000000E+00  0.00000000E+00
  0.00000000E+00  0.00000000E+00  0.00000000E+00
  0.00000000E+00  0.00000000E+00  0.00000000E+00
  0.00000000E+00  0.00000000E+00  0.00000000E+00
  0.00000000E+00  0.00000000E+00  0.00000000E+00
  0.00000000E+00  0.00000000E+00  0.00000000E+00
  0.00000000E+00  0.00000000E+00  0.00000000E+00
  0.00000000E+00  0.00000000E+00  0.00000000E+00
  0.00000000E+00  0.00000000E+00  0.00000000E+00
  0.00000000E+00  0.00000000E+00  0.00000000E+00
  0.00000000E+00  0.00000000E+00  0.00000000E+00
  0.00000000E+00  0.00000000E+00  0.00000000E+00
  0.00000000E+00  0.00000000E+00  0.00000000E+00
  0.00000000E+00  0.00000000E+00  0.00000000E+00
  0.00000000E+00  0.00000000E+00  0.00000000E+00
  0.00000000E+00  0.00000000E+00  0.00000000E+00
  0.00000000E+00  0.00000000E+00  0.00000000E+00
  0.00000000E+00  0.00000000E+00  0.00000000E+00
  0.00000000E+00  0.00000000E+00  0.00000000E+00
  0.00000000E+00  0.00000000E+00  0.00000000E+00
  0.00000000E+00  0.00000000E+00  0.00000000E+00
  0.00000000E+00  0.00000000E+00  0.00000000E+00
  0.00000000E+00  0.00000000E+00  0.00000000E+00
  0.00000000E+00  0.00000000E+00  0.00000000E+00
  0.00000000E+00  0.00000000E+00  0.00000000E+00
  0.00000000E+00  0.00000000E+00  0.00000000E+00
  0.00000000E+00  0.00000000E+00  0.00000000E+00
  0.00000000E+00  0.00000000E+00  0.00000000E+00
  0.00000000E+00  0.00000000E+00  0.00000000E+00
  0.00000000E+00  0.00000000E+00  0.00000000E+00
  0.00000000E+00  0.00000000E+00  0.00000000E+00
  0.00000000E+00  0.00000000E+00  0.00000000E+00
  0.00000000E+00  0.00000000E+00  0.00000000E+00
  0.00000000E+00  0.00000000E+00  0.00000000E+00
  0.00000000E+00  0.00000000E+00  0.00000000E+00
  0.00000000E+00  0.00000000E+00  0.00000000E+00
  0.00000000E+00  0.00000000E+00  0.00000000E+00
  0.00000000E+00  0.00000000E+00  0.00000000E+00
  0.00000000E+00  0.00000000E+00  0.00000000E+00
  0.00000000E+00  0.00000000E+00  0.00000000E+00
  0.00000000E+00  0.00000000E+00  0.00000000E+00
  0.00000000E+00  0.00000000E+00  0.00000000E+00
  0.00000000E+00  0.00000000E+00  0.00000000E+00
  0.00000000E+00  0.00000000E+00  0.00000000E+00
  0.00000000E+00  0.00000000E+00  0.00000000E+00
  0.00000000E+00  0.00000000E+00  0.00000000E+00
  0.00000000E+00  0.00000000E+00  0.00000000E+00
  0.00000000E+00  0.00000000E+00  0.00000000E+00
  0.00000000E+00  0.00000000E+00  0.00000000E+00
  0.00000000E+00  0.00000000E+00  0.00000000E+00
  0.00000000E+00  0.00000000E+00  0.00000000E+00
