CeO2-you-111-you-Pd                     
   1.00000000000000     
     9.8407277926077672   -5.7034591373138852    0.0049026423384079
    -0.0189762798966484   11.3740483885446650   -0.0049026414973334
     0.0057117553690380   -0.0098930499079391   20.9782519937804466
   O    Pd   Ce H
    53     1    26 2
Selective dynamics
Direct
 -0.0001965244910392 -0.0003264419569304  0.9948868384941705   T   T   T
  0.1086400489583503  0.2203047072684404  0.1470419185651042   F   F   F
  0.2301404547843083  0.1188033595020065  0.3052587161384364   T   T   T
  0.1154942456998394  0.2405582968788474  0.3734192040652647   T   T   T
  0.0023875307699886  0.0014745217122328  0.2302765398792128   T   T   T
  0.2219420290298987  0.1107214887539015  0.0748418139699313   F   F   F
  0.3349970681214879  0.0010011221376686  0.9954013453474228   T   T   T
  0.4424467081223829  0.2242192918759953  0.1512625105510816   F   F   F
  0.5580964546554076  0.1085705453440172  0.3023644789280373   T   T   T
  0.4666656591295418  0.2000003408765571  0.3955895176669456   T   T   T
  0.3333434304943806  0.0010775866551517  0.2290155052640711   T   T   T
  0.5559644986136903  0.1107025013864054  0.0771940555239589   F   F   F
  0.6657388154537265  0.0009281845474333  0.9951129243349915   T   T   T
  0.7844913412668335  0.2254030255780754  0.1523135756691005   F   F   F
  0.8852060099010056  0.1079775851235890  0.3034807756284895   T   T   T
  0.7777570328030907  0.2180804528200405  0.3868273341418112   T   T   T
  0.6677422554913002 -0.0010752554906589  0.2279234844387502   T   T   T
  0.8873315388791631  0.1098743667262601  0.0742441723023266   F   F   F
 -0.0019418150432822  0.3324788599001409  0.9946892614210567   T   T   T
  0.1102720535972563  0.5563949464003028  0.1477717544122239   F   F   F
  0.1162739178747585  0.5503930821289595  0.3777764144852984   T   T   T
  0.0169627590842682  0.3430471485222529  0.2350109508969334   T   T   T
  0.2220295273131507  0.4446364726883284  0.0716412758957973   F   F   F
  0.3342347455078181  0.3324312544915816  0.9946297340388631   T   T   T
  0.4463612927350433  0.5580269510437307  0.1470419185644657   F   F   F
  0.5478636404989451  0.4365255452133909  0.3052587161390059   T   T   T
  0.4261077031210866  0.5511727542981372  0.3734192040655855   T   T   T
  0.3248503214986008  0.3418156784995847  0.2295408657258502   T   T   T
  0.5559455112457053  0.4447239709697484  0.0748418139700176   F   F   F
  0.6656658778620662  0.3316689318776432  0.9954013453474583   T   T   T
  0.7786552163891116  0.5554194478571930  0.1505763541580658   F   F   F
  0.8840082023461214  0.4426388401218431  0.3054199466058638   T   T   T
  0.7760737002280047  0.5582589270501338  0.3838784638841626   T   T   T
  0.6655894133429004  0.3333225695046131  0.2290155052642668   T   T   T
  0.8881225040979173  0.4443770165902343  0.0746816176921607   F   F   F
 -0.0003211152514810  0.6669881152502942  0.9949392848498356   T   T   T
  0.1112475521414138  0.8880117836088015  0.1505763541580292   F   F   F
  0.2240271598740592  0.7826587976498756  0.3054199466053888   T   T   T
  0.1084080729486958  0.8905932997694860  0.3838784638840180   T   T   T
  0.0008011874300932  0.6658658125684669  0.2305205562387067   T   T   T
  0.2222889834095167  0.7785444959016240  0.0746816176920023   F   F   F
  0.3341871401004983  0.6686088150445249  0.9946892614208658   T   T   T
  0.4412629744240406  0.8821756587319949  0.1523135756697600   F   F   F
  0.5586894148797206  0.7814609901014350  0.3034807756277637   T   T   T
  0.4485855471788863  0.8889099671962413  0.3868273341407282   T   T   T
  0.3236188514807229  0.6497042409196776  0.2350109508975739   T   T   T
  0.5567926332743074  0.7793354611221445  0.0742441723020927   F   F   F
  0.6669934419568682  0.6668635244906884  0.9948868384941304   T   T   T
  0.7785233606466742  0.8881436393536176  0.1505197746867545   F   F   F
  0.8889338984811717  0.7777331015172004  0.3035024257208004   T   T   T
  0.7790798448670136  0.8875871551332624  0.3840227638494907   T   T   T
  0.6651924782884151  0.6642794692299724  0.2302765398792723   T   T   T
  0.8888293539087573  0.7778376460902804  0.0749563577595087   F   F   F
  0.3262373808637989  0.3404286191366496  0.3344024529357772   T   T   T
  0.0046034789377108  0.0042861777512458  0.3434752801793490   T   T   T
  0.2231967863397882  0.1124768412507093  0.1917421487084973   F   F   F
  0.1101110932006495  0.2200143509389133  0.0333355748873758   F   F   F
  0.3377323874408311  0.0078108054980174  0.3472425798869941   T   T   T
  0.5558653315287945  0.1108016684728847  0.1910519172436071   F   F   F
  0.4443830457170565  0.2222829542829494  0.0357649733695804   F   F   F
  0.6677029713416537 -0.0010359713415007  0.3451087710001173   T   T   T
  0.8900608405739523  0.1110862701252509  0.1903047473730912   F   F   F
  0.7778223124774430  0.2222640475780362  0.0353739535155518   F   F   F
 -0.0108420204141630  0.3275540293530707  0.3469351532488965   T   T   T
  0.2219573495081059  0.4447086504839037  0.1816021907212323   F   F   F
  0.1098832392779442  0.5567837607211861  0.0334567822605429   F   F   F
  0.5541901587490808  0.4434692136599700  0.1917421487084064   F   F   F
  0.4466516490597096  0.5565559067989183  0.0333355748872666   F   F   F
  0.6588561945074157  0.3289336125627691  0.3472425798868339   T   T   T
  0.8888656300530713  0.4444254059036057  0.1914652456444823   F   F   F
  0.7773477126462349  0.5547123957640778  0.0358113327285531   F   F   F
 -0.0016784340684017  0.6683454340757404  0.3435696343165996   T   T   T
  0.2222405940991550  0.7778013699537114  0.1914652456445602   F   F   F
  0.1119546042376849  0.8893192873555125  0.0358113327284936   F   F   F
  0.3391119706424876  0.6775090204084625  0.3469351532496568   T   T   T
  0.5555807298699591  0.7766061594247350  0.1903047473732670   F   F   F
  0.4444019524207703  0.8888446875226087  0.0353739535155985   F   F   F
  0.6623808222464213  0.6620635210611814  0.3434752801789995   T   T   T
  0.8892101208826041  0.7774568791196932  0.1897308193972728   F   F   F
  0.7775461484380387  0.8891208515612619  0.0350675790566028   F   F   F
0.3262373808637989 0.3404286191366496 0.434402 T T T
0.446598 0.216020 0.433410 T T T 
 
  0.00000000E+00  0.00000000E+00  0.00000000E+00
  0.00000000E+00  0.00000000E+00  0.00000000E+00
  0.00000000E+00  0.00000000E+00  0.00000000E+00
  0.00000000E+00  0.00000000E+00  0.00000000E+00
  0.00000000E+00  0.00000000E+00  0.00000000E+00
  0.00000000E+00  0.00000000E+00  0.00000000E+00
  0.00000000E+00  0.00000000E+00  0.00000000E+00
  0.00000000E+00  0.00000000E+00  0.00000000E+00
  0.00000000E+00  0.00000000E+00  0.00000000E+00
  0.00000000E+00  0.00000000E+00  0.00000000E+00
  0.00000000E+00  0.00000000E+00  0.00000000E+00
  0.00000000E+00  0.00000000E+00  0.00000000E+00
  0.00000000E+00  0.00000000E+00  0.00000000E+00
  0.00000000E+00  0.00000000E+00  0.00000000E+00
  0.00000000E+00  0.00000000E+00  0.00000000E+00
  0.00000000E+00  0.00000000E+00  0.00000000E+00
  0.00000000E+00  0.00000000E+00  0.00000000E+00
  0.00000000E+00  0.00000000E+00  0.00000000E+00
  0.00000000E+00  0.00000000E+00  0.00000000E+00
  0.00000000E+00  0.00000000E+00  0.00000000E+00
  0.00000000E+00  0.00000000E+00  0.00000000E+00
  0.00000000E+00  0.00000000E+00  0.00000000E+00
  0.00000000E+00  0.00000000E+00  0.00000000E+00
  0.00000000E+00  0.00000000E+00  0.00000000E+00
  0.00000000E+00  0.00000000E+00  0.00000000E+00
  0.00000000E+00  0.00000000E+00  0.00000000E+00
  0.00000000E+00  0.00000000E+00  0.00000000E+00
  0.00000000E+00  0.00000000E+00  0.00000000E+00
  0.00000000E+00  0.00000000E+00  0.00000000E+00
  0.00000000E+00  0.00000000E+00  0.00000000E+00
  0.00000000E+00  0.00000000E+00  0.00000000E+00
  0.00000000E+00  0.00000000E+00  0.00000000E+00
  0.00000000E+00  0.00000000E+00  0.00000000E+00
  0.00000000E+00  0.00000000E+00  0.00000000E+00
  0.00000000E+00  0.00000000E+00  0.00000000E+00
  0.00000000E+00  0.00000000E+00  0.00000000E+00
  0.00000000E+00  0.00000000E+00  0.00000000E+00
  0.00000000E+00  0.00000000E+00  0.00000000E+00
  0.00000000E+00  0.00000000E+00  0.00000000E+00
  0.00000000E+00  0.00000000E+00  0.00000000E+00
  0.00000000E+00  0.00000000E+00  0.00000000E+00
  0.00000000E+00  0.00000000E+00  0.00000000E+00
  0.00000000E+00  0.00000000E+00  0.00000000E+00
  0.00000000E+00  0.00000000E+00  0.00000000E+00
  0.00000000E+00  0.00000000E+00  0.00000000E+00
  0.00000000E+00  0.00000000E+00  0.00000000E+00
  0.00000000E+00  0.00000000E+00  0.00000000E+00
  0.00000000E+00  0.00000000E+00  0.00000000E+00
  0.00000000E+00  0.00000000E+00  0.00000000E+00
  0.00000000E+00  0.00000000E+00  0.00000000E+00
  0.00000000E+00  0.00000000E+00  0.00000000E+00
  0.00000000E+00  0.00000000E+00  0.00000000E+00
  0.00000000E+00  0.00000000E+00  0.00000000E+00
  0.00000000E+00  0.00000000E+00  0.00000000E+00
  0.00000000E+00  0.00000000E+00  0.00000000E+00
  0.00000000E+00  0.00000000E+00  0.00000000E+00
  0.00000000E+00  0.00000000E+00  0.00000000E+00
  0.00000000E+00  0.00000000E+00  0.00000000E+00
  0.00000000E+00  0.00000000E+00  0.00000000E+00
  0.00000000E+00  0.00000000E+00  0.00000000E+00
  0.00000000E+00  0.00000000E+00  0.00000000E+00
  0.00000000E+00  0.00000000E+00  0.00000000E+00
  0.00000000E+00  0.00000000E+00  0.00000000E+00
  0.00000000E+00  0.00000000E+00  0.00000000E+00
  0.00000000E+00  0.00000000E+00  0.00000000E+00
  0.00000000E+00  0.00000000E+00  0.00000000E+00
  0.00000000E+00  0.00000000E+00  0.00000000E+00
  0.00000000E+00  0.00000000E+00  0.00000000E+00
  0.00000000E+00  0.00000000E+00  0.00000000E+00
  0.00000000E+00  0.00000000E+00  0.00000000E+00
  0.00000000E+00  0.00000000E+00  0.00000000E+00
  0.00000000E+00  0.00000000E+00  0.00000000E+00
  0.00000000E+00  0.00000000E+00  0.00000000E+00
  0.00000000E+00  0.00000000E+00  0.00000000E+00
  0.00000000E+00  0.00000000E+00  0.00000000E+00
  0.00000000E+00  0.00000000E+00  0.00000000E+00
  0.00000000E+00  0.00000000E+00  0.00000000E+00
  0.00000000E+00  0.00000000E+00  0.00000000E+00
  0.00000000E+00  0.00000000E+00  0.00000000E+00
  0.00000000E+00  0.00000000E+00  0.00000000E+00
