CeO2-you-111-you-Tl                     
   1.00000000000000     
     9.8666432551635399   -5.6975726413441841    0.0006440905225950
    -0.0009207012310151   11.3935485761783593   -0.0006440904046599
     0.0007394737852041   -0.0012808060634469   21.2030945078075099
   O    Tl   Ce
    53     1    26
Selective dynamics
Direct
 -0.0000864251602532 -0.0002461718608043  0.9970423780798060   T   T   T
  0.1088570144005401  0.2203953111101794  0.1473782659124885   T   T   T
  0.2211542654020744  0.1044988203366807  0.3012331593679249   T   T   T
  0.1161288680891026  0.2316338253891785  0.3764838589846027   T   T   T
 -0.0001430133745298  0.0009056200138318  0.2289660816688503   T   T   T
  0.2219322747901517  0.1107785165223672  0.0755308042438057   T   T   T
  0.3351372280225908  0.0008982524944519  0.9979154870173798   T   T   T
  0.4416801479023907  0.2249858520974087  0.1515737911417707   T   T   T
  0.5552679446760270  0.1113990553231380  0.3020707167551602   T   T   T
  0.4509214463784449  0.2157445536226472  0.3866842423063629   T   T   T
  0.3347455495170567  0.0004439203980820  0.2273746820282683   T   T   T
  0.5559907176392285  0.1106762823607269  0.0786441621003138   T   T   T
  0.6657165898595510  0.0009504101408427  0.9973640172941930   T   T   T
  0.7845152231112082  0.2250969876323640  0.1521155128755897   T   T   T
  0.8841634572043290  0.1066129363292441  0.3033758376102750   T   T   T
  0.7710030894944165  0.2189050756101418  0.3841314129392270   T   T   T
  0.6664602163961442  0.0002067836035406  0.2282327642329255   T   T   T
  0.8878074965623689  0.1100578393953360  0.0755760031825374   T   T   T
 -0.0017945905638356  0.3324780043901617  0.9965765734177671   T   T   T
  0.1105469997563300  0.5561200002421188  0.1476501890598901   T   T   T
  0.1148373098718069  0.5518296901277678  0.3761218738736513   T   T   T
  0.0172988968071732  0.3419914406913291  0.2340968401777926   T   T   T
  0.2223258256203239  0.4443401743801795  0.0729304353306017   T   T   T
  0.3342571009734816  0.3324088990261858  0.9965393628962130   T   T   T
  0.4462706888922860  0.5578099856001580  0.1473782659124491   T   T   T
  0.5621681796636810  0.4455117345984783  0.3012331593679662   T   T   T
  0.4350321746129883  0.5505381319137821  0.3764838589846140   T   T   T
  0.3251566106724237  0.3415093893278501  0.2309461467520962   T   T   T
  0.5558884834776393  0.4447337252096637  0.0755308042438039   T   T   T
  0.6657687475054405  0.3315287719771705  0.9979154870173834   T   T   T
  0.7778736206279824  0.5554068467238962  0.1507224528005350   T   T   T
  0.8833097093386969  0.4447261387000473  0.3027153714866377   T   T   T
  0.7791646579681640  0.5593887882079618  0.3818775448402431   T   T   T
  0.6662230796008377  0.3319204504828296  0.2273746820282945   T   T   T
  0.8881695351383810  0.4442679967508664  0.0757431329337936   T   T   T
 -0.0003496257155643  0.6670166257151798  0.9974458422433858   T   T   T
  0.1112601532753979  0.8887933793711313  0.1507224528005263   T   T   T
  0.2219398612968334  0.7833572906568878  0.3027153714865960   T   T   T
  0.1072782117920528  0.8875023420309576  0.3818775448402408   T   T   T
  0.0006973282376597  0.6659696717610935  0.2289148776248190   T   T   T
  0.2223980032488165  0.7784974648611667  0.0757431329337803   T   T   T
  0.3341879956101786  0.6684615905642484  0.9965765734177453   T   T   T
  0.4415690123677327  0.8821517768884938  0.1521155128756205   T   T   T
  0.5600540636735536  0.7825035427960398  0.3033758376102466   T   T   T
  0.4477609243894201  0.8956639105019121  0.3841314129391377   T   T   T
  0.3246745593095289  0.6493681031937544  0.2340968401777815   T   T   T
  0.5566091606051995  0.7788595034379541  0.0755760031825190   T   T   T
  0.6669131718609085  0.6667534251600777  0.9970423780797998   T   T   T
  0.7775181960631270  0.8891488039373678  0.1508194274874369   T   T   T
  0.8890485449886356  0.7776184550110781  0.3015694030141675   T   T   T
  0.7792501238310336  0.8874168761691041  0.3820273244326782   T   T   T
  0.6657613799869530  0.6668100133750433  0.2289660816688489   T   T   T
  0.8886429562449144  0.7780240437548744  0.0762918988987776   T   T   T
  0.3402798337178713  0.3263861662817825  0.3497029062009967   T   T   T
  0.0006613737284436 -0.0004869087978902  0.3415185888014985   T   T   T
  0.2223781028350451  0.1129730260695908  0.1909028177530154   T   T   T
  0.1101019415573999  0.2202506921458010  0.0349873195184591   T   T   T
  0.3333670331964658  0.0020051171519842  0.3423968017024097   T   T   T
  0.5556066564699244  0.1110603435313474  0.1902426521129591   T   T   T
  0.4442190059879377  0.2224469940119591  0.0372707832297433   T   T   T
  0.6665746822988776  0.0000923177028983  0.3426817229729363   T   T   T
  0.8900010763084991  0.1116603464825595  0.1905748958437697   T   T   T
  0.7780971735955416  0.2222459895314096  0.0370964771128755   T   T   T
 -0.0121539942759396  0.3276634095422380  0.3469351343433638   T   T   T
  0.2228103473239934  0.4438556526724709  0.1822572209935877   T   T   T
  0.1101433380669817  0.5565236619328197  0.0351893796302076   T   T   T
  0.5536939739287102  0.4442878971636435  0.1909028177530295   T   T   T
  0.4464153078539937  0.5565650584424665  0.0349873195184650   T   T   T
  0.6646618828518690  0.3332989668046142  0.3423968017023580   T   T   T
  0.8898359723919366  0.4448183636143792  0.1905192354996110   T   T   T
  0.7772143116183862  0.5547610581699975  0.0374248089533270   T   T   T
 -0.0007144233597902  0.6673814233642031  0.3413606170499262   T   T   T
  0.2218476363885224  0.7768310276128717  0.1905192354996457   T   T   T
  0.1119059418305655  0.8894526883819364  0.0374248089533158   T   T   T
  0.3390025904548183  0.6788209942753921  0.3469351343434841   T   T   T
  0.5550066535142681  0.7766659236911865  0.1905748958438198   T   T   T
  0.4444200104684101  0.8885698264046983  0.0370964771128807   T   T   T
  0.6671539087961740  0.6660056262691467  0.3415185888014818   T   T   T
  0.8889017139665106  0.7777652860342766  0.1888934358846898   T   T   T
  0.7773828065435576  0.8892841934560528  0.0370758482889329   T   T   T
 
  0.00000000E+00  0.00000000E+00  0.00000000E+00
  0.00000000E+00  0.00000000E+00  0.00000000E+00
  0.00000000E+00  0.00000000E+00  0.00000000E+00
  0.00000000E+00  0.00000000E+00  0.00000000E+00
  0.00000000E+00  0.00000000E+00  0.00000000E+00
  0.00000000E+00  0.00000000E+00  0.00000000E+00
  0.00000000E+00  0.00000000E+00  0.00000000E+00
  0.00000000E+00  0.00000000E+00  0.00000000E+00
  0.00000000E+00  0.00000000E+00  0.00000000E+00
  0.00000000E+00  0.00000000E+00  0.00000000E+00
  0.00000000E+00  0.00000000E+00  0.00000000E+00
  0.00000000E+00  0.00000000E+00  0.00000000E+00
  0.00000000E+00  0.00000000E+00  0.00000000E+00
  0.00000000E+00  0.00000000E+00  0.00000000E+00
  0.00000000E+00  0.00000000E+00  0.00000000E+00
  0.00000000E+00  0.00000000E+00  0.00000000E+00
  0.00000000E+00  0.00000000E+00  0.00000000E+00
  0.00000000E+00  0.00000000E+00  0.00000000E+00
  0.00000000E+00  0.00000000E+00  0.00000000E+00
  0.00000000E+00  0.00000000E+00  0.00000000E+00
  0.00000000E+00  0.00000000E+00  0.00000000E+00
  0.00000000E+00  0.00000000E+00  0.00000000E+00
  0.00000000E+00  0.00000000E+00  0.00000000E+00
  0.00000000E+00  0.00000000E+00  0.00000000E+00
  0.00000000E+00  0.00000000E+00  0.00000000E+00
  0.00000000E+00  0.00000000E+00  0.00000000E+00
  0.00000000E+00  0.00000000E+00  0.00000000E+00
  0.00000000E+00  0.00000000E+00  0.00000000E+00
  0.00000000E+00  0.00000000E+00  0.00000000E+00
  0.00000000E+00  0.00000000E+00  0.00000000E+00
  0.00000000E+00  0.00000000E+00  0.00000000E+00
  0.00000000E+00  0.00000000E+00  0.00000000E+00
  0.00000000E+00  0.00000000E+00  0.00000000E+00
  0.00000000E+00  0.00000000E+00  0.00000000E+00
  0.00000000E+00  0.00000000E+00  0.00000000E+00
  0.00000000E+00  0.00000000E+00  0.00000000E+00
  0.00000000E+00  0.00000000E+00  0.00000000E+00
  0.00000000E+00  0.00000000E+00  0.00000000E+00
  0.00000000E+00  0.00000000E+00  0.00000000E+00
  0.00000000E+00  0.00000000E+00  0.00000000E+00
  0.00000000E+00  0.00000000E+00  0.00000000E+00
  0.00000000E+00  0.00000000E+00  0.00000000E+00
  0.00000000E+00  0.00000000E+00  0.00000000E+00
  0.00000000E+00  0.00000000E+00  0.00000000E+00
  0.00000000E+00  0.00000000E+00  0.00000000E+00
  0.00000000E+00  0.00000000E+00  0.00000000E+00
  0.00000000E+00  0.00000000E+00  0.00000000E+00
  0.00000000E+00  0.00000000E+00  0.00000000E+00
  0.00000000E+00  0.00000000E+00  0.00000000E+00
  0.00000000E+00  0.00000000E+00  0.00000000E+00
  0.00000000E+00  0.00000000E+00  0.00000000E+00
  0.00000000E+00  0.00000000E+00  0.00000000E+00
  0.00000000E+00  0.00000000E+00  0.00000000E+00
  0.00000000E+00  0.00000000E+00  0.00000000E+00
  0.00000000E+00  0.00000000E+00  0.00000000E+00
  0.00000000E+00  0.00000000E+00  0.00000000E+00
  0.00000000E+00  0.00000000E+00  0.00000000E+00
  0.00000000E+00  0.00000000E+00  0.00000000E+00
  0.00000000E+00  0.00000000E+00  0.00000000E+00
  0.00000000E+00  0.00000000E+00  0.00000000E+00
  0.00000000E+00  0.00000000E+00  0.00000000E+00
  0.00000000E+00  0.00000000E+00  0.00000000E+00
  0.00000000E+00  0.00000000E+00  0.00000000E+00
  0.00000000E+00  0.00000000E+00  0.00000000E+00
  0.00000000E+00  0.00000000E+00  0.00000000E+00
  0.00000000E+00  0.00000000E+00  0.00000000E+00
  0.00000000E+00  0.00000000E+00  0.00000000E+00
  0.00000000E+00  0.00000000E+00  0.00000000E+00
  0.00000000E+00  0.00000000E+00  0.00000000E+00
  0.00000000E+00  0.00000000E+00  0.00000000E+00
  0.00000000E+00  0.00000000E+00  0.00000000E+00
  0.00000000E+00  0.00000000E+00  0.00000000E+00
  0.00000000E+00  0.00000000E+00  0.00000000E+00
  0.00000000E+00  0.00000000E+00  0.00000000E+00
  0.00000000E+00  0.00000000E+00  0.00000000E+00
  0.00000000E+00  0.00000000E+00  0.00000000E+00
  0.00000000E+00  0.00000000E+00  0.00000000E+00
  0.00000000E+00  0.00000000E+00  0.00000000E+00
  0.00000000E+00  0.00000000E+00  0.00000000E+00
  0.00000000E+00  0.00000000E+00  0.00000000E+00
