CeO2-you-111-you-Ce                     
   1.00000000000000     
     9.8853507421611191   -5.6921985076704393    0.0078244422093997
    -0.0000000045765240   11.3843950040423110   -0.0000000009230409
     0.0172572080434381   -0.0000000017720765   20.8681875916679935
   O    Ce   Ce   H 
    53     1    26     2
Selective dynamics
Direct
  0.0000411741457463  0.0006676420359212  0.9948308305899638   T   T   T
  0.1179352648138376  0.2256341324071940  0.1506207862128051   F   F   F
  0.2201994861033934  0.1169478919392749  0.3065901088991757   T   T   T
  0.1079943959515217  0.2222724001158257  0.3883327743365441   T   T   T
  0.0013406954995802  0.0015558089417502  0.2282710026774008   T   T   T
  0.2222217169547704  0.1104842567208095  0.0733662362110934   F   F   F
  0.3346972917424222  0.0005530226117322  0.9936636456184759   T   T   T
  0.4432909709814794  0.2205070092052424  0.1465790821155437   F   F   F
  0.5563777235311907  0.1066638222163300  0.3057879686321776   T   T   T
  0.4454089159281798  0.2378803786130409  0.4000432967106525   T   T   T
  0.3307882615032734  0.0004033271938022  0.2284773371651434   T   T   T
  0.5557373911232020  0.1101468823583929  0.0742054526525848   F   F   F
  0.6696905104378906  0.0015984425817778  0.9950165411747794   T   T   T
  0.7739031999928585  0.2251521170094790  0.1514898866683723   F   F   F
  0.8896267669426631  0.1107733412716756  0.3038426245098658   T   T   T
  0.7847790418337572  0.2165300508048327  0.3896710647333914   T   T   T
  0.6680890835970429  0.0003899742896564  0.2284460461490135   T   T   T
  0.8895912498476548  0.1114621249238610  0.0767318084383604   F   F   F
 -0.0000597214638439  0.3315836445143076  0.9947722731749019   T   T   T
  0.1107556391950482  0.5549363427356795  0.1496877269296064   F   F   F
  0.2141995926309536  0.4382214011502297  0.3036397745744588   T   T   T
  0.1117622623630117  0.5517479230745214  0.3866448124668989   T   T   T
 -0.0008285455774631  0.3311726749213968  0.2275379411256975   T   T   T
  0.2222217169546212  0.4450704602337368  0.0733662362111360   F   F   F
  0.3321825751307546  0.3328683482734690  0.9937861546571274   T   T   T
  0.4432909709807618  0.5561179617759890  0.1465790821156432   F   F   F
  0.4357400321760042  0.5329074401560449  0.3790420198389893   T   T   T
  0.3523080462727393  0.3434830132076869  0.2353014596500587   T   T   T
  0.5564119871522948  0.4448719935760934  0.0706642580143324   F   F   F
  0.6687895907315409  0.3326865814667498  0.9937358835767075   T   T   T
  0.7792228681216713  0.5562784340606015  0.1465923446586785   F   F   F
  0.8951858198258688  0.4429464903485477  0.3035983906084826   T   T   T
  0.7851170689014686  0.5575999923970300  0.3853470651446744   T   T   T
  0.6566778514717589  0.3431184856219083  0.2343486238374627   T   T   T
  0.8900519155193578  0.4448038838474559  0.0739818887714776   F   F   F
  0.0013085581132530  0.6674367072179336  0.9939094706093747   T   T   T
  0.1107556391951334  0.8891532964594404  0.1496877269295851   F   F   F
  0.2187605378939009  0.7694814780427623  0.3041430049016696   T   T   T
  0.0961844102249333  0.8797644650610038  0.3873818838043509   T   T   T
  0.9977347221065105  0.6656905946020140  0.2285981227530968   T   T   T
  0.2228477445489361  0.7780908722745394  0.0740487876466958   F   F   F
  0.3343240836318934  0.6676180810751380  0.9937726267471461   T   T   T
  0.4442989964138775  0.8888164982071487  0.1507974434744952   F   F   F
  0.5530471600286841  0.7797682230190499  0.3040786238812208   T   T   T
  0.4445365039839497  0.8742631515777718  0.3889528538052514   T   T   T
  0.3323059900256006  0.6628702529217231  0.2293132094459819   T   T   T
  0.5557373911231736  0.7789235087648549  0.0742054526526132   F   F   F
  0.6686963829605760  0.6696282213162030  0.9939841470553359   T   T   T
  0.7739031999927874  0.8820840829831198  0.1514898866682373   F   F   F
  0.8920096777109628  0.7822784530758261  0.3028627064373751   T   T   T
  0.7833530762274206  0.8997043692542891  0.3886021736688330   T   T   T
  0.6563127145064083  0.6471049771185229  0.2334681037822188   T   T   T
  0.8900519155194857  0.7785810316718411  0.0739818887714776   F   F   F
  0.3094993616029733  0.3264935853427375  0.3459449228649655   T   T   T
  0.9969694220864782  0.9959939446321074  0.3450798050132723   T   T   T
  0.2229214042151213  0.1118529188152237  0.1896661001968809   F   F   F
  0.1119746623468103  0.2226538311734387  0.0344629474326794   F   F   F
  0.3283964013295397  0.9897122786408952  0.3479541965791012   T   T   T
  0.5548669393019594  0.1122107355351574  0.1912998875310237   F   F   F
  0.4441517877237331  0.2200397371527174  0.0324887968871508   F   F   F
  0.6646824234162160  0.9971534322094009  0.3452548286317914   T   T   T
  0.8885120706767893  0.1109225353381618  0.1902117017851026   F   F   F
  0.7781771496412659  0.2225579473045585  0.0350320124143124   F   F   F
  0.9967074643799404  0.3315713814369174  0.3456155220058515   T   T   T
  0.2229214042174377  0.4444014853996165  0.1896661001967317   F   F   F
  0.1111846835627333  0.5550639499132402  0.0346993449007300   F   F   F
  0.5560608595229795  0.4446964297619900  0.1812066522691609   F   F   F
  0.4441517877236194  0.5574460505711869  0.0324887968871295   F   F   F
  0.6794167347258460  0.3293950581353441  0.3512275830794840   T   T   T
  0.8877205543108744  0.4446549313234911  0.1907264255680019   F   F   F
  0.7809169226234616  0.5571254613115926  0.0327084914624578   F   F   F
 -0.0018408005643409  0.6653486033632628  0.3455103903866627   T   T   T
  0.2215657269097875  0.7774498634547271  0.1888252871229525   F   F   F
  0.1111846835623922  0.8894547336492309  0.0346993449007584   F   F   F
  0.3313834638983950  0.6651350931131248  0.3446159020384889   T   T   T
  0.5548669393038210  0.7759892037677361  0.1912998875309100   F   F   F
  0.4459455581310579  0.8896397790654476  0.0351062411153293   F   F   F
  0.6740829008507494  0.6771625091757807  0.3522502432723925   T   T   T
  0.8877205543108033  0.7763986229886086  0.1907264255679593   F   F   F
  0.7781771496411949  0.8889522023366894  0.0350320124142911   F   F   F
  0.2980959448859903  0.3318305973242510  0.4827904485532074   T   T   T
  0.4438530183451713  0.2505565844328092  0.4461208267375278   T   T   T
 
  0.00000000E+00  0.00000000E+00  0.00000000E+00
  0.00000000E+00  0.00000000E+00  0.00000000E+00
  0.00000000E+00  0.00000000E+00  0.00000000E+00
  0.00000000E+00  0.00000000E+00  0.00000000E+00
  0.00000000E+00  0.00000000E+00  0.00000000E+00
  0.00000000E+00  0.00000000E+00  0.00000000E+00
  0.00000000E+00  0.00000000E+00  0.00000000E+00
  0.00000000E+00  0.00000000E+00  0.00000000E+00
  0.00000000E+00  0.00000000E+00  0.00000000E+00
  0.00000000E+00  0.00000000E+00  0.00000000E+00
  0.00000000E+00  0.00000000E+00  0.00000000E+00
  0.00000000E+00  0.00000000E+00  0.00000000E+00
  0.00000000E+00  0.00000000E+00  0.00000000E+00
  0.00000000E+00  0.00000000E+00  0.00000000E+00
  0.00000000E+00  0.00000000E+00  0.00000000E+00
  0.00000000E+00  0.00000000E+00  0.00000000E+00
  0.00000000E+00  0.00000000E+00  0.00000000E+00
  0.00000000E+00  0.00000000E+00  0.00000000E+00
  0.00000000E+00  0.00000000E+00  0.00000000E+00
  0.00000000E+00  0.00000000E+00  0.00000000E+00
  0.00000000E+00  0.00000000E+00  0.00000000E+00
  0.00000000E+00  0.00000000E+00  0.00000000E+00
  0.00000000E+00  0.00000000E+00  0.00000000E+00
  0.00000000E+00  0.00000000E+00  0.00000000E+00
  0.00000000E+00  0.00000000E+00  0.00000000E+00
  0.00000000E+00  0.00000000E+00  0.00000000E+00
  0.00000000E+00  0.00000000E+00  0.00000000E+00
  0.00000000E+00  0.00000000E+00  0.00000000E+00
  0.00000000E+00  0.00000000E+00  0.00000000E+00
  0.00000000E+00  0.00000000E+00  0.00000000E+00
  0.00000000E+00  0.00000000E+00  0.00000000E+00
  0.00000000E+00  0.00000000E+00  0.00000000E+00
  0.00000000E+00  0.00000000E+00  0.00000000E+00
  0.00000000E+00  0.00000000E+00  0.00000000E+00
  0.00000000E+00  0.00000000E+00  0.00000000E+00
  0.00000000E+00  0.00000000E+00  0.00000000E+00
  0.00000000E+00  0.00000000E+00  0.00000000E+00
  0.00000000E+00  0.00000000E+00  0.00000000E+00
  0.00000000E+00  0.00000000E+00  0.00000000E+00
  0.00000000E+00  0.00000000E+00  0.00000000E+00
  0.00000000E+00  0.00000000E+00  0.00000000E+00
  0.00000000E+00  0.00000000E+00  0.00000000E+00
  0.00000000E+00  0.00000000E+00  0.00000000E+00
  0.00000000E+00  0.00000000E+00  0.00000000E+00
  0.00000000E+00  0.00000000E+00  0.00000000E+00
  0.00000000E+00  0.00000000E+00  0.00000000E+00
  0.00000000E+00  0.00000000E+00  0.00000000E+00
  0.00000000E+00  0.00000000E+00  0.00000000E+00
  0.00000000E+00  0.00000000E+00  0.00000000E+00
  0.00000000E+00  0.00000000E+00  0.00000000E+00
  0.00000000E+00  0.00000000E+00  0.00000000E+00
  0.00000000E+00  0.00000000E+00  0.00000000E+00
  0.00000000E+00  0.00000000E+00  0.00000000E+00
  0.00000000E+00  0.00000000E+00  0.00000000E+00
  0.00000000E+00  0.00000000E+00  0.00000000E+00
  0.00000000E+00  0.00000000E+00  0.00000000E+00
  0.00000000E+00  0.00000000E+00  0.00000000E+00
  0.00000000E+00  0.00000000E+00  0.00000000E+00
  0.00000000E+00  0.00000000E+00  0.00000000E+00
  0.00000000E+00  0.00000000E+00  0.00000000E+00
  0.00000000E+00  0.00000000E+00  0.00000000E+00
  0.00000000E+00  0.00000000E+00  0.00000000E+00
  0.00000000E+00  0.00000000E+00  0.00000000E+00
  0.00000000E+00  0.00000000E+00  0.00000000E+00
  0.00000000E+00  0.00000000E+00  0.00000000E+00
  0.00000000E+00  0.00000000E+00  0.00000000E+00
  0.00000000E+00  0.00000000E+00  0.00000000E+00
  0.00000000E+00  0.00000000E+00  0.00000000E+00
  0.00000000E+00  0.00000000E+00  0.00000000E+00
  0.00000000E+00  0.00000000E+00  0.00000000E+00
  0.00000000E+00  0.00000000E+00  0.00000000E+00
  0.00000000E+00  0.00000000E+00  0.00000000E+00
  0.00000000E+00  0.00000000E+00  0.00000000E+00
  0.00000000E+00  0.00000000E+00  0.00000000E+00
  0.00000000E+00  0.00000000E+00  0.00000000E+00
  0.00000000E+00  0.00000000E+00  0.00000000E+00
  0.00000000E+00  0.00000000E+00  0.00000000E+00
  0.00000000E+00  0.00000000E+00  0.00000000E+00
  0.00000000E+00  0.00000000E+00  0.00000000E+00
  0.00000000E+00  0.00000000E+00  0.00000000E+00
  0.00000000E+00  0.00000000E+00  0.00000000E+00
  0.00000000E+00  0.00000000E+00  0.00000000E+00
