CeO2-you-111-you-Ni                     
   1.00000000000000     
     9.8234290324758256   -5.7071325726892885    0.0150836183815059
     0.0000000027702485   11.4142631414718814   -0.0000000017981664
     0.0310227981531066   -0.0000000031917047   20.4797779470182419
   O    Ni   Ce   H 
    53     1    26     2
Selective dynamics
Direct
  0.9979217323023104  0.0000882264059652  0.9911403592732342   T   T   T
  0.1160442697101729  0.2246886348544734  0.1496208404035499   F   F   F
  0.2339759589725067  0.1236099674071940  0.3140518477314155   T   T   T
  0.1160192634587685  0.2275425926787697  0.3847638903774367   T   T   T
 -0.0084969213688914 -0.0039280465365182  0.2339087846618705   T   T   T
  0.2214617405354673  0.1099907021756081  0.0714856238548975   F   F   F
  0.3346232439311779  0.9993911315433065  0.9897543016635383   T   T   T
  0.4440466459297454  0.2212082444044157  0.1464602018822774   F   F   F
  0.5544273783669267  0.1072503229181873  0.3096741991714622   T   T   T
  0.4543282539364721  0.1915957689844624  0.4154992118760677   T   T   T
  0.3369088924786771 -0.0060967807214798  0.2339882216904630   T   T   T
  0.5563410681977459  0.1113230328421295  0.0718852011134601   F   F   F
  0.6674491005968035  0.0005162147289293  0.9910302300046688   T   T   T
  0.7757861455803337  0.2273072088099042  0.1514418437697316   F   F   F
  0.8862634601290851  0.1117223721725438  0.3080686904152460   T   T   T
  0.7838398077907409  0.2166216261519476  0.3942948980393274   T   T   T
  0.6656324173021511 -0.0016244839821895  0.2304387600063008   T   T   T
  0.8869450343332730  0.1101390171663823  0.0748850484464896   F   F   F
  0.9984769056673710  0.3316686199046186  0.9913870819175007   T   T   T
  0.1101587967269921  0.5557630947376992  0.1497875490784182   F   F   F
  0.2281172490797136  0.4457443838111455  0.3102273037618042   T   T   T
  0.1139692732130467  0.5582946078397555  0.3913710774470154   T   T   T
  0.0005956770281602  0.3342214360791763  0.2315776502620303   T   T   T
  0.2214617405367605  0.4448040383593366  0.0714856238548123   F   F   F
  0.3324101872171054  0.3336430017409739  0.9898473066821039   T   T   T
  0.4440466459285375  0.5561724015271423  0.1464602018818439   F   F   F
  0.4632914364099250  0.5823775307402842  0.4048199752709944   T   T   T
  0.3527932760027873  0.3514660324423348  0.2404241477783151   T   T   T
  0.5557795514139272  0.4445557757077552  0.0697021592779592   F   F   F
  0.6675816612402693  0.3332410066589130  0.9894137087317211   T   T   T
  0.7787788978410290  0.5560564489197688  0.1473700361599413   F   F   F
  0.8941457535571932  0.4466113442689758  0.3100506806078516   T   T   T
  0.7648196764953563  0.5614072331455172  0.3860945567194461   T   T   T
  0.6572864711351296  0.3425171154077444  0.2363218190513459   T   T   T
  0.8885796922289373  0.4448392847180287  0.0719090981348103   F   F   F
  0.0006847449717508  0.6667917733068403  0.9900100025997879   T   T   T
  0.1101587967257203  0.8877297019884196  0.1497875490781411   F   F   F
  0.2181755789629393  0.7722536844140514  0.3081768772721517   T   T   T
  0.1125767839936372  0.8873951050367461  0.3890933408962468   T   T   T
  0.9966881927937812  0.6651434417350350  0.2326440450790286   T   T   T
  0.2220079956523264  0.7776709978259007  0.0723283145987423   F   F   F
  0.3335922822585677  0.6669356026903182  0.9902720189667394   T   T   T
  0.4446470844352035  0.8889905422177975  0.1491070349187211   F   F   F
  0.5581600256505981  0.7791662943620932  0.3098100186811176   T   T   T
  0.4402112393099224  0.8833539740094051  0.3896569627441828   T   T   T
  0.3350152867485864  0.6671306305673256  0.2319636758176869   T   T   T
  0.5563410681993517  0.7783510353562164  0.0718852011132398   F   F   F
  0.6673586169334167  0.6681662058869535  0.9897858473894804   T   T   T
  0.7757861455786923  0.8818119367693313  0.1514418437699021   F   F   F
  0.8930146797227444  0.7826758969987602  0.3094845304336016   T   T   T
  0.7831837323215964  0.8943564939542316  0.3923516458404134   T   T   T
  0.6583046683968204  0.6495985806765052  0.2383854039416368   T   T   T
  0.8885796922298681  0.7770734075126526  0.0719090981345616   F   F   F
  0.2406234063522674  0.2900347817335677  0.3150827877203656   T   T   T
  0.0060111785212606  0.0060433648500595  0.3475436312698916   T   T   T
  0.2231644285701933  0.1106009573346398  0.1900542407257646   F   F   F
  0.1110736403818393  0.2222033201913760  0.0321607201139216   F   F   F
  0.3310814521686953 -0.0051510754476986  0.3488438968076081   T   T   T
  0.5548560672931586  0.1113803227552594  0.1904737072472074   F   F   F
  0.4438932533593984  0.2207206607298886  0.0294847450165250   F   F   F
  0.6669140358723243  0.0023384086581126  0.3493776472533411   T   T   T
  0.8895584344137148  0.1114457172076442  0.1909051194758149   F   F   F
  0.7777316032727413  0.2227760808237136  0.0321581607064445   F   F   F
  0.0006608003041521  0.3341619659705597  0.3489219772898925   T   T   T
  0.2231644285708541  0.4458964712334961  0.1900542407257007   F   F   F
  0.1109616929557902  0.5557126255819895  0.0320167533045250   F   F   F
  0.5539151404496110  0.4436235702228188  0.1832184705093880   F   F   F
  0.4438932533591213  0.5565065926284660  0.0294847450166742   F   F   F
  0.6703224865911134  0.3262144338403568  0.3576162963017934   T   T   T
  0.8870788293162235  0.4449862569063399  0.1915045213195299   F   F   F
  0.7794414619063943  0.5563877309533396  0.0297540482307639   F   F   F
 -0.0005911854284048  0.6661597949557146  0.3485032997957782   T   T   T
  0.2231510398045202  0.7782425199030030  0.1909907165371010   F   F   F
  0.1109616929554349  0.8885830673748387  0.0320167533043900   F   F   F
  0.3307705814935072  0.6671248983365745  0.3494254964124530   T   T   T
  0.5548560672965621  0.7768087445378455  0.1904737072474276   F   F   F
  0.4454316194414432  0.8893828097199403  0.0317547080047831   F   F   F
  0.6797449778626993  0.6865148583958357  0.3525313172867976   T   T   T
  0.8870788293202807  0.7754255724164167  0.1915045213194517   F   F   F
  0.7777316032720734  0.8882885224484696  0.0321581607069135   F   F   F
  0.4111862444674225  0.4904347412316313  0.4217586570045118   T   T   T
  0.4009602348096314  0.2119201042837419  0.4457330734416314   T   T   T
 
  0.00000000E+00  0.00000000E+00  0.00000000E+00
  0.00000000E+00  0.00000000E+00  0.00000000E+00
  0.00000000E+00  0.00000000E+00  0.00000000E+00
  0.00000000E+00  0.00000000E+00  0.00000000E+00
  0.00000000E+00  0.00000000E+00  0.00000000E+00
  0.00000000E+00  0.00000000E+00  0.00000000E+00
  0.00000000E+00  0.00000000E+00  0.00000000E+00
  0.00000000E+00  0.00000000E+00  0.00000000E+00
  0.00000000E+00  0.00000000E+00  0.00000000E+00
  0.00000000E+00  0.00000000E+00  0.00000000E+00
  0.00000000E+00  0.00000000E+00  0.00000000E+00
  0.00000000E+00  0.00000000E+00  0.00000000E+00
  0.00000000E+00  0.00000000E+00  0.00000000E+00
  0.00000000E+00  0.00000000E+00  0.00000000E+00
  0.00000000E+00  0.00000000E+00  0.00000000E+00
  0.00000000E+00  0.00000000E+00  0.00000000E+00
  0.00000000E+00  0.00000000E+00  0.00000000E+00
  0.00000000E+00  0.00000000E+00  0.00000000E+00
  0.00000000E+00  0.00000000E+00  0.00000000E+00
  0.00000000E+00  0.00000000E+00  0.00000000E+00
  0.00000000E+00  0.00000000E+00  0.00000000E+00
  0.00000000E+00  0.00000000E+00  0.00000000E+00
  0.00000000E+00  0.00000000E+00  0.00000000E+00
  0.00000000E+00  0.00000000E+00  0.00000000E+00
  0.00000000E+00  0.00000000E+00  0.00000000E+00
  0.00000000E+00  0.00000000E+00  0.00000000E+00
  0.00000000E+00  0.00000000E+00  0.00000000E+00
  0.00000000E+00  0.00000000E+00  0.00000000E+00
  0.00000000E+00  0.00000000E+00  0.00000000E+00
  0.00000000E+00  0.00000000E+00  0.00000000E+00
  0.00000000E+00  0.00000000E+00  0.00000000E+00
  0.00000000E+00  0.00000000E+00  0.00000000E+00
  0.00000000E+00  0.00000000E+00  0.00000000E+00
  0.00000000E+00  0.00000000E+00  0.00000000E+00
  0.00000000E+00  0.00000000E+00  0.00000000E+00
  0.00000000E+00  0.00000000E+00  0.00000000E+00
  0.00000000E+00  0.00000000E+00  0.00000000E+00
  0.00000000E+00  0.00000000E+00  0.00000000E+00
  0.00000000E+00  0.00000000E+00  0.00000000E+00
  0.00000000E+00  0.00000000E+00  0.00000000E+00
  0.00000000E+00  0.00000000E+00  0.00000000E+00
  0.00000000E+00  0.00000000E+00  0.00000000E+00
  0.00000000E+00  0.00000000E+00  0.00000000E+00
  0.00000000E+00  0.00000000E+00  0.00000000E+00
  0.00000000E+00  0.00000000E+00  0.00000000E+00
  0.00000000E+00  0.00000000E+00  0.00000000E+00
  0.00000000E+00  0.00000000E+00  0.00000000E+00
  0.00000000E+00  0.00000000E+00  0.00000000E+00
  0.00000000E+00  0.00000000E+00  0.00000000E+00
  0.00000000E+00  0.00000000E+00  0.00000000E+00
  0.00000000E+00  0.00000000E+00  0.00000000E+00
  0.00000000E+00  0.00000000E+00  0.00000000E+00
  0.00000000E+00  0.00000000E+00  0.00000000E+00
  0.00000000E+00  0.00000000E+00  0.00000000E+00
  0.00000000E+00  0.00000000E+00  0.00000000E+00
  0.00000000E+00  0.00000000E+00  0.00000000E+00
  0.00000000E+00  0.00000000E+00  0.00000000E+00
  0.00000000E+00  0.00000000E+00  0.00000000E+00
  0.00000000E+00  0.00000000E+00  0.00000000E+00
  0.00000000E+00  0.00000000E+00  0.00000000E+00
  0.00000000E+00  0.00000000E+00  0.00000000E+00
  0.00000000E+00  0.00000000E+00  0.00000000E+00
  0.00000000E+00  0.00000000E+00  0.00000000E+00
  0.00000000E+00  0.00000000E+00  0.00000000E+00
  0.00000000E+00  0.00000000E+00  0.00000000E+00
  0.00000000E+00  0.00000000E+00  0.00000000E+00
  0.00000000E+00  0.00000000E+00  0.00000000E+00
  0.00000000E+00  0.00000000E+00  0.00000000E+00
  0.00000000E+00  0.00000000E+00  0.00000000E+00
  0.00000000E+00  0.00000000E+00  0.00000000E+00
  0.00000000E+00  0.00000000E+00  0.00000000E+00
  0.00000000E+00  0.00000000E+00  0.00000000E+00
  0.00000000E+00  0.00000000E+00  0.00000000E+00
  0.00000000E+00  0.00000000E+00  0.00000000E+00
  0.00000000E+00  0.00000000E+00  0.00000000E+00
  0.00000000E+00  0.00000000E+00  0.00000000E+00
  0.00000000E+00  0.00000000E+00  0.00000000E+00
  0.00000000E+00  0.00000000E+00  0.00000000E+00
  0.00000000E+00  0.00000000E+00  0.00000000E+00
  0.00000000E+00  0.00000000E+00  0.00000000E+00
  0.00000000E+00  0.00000000E+00  0.00000000E+00
  0.00000000E+00  0.00000000E+00  0.00000000E+00
