CeO2-you-111-you-V                      
   1.00000000000000     
     9.8185291003654775   -5.6687307847348212    0.0000000017166181
     0.0496735372381683   11.4234966589933382    0.0330911136874583
     0.0362642158852654    0.0628114537915946   20.4396957206150205
   O    V    Ce   H 
    53     1    26     1
Selective dynamics
Direct
  0.0003204831999629  0.0017542979638269  0.9892799472735136   T   T   T
  0.1158795785711496  0.2246410765626188  0.1466751289653049   T   T   T
  0.2469304946939439  0.1368898310074320  0.3055863259939191   T   T   T
  0.1541620600395630  0.2365433887093265  0.3844322619508135   T   T   T
  0.0097633982687991  0.0029749129269510  0.2296950188366870   T   T   T
  0.2232978601350890  0.1110946162019723  0.0689832794174432   T   T   T
  0.3356770726256476  0.0012378261903531  0.9882857546504477   T   T   T
  0.4454318291447608  0.2227329719909275  0.1445004129854677   T   T   T
  0.5519422147864615  0.1072945745162440  0.3051969556650760   T   T   T
  0.4525943481696557  0.1760791788460154  0.4185627640708257   T   T   T
  0.3305030614050884  0.9996661693652540  0.2279906130419325   T   T   T
  0.5575692676962516  0.1116963786513275  0.0706369360080783   T   T   T
  0.6691323968991413  0.0008212920779893  0.9896715709551694   T   T   T
  0.7764231810555614  0.2249058688367525  0.1513918272368613   T   T   T
  0.8965277584147404  0.1085133151148554  0.3065462373291264   T   T   T
  0.7731679505457278  0.2066138816727436  0.3931347187216335   T   T   T
  0.6695537667906715 -0.0001244510226516  0.2305388314679170   T   T   T
  0.8889577032171924  0.1111492397461077  0.0731117859514833   T   T   T
 -0.0003227577426800  0.3321112526624042  0.9888847928942088   T   T   T
  0.1096603556875721  0.5564317056755937  0.1464804126692011   T   T   T
  0.2388196509684445  0.4384782690545155  0.3064555241091065   T   T   T
  0.1051305168823095  0.5616848698392882  0.3922086933472511   T   T   T
  0.0061165245217012  0.3358713693252426  0.2283194389334632   T   T   T
  0.2224618636610969  0.4464883229111508  0.0692738938135762   T   T   T
  0.3328613343045216  0.3340434869127817  0.9880835898133737   T   T   T
  0.4449789402596973  0.5566057474385473  0.1451214574281682   T   T   T
  0.4492197358343106  0.4118191065938554  0.3601172760938249   T   T   T
  0.3391850357567340  0.3369552217359426  0.2313816212303503   T   T   T
  0.5566084891073582  0.4451873775004271  0.0676783666025635   T   T   T
  0.6676330339382111  0.3333031749671798  0.9880294716463471   T   T   T
  0.7797686730764849  0.5572400557564929  0.1448676750721728   T   T   T
  0.8891588474199748  0.4439751821606132  0.3050234156336368   T   T   T
  0.7864025961979696  0.5583764028773862  0.3909705257703613   T   T   T
  0.6554172444265534  0.3425695328987967  0.2336041684522412   T   T   T
  0.8885076919472209  0.4437922492783624  0.0696016681886412   T   T   T
  0.0009947792257474  0.6679650754584681  0.9881079902215689   T   T   T
  0.1107908831682529  0.8889587134402621  0.1456518192504436   T   T   T
  0.2208291374255049  0.7802527401410754  0.3047404983772725   T   T   T
  0.1158245730525251  0.8973848323626713  0.3864612135856470   T   T   T
 -0.0009891804271612  0.6662412742454979  0.2284253756457075   T   T   T
  0.2238578158732599  0.7788497741332268  0.0699534220680554   T   T   T
  0.3351322832212656  0.6688872815829565  0.9885335566601930   T   T   T
  0.4471254393386640  0.8904945842466397  0.1493122958304898   T   T   T
  0.5581236160812290  0.7769717858254540  0.3095730905506988   T   T   T
  0.4478479094925876  0.8952826815534500  0.3907004349079732   T   T   T
  0.3310410864422032  0.6637119760631716  0.2275368285149078   T   T   T
  0.5571195006357292  0.7791917762504926  0.0717364837290472   T   T   T
  0.6676283807393856  0.6694304657163010  0.9882942903905498   T   T   T
  0.7785825652625911  0.8862739581614981  0.1511879393790792   T   T   T
  0.8940089989912140  0.7833097850075870  0.3050782357949322   T   T   T
  0.7936210977224510  0.9005475598650881  0.3927249396790799   T   T   T
  0.6600384295417756  0.6491268734619158  0.2329262723342357   T   T   T
  0.8895388682054799  0.7789869074124005  0.0697909684002774   T   T   T
  0.2917832431413966  0.3166733924290475  0.3267351672738676   T   T   T
  0.0049266644137256 -0.0003470077722484  0.3462693146031947   T   T   T
  0.2253568043401004  0.1113545200619745  0.1860117572795734   T   T   T
  0.1116345067451561  0.2231922304543364  0.0292499696510478   T   T   T
  0.3358626469801982  0.9949686438538242  0.3484440278663979   T   T   T
  0.5556232789210732  0.1121676953195377  0.1910067916826108   T   T   T
  0.4455174697003965  0.2218320370390803  0.0273378856946186   T   T   T
  0.6698947330259352  0.0002424077682131  0.3492651922854544   T   T   T
  0.8919573432220665  0.1129739365458663  0.1908686749154002   T   T   T
  0.7787367342479820  0.2233235237066806  0.0311463787884797   T   T   T
  0.0002783415277160  0.3350241964212727  0.3520761162882327   T   T   T
  0.2223475251695659  0.4464114948921267  0.1856305101103720   T   T   T
  0.1108740023030099  0.5564569407837004  0.0295724355736885   T   T   T
  0.5567983678604397  0.4449357021089610  0.1808994795725788   T   T   T
  0.4455207855553202  0.5589400842318007  0.0278302065867833   T   T   T
  0.6673700304446003  0.3263230336655136  0.3579438822008773   T   T   T
  0.8874149905551137  0.4443705529301121  0.1917379267879251   T   T   T
  0.7802136457264868  0.5572666748491172  0.0281623373404371   T   T   T
  0.9974436372186503  0.6613917771401900  0.3478973535148824   T   T   T
  0.2223460102418421  0.7781155226729524  0.1873959013183882   T   T   T
  0.1120833249368526  0.8903489014137966  0.0290958084164824   T   T   T
  0.3280781820200476  0.6733332338222643  0.3477674967918370   T   T   T
  0.5561542954307163  0.7765575579998902  0.1921737110464880   T   T   T
  0.4472425501426806  0.8907702977562523  0.0309826282716373   T   T   T
  0.6816495085171457  0.6769829423863786  0.3524341629904434   T   T   T
  0.8895188742574197  0.7763509909612596  0.1888238779975682   T   T   T
  0.7785453255273457  0.8902069796072745  0.0311679246419502   T   T   T
  0.4064227919274383  0.2190099950760233  0.4391020629685524   T   T   T
 
  0.00000000E+00  0.00000000E+00  0.00000000E+00
  0.00000000E+00  0.00000000E+00  0.00000000E+00
  0.00000000E+00  0.00000000E+00  0.00000000E+00
  0.00000000E+00  0.00000000E+00  0.00000000E+00
  0.00000000E+00  0.00000000E+00  0.00000000E+00
  0.00000000E+00  0.00000000E+00  0.00000000E+00
  0.00000000E+00  0.00000000E+00  0.00000000E+00
  0.00000000E+00  0.00000000E+00  0.00000000E+00
  0.00000000E+00  0.00000000E+00  0.00000000E+00
  0.00000000E+00  0.00000000E+00  0.00000000E+00
  0.00000000E+00  0.00000000E+00  0.00000000E+00
  0.00000000E+00  0.00000000E+00  0.00000000E+00
  0.00000000E+00  0.00000000E+00  0.00000000E+00
  0.00000000E+00  0.00000000E+00  0.00000000E+00
  0.00000000E+00  0.00000000E+00  0.00000000E+00
  0.00000000E+00  0.00000000E+00  0.00000000E+00
  0.00000000E+00  0.00000000E+00  0.00000000E+00
  0.00000000E+00  0.00000000E+00  0.00000000E+00
  0.00000000E+00  0.00000000E+00  0.00000000E+00
  0.00000000E+00  0.00000000E+00  0.00000000E+00
  0.00000000E+00  0.00000000E+00  0.00000000E+00
  0.00000000E+00  0.00000000E+00  0.00000000E+00
  0.00000000E+00  0.00000000E+00  0.00000000E+00
  0.00000000E+00  0.00000000E+00  0.00000000E+00
  0.00000000E+00  0.00000000E+00  0.00000000E+00
  0.00000000E+00  0.00000000E+00  0.00000000E+00
  0.00000000E+00  0.00000000E+00  0.00000000E+00
  0.00000000E+00  0.00000000E+00  0.00000000E+00
  0.00000000E+00  0.00000000E+00  0.00000000E+00
  0.00000000E+00  0.00000000E+00  0.00000000E+00
  0.00000000E+00  0.00000000E+00  0.00000000E+00
  0.00000000E+00  0.00000000E+00  0.00000000E+00
  0.00000000E+00  0.00000000E+00  0.00000000E+00
  0.00000000E+00  0.00000000E+00  0.00000000E+00
  0.00000000E+00  0.00000000E+00  0.00000000E+00
  0.00000000E+00  0.00000000E+00  0.00000000E+00
  0.00000000E+00  0.00000000E+00  0.00000000E+00
  0.00000000E+00  0.00000000E+00  0.00000000E+00
  0.00000000E+00  0.00000000E+00  0.00000000E+00
  0.00000000E+00  0.00000000E+00  0.00000000E+00
  0.00000000E+00  0.00000000E+00  0.00000000E+00
  0.00000000E+00  0.00000000E+00  0.00000000E+00
  0.00000000E+00  0.00000000E+00  0.00000000E+00
  0.00000000E+00  0.00000000E+00  0.00000000E+00
  0.00000000E+00  0.00000000E+00  0.00000000E+00
  0.00000000E+00  0.00000000E+00  0.00000000E+00
  0.00000000E+00  0.00000000E+00  0.00000000E+00
  0.00000000E+00  0.00000000E+00  0.00000000E+00
  0.00000000E+00  0.00000000E+00  0.00000000E+00
  0.00000000E+00  0.00000000E+00  0.00000000E+00
  0.00000000E+00  0.00000000E+00  0.00000000E+00
  0.00000000E+00  0.00000000E+00  0.00000000E+00
  0.00000000E+00  0.00000000E+00  0.00000000E+00
  0.00000000E+00  0.00000000E+00  0.00000000E+00
  0.00000000E+00  0.00000000E+00  0.00000000E+00
  0.00000000E+00  0.00000000E+00  0.00000000E+00
  0.00000000E+00  0.00000000E+00  0.00000000E+00
  0.00000000E+00  0.00000000E+00  0.00000000E+00
  0.00000000E+00  0.00000000E+00  0.00000000E+00
  0.00000000E+00  0.00000000E+00  0.00000000E+00
  0.00000000E+00  0.00000000E+00  0.00000000E+00
  0.00000000E+00  0.00000000E+00  0.00000000E+00
  0.00000000E+00  0.00000000E+00  0.00000000E+00
  0.00000000E+00  0.00000000E+00  0.00000000E+00
  0.00000000E+00  0.00000000E+00  0.00000000E+00
  0.00000000E+00  0.00000000E+00  0.00000000E+00
  0.00000000E+00  0.00000000E+00  0.00000000E+00
  0.00000000E+00  0.00000000E+00  0.00000000E+00
  0.00000000E+00  0.00000000E+00  0.00000000E+00
  0.00000000E+00  0.00000000E+00  0.00000000E+00
  0.00000000E+00  0.00000000E+00  0.00000000E+00
  0.00000000E+00  0.00000000E+00  0.00000000E+00
  0.00000000E+00  0.00000000E+00  0.00000000E+00
  0.00000000E+00  0.00000000E+00  0.00000000E+00
  0.00000000E+00  0.00000000E+00  0.00000000E+00
  0.00000000E+00  0.00000000E+00  0.00000000E+00
  0.00000000E+00  0.00000000E+00  0.00000000E+00
  0.00000000E+00  0.00000000E+00  0.00000000E+00
  0.00000000E+00  0.00000000E+00  0.00000000E+00
  0.00000000E+00  0.00000000E+00  0.00000000E+00
  0.00000000E+00  0.00000000E+00  0.00000000E+00
