CeO2-you-111-you-Ta                     
   1.00000000000000     
     9.8727758314913174   -5.6959732151649556   -0.0066076055921407
     0.0035307291058525   11.3980598272766294    0.0066076044474917
    -0.0078322703142456    0.0135658892434231   20.7349809472845834
   O    Ta   Ce   H 
    53     1    26     1
Selective dynamics
Direct
  0.9999815580500064 -0.0005647021261906  0.9912588710324636   T   T   T
  0.1094530479663652  0.2132760114966916  0.1459724361208330   T   T   T
  0.2478081510673509  0.1204391298536555  0.3048115031523488   T   T   T
  0.1557944505301657  0.2513962314350313  0.3707865239772392   T   T   T
  0.0089999063262631  0.0020085401588349  0.2317601559746622   T   T   T
  0.2238328788731699  0.1094871307897799  0.0712220388740624   T   T   T
  0.3354519974725607  0.0001580648075906  0.9915348807701533   T   T   T
  0.4394659565496753  0.2266571228984520  0.1523882844750610   T   T   T
  0.5473886520013167  0.1090538998042542  0.3077385101083037   T   T   T
  0.4222416048800412  0.2400279536490771  0.4017716548082694   T   T   T
  0.3336726706388909  0.9959732600257741  0.2264787731748514   T   T   T
  0.5548970144132240  0.1129159901406957  0.0756425067017096   T   T   T
  0.6658894160422548  0.0006510545404118  0.9930528837763798   T   T   T
  0.7818341259817502  0.2201517244464958  0.1501386309663334   T   T   T
  0.8907590713062921  0.1010590280475110  0.3077706615067670   T   T   T
  0.7736544092450450  0.2052286308210209  0.3920411310515160   T   T   T
  0.6661632949001571 -0.0001699448921213  0.2322904620639106   T   T   T
  0.8881175181837001  0.1084111046931070  0.0724626294522363   T   T   T
  0.9970400213280527  0.3309307463018598  0.9917945952604681   T   T   T
  0.1058426985715998  0.5601631662352154  0.1449139162850899   T   T   T
  0.1073448017499443  0.5610538746844881  0.3874592765154146   T   T   T
  0.0037532532971281  0.3340611290213413  0.2336702645838036   T   T   T
  0.2226825497447148  0.4449645860729234  0.0673030574906941   T   T   T
  0.3351866293903668  0.3323405267798947  0.9914628874468088   T   T   T
  0.4546658935552846  0.5574232628748967  0.1472821122689602   T   T   T
  0.5420364138240844  0.4266770491158000  0.3065110869310403   T   T   T
  0.3934097766467827  0.5006608717939389  0.3728816261502520   T   T   T
  0.3177759250049390  0.3427593138931118  0.2448252751021778   T   T   T
  0.5575516584845065  0.4422136053964375  0.0722743232903883   T   T   T
  0.6660105316203141  0.3315738949487710  0.9911946567405405   T   T   T
  0.7776185847261374  0.5560054131375471  0.1490275684281305   T   T   T
  0.8883628254736053  0.4503582746510705  0.3053064070548313   T   T   T
  0.7801614219975859  0.5704917070583301  0.3892621325095934   T   T   T
  0.6678967609065966  0.3317583391061055  0.2267657063722154   T   T   T
  0.8858122790220812  0.4422129169419601  0.0721243398543286   T   T   T
 -0.0001677980059932  0.6660046809349184  0.9912965704042985   T   T   T
  0.1111023677351929  0.8895431292543823  0.1473380708630313   T   T   T
  0.2199313887398851  0.7824404339047457  0.3046513418968215   T   T   T
  0.1124668536933303  0.8949059751240409  0.3863759396375285   T   T   T
  0.0012920435860911  0.6683213142452252  0.2289613454934911   T   T   T
  0.2235860027437482  0.7798078789214722  0.0716571928934588   T   T   T
  0.3363300154827982  0.6702812297435032  0.9920202724445544   T   T   T
  0.4460133518932693  0.8846045564913432  0.1496335790366889   T   T   T
  0.5649014103566655  0.7760527449954330  0.3104846448740048   T   T   T
  0.4485575090190381  0.8971299325224262  0.3904546536127504   T   T   T
  0.3328219621528486  0.6634027191345585  0.2337193320008624   T   T   T
  0.5585237022903817  0.7784862042775749  0.0734283739971650   T   T   T
  0.6663784978313920  0.6656702657777835  0.9918540514510477   T   T   T
  0.7793631285050292  0.8885330982641167  0.1522357839919320   T   T   T
  0.8913927198712902  0.7804903466078725  0.3041468613168189   T   T   T
  0.7866864503121357  0.8859918781086210  0.3891628822452144   T   T   T
  0.6679823386293643  0.6618871294787715  0.2321124189553355   T   T   T
  0.8888312222065908  0.7776374416261715  0.0721978669601199   T   T   T
  0.3396095489138935  0.3269175451293029  0.3366346077809765   T   T   T
  0.0046234328070824  0.9989148982142900  0.3442109645524492   T   T   T
  0.2217141793835602  0.1082376644935328  0.1879620304523910   T   T   T
  0.1101925173456390  0.2198784192902926  0.0310637355299176   T   T   T
  0.3323943250480862  0.9913488895496161  0.3433820754635275   T   T   T
  0.5568229126229706  0.1105577229814105  0.1905165132072831   T   T   T
  0.4449606160833863  0.2222937406712733  0.0317631585941684   T   T   T
  0.6700243577652600 -0.0013490069143182  0.3485398231063350   T   T   T
  0.8920431874199021  0.1122807807034793  0.1913367641511365   T   T   T
  0.7778603608232074  0.2216294248730913  0.0332832623829913   T   T   T
  0.9924232382122632  0.3303696813518457  0.3514558578769473   T   T   T
  0.2202510935961129  0.4465319785066248  0.1810183168614181   T   T   T
  0.1101255065162068  0.5561500896980459  0.0306435772178470   T   T   T
  0.5590078314596753  0.4452231487571718  0.1899118649719765   T   T   T
  0.4472960790581673  0.5564998568776581  0.0317389772020618   T   T   T
  0.6727691541182966  0.3351676241499987  0.3495173736672199   T   T   T
  0.8897863695552127  0.4433915748024462  0.1904042082011026   T   T   T
  0.7771583827850692  0.5536314827631893  0.0323017637235619   T   T   T
  0.0009542543025109  0.6659390554585242  0.3456618306564255   T   T   T
  0.2228718643387273  0.7756090508965360  0.1883385039346206   T   T   T
  0.1123217899533164  0.8891166379814134  0.0314118908826154   T   T   T
  0.3346143686766666  0.6746843272992832  0.3517045555176676   T   T   T
  0.5549289406440679  0.7751272275529314  0.1917366749475146   T   T   T
  0.4453570581661996  0.8887538050420605  0.0331590365285823   T   T   T
  0.6755069171130126  0.6687949411985757  0.3448651992347412   T   T   T
  0.8910122603939000  0.7769072645998577  0.1880664627594845   T   T   T
  0.7777439200618715  0.8888389642953752  0.0335536221980785   T   T   T
  0.4054506160207313  0.2471293417597623  0.4472383960501038   T   T   T
 
  0.00000000E+00  0.00000000E+00  0.00000000E+00
  0.00000000E+00  0.00000000E+00  0.00000000E+00
  0.00000000E+00  0.00000000E+00  0.00000000E+00
  0.00000000E+00  0.00000000E+00  0.00000000E+00
  0.00000000E+00  0.00000000E+00  0.00000000E+00
  0.00000000E+00  0.00000000E+00  0.00000000E+00
  0.00000000E+00  0.00000000E+00  0.00000000E+00
  0.00000000E+00  0.00000000E+00  0.00000000E+00
  0.00000000E+00  0.00000000E+00  0.00000000E+00
  0.00000000E+00  0.00000000E+00  0.00000000E+00
  0.00000000E+00  0.00000000E+00  0.00000000E+00
  0.00000000E+00  0.00000000E+00  0.00000000E+00
  0.00000000E+00  0.00000000E+00  0.00000000E+00
  0.00000000E+00  0.00000000E+00  0.00000000E+00
  0.00000000E+00  0.00000000E+00  0.00000000E+00
  0.00000000E+00  0.00000000E+00  0.00000000E+00
  0.00000000E+00  0.00000000E+00  0.00000000E+00
  0.00000000E+00  0.00000000E+00  0.00000000E+00
  0.00000000E+00  0.00000000E+00  0.00000000E+00
  0.00000000E+00  0.00000000E+00  0.00000000E+00
  0.00000000E+00  0.00000000E+00  0.00000000E+00
  0.00000000E+00  0.00000000E+00  0.00000000E+00
  0.00000000E+00  0.00000000E+00  0.00000000E+00
  0.00000000E+00  0.00000000E+00  0.00000000E+00
  0.00000000E+00  0.00000000E+00  0.00000000E+00
  0.00000000E+00  0.00000000E+00  0.00000000E+00
  0.00000000E+00  0.00000000E+00  0.00000000E+00
  0.00000000E+00  0.00000000E+00  0.00000000E+00
  0.00000000E+00  0.00000000E+00  0.00000000E+00
  0.00000000E+00  0.00000000E+00  0.00000000E+00
  0.00000000E+00  0.00000000E+00  0.00000000E+00
  0.00000000E+00  0.00000000E+00  0.00000000E+00
  0.00000000E+00  0.00000000E+00  0.00000000E+00
  0.00000000E+00  0.00000000E+00  0.00000000E+00
  0.00000000E+00  0.00000000E+00  0.00000000E+00
  0.00000000E+00  0.00000000E+00  0.00000000E+00
  0.00000000E+00  0.00000000E+00  0.00000000E+00
  0.00000000E+00  0.00000000E+00  0.00000000E+00
  0.00000000E+00  0.00000000E+00  0.00000000E+00
  0.00000000E+00  0.00000000E+00  0.00000000E+00
  0.00000000E+00  0.00000000E+00  0.00000000E+00
  0.00000000E+00  0.00000000E+00  0.00000000E+00
  0.00000000E+00  0.00000000E+00  0.00000000E+00
  0.00000000E+00  0.00000000E+00  0.00000000E+00
  0.00000000E+00  0.00000000E+00  0.00000000E+00
  0.00000000E+00  0.00000000E+00  0.00000000E+00
  0.00000000E+00  0.00000000E+00  0.00000000E+00
  0.00000000E+00  0.00000000E+00  0.00000000E+00
  0.00000000E+00  0.00000000E+00  0.00000000E+00
  0.00000000E+00  0.00000000E+00  0.00000000E+00
  0.00000000E+00  0.00000000E+00  0.00000000E+00
  0.00000000E+00  0.00000000E+00  0.00000000E+00
  0.00000000E+00  0.00000000E+00  0.00000000E+00
  0.00000000E+00  0.00000000E+00  0.00000000E+00
  0.00000000E+00  0.00000000E+00  0.00000000E+00
  0.00000000E+00  0.00000000E+00  0.00000000E+00
  0.00000000E+00  0.00000000E+00  0.00000000E+00
  0.00000000E+00  0.00000000E+00  0.00000000E+00
  0.00000000E+00  0.00000000E+00  0.00000000E+00
  0.00000000E+00  0.00000000E+00  0.00000000E+00
  0.00000000E+00  0.00000000E+00  0.00000000E+00
  0.00000000E+00  0.00000000E+00  0.00000000E+00
  0.00000000E+00  0.00000000E+00  0.00000000E+00
  0.00000000E+00  0.00000000E+00  0.00000000E+00
  0.00000000E+00  0.00000000E+00  0.00000000E+00
  0.00000000E+00  0.00000000E+00  0.00000000E+00
  0.00000000E+00  0.00000000E+00  0.00000000E+00
  0.00000000E+00  0.00000000E+00  0.00000000E+00
  0.00000000E+00  0.00000000E+00  0.00000000E+00
  0.00000000E+00  0.00000000E+00  0.00000000E+00
  0.00000000E+00  0.00000000E+00  0.00000000E+00
  0.00000000E+00  0.00000000E+00  0.00000000E+00
  0.00000000E+00  0.00000000E+00  0.00000000E+00
  0.00000000E+00  0.00000000E+00  0.00000000E+00
  0.00000000E+00  0.00000000E+00  0.00000000E+00
  0.00000000E+00  0.00000000E+00  0.00000000E+00
  0.00000000E+00  0.00000000E+00  0.00000000E+00
  0.00000000E+00  0.00000000E+00  0.00000000E+00
  0.00000000E+00  0.00000000E+00  0.00000000E+00
  0.00000000E+00  0.00000000E+00  0.00000000E+00
  0.00000000E+00  0.00000000E+00  0.00000000E+00
