CeO2-you-111-you-Y                      
   1.00000000000000     
     9.8423285068543471   -5.6824713837050949    0.0000000000000000
     0.0000000000781951   11.3649407675571066    0.0000000000000000
     0.0000000000000000    0.0000000000000000   21.2959993005800960
   O    Y    Ce   H 
    54     1    26     2
Selective dynamics
Direct
  0.0001374934403477 -0.0000896801027998  0.9969606249911134   T   T   T
  0.1100235487488716  0.2205133257650831  0.1495069429394858   T   T   T
  0.2304199473403728  0.1126667004412204  0.3040261893775161   T   T   T
  0.1077247307916664  0.2192816930450889  0.3804293074330732   T   T   T
  0.0024614519688200  0.0007527785529549  0.2297634138739371   T   T   T
  0.2229922189332120  0.1112523980335131  0.0760026816763104   T   T   T
  0.3328273130994794 -0.0000968174797037  0.9964176930650697   T   T   T
  0.4452356718376281  0.2219657519014287  0.1501712671222598   T   T   T
  0.5508189464638559  0.1150675080469474  0.3046628545753573   T   T   T
  0.4430835631253194  0.2234459588710988  0.3957886427741016   T   T   T
  0.3332138130310897 -0.0029168959961342  0.2282952450528812   T   T   T
  0.5553450628649975  0.1105209385407014  0.0752354823159518   T   T   T
  0.6668649868891264 -0.0002486615407898  0.9963064222835489   T   T   T
  0.7783080875985671  0.2217183553310575  0.1490891369295327   T   T   T
  0.8883034515275009  0.1103217356423802  0.3023179413509374   T   T   T
  0.7782118320510869  0.2223943021453462  0.3809502046475932   T   T   T
  0.6654272917254150  0.0023007537138506  0.2293260604757336   T   T   T
  0.8882668673049040  0.1100706277133133  0.0752840462968577   T   T   T
  0.0001172422700289  0.3330280496283949  0.9963795995446745   T   T   T
  0.1119373595575558  0.5555777509282855  0.1489385424900054   T   T   T
  0.2216319401329938  0.4445218642440943  0.3020506755095334   T   T   T
  0.1121368027206690  0.5555381421828326  0.3818562170741011   T   T   T
 -0.0002883284364609  0.3327280590420094  0.2283239377630124   T   T   T
  0.2223783160118001  0.4438030635971588  0.0753122187338633   T   T   T
  0.3331597451091864  0.3322709288566656  0.9964824513312008   T   T   T
  0.4454903362789473  0.5560857010394235  0.1494844217948712   T   T   T
  0.5535430361675834  0.4360763544786442  0.3037996759979221   T   T   T
  0.4477852405134726  0.5603423344369438  0.3801631933740502   T   T   T
  0.3324598102945772  0.3337606610441981  0.2276321935007221   T   T   T
  0.5552065590899488  0.4440240991969499  0.0755913278190698   T   T   T
  0.6663857536240114  0.3329514588454636  0.9967662291818397   T   T   T
  0.7780496870717477  0.5555397895945370  0.1494897981121271   T   T   T
  0.8914394652092822  0.4453100921999412  0.3025253203298551   T   T   T
  0.7785562536764818  0.5537554202231620  0.3818938284506014   T   T   T
  0.6694987361330366  0.3331907833140087  0.2282007690184688   T   T   T
  0.8892665731706619  0.4444360743398422  0.0751858256114361   T   T   T
 -0.0003822220033224  0.6668407985102722  0.9966839848287159   T   T   T
  0.1105658670293188  0.8885185656345478  0.1496185402677158   T   T   T
  0.2212709123087017  0.7753644342948969  0.3021318177542791   T   T   T
  0.1121613418114175  0.8870095982860076  0.3820408680771604   T   T   T
  0.0002627434101056  0.6665086911074365  0.2285380809345513   T   T   T
  0.2224582397936475  0.7780151058971142  0.0751150178657206   T   T   T
  0.3333144859063433  0.6659970973376685  0.9967107744398107   T   T   T
  0.4453315819003401  0.8888024391487063  0.1490174096855786   T   T   T
  0.5571142751325774  0.7795953745427463  0.3019087624837877   T   T   T
  0.4435882071175490  0.8881973269219933  0.3811139584021889   T   T   T
  0.3342515377431724  0.6669991868323231  0.2282094346411079   T   T   T
  0.5562727350941972  0.7778263303924322  0.0753351997471600   T   T   T
  0.6674671405550759  0.6667562544774143  0.9965864512353920   T   T   T
  0.7779474715715941  0.8889312089532514  0.1509701681368954   T   T   T
  0.8890445216754417  0.7771522257708156  0.3033119859713920   T   T   T
  0.7779974627755825  0.8894161007908621  0.3809969670288252   T   T   T
  0.6659382480351640  0.6642889033454502  0.2295123607779102   T   T   T
  0.8882867140758203  0.7778847156335479  0.0758783133211287   T   T   T
  0.3297557366964341  0.3368873209062143  0.3375067953616588   T   T   T
  0.0018934104835422  0.0020991955225394  0.3423066157347137   T   T   T
  0.2229986156767324  0.1113428895637177  0.1900741237400918   T   T   T
  0.1111380069810490  0.2216257234608363  0.0363362532839952   T   T   T
  0.3284291171127116 -0.0078014441136261  0.3405042731952786   T   T   T
  0.5555832828669547  0.1110728920368998  0.1888934451645886   T   T   T
  0.4442345586897551  0.2219254566814932  0.0360197823776605   T   T   T
  0.6669741727316552 -0.0000470613301738  0.3418956617623823   T   T   T
  0.8891545106358004  0.1112761757007861  0.1893412677912818   T   T   T
  0.7776364841011694  0.2217050325428858  0.0359289983026523   T   T   T
  0.0029605688141169  0.3327928734558303  0.3420407980402965   T   T   T
  0.2225871918465604  0.4439515577082001  0.1889596049708922   T   T   T
  0.1111882203512779  0.5551740970965530  0.0356491274069305   T   T   T
  0.5552198529579868  0.4434875010658615  0.1899152986549496   T   T   T
  0.4447711539273057  0.5551490107798529  0.0362901977449024   T   T   T
  0.6742351845383614  0.3379470581439647  0.3403453426010797   T   T   T
  0.8898823385568289  0.4444872383568532  0.1882191962536081   T   T   T
  0.7776635018718662  0.5556796933976178  0.0363824821423787   T   T   T
  0.0006713899505073  0.6659520052470341  0.3421185708210285   T   T   T
  0.2222999693625168  0.7770174185384157  0.1881883097531937   T   T   T
  0.1109374978361317  0.8889794576790395  0.0364380564186638   T   T   T
  0.3341288364239874  0.6642954825110303  0.3418369726595081   T   T   T
  0.5555816814498059  0.7776187722756677  0.1891670668722207   T   T   T
  0.4447517978112449  0.8889243182886744  0.0358548487758634   T   T   T
  0.6646341071652125  0.6648200191243714  0.3420151969996457   T   T   T
  0.8892379733109687  0.7774523044527462  0.1898435905690521   T   T   T
  0.7778313166821174  0.8886619076876766  0.0362938064886908   T   T   T
  0.3212185902426259  0.3451478771255718  0.4649492491367574   T   T   T
  0.4410198596542801  0.2257624683988633  0.4414495885582356   T   T   T
 
  0.00000000E+00  0.00000000E+00  0.00000000E+00
  0.00000000E+00  0.00000000E+00  0.00000000E+00
  0.00000000E+00  0.00000000E+00  0.00000000E+00
  0.00000000E+00  0.00000000E+00  0.00000000E+00
  0.00000000E+00  0.00000000E+00  0.00000000E+00
  0.00000000E+00  0.00000000E+00  0.00000000E+00
  0.00000000E+00  0.00000000E+00  0.00000000E+00
  0.00000000E+00  0.00000000E+00  0.00000000E+00
  0.00000000E+00  0.00000000E+00  0.00000000E+00
  0.00000000E+00  0.00000000E+00  0.00000000E+00
  0.00000000E+00  0.00000000E+00  0.00000000E+00
  0.00000000E+00  0.00000000E+00  0.00000000E+00
  0.00000000E+00  0.00000000E+00  0.00000000E+00
  0.00000000E+00  0.00000000E+00  0.00000000E+00
  0.00000000E+00  0.00000000E+00  0.00000000E+00
  0.00000000E+00  0.00000000E+00  0.00000000E+00
  0.00000000E+00  0.00000000E+00  0.00000000E+00
  0.00000000E+00  0.00000000E+00  0.00000000E+00
  0.00000000E+00  0.00000000E+00  0.00000000E+00
  0.00000000E+00  0.00000000E+00  0.00000000E+00
  0.00000000E+00  0.00000000E+00  0.00000000E+00
  0.00000000E+00  0.00000000E+00  0.00000000E+00
  0.00000000E+00  0.00000000E+00  0.00000000E+00
  0.00000000E+00  0.00000000E+00  0.00000000E+00
  0.00000000E+00  0.00000000E+00  0.00000000E+00
  0.00000000E+00  0.00000000E+00  0.00000000E+00
  0.00000000E+00  0.00000000E+00  0.00000000E+00
  0.00000000E+00  0.00000000E+00  0.00000000E+00
  0.00000000E+00  0.00000000E+00  0.00000000E+00
  0.00000000E+00  0.00000000E+00  0.00000000E+00
  0.00000000E+00  0.00000000E+00  0.00000000E+00
  0.00000000E+00  0.00000000E+00  0.00000000E+00
  0.00000000E+00  0.00000000E+00  0.00000000E+00
  0.00000000E+00  0.00000000E+00  0.00000000E+00
  0.00000000E+00  0.00000000E+00  0.00000000E+00
  0.00000000E+00  0.00000000E+00  0.00000000E+00
  0.00000000E+00  0.00000000E+00  0.00000000E+00
  0.00000000E+00  0.00000000E+00  0.00000000E+00
  0.00000000E+00  0.00000000E+00  0.00000000E+00
  0.00000000E+00  0.00000000E+00  0.00000000E+00
  0.00000000E+00  0.00000000E+00  0.00000000E+00
  0.00000000E+00  0.00000000E+00  0.00000000E+00
  0.00000000E+00  0.00000000E+00  0.00000000E+00
  0.00000000E+00  0.00000000E+00  0.00000000E+00
  0.00000000E+00  0.00000000E+00  0.00000000E+00
  0.00000000E+00  0.00000000E+00  0.00000000E+00
  0.00000000E+00  0.00000000E+00  0.00000000E+00
  0.00000000E+00  0.00000000E+00  0.00000000E+00
  0.00000000E+00  0.00000000E+00  0.00000000E+00
  0.00000000E+00  0.00000000E+00  0.00000000E+00
  0.00000000E+00  0.00000000E+00  0.00000000E+00
  0.00000000E+00  0.00000000E+00  0.00000000E+00
  0.00000000E+00  0.00000000E+00  0.00000000E+00
  0.00000000E+00  0.00000000E+00  0.00000000E+00
  0.00000000E+00  0.00000000E+00  0.00000000E+00
  0.00000000E+00  0.00000000E+00  0.00000000E+00
  0.00000000E+00  0.00000000E+00  0.00000000E+00
  0.00000000E+00  0.00000000E+00  0.00000000E+00
  0.00000000E+00  0.00000000E+00  0.00000000E+00
  0.00000000E+00  0.00000000E+00  0.00000000E+00
  0.00000000E+00  0.00000000E+00  0.00000000E+00
  0.00000000E+00  0.00000000E+00  0.00000000E+00
  0.00000000E+00  0.00000000E+00  0.00000000E+00
  0.00000000E+00  0.00000000E+00  0.00000000E+00
  0.00000000E+00  0.00000000E+00  0.00000000E+00
  0.00000000E+00  0.00000000E+00  0.00000000E+00
  0.00000000E+00  0.00000000E+00  0.00000000E+00
  0.00000000E+00  0.00000000E+00  0.00000000E+00
  0.00000000E+00  0.00000000E+00  0.00000000E+00
  0.00000000E+00  0.00000000E+00  0.00000000E+00
  0.00000000E+00  0.00000000E+00  0.00000000E+00
  0.00000000E+00  0.00000000E+00  0.00000000E+00
  0.00000000E+00  0.00000000E+00  0.00000000E+00
  0.00000000E+00  0.00000000E+00  0.00000000E+00
  0.00000000E+00  0.00000000E+00  0.00000000E+00
  0.00000000E+00  0.00000000E+00  0.00000000E+00
  0.00000000E+00  0.00000000E+00  0.00000000E+00
  0.00000000E+00  0.00000000E+00  0.00000000E+00
  0.00000000E+00  0.00000000E+00  0.00000000E+00
  0.00000000E+00  0.00000000E+00  0.00000000E+00
  0.00000000E+00  0.00000000E+00  0.00000000E+00
  0.00000000E+00  0.00000000E+00  0.00000000E+00
  0.00000000E+00  0.00000000E+00  0.00000000E+00
