CeO2-you-111-you-Nb                     
   1.00000000000000     
     9.8703502434844470   -5.7004729662073883   -0.0081075596446615
    -0.0000000025238452   11.4009439218023250    0.0000000009385530
    -0.0139863496229065    0.0000000013437395   20.1431291946427571
   O    Nb   Ce H
    53     1    26 1
Selective dynamics
Direct
 -0.0020262688866195  0.0006049986833420  0.9875677293609033   T   T   T
  0.1200401002638135  0.2266865501314746  0.1512778247013143   T   T   T
  0.2204572705234975  0.1099777253053625  0.3049384972833061   T   T   T
  0.1511373077446305  0.2422351538660724  0.3903368590197354   T   T   T
 -0.0017004765647802 -0.0005450609282663  0.2286085333205773   T   T   T
  0.2203268215950385  0.1102249872238408  0.0693032678070388   T   T   T
  0.3319320170931470 -0.0006055482289118  0.9871988666626587   T   T   T
  0.4410411477996469  0.2223748825501057  0.1467039674719226   T   T   T
  0.5492400275715991  0.1063402837029105  0.3107945369698323   T   T   T
  0.4344609744934785  0.2613257355550037  0.3778054740922375   T   T   T
  0.3323184464871232 -0.0008629831066410  0.2295147031813496   T   T   T
  0.5531486557033689  0.1109010927268637  0.0707757522489935   T   T   T
  0.6664375771797435 -0.0001147114101448  0.9890562336586903   T   T   T
  0.7727726549004562  0.2231438513405156  0.1505712791544627   T   T   T
  0.8912825257376739  0.1123077628702627  0.3097161496280110   T   T   T
  0.7777972979602646  0.2140206454676868  0.3966021027604892   T   T   T
  0.6659211617898203 -0.0003729191052883  0.2320127300519268   T   T   T
  0.8895115554036179  0.1114222777015180  0.0732594882803801   T   T   T
 -0.0020262688865759  0.3307017324296668  0.9875677293608444   T   T   T
  0.1105892111981628  0.5545295624913595  0.1478500804565329   T   T   T
  0.2204572705266563  0.4438125452157135  0.3049384972842388   T   T   T
  0.1217608343767995  0.5658789253678436  0.3931462536906999   T   T   T
 -0.0017004765655868  0.3321775843592495  0.2286085333203682   T   T   T
  0.2203268215951578  0.4434348343708424  0.0693032678072611   T   T   T
  0.3310143717401480  0.3321736858694694  0.9870025830020634   T   T   T
  0.4410411477995078  0.5520002652512791  0.1467039674716830   T   T   T
  0.4344609745092473  0.5064692389519926  0.3778054740905298   T   T   T
  0.3575519771856425  0.3454424885912098  0.2458782729029727   T   T   T
  0.5550193354967058  0.4441756677482624  0.0672047511291839   T   T   T
  0.6669937201483679  0.3318827529924904  0.9873629456509854   T   T   T
  0.7780697171188239  0.5557018585594694  0.1452055456129608   T   T   T
  0.8957200641353571  0.4470200998205285  0.3085820404331156   T   T   T
  0.7882607599975314  0.5607973799989577  0.3937881284230404   T   T   T
  0.6587653043825910  0.3422928490229574  0.2355278479553981   T   T   T
  0.8889181070174708  0.4433771291446967  0.0700898333238926   T   T   T
 -0.0022160885554586  0.6655589557224121  0.9868232649070915   T   T   T
  0.1105892111983492  0.8893936487062665  0.1478500804568112   T   T   T
  0.2229772175716351  0.7781556087854821  0.3054417310061187   T   T   T
  0.1217608343791936  0.8892159090088129  0.3931462536902530   T   T   T
 -0.0019870835190760  0.6656734582401989  0.2294170292655137   T   T   T
  0.2210069580966419  0.7771704790481289  0.0693512494867876   T   T   T
  0.3319320170940683  0.6658715653227578  0.9871988666625400   T   T   T
  0.4451911183684651  0.8892625591843845  0.1489317390469123   T   T   T
  0.5492400275670098  0.7762327438681038  0.3107945369694602   T   T   T
  0.4367877262660839  0.8850608631328796  0.3924849909482259   T   T   T
  0.3323184464871588  0.6665154295959570  0.2295147031812728   T   T   T
  0.5531486557040052  0.7755805629771102  0.0707757522495151   T   T   T
  0.6669937201492776  0.6684439671572154  0.9873629456509856   T   T   T
  0.7727726549015104  0.8829618035606555  0.1505712791541878   T   T   T
  0.8957200641369080  0.7820329643126388  0.3085820404330654   T   T   T
  0.7777972979543030  0.8971096524885781  0.3966021027611578   T   T   T
  0.6587653043866383  0.6498054553629687  0.2355278479547424   T   T   T
  0.8889181070176821  0.7788739778730587  0.0700898333239439   T   T   T
  0.3203684620507274  0.3268507310334571  0.3450602761883000   T   T   T
  0.0022248552091237  0.0001173538260988  0.3510298812549566   T   T   T
  0.2210865173483480  0.1090602063707260  0.1903709870619768   T   T   T
  0.1102597830859663  0.2217963915437546  0.0291794859667486   T   T   T
  0.3288762987548540 -0.0039849681317116  0.3475038317056755   T   T   T
  0.5544115695299734  0.1121245646086245  0.1920076435214645   T   T   T
  0.4423106070537541  0.2199149965636990  0.0274458441142014   T   T   T
  0.6667240319630188  0.0000285159805090  0.3526374930130358   T   T   T
  0.8881527323178945  0.1107428661587092  0.1921682447856187   T   T   T
  0.7766184033169617  0.2218603234707864  0.0302993671488253   T   T   T
  0.0022248552094083  0.3354405013820034  0.3510298812548226   T   T   T
  0.2210865173481110  0.4453593109800759  0.1903709870615430   T   T   T
  0.1094857515820959  0.5536611481139406  0.0286945298424754   T   T   T
  0.5573841780703872  0.4453580890341906  0.1820548214459199   T   T   T
  0.4423106070501159  0.5557296104896238  0.0274458441143661   T   T   T
  0.6754947975829535  0.3323412585456310  0.3580089032635669   T   T   T
  0.8874735353290706  0.4445122735106402  0.1911775881643159   T   T   T
  0.7788865969144777  0.5561102984560223  0.0271971360066950   T   T   T
  0.0007147072376852  0.6670243536206748  0.3509875874915999   T   T   T
  0.2207307300901732  0.7770323650453205  0.1875207139810577   T   T   T
  0.1094857515816901  0.8891586034679928  0.0286945298424839   T   T   T
  0.3288762987606523  0.6661952668890074  0.3475038317056975   T   T   T
  0.5544115695298153  0.7756200049194235  0.1920076435212406   T   T   T
  0.4442202490795762  0.8887771245400268  0.0299650942488408   T   T   T
  0.6754947975844713  0.6764865390384598  0.3580089032632655   T   T   T
  0.8874735353270888  0.7762942618179246  0.1911775881643006   T   T   T
  0.7766184033156804  0.8880910798450862  0.0302993671489299   T   T   T
0.446598 0.216020 0.433410 T T T 
 
  0.00000000E+00  0.00000000E+00  0.00000000E+00
  0.00000000E+00  0.00000000E+00  0.00000000E+00
  0.00000000E+00  0.00000000E+00  0.00000000E+00
  0.00000000E+00  0.00000000E+00  0.00000000E+00
  0.00000000E+00  0.00000000E+00  0.00000000E+00
  0.00000000E+00  0.00000000E+00  0.00000000E+00
  0.00000000E+00  0.00000000E+00  0.00000000E+00
  0.00000000E+00  0.00000000E+00  0.00000000E+00
  0.00000000E+00  0.00000000E+00  0.00000000E+00
  0.00000000E+00  0.00000000E+00  0.00000000E+00
  0.00000000E+00  0.00000000E+00  0.00000000E+00
  0.00000000E+00  0.00000000E+00  0.00000000E+00
  0.00000000E+00  0.00000000E+00  0.00000000E+00
  0.00000000E+00  0.00000000E+00  0.00000000E+00
  0.00000000E+00  0.00000000E+00  0.00000000E+00
  0.00000000E+00  0.00000000E+00  0.00000000E+00
  0.00000000E+00  0.00000000E+00  0.00000000E+00
  0.00000000E+00  0.00000000E+00  0.00000000E+00
  0.00000000E+00  0.00000000E+00  0.00000000E+00
  0.00000000E+00  0.00000000E+00  0.00000000E+00
  0.00000000E+00  0.00000000E+00  0.00000000E+00
  0.00000000E+00  0.00000000E+00  0.00000000E+00
  0.00000000E+00  0.00000000E+00  0.00000000E+00
  0.00000000E+00  0.00000000E+00  0.00000000E+00
  0.00000000E+00  0.00000000E+00  0.00000000E+00
  0.00000000E+00  0.00000000E+00  0.00000000E+00
  0.00000000E+00  0.00000000E+00  0.00000000E+00
  0.00000000E+00  0.00000000E+00  0.00000000E+00
  0.00000000E+00  0.00000000E+00  0.00000000E+00
  0.00000000E+00  0.00000000E+00  0.00000000E+00
  0.00000000E+00  0.00000000E+00  0.00000000E+00
  0.00000000E+00  0.00000000E+00  0.00000000E+00
  0.00000000E+00  0.00000000E+00  0.00000000E+00
  0.00000000E+00  0.00000000E+00  0.00000000E+00
  0.00000000E+00  0.00000000E+00  0.00000000E+00
  0.00000000E+00  0.00000000E+00  0.00000000E+00
  0.00000000E+00  0.00000000E+00  0.00000000E+00
  0.00000000E+00  0.00000000E+00  0.00000000E+00
  0.00000000E+00  0.00000000E+00  0.00000000E+00
  0.00000000E+00  0.00000000E+00  0.00000000E+00
  0.00000000E+00  0.00000000E+00  0.00000000E+00
  0.00000000E+00  0.00000000E+00  0.00000000E+00
  0.00000000E+00  0.00000000E+00  0.00000000E+00
  0.00000000E+00  0.00000000E+00  0.00000000E+00
  0.00000000E+00  0.00000000E+00  0.00000000E+00
  0.00000000E+00  0.00000000E+00  0.00000000E+00
  0.00000000E+00  0.00000000E+00  0.00000000E+00
  0.00000000E+00  0.00000000E+00  0.00000000E+00
  0.00000000E+00  0.00000000E+00  0.00000000E+00
  0.00000000E+00  0.00000000E+00  0.00000000E+00
  0.00000000E+00  0.00000000E+00  0.00000000E+00
  0.00000000E+00  0.00000000E+00  0.00000000E+00
  0.00000000E+00  0.00000000E+00  0.00000000E+00
  0.00000000E+00  0.00000000E+00  0.00000000E+00
  0.00000000E+00  0.00000000E+00  0.00000000E+00
  0.00000000E+00  0.00000000E+00  0.00000000E+00
  0.00000000E+00  0.00000000E+00  0.00000000E+00
  0.00000000E+00  0.00000000E+00  0.00000000E+00
  0.00000000E+00  0.00000000E+00  0.00000000E+00
  0.00000000E+00  0.00000000E+00  0.00000000E+00
  0.00000000E+00  0.00000000E+00  0.00000000E+00
  0.00000000E+00  0.00000000E+00  0.00000000E+00
  0.00000000E+00  0.00000000E+00  0.00000000E+00
  0.00000000E+00  0.00000000E+00  0.00000000E+00
  0.00000000E+00  0.00000000E+00  0.00000000E+00
  0.00000000E+00  0.00000000E+00  0.00000000E+00
  0.00000000E+00  0.00000000E+00  0.00000000E+00
  0.00000000E+00  0.00000000E+00  0.00000000E+00
  0.00000000E+00  0.00000000E+00  0.00000000E+00
  0.00000000E+00  0.00000000E+00  0.00000000E+00
  0.00000000E+00  0.00000000E+00  0.00000000E+00
  0.00000000E+00  0.00000000E+00  0.00000000E+00
  0.00000000E+00  0.00000000E+00  0.00000000E+00
  0.00000000E+00  0.00000000E+00  0.00000000E+00
  0.00000000E+00  0.00000000E+00  0.00000000E+00
  0.00000000E+00  0.00000000E+00  0.00000000E+00
  0.00000000E+00  0.00000000E+00  0.00000000E+00
  0.00000000E+00  0.00000000E+00  0.00000000E+00
  0.00000000E+00  0.00000000E+00  0.00000000E+00
  0.00000000E+00  0.00000000E+00  0.00000000E+00
