CeO2-you-111-you-Cu                     
   1.00000000000000     
     9.8578350868596996   -5.6483351709723282   -0.0088610021843592
    -0.0000000014108187   11.2966683514770381    0.0000000010527625
    -0.0196552002819110    0.0000000020278087   21.0616285262912371
   O    Cu   Ce H
    53     1    26 1
Selective dynamics
Direct
  0.0004345881444645  0.0014544665480178  0.9960117957462092   T   T   T
  0.1106357325683211  0.2219843662829784  0.1506501820084114   T   T   T
  0.2240004530945545  0.1317726780622887  0.3077683802922542   T   T   T
  0.0587383969957895  0.1960356985026424  0.3979891802126357   T   T   T
  0.0021758160033329  0.0015941584762194  0.2297842735996156   T   T   T
  0.2228040006635077  0.1111998279035287  0.0754875427087546   T   T   T
  0.3330094590922080  0.0001426219873874  0.9947294567183599   T   T   T
  0.4472827514432679  0.2186516446160245  0.1462353453961555   T   T   T
  0.5552409342828493  0.1094477501773482  0.3044024780196817   T   T   T
  0.4586165699626742  0.2573096368036178  0.3671409758025174   T   T   T
  0.3308066636200047  0.0038365297070013  0.2314674058286326   T   T   T
  0.5562332813565206  0.1082888729172237  0.0745059026393273   T   T   T
  0.6687949845680706  0.0010639922841668  0.9946922798780266   T   T   T
  0.7741002657086705  0.2249177025297796  0.1529057686601908   T   T   T
  0.8825122681568245  0.1079226340786783  0.3023153597870845   T   T   T
  0.7721014541824249  0.2183057963860670  0.3870844083886082   T   T   T
  0.6632042637578645 -0.0017313681209256  0.2288172238196429   T   T   T
  0.8869820076223706  0.1101575038110750  0.0774076790515331   T   T   T
  0.0004345881442688  0.3323131215958549  0.9960117957461923   T   T   T
  0.1101910455335429  0.5559948394073996  0.1508810481263721   T   T   T
  0.2240004530916079  0.4255607750266168  0.3077683802925922   T   T   T
  0.1188488695911442  0.5585825566941997  0.3823405981797831   T   T   T
  0.0021758160040602  0.3339146575255757  0.2297842735997228   T   T   T
  0.2228040006635731  0.4449371727597128  0.0754875427088092   T   T   T
  0.3316483826087838  0.3324906913043479  0.9950915842494802   T   T   T
  0.4472827514414709  0.5619651068293072  0.1462353453956399   T   T   T
  0.4586165699624691  0.5346409331555931  0.3671409758035754   T   T   T
  0.3480759621817978  0.3407044810866596  0.2217137778273005   T   T   T
  0.5558298281696493  0.4445809140856697  0.0716133224290354   T   T   T
  0.6681352881171249  0.3324892926375782  0.9950754264670374   T   T   T
  0.7801212636799014  0.5567276318387888  0.1473154967624257   T   T   T
  0.8922871039068951  0.4431358065522035  0.3053971013661010   T   T   T
  0.7712387614243942  0.5522863807181216  0.3787764566057600   T   T   T
  0.6596496141721678  0.3440170226777804  0.2350686600585744   T   T   T
  0.8899676715872360  0.4435621032160436  0.0751121682042082   T   T   T
  0.0003160399166999  0.6668250199579014  0.9955298508896934   T   T   T
  0.1101910455323613  0.8875302061248262  0.1508810481262506   T   T   T
  0.2231296826441444  0.7782318413217287  0.3028310673477080   T   T   T
  0.1188488695903977  0.8936003128947204  0.3823405981796167   T   T   T
 -0.0019016746380995  0.6657161626804919  0.2308124086658981   T   T   T
  0.2232823449669366  0.7783081724830460  0.0752334564293589   T   T   T
  0.3330094590920283  0.6662008371046809  0.9947294567183401   T   T   T
  0.4416676587327218  0.8875008293663368  0.1519521566273379   T   T   T
  0.5552409342808892  0.7791261841065543  0.3044024780192610   T   T   T
  0.4412154457500694  0.8872747228749870  0.3829318078484334   T   T   T
  0.3308066636192464  0.6603041339123611  0.2314674058286782   T   T   T
  0.5562332813574038  0.7812774084400864  0.0745059026393453   T   T   T
  0.6681352881177838  0.6689789954803577  0.9950754264670744   T   T   T
  0.7741002657075445  0.8825155631797209  0.1529057686603621   T   T   T
  0.8922871039062074  0.7824842973508555  0.3053971013658253   T   T   T
  0.7721014541819688  0.8871286577967537  0.3870844083879949   T   T   T
  0.6596496141771905  0.6489655915040363  0.2350686600593427   T   T   T
  0.8899676715870053  0.7797385683709835  0.0751121682041760   T   T   T
  0.3435001640444890  0.3384165820240596  0.3380822559225097   T   T   T
  0.0031210787612672  0.0089078181126126  0.3473190667754285   T   T   T
  0.2235056045964573  0.1156903317706066  0.1916625811605203   T   T   T
  0.1111315522822275  0.2222322761409529  0.0361764081200726   T   T   T
  0.3328831616105354  0.0082730427989451  0.3421216719692758   T   T   T
  0.5542913253438753  0.1111750773703250  0.1907937860813838   T   T   T
  0.4433984524291404  0.2196646298252735  0.0334560129340496   T   T   T
  0.6628109959268683 -0.0019280020361964  0.3461189982080533   T   T   T
  0.8876647954627912  0.1104988977323558  0.1914872140668619   T   T   T
  0.7776209752739155  0.2217129821391041  0.0356577834284495   T   T   T
  0.0031210787628025  0.3275462606501723  0.3473190667752130   T   T   T
  0.2235056045965015  0.4411482728241090  0.1916625811605316   T   T   T
  0.1108380251930327  0.5545811167300503  0.0363839085218289   T   T   T
  0.5551517573077547  0.4442418786513740  0.1806038177592555   T   T   T
  0.4433984524296359  0.5570678226037649  0.0334560129339568   T   T   T
  0.6728048348105672  0.3301839804118512  0.3463060971752028   T   T   T
  0.8892268929180316  0.4443328626424434  0.1914315165025802   T   T   T
  0.7806330086487460  0.5569835043238455  0.0338503398427403   T   T   T
  0.0049374361458299  0.6691357180755200  0.3427555724308429   T   T   T
  0.2210066221198188  0.7771703110608211  0.1899927442426090   T   T   T
  0.1108380251928395  0.8895909084644572  0.0363839085217702   T   T   T
  0.3328831616114344  0.6579441188103227  0.3421216719692539   T   T   T
  0.5542913253465090  0.7764492479723996  0.1907937860817047   T   T   T
  0.4449639561572650  0.8891489780782964  0.0351210374643084   T   T   T
  0.6728048348050155  0.6759538543904982  0.3463060971754915   T   T   T
  0.8892268929209957  0.7782270302817514  0.1914315165027591   T   T   T
  0.7776209752753430  0.8892409931352852  0.0356577834285092   T   T   T
0.446598 0.216020 0.433410 T T T 
 
  0.00000000E+00  0.00000000E+00  0.00000000E+00
  0.00000000E+00  0.00000000E+00  0.00000000E+00
  0.00000000E+00  0.00000000E+00  0.00000000E+00
  0.00000000E+00  0.00000000E+00  0.00000000E+00
  0.00000000E+00  0.00000000E+00  0.00000000E+00
  0.00000000E+00  0.00000000E+00  0.00000000E+00
  0.00000000E+00  0.00000000E+00  0.00000000E+00
  0.00000000E+00  0.00000000E+00  0.00000000E+00
  0.00000000E+00  0.00000000E+00  0.00000000E+00
  0.00000000E+00  0.00000000E+00  0.00000000E+00
  0.00000000E+00  0.00000000E+00  0.00000000E+00
  0.00000000E+00  0.00000000E+00  0.00000000E+00
  0.00000000E+00  0.00000000E+00  0.00000000E+00
  0.00000000E+00  0.00000000E+00  0.00000000E+00
  0.00000000E+00  0.00000000E+00  0.00000000E+00
  0.00000000E+00  0.00000000E+00  0.00000000E+00
  0.00000000E+00  0.00000000E+00  0.00000000E+00
  0.00000000E+00  0.00000000E+00  0.00000000E+00
  0.00000000E+00  0.00000000E+00  0.00000000E+00
  0.00000000E+00  0.00000000E+00  0.00000000E+00
  0.00000000E+00  0.00000000E+00  0.00000000E+00
  0.00000000E+00  0.00000000E+00  0.00000000E+00
  0.00000000E+00  0.00000000E+00  0.00000000E+00
  0.00000000E+00  0.00000000E+00  0.00000000E+00
  0.00000000E+00  0.00000000E+00  0.00000000E+00
  0.00000000E+00  0.00000000E+00  0.00000000E+00
  0.00000000E+00  0.00000000E+00  0.00000000E+00
  0.00000000E+00  0.00000000E+00  0.00000000E+00
  0.00000000E+00  0.00000000E+00  0.00000000E+00
  0.00000000E+00  0.00000000E+00  0.00000000E+00
  0.00000000E+00  0.00000000E+00  0.00000000E+00
  0.00000000E+00  0.00000000E+00  0.00000000E+00
  0.00000000E+00  0.00000000E+00  0.00000000E+00
  0.00000000E+00  0.00000000E+00  0.00000000E+00
  0.00000000E+00  0.00000000E+00  0.00000000E+00
  0.00000000E+00  0.00000000E+00  0.00000000E+00
  0.00000000E+00  0.00000000E+00  0.00000000E+00
  0.00000000E+00  0.00000000E+00  0.00000000E+00
  0.00000000E+00  0.00000000E+00  0.00000000E+00
  0.00000000E+00  0.00000000E+00  0.00000000E+00
  0.00000000E+00  0.00000000E+00  0.00000000E+00
  0.00000000E+00  0.00000000E+00  0.00000000E+00
  0.00000000E+00  0.00000000E+00  0.00000000E+00
  0.00000000E+00  0.00000000E+00  0.00000000E+00
  0.00000000E+00  0.00000000E+00  0.00000000E+00
  0.00000000E+00  0.00000000E+00  0.00000000E+00
  0.00000000E+00  0.00000000E+00  0.00000000E+00
  0.00000000E+00  0.00000000E+00  0.00000000E+00
  0.00000000E+00  0.00000000E+00  0.00000000E+00
  0.00000000E+00  0.00000000E+00  0.00000000E+00
  0.00000000E+00  0.00000000E+00  0.00000000E+00
  0.00000000E+00  0.00000000E+00  0.00000000E+00
  0.00000000E+00  0.00000000E+00  0.00000000E+00
  0.00000000E+00  0.00000000E+00  0.00000000E+00
  0.00000000E+00  0.00000000E+00  0.00000000E+00
  0.00000000E+00  0.00000000E+00  0.00000000E+00
  0.00000000E+00  0.00000000E+00  0.00000000E+00
  0.00000000E+00  0.00000000E+00  0.00000000E+00
  0.00000000E+00  0.00000000E+00  0.00000000E+00
  0.00000000E+00  0.00000000E+00  0.00000000E+00
  0.00000000E+00  0.00000000E+00  0.00000000E+00
  0.00000000E+00  0.00000000E+00  0.00000000E+00
  0.00000000E+00  0.00000000E+00  0.00000000E+00
  0.00000000E+00  0.00000000E+00  0.00000000E+00
  0.00000000E+00  0.00000000E+00  0.00000000E+00
  0.00000000E+00  0.00000000E+00  0.00000000E+00
  0.00000000E+00  0.00000000E+00  0.00000000E+00
  0.00000000E+00  0.00000000E+00  0.00000000E+00
  0.00000000E+00  0.00000000E+00  0.00000000E+00
  0.00000000E+00  0.00000000E+00  0.00000000E+00
  0.00000000E+00  0.00000000E+00  0.00000000E+00
  0.00000000E+00  0.00000000E+00  0.00000000E+00
  0.00000000E+00  0.00000000E+00  0.00000000E+00
  0.00000000E+00  0.00000000E+00  0.00000000E+00
  0.00000000E+00  0.00000000E+00  0.00000000E+00
  0.00000000E+00  0.00000000E+00  0.00000000E+00
  0.00000000E+00  0.00000000E+00  0.00000000E+00
  0.00000000E+00  0.00000000E+00  0.00000000E+00
  0.00000000E+00  0.00000000E+00  0.00000000E+00
  0.00000000E+00  0.00000000E+00  0.00000000E+00
