SYSTEM = test
ISTART = 0
ENCUT = 400
EDIFF = 1E-5
ISMEAR = 0
SIGMA = 0.05
NSW = 0
