CeO2-you-111-you-Ru                     
   1.00000000000000     
     9.8462090043868056   -5.7235719201610609    0.0076116499343250
    -0.0336538518888803   11.3888516483097515   -0.0076116485201547
     0.0077820871633258   -0.0134789692441140   21.0215276798713511
   O    Ru   Ce H
    53     1    26 1
Selective dynamics
Direct
 -0.0005124366889949 -0.0002256811646198  0.9950988161085424   T   T   T
  0.1078133912274974  0.2190970235301801  0.1467045865642675   T   T   T
  0.2413772009663041  0.1289047549615725  0.3037956162306267   T   T   T
  0.1567373175917046  0.2598453015063686  0.3709247774170060   T   T   T
  0.0062538138973904  0.0025074954440248  0.2309031535722209   T   T   T
  0.2220723349982234  0.1108385640099955  0.0742513730207595   T   T   T
  0.3351850940730101  0.0012852890710628  0.9955804867598649   T   T   T
  0.4432664001693247  0.2233995998301777  0.1495174579731039   T   T   T
  0.5565553929029131  0.1101116070983231  0.3023613437511529   T   T   T
  0.4512777744223925  0.2153882255817123  0.3887375649073520   T   T   T
  0.3336351641666319  0.0018441629509269  0.2281513364389885   T   T   T
  0.5565822356608788  0.1100847643387748  0.0770224541272549   T   T   T
  0.6663220109921291  0.0003449890092371  0.9954131398686112   T   T   T
  0.7835958910540771  0.2236069559234869  0.1526956998546270   T   T   T
  0.8904995198071299  0.1067405866651664  0.3064430142183602   T   T   T
  0.7661575810565161  0.2143983983212563  0.3874820000682418   T   T   T
  0.6678797103262066 -0.0012127103257132  0.2301125817387543   T   T   T
  0.8867819883699513  0.1092737758142213  0.0752769731416073   T   T   T
 -0.0019597105335885  0.3319553275834314  0.9951340559331623   T   T   T
  0.1097841542394479  0.5568828457616828  0.1469965261345031   T   T   T
  0.1031219698930380  0.5635450301207869  0.3856886893171297   T   T   T
  0.0163774547328643  0.3429657977671389  0.2336512982942506   T   T   T
  0.2221342327540465  0.4445317672481948  0.0719568537918148   T   T   T
  0.3339158335576205  0.3327501664401286  0.9946668086973266   T   T   T
  0.4475689764743765  0.5588536087740170  0.1467045865647241   T   T   T
  0.5377622450270003  0.4252887990236451  0.3037956162330491   T   T   T
  0.4068206985102176  0.5099296824281558  0.3709247774209669   T   T   T
  0.3248078395541805  0.3418581604367057  0.2275366784433374   T   T   T
  0.5558284359886511  0.4445936650002118  0.0742513730206755   T   T   T
  0.6653817109280237  0.3314809059257343  0.9955804867597445   T   T   T
  0.7781865194871446  0.5555057207475037  0.1497675761196420   T   T   T
  0.8810418141657120  0.4452762408094212  0.3041317402671016   T   T   T
  0.7699759121360424  0.5575118414328665  0.3826255659623730   T   T   T
  0.6648228370452336  0.3330308358313855  0.2281513364388796   T   T   T
  0.8872961116666422  0.4432392346887423  0.0746941992911745   T   T   T
 -0.0001086475600989  0.6667756475591476  0.9954084522324316   T   T   T
  0.1111612792496127  0.8884804805092380  0.1497675761196761   T   T   T
  0.2213897591816848  0.7856251858225246  0.3041317402669855   T   T   T
  0.1091551585682237  0.8966910878634418  0.3826255659627118   T   T   T
  0.0002791602398631  0.6663878397546446  0.2294369801849037   T   T   T
  0.2234267653100381  0.7793708883318770  0.0746941992912031   T   T   T
  0.3347106724182320  0.6686267105355234  0.9951340559333425   T   T   T
  0.4430590440777760  0.8830711089448675  0.1526956998542675   T   T   T
  0.5599264133404731  0.7761674801927728  0.3064430142172420   T   T   T
  0.4522676016815596  0.9005094189403704  0.3874820000686534   T   T   T
  0.3237002022439118  0.6502895452764057  0.2336512982965127   T   T   T
  0.5573932241879774  0.7798850116323932  0.0752769731416810   T   T   T
  0.6668926811641901  0.6671794366884614  0.9950988161085552   T   T   T
  0.7786998741084951  0.8879671258927619  0.1526565704116699   T   T   T
  0.8880006865747018  0.7786663134233206  0.3028658847850803   T   T   T
  0.7814140696155082  0.8852529303823329  0.3847173632116072   T   T   T
  0.6641595045575364  0.6604131861039459  0.2309031535716881   T   T   T
  0.8885180572443108  0.7781489427545415  0.0749510734807452   T   T   T
  0.3388910646815961  0.3277749353145943  0.3408332767218213   T   T   T
  0.0037608256258594  0.0009384006195643  0.3420039808387801   T   T   T
  0.2245709525291734  0.1141677901561339  0.1894804860184646   T   T   T
  0.1096324938374566  0.2199111380470201  0.0333835121467758   T   T   T
  0.3380383113977342  0.0062550502403331  0.3450639087684855   T   T   T
  0.5562489828107200  0.1104180171939828  0.1906393276420229   T   T   T
  0.4445932969997535  0.2220727030016922  0.0348106939770268   T   T   T
  0.6677794739975579 -0.0011124739893963  0.3458845169821722   T   T   T
  0.8913377025382715  0.1122074421450584  0.1921099936193099   T   T   T
  0.7779835940924684  0.2215308752321383  0.0360647664879379   T   T   T
 -0.0098183482494957  0.3339995679501756  0.3510057659872379   T   T   T
  0.2217294778894458  0.4449365221038468  0.1814206210581936   T   T   T
  0.1100369244956602  0.5566300755022923  0.0339239971571436   T   T   T
  0.5524992098392272  0.4420950474661977  0.1894804860187246   T   T   T
  0.4467548619522602  0.5570345061620525  0.0333835121465050   T   T   T
  0.6604119497550389  0.3286276885929300  0.3450639087685839   T   T   T
  0.8892368345613537  0.4443036088084477  0.1913696230549118   T   T   T
  0.7773543654071347  0.5545273312839362  0.0356492407465959   T   T   T
 -0.0012240799633436  0.6678910799775103  0.3436287136216344   T   T   T
  0.2223623911984203  0.7774301654519103  0.1913696230556221   T   T   T
  0.1121396687174870  0.8893126345944440  0.0356492407466961   T   T   T
  0.3326664320372507  0.6764853482461216  0.3510057659848849   T   T   T
  0.5544595578463756  0.7753292974606903  0.1921099936195722   T   T   T
  0.4451351247667781  0.8886834059076895  0.0360647664878958   T   T   T
  0.6657285993737209  0.6629061743705847  0.3420039808402351   T   T   T
  0.8897071548177230  0.7769598451863508  0.1888873656378378   T   T   T
  0.7773682502204333  0.8892987497792251  0.0359619702748842   T   T   T
0.446598 0.216020 0.433410 T T T 
 
  0.00000000E+00  0.00000000E+00  0.00000000E+00
  0.00000000E+00  0.00000000E+00  0.00000000E+00
  0.00000000E+00  0.00000000E+00  0.00000000E+00
  0.00000000E+00  0.00000000E+00  0.00000000E+00
  0.00000000E+00  0.00000000E+00  0.00000000E+00
  0.00000000E+00  0.00000000E+00  0.00000000E+00
  0.00000000E+00  0.00000000E+00  0.00000000E+00
  0.00000000E+00  0.00000000E+00  0.00000000E+00
  0.00000000E+00  0.00000000E+00  0.00000000E+00
  0.00000000E+00  0.00000000E+00  0.00000000E+00
  0.00000000E+00  0.00000000E+00  0.00000000E+00
  0.00000000E+00  0.00000000E+00  0.00000000E+00
  0.00000000E+00  0.00000000E+00  0.00000000E+00
  0.00000000E+00  0.00000000E+00  0.00000000E+00
  0.00000000E+00  0.00000000E+00  0.00000000E+00
  0.00000000E+00  0.00000000E+00  0.00000000E+00
  0.00000000E+00  0.00000000E+00  0.00000000E+00
  0.00000000E+00  0.00000000E+00  0.00000000E+00
  0.00000000E+00  0.00000000E+00  0.00000000E+00
  0.00000000E+00  0.00000000E+00  0.00000000E+00
  0.00000000E+00  0.00000000E+00  0.00000000E+00
  0.00000000E+00  0.00000000E+00  0.00000000E+00
  0.00000000E+00  0.00000000E+00  0.00000000E+00
  0.00000000E+00  0.00000000E+00  0.00000000E+00
  0.00000000E+00  0.00000000E+00  0.00000000E+00
  0.00000000E+00  0.00000000E+00  0.00000000E+00
  0.00000000E+00  0.00000000E+00  0.00000000E+00
  0.00000000E+00  0.00000000E+00  0.00000000E+00
  0.00000000E+00  0.00000000E+00  0.00000000E+00
  0.00000000E+00  0.00000000E+00  0.00000000E+00
  0.00000000E+00  0.00000000E+00  0.00000000E+00
  0.00000000E+00  0.00000000E+00  0.00000000E+00
  0.00000000E+00  0.00000000E+00  0.00000000E+00
  0.00000000E+00  0.00000000E+00  0.00000000E+00
  0.00000000E+00  0.00000000E+00  0.00000000E+00
  0.00000000E+00  0.00000000E+00  0.00000000E+00
  0.00000000E+00  0.00000000E+00  0.00000000E+00
  0.00000000E+00  0.00000000E+00  0.00000000E+00
  0.00000000E+00  0.00000000E+00  0.00000000E+00
  0.00000000E+00  0.00000000E+00  0.00000000E+00
  0.00000000E+00  0.00000000E+00  0.00000000E+00
  0.00000000E+00  0.00000000E+00  0.00000000E+00
  0.00000000E+00  0.00000000E+00  0.00000000E+00
  0.00000000E+00  0.00000000E+00  0.00000000E+00
  0.00000000E+00  0.00000000E+00  0.00000000E+00
  0.00000000E+00  0.00000000E+00  0.00000000E+00
  0.00000000E+00  0.00000000E+00  0.00000000E+00
  0.00000000E+00  0.00000000E+00  0.00000000E+00
  0.00000000E+00  0.00000000E+00  0.00000000E+00
  0.00000000E+00  0.00000000E+00  0.00000000E+00
  0.00000000E+00  0.00000000E+00  0.00000000E+00
  0.00000000E+00  0.00000000E+00  0.00000000E+00
  0.00000000E+00  0.00000000E+00  0.00000000E+00
  0.00000000E+00  0.00000000E+00  0.00000000E+00
  0.00000000E+00  0.00000000E+00  0.00000000E+00
  0.00000000E+00  0.00000000E+00  0.00000000E+00
  0.00000000E+00  0.00000000E+00  0.00000000E+00
  0.00000000E+00  0.00000000E+00  0.00000000E+00
  0.00000000E+00  0.00000000E+00  0.00000000E+00
  0.00000000E+00  0.00000000E+00  0.00000000E+00
  0.00000000E+00  0.00000000E+00  0.00000000E+00
  0.00000000E+00  0.00000000E+00  0.00000000E+00
  0.00000000E+00  0.00000000E+00  0.00000000E+00
  0.00000000E+00  0.00000000E+00  0.00000000E+00
  0.00000000E+00  0.00000000E+00  0.00000000E+00
  0.00000000E+00  0.00000000E+00  0.00000000E+00
  0.00000000E+00  0.00000000E+00  0.00000000E+00
  0.00000000E+00  0.00000000E+00  0.00000000E+00
  0.00000000E+00  0.00000000E+00  0.00000000E+00
  0.00000000E+00  0.00000000E+00  0.00000000E+00
  0.00000000E+00  0.00000000E+00  0.00000000E+00
  0.00000000E+00  0.00000000E+00  0.00000000E+00
  0.00000000E+00  0.00000000E+00  0.00000000E+00
  0.00000000E+00  0.00000000E+00  0.00000000E+00
  0.00000000E+00  0.00000000E+00  0.00000000E+00
  0.00000000E+00  0.00000000E+00  0.00000000E+00
  0.00000000E+00  0.00000000E+00  0.00000000E+00
  0.00000000E+00  0.00000000E+00  0.00000000E+00
  0.00000000E+00  0.00000000E+00  0.00000000E+00
  0.00000000E+00  0.00000000E+00  0.00000000E+00
