CeO2-you-111-you-Ti                     
   1.00000000000000     
     9.8395689562612478   -5.6808781566672204    0.0000000000000000
     0.0000000007491389   11.3617543152042124    0.0000000000000000
     0.0000000000000000    0.0000000000000000   20.4963938485402331
   O    Ti   Ce   H 
    54     1    26     1
Selective dynamics
Direct
 -0.0003189609575562  0.0002932780821117  0.9895986070816440   T   T   T
  0.1105107690389744  0.2219218845195172  0.1470278316899538   F   F   F
  0.2429782284601961  0.1284256068353681  0.3068425356752547   T   T   T
  0.1308551955994100  0.2304909698892887  0.3789375229146656   T   T   T
  0.0063218492635535  0.0030574381080816  0.2310266280662097   T   T   T
  0.2213345640592408  0.1093361281183789  0.0714284866433985   F   F   F
  0.3341778166687188  0.0010403021992118  0.9896012924773180   T   T   T
  0.4447441154805389  0.2219218845195385  0.1470278316899538   F   F   F
  0.5514975845004910  0.1076410799186557  0.3067036324673785   T   T   T
  0.4552686758096662  0.1755614907218440  0.4193453006822575   T   T   T
  0.3303541178002960 -0.0017717293822318  0.2294988890291927   T   T   T
  0.5562009854447325  0.1104660145541700  0.0719732547731269   F   F   F
  0.6670063744675079  0.0000680580271107  0.9899853992264560   T   T   T
  0.7794307877752757  0.2255275755513821  0.1497783911464907   F   F   F
  0.8921811390381323  0.1110045906910364  0.3054344682859374   T   T   T
  0.7891245255484317  0.2172415300273859  0.3905788589449188   T   T   T
  0.6688318310370959  0.0032889626083826  0.2285801379200715   T   T   T
  0.8875990291097722  0.1104660145545111  0.0719732547731269   F   F   F
  0.9996829027905902  0.3320154159616188  0.9896998165937095   T   T   T
  0.1095943591379509  0.5570726408638720  0.1480314361377353   F   F   F
  0.2408532828896987  0.4442431057595582  0.3061797803980274   T   T   T
  0.1134658321601530  0.5517871860592867  0.3884962621730333   T   T   T
  0.0049646670343766  0.3360897236162999  0.2311452765947222   T   T   T
  0.2213345640594540  0.4453314359408580  0.0714284866433985   F   F   F
  0.3333660908280507  0.3333471551499019  0.9905601499151271   T   T   T
  0.4447441154804821  0.5561562309609442  0.1470278316899538   F   F   F
  0.4942242793491587  0.4114791787301340  0.3301857095811428   T   T   T
  0.4726574997080417  0.6153542138960930  0.4041537846222394   T   T   T
  0.3286547198068845  0.3305861578917114  0.2265257362790140   T   T   T
  0.5573308718813124  0.4453314359407585  0.0714284866433985   F   F   F
  0.6662828916615497  0.3326035923449177  0.9895221339713913   T   T   T
  0.7808112817253630  0.5570726408633178  0.1480314361377353   F   F   F
  0.8934506231263927  0.4456590419286352  0.3078881931725377   T   T   T
  0.7808464569894058  0.5679711539688405  0.3892150623272951   T   T   T
  0.6623911484287023  0.3397542995413566  0.2321310777542086   T   T   T
  0.8889042861207059  0.4444745722409138  0.0710847574103468   F   F   F
 -0.0001439306311967  0.6667256813392697  0.9887982919851195   T   T   T
  0.1095943591366861  0.8858557182728148  0.1480314361377353   F   F   F
  0.2220258636771958  0.7752615422043387  0.3080686545649211   T   T   T
  0.1141828013561678  0.8927209467256618  0.3870567770901648   T   T   T
 -0.0008612314277694  0.6670249464849839  0.2316951899702730   T   T   T
  0.2221914277574584  0.7777627138792909  0.0710847574103468   F   F   F
  0.3340918177580938  0.6670370212647280  0.9895833428224676   T   T   T
  0.4411384244512746  0.8872362122247210  0.1497783911464907   F   F   F
  0.5617040677372722  0.7840712332305370  0.3036217960359275   T   T   T
  0.4467625800555228  0.8887500227743272  0.3890830548062809   T   T   T
  0.3330818609269598  0.6652107384037068  0.2296686583861240   T   T   T
  0.5562009854454928  0.7790679708913189  0.0719732547731269   F   F   F
  0.6660331393142703  0.6671739759119998  0.9897322081867020   T   T   T
  0.7794307877734425  0.8872362122239039  0.1497783911464907   F   F   F
  0.8909716991542980  0.7833286327318842  0.3065269332787320   T   T   T
  0.7846857423448320  0.8956744394417958  0.3899846041430546   T   T   T
  0.6616109647569851  0.6531530220966288  0.2343363242357459   T   T   T
  0.8889042861218357  0.7777627138797882  0.0710847574103468   F   F   F
  0.3070936371390495  0.3197555253661564  0.3214563837243721   T   T   T
  0.0050259085840188  0.0035536759432122  0.3474279361252717   T   T   T
  0.2201402708319691  0.1069475416636578  0.1865483095110463   F   F   F
  0.1100459753698715  0.2216894876851043  0.0302738443127879   F   F   F
  0.3345604569916868 -0.0072123041930998  0.3484508413336829   T   T   T
  0.5553160093873544  0.1113509906143051  0.1897734573011931   F   F   F
  0.4449765123152289  0.2216894876852535  0.0302738443127879   F   F   F
  0.6709932492284919  0.0037106644295015  0.3484572846227420   T   T   T
  0.8893689812264469  0.1113509906137935  0.1897734573011931   F   F   F
  0.7778766509971646  0.2224193019945346  0.0309851719690997   F   F   F
  0.0051748294956553  0.3352075566066175  0.3483369904898850   T   T   T
  0.2201402708326086  0.4465257291683074  0.1865483095110463   F   F   F
  0.1104644117881364  0.5562025882123933  0.0305225474528399   F   F   F
  0.5597194583354295  0.4465257291680302  0.1865483095110463   F   F   F
  0.4449765123148950  0.5566210246296421  0.0302738443127879   F   F   F
  0.6645169135263340  0.3322327530517121  0.3560207483181297   T   T   T
  0.8887391480828768  0.4441442961652200  0.1916237960470255   F   F   F
  0.7790711764240967  0.5562025882122299  0.0305225474528399   F   F   F
 -0.0020686670822165  0.6651328282490234  0.3479444627759049   T   T   T
  0.2225217038330314  0.7779278519171200  0.1916237960470255   F   F   F
  0.1104644117877740  0.8875958235753743  0.0305225474528399   F   F   F
  0.3414609449347985  0.6692500699498035  0.3516951760928589   T   T   T
  0.5553160093862104  0.7772980187719014  0.1897734573011931   F   F   F
  0.4442466980061326  0.8887903490028322  0.0309851719690997   F   F   F
  0.6634527137117447  0.6721940243918837  0.3546553877216134   T   T   T
  0.8887391480840918  0.7779278519176529  0.1916237960470255   F   F   F
  0.7778766509966957  0.8887903490026261  0.0309851719690997   F   F   F
  0.4207313845783590  0.1950236883645697  0.4587952089021879   T   T   T
 
  0.00000000E+00  0.00000000E+00  0.00000000E+00
  0.00000000E+00  0.00000000E+00  0.00000000E+00
  0.00000000E+00  0.00000000E+00  0.00000000E+00
  0.00000000E+00  0.00000000E+00  0.00000000E+00
  0.00000000E+00  0.00000000E+00  0.00000000E+00
  0.00000000E+00  0.00000000E+00  0.00000000E+00
  0.00000000E+00  0.00000000E+00  0.00000000E+00
  0.00000000E+00  0.00000000E+00  0.00000000E+00
  0.00000000E+00  0.00000000E+00  0.00000000E+00
  0.00000000E+00  0.00000000E+00  0.00000000E+00
  0.00000000E+00  0.00000000E+00  0.00000000E+00
  0.00000000E+00  0.00000000E+00  0.00000000E+00
  0.00000000E+00  0.00000000E+00  0.00000000E+00
  0.00000000E+00  0.00000000E+00  0.00000000E+00
  0.00000000E+00  0.00000000E+00  0.00000000E+00
  0.00000000E+00  0.00000000E+00  0.00000000E+00
  0.00000000E+00  0.00000000E+00  0.00000000E+00
  0.00000000E+00  0.00000000E+00  0.00000000E+00
  0.00000000E+00  0.00000000E+00  0.00000000E+00
  0.00000000E+00  0.00000000E+00  0.00000000E+00
  0.00000000E+00  0.00000000E+00  0.00000000E+00
  0.00000000E+00  0.00000000E+00  0.00000000E+00
  0.00000000E+00  0.00000000E+00  0.00000000E+00
  0.00000000E+00  0.00000000E+00  0.00000000E+00
  0.00000000E+00  0.00000000E+00  0.00000000E+00
  0.00000000E+00  0.00000000E+00  0.00000000E+00
  0.00000000E+00  0.00000000E+00  0.00000000E+00
  0.00000000E+00  0.00000000E+00  0.00000000E+00
  0.00000000E+00  0.00000000E+00  0.00000000E+00
  0.00000000E+00  0.00000000E+00  0.00000000E+00
  0.00000000E+00  0.00000000E+00  0.00000000E+00
  0.00000000E+00  0.00000000E+00  0.00000000E+00
  0.00000000E+00  0.00000000E+00  0.00000000E+00
  0.00000000E+00  0.00000000E+00  0.00000000E+00
  0.00000000E+00  0.00000000E+00  0.00000000E+00
  0.00000000E+00  0.00000000E+00  0.00000000E+00
  0.00000000E+00  0.00000000E+00  0.00000000E+00
  0.00000000E+00  0.00000000E+00  0.00000000E+00
  0.00000000E+00  0.00000000E+00  0.00000000E+00
  0.00000000E+00  0.00000000E+00  0.00000000E+00
  0.00000000E+00  0.00000000E+00  0.00000000E+00
  0.00000000E+00  0.00000000E+00  0.00000000E+00
  0.00000000E+00  0.00000000E+00  0.00000000E+00
  0.00000000E+00  0.00000000E+00  0.00000000E+00
  0.00000000E+00  0.00000000E+00  0.00000000E+00
  0.00000000E+00  0.00000000E+00  0.00000000E+00
  0.00000000E+00  0.00000000E+00  0.00000000E+00
  0.00000000E+00  0.00000000E+00  0.00000000E+00
  0.00000000E+00  0.00000000E+00  0.00000000E+00
  0.00000000E+00  0.00000000E+00  0.00000000E+00
  0.00000000E+00  0.00000000E+00  0.00000000E+00
  0.00000000E+00  0.00000000E+00  0.00000000E+00
  0.00000000E+00  0.00000000E+00  0.00000000E+00
  0.00000000E+00  0.00000000E+00  0.00000000E+00
  0.00000000E+00  0.00000000E+00  0.00000000E+00
  0.00000000E+00  0.00000000E+00  0.00000000E+00
  0.00000000E+00  0.00000000E+00  0.00000000E+00
  0.00000000E+00  0.00000000E+00  0.00000000E+00
  0.00000000E+00  0.00000000E+00  0.00000000E+00
  0.00000000E+00  0.00000000E+00  0.00000000E+00
  0.00000000E+00  0.00000000E+00  0.00000000E+00
  0.00000000E+00  0.00000000E+00  0.00000000E+00
  0.00000000E+00  0.00000000E+00  0.00000000E+00
  0.00000000E+00  0.00000000E+00  0.00000000E+00
  0.00000000E+00  0.00000000E+00  0.00000000E+00
  0.00000000E+00  0.00000000E+00  0.00000000E+00
  0.00000000E+00  0.00000000E+00  0.00000000E+00
  0.00000000E+00  0.00000000E+00  0.00000000E+00
  0.00000000E+00  0.00000000E+00  0.00000000E+00
  0.00000000E+00  0.00000000E+00  0.00000000E+00
  0.00000000E+00  0.00000000E+00  0.00000000E+00
  0.00000000E+00  0.00000000E+00  0.00000000E+00
  0.00000000E+00  0.00000000E+00  0.00000000E+00
  0.00000000E+00  0.00000000E+00  0.00000000E+00
  0.00000000E+00  0.00000000E+00  0.00000000E+00
  0.00000000E+00  0.00000000E+00  0.00000000E+00
  0.00000000E+00  0.00000000E+00  0.00000000E+00
  0.00000000E+00  0.00000000E+00  0.00000000E+00
  0.00000000E+00  0.00000000E+00  0.00000000E+00
  0.00000000E+00  0.00000000E+00  0.00000000E+00
  0.00000000E+00  0.00000000E+00  0.00000000E+00
  0.00000000E+00  0.00000000E+00  0.00000000E+00
