CeO2-you-111-you-Ba                     
   1.00000000000000     
     9.8580380505832004   -5.7164353512502890    0.0038731031211886
    -0.0000000008366952   11.4328686889744446   -0.0000000003674136
     0.0067114859596922   -0.0000000004843765   20.2149819616160258
   O    Ba   Ce   H 
    53     1    26     2
Selective dynamics
Direct
  0.9997510950213309  0.0005529499924195  0.9885131902674172   T   T   T
  0.1153520594351605  0.2243425297179726  0.1500758507503477   F   F   F
  0.2249492170656694  0.1040606807509712  0.3119205719710895   T   T   T
  0.0799051224392005  0.2056958271042408  0.3993781370151440   T   T   T
  0.0025763497907474  0.0023588052913397  0.2299038713025121   T   T   T
  0.2215826693600604  0.1109797266033681  0.0706470040531855   F   F   F
  0.3327254782949377  0.0000660268700044  0.9870217283534980   T   T   T
  0.4460395454942301  0.2202903403950529  0.1443019438801301   F   F   F
  0.5496650448116542  0.1055603408801237  0.3076655075814587   T   T   T
  0.4523530914478591  0.1906402023578291  0.4196882546467202   T   T   T
  0.3326900734049852 -0.0013587459902139  0.2292383038115301   T   T   T
  0.5560405652460219  0.1096992715914027  0.0685603910687504   F   F   F
  0.6687391493717670  0.0013647633785519  0.9870233012676535   T   T   T
  0.7751539225322048  0.2269833216908381  0.1491704140087080   F   F   F
  0.8877079737937025  0.1102635666912287  0.3051275172617369   T   T   T
  0.7824973466027658  0.2161934281037576  0.3936882322734829   T   T   T
  0.6675060194013379  0.0028675694095693  0.2272471924032489   T   T   T
  0.8883374357269673  0.1108352178633538  0.0718459700848371   F   F   F
  0.9998251909652236  0.3319981456987281  0.9883523327732683   T   T   T
  0.1107307306581475  0.5561220856325590  0.1490095586041136   F   F   F
  0.2196495424259925  0.4491841564646017  0.3106309574647964   T   T   T
  0.1106224042013474  0.5607421000281274  0.3936153810121720   T   T   T
  0.0005652348124012  0.3326543440426762  0.2294461804648554   T   T   T
  0.2215826693599041  0.4439359427561200  0.0706470040530576   F   F   F
  0.3312146988415046  0.3326337611148380  0.9869774321635699   T   T   T
  0.4460395454923827  0.5590832051011532  0.1443019438794693   F   F   F
  0.4683722726616125  0.5908086301625392  0.3948544419150631   T   T   T
  0.3491228029579730  0.3405312482069214  0.2311110964791137   T   T   T
  0.5550095084179674  0.4441707542094662  0.0663067217761721   F   F   F
  0.6682321872285467  0.3329281859746798  0.9869533826652259   T   T   T
  0.7788893678420479  0.5561116839191271  0.1452724676405523   F   F   F
  0.8950514422371221  0.4453698966906046  0.3088971558164416   T   T   T
  0.7625824815360297  0.5586198288941898  0.3853503169866523   T   T   T
  0.6570792758877624  0.3421029826798610  0.2347009224518115   T   T   T
  0.8899676122183564  0.4443030448387546  0.0701712463555069   F   F   F
  0.9995480924107819  0.6665916031849570  0.9876586739251099   T   T   T
  0.1107307306580196  0.8879426450236920  0.1490095586038009   F   F   F
  0.2194954367916604  0.7733497854052732  0.3065042306567264   T   T   T
  0.1096681748530104  0.8803249911082488  0.3928422666964532   T   T   T
  0.9964004880246441  0.6662076262691009  0.2311098316531796   T   T   T
  0.2224079862141721  0.7778709931067382  0.0698249542760720   F   F   F
  0.3324276887066458  0.6658391252135977  0.9869260743585878   T   T   T
  0.4433761096821200  0.8883550548409644  0.1472524130884096   F   F   F
  0.5614451787991926  0.7887714163318362  0.3048221273628294   T   T   T
  0.4415100966474896  0.8855386647373216  0.3908220476262234   T   T   T
  0.3355427973696110  0.6664713220464809  0.2300611946642927   T   T   T
  0.5560405652453824  0.7796742936539260  0.0685603910685728   F   F   F
  0.6678345628030796  0.6686449143504725  0.9870873997426139   T   T   T
  0.7751539225306416  0.8815036008410502  0.1491704140091201   F   F   F
  0.8925694689576701  0.7859836764696863  0.3081317980292084   T   T   T
  0.7810324316732344  0.8971901680063742  0.3931025510979337   T   T   T
  0.6563490909792590  0.6470213345874020  0.2371452067548341   T   T   T
  0.8899676122177169  0.7789975673783829  0.0701712463557413   F   F   F
  0.3309723093536284  0.3322210419186271  0.3778930215200882   T   T   T
  0.0027093698387487  0.0043364585295953  0.3497857766854021   T   T   T
  0.2252937063721419  0.1148960317816048  0.1927744271118712   F   F   F
  0.1120399882084158  0.2226864941042876  0.0301736094974103   F   F   F
  0.3264655954704497  0.9862831064075026  0.3481118159191999   T   T   T
  0.5549212507240853  0.1111224465010139  0.1881977226486811   F   F   F
  0.4431005586111638  0.2200903757999484  0.0269790206905896   F   F   F
  0.6673043562196307  0.0033176724106311  0.3477433344386653   T   T   T
  0.8895219550626834  0.1114274775334323  0.1890763030727030   F   F   F
  0.7783969733560241  0.2227826440979399  0.0286632457738705   F   F   F
  0.0019687817991848  0.3331403194822579  0.3501487057861393   T   T   T
  0.2252937063707989  0.4437306745902134  0.1927744271117291   F   F   F
  0.1109592039015084  0.5544193032666911  0.0302214360681745   F   F   F
  0.5533829445138920  0.4433574722520248  0.1805049830152967   F   F   F
  0.4431005586116044  0.5563441828099442  0.0269790206906748   F   F   F
  0.6758973832181613  0.3271129365763222  0.3548921971069933   T   T   T
  0.8886682148338281  0.4452086194213933  0.1899787367806169   F   F   F
  0.7802799242655780  0.5568069621330380  0.0272523596619294   F   F   F
 -0.0020086944837838  0.6651014850570630  0.3497899963698582   T   T   T
  0.2219683786123383  0.7776511893072993  0.1884540967997737   F   F   F
  0.1109592039009044  0.8898739006359762  0.0302214360683024   F   F   F
  0.3342217958753100  0.6671520470270608  0.3497175283738770   T   T   T
  0.5549212507277304  0.7771318042202040  0.1881977226487308   F   F   F
  0.4451403892955241  0.8892371946469879  0.0284198098765813   F   F   F
  0.6754871662894992  0.6885105298229039  0.3531218577473312   T   T   T
  0.8886682148374163  0.7767925954199626  0.1899787367809083   F   F   F
  0.7783969733566138  0.8889473292583361  0.0286632457741192   F   F   F
  0.3268746502423047  0.3283021310336284  0.5348193918012604   T   T   T
  0.4568115759348205  0.1723865853077710  0.4663522922184936   T   T   T
 
  0.00000000E+00  0.00000000E+00  0.00000000E+00
  0.00000000E+00  0.00000000E+00  0.00000000E+00
  0.00000000E+00  0.00000000E+00  0.00000000E+00
  0.00000000E+00  0.00000000E+00  0.00000000E+00
  0.00000000E+00  0.00000000E+00  0.00000000E+00
  0.00000000E+00  0.00000000E+00  0.00000000E+00
  0.00000000E+00  0.00000000E+00  0.00000000E+00
  0.00000000E+00  0.00000000E+00  0.00000000E+00
  0.00000000E+00  0.00000000E+00  0.00000000E+00
  0.00000000E+00  0.00000000E+00  0.00000000E+00
  0.00000000E+00  0.00000000E+00  0.00000000E+00
  0.00000000E+00  0.00000000E+00  0.00000000E+00
  0.00000000E+00  0.00000000E+00  0.00000000E+00
  0.00000000E+00  0.00000000E+00  0.00000000E+00
  0.00000000E+00  0.00000000E+00  0.00000000E+00
  0.00000000E+00  0.00000000E+00  0.00000000E+00
  0.00000000E+00  0.00000000E+00  0.00000000E+00
  0.00000000E+00  0.00000000E+00  0.00000000E+00
  0.00000000E+00  0.00000000E+00  0.00000000E+00
  0.00000000E+00  0.00000000E+00  0.00000000E+00
  0.00000000E+00  0.00000000E+00  0.00000000E+00
  0.00000000E+00  0.00000000E+00  0.00000000E+00
  0.00000000E+00  0.00000000E+00  0.00000000E+00
  0.00000000E+00  0.00000000E+00  0.00000000E+00
  0.00000000E+00  0.00000000E+00  0.00000000E+00
  0.00000000E+00  0.00000000E+00  0.00000000E+00
  0.00000000E+00  0.00000000E+00  0.00000000E+00
  0.00000000E+00  0.00000000E+00  0.00000000E+00
  0.00000000E+00  0.00000000E+00  0.00000000E+00
  0.00000000E+00  0.00000000E+00  0.00000000E+00
  0.00000000E+00  0.00000000E+00  0.00000000E+00
  0.00000000E+00  0.00000000E+00  0.00000000E+00
  0.00000000E+00  0.00000000E+00  0.00000000E+00
  0.00000000E+00  0.00000000E+00  0.00000000E+00
  0.00000000E+00  0.00000000E+00  0.00000000E+00
  0.00000000E+00  0.00000000E+00  0.00000000E+00
  0.00000000E+00  0.00000000E+00  0.00000000E+00
  0.00000000E+00  0.00000000E+00  0.00000000E+00
  0.00000000E+00  0.00000000E+00  0.00000000E+00
  0.00000000E+00  0.00000000E+00  0.00000000E+00
  0.00000000E+00  0.00000000E+00  0.00000000E+00
  0.00000000E+00  0.00000000E+00  0.00000000E+00
  0.00000000E+00  0.00000000E+00  0.00000000E+00
  0.00000000E+00  0.00000000E+00  0.00000000E+00
  0.00000000E+00  0.00000000E+00  0.00000000E+00
  0.00000000E+00  0.00000000E+00  0.00000000E+00
  0.00000000E+00  0.00000000E+00  0.00000000E+00
  0.00000000E+00  0.00000000E+00  0.00000000E+00
  0.00000000E+00  0.00000000E+00  0.00000000E+00
  0.00000000E+00  0.00000000E+00  0.00000000E+00
  0.00000000E+00  0.00000000E+00  0.00000000E+00
  0.00000000E+00  0.00000000E+00  0.00000000E+00
  0.00000000E+00  0.00000000E+00  0.00000000E+00
  0.00000000E+00  0.00000000E+00  0.00000000E+00
  0.00000000E+00  0.00000000E+00  0.00000000E+00
  0.00000000E+00  0.00000000E+00  0.00000000E+00
  0.00000000E+00  0.00000000E+00  0.00000000E+00
  0.00000000E+00  0.00000000E+00  0.00000000E+00
  0.00000000E+00  0.00000000E+00  0.00000000E+00
  0.00000000E+00  0.00000000E+00  0.00000000E+00
  0.00000000E+00  0.00000000E+00  0.00000000E+00
  0.00000000E+00  0.00000000E+00  0.00000000E+00
  0.00000000E+00  0.00000000E+00  0.00000000E+00
  0.00000000E+00  0.00000000E+00  0.00000000E+00
  0.00000000E+00  0.00000000E+00  0.00000000E+00
  0.00000000E+00  0.00000000E+00  0.00000000E+00
  0.00000000E+00  0.00000000E+00  0.00000000E+00
  0.00000000E+00  0.00000000E+00  0.00000000E+00
  0.00000000E+00  0.00000000E+00  0.00000000E+00
  0.00000000E+00  0.00000000E+00  0.00000000E+00
  0.00000000E+00  0.00000000E+00  0.00000000E+00
  0.00000000E+00  0.00000000E+00  0.00000000E+00
  0.00000000E+00  0.00000000E+00  0.00000000E+00
  0.00000000E+00  0.00000000E+00  0.00000000E+00
  0.00000000E+00  0.00000000E+00  0.00000000E+00
  0.00000000E+00  0.00000000E+00  0.00000000E+00
  0.00000000E+00  0.00000000E+00  0.00000000E+00
  0.00000000E+00  0.00000000E+00  0.00000000E+00
  0.00000000E+00  0.00000000E+00  0.00000000E+00
  0.00000000E+00  0.00000000E+00  0.00000000E+00
  0.00000000E+00  0.00000000E+00  0.00000000E+00
  0.00000000E+00  0.00000000E+00  0.00000000E+00
