CeO2-you-111-you-Zr                     
   1.00000000000000     
     9.8518895043353041   -5.7021335396174759   -0.0064323220735845
    -0.0122474249484077   11.3830519112755599    0.0064323209663919
    -0.0074174781373857    0.0128474481342418   20.8608738583768805
   O    Zr   Ce   H 
    53     1    26     2
Selective dynamics
Direct
  0.9996950387500306  0.9997432143832025  0.9940558218417810   T   T   T
  0.1122061561366010  0.2213806864472261  0.1474872247870849   F   F   F
  0.2383569728037290  0.1138758171958667  0.3037709624443369   T   T   T
  0.1441199311962919  0.2448295818037047  0.3724218032515080   T   T   T
  0.0054284756345632  0.0028868786251083  0.2302057981825301   T   T   T
  0.2218841012044805  0.1099210708633720  0.0733738869575333   F   F   F
  0.3351816182645294  0.0011993159505487  0.9942648869344931   T   T   T
  0.4406127405003843  0.2260532594990110  0.1511933381375741   F   F   F
  0.5475791422102992  0.1079705128757291  0.3052404370345652   T   T   T
  0.4291555824814080  0.2270335817062092  0.3996703190504115   T   T   T
  0.3335117782962099  0.9975397791774784  0.2266733114914954   T   T   T
  0.5553872046011392  0.1112797953989713  0.0767875279046919   F   F   F
  0.6658918358482306  0.0005420401732263  0.9950597514475076   T   T   T
  0.7847842430579135  0.2242365167940719  0.1512131141589208   F   F   F
  0.8880709253078620  0.1033180601100843  0.3052177987240670   T   T   T
  0.7721451413519879  0.2055263909034163  0.3915796031002950   T   T   T
  0.6659318258988453 -0.0000448864621803  0.2298560490501945   T   T   T
  0.8888469585406895  0.1100741869550248  0.0743349944731122   F   F   F
  0.9981353543803064  0.3321031964502300  0.9936476807571006   T   T   T
  0.1106357671336937  0.5560312328648536  0.1469441952604100   F   F   F
  0.1057635235942970  0.5614678222704219  0.3881996302401272   T   T   T
  0.0172679478107150  0.3411549577837641  0.2337608363638298   T   T   T
  0.2221474342623679  0.4445185657370772  0.0714804060748051   F   F   F
  0.3338908955197445  0.3325828158377329  0.9934888740323822   T   T   T
  0.4452853135538177  0.5544608438645255  0.1474872247867580   F   F   F
  0.5486332505018630  0.4341880535931829  0.3038169766305633   T   T   T
  0.4130808255876552  0.5184974589875792  0.3755374027123399   T   T   T
  0.3188982160198290  0.3434088653220390  0.2399874169172403   T   T   T
  0.5567459291366319  0.4447818987952346  0.0733738869576044   F   F   F
  0.6657840283008037  0.3316212863334956  0.9941934689084834   T   T   T
  0.7781139930799981  0.5554065265585777  0.1499368526790619   F   F   F
  0.8894619661433077  0.4497125811776189  0.3039984812241779   T   T   T
  0.7807965906711987  0.5708732918620473  0.3876470251418839   T   T   T
  0.6668726638709936  0.3315853846842012  0.2260345572692914   T   T   T
  0.8881403784687052  0.4444135501946391  0.0737595810315881   F   F   F
  0.9992790716425322  0.6668785068629162  0.9936042562935374   T   T   T
  0.1112604734415825  0.8885530069203824  0.1499368526790406   F   F   F
  0.2211735434946734  0.7821068002489526  0.3044512001801787   T   T   T
  0.1113711147598819  0.8933666563609511  0.3861803577078178   T   T   T
  0.0011962261270373  0.6680174937770103  0.2289913629881638   T   T   T
  0.2222524498052678  0.7785266215314266  0.0737595810316023   F   F   F
  0.3342647058861240  0.6683471865584448  0.9938001050768634   T   T   T
  0.4424294832057001  0.8818827569427157  0.1512131141586153   F   F   F
  0.5621705233707319  0.7781557090139941  0.3071857408321157   T   T   T
  0.4485646972635349  0.8979516724543868  0.3902255370249371   T   T   T
  0.3250153393765554  0.6496733363755657  0.2343981690305169   T   T   T
  0.5565928130447588  0.7778200414593854  0.0743349944730696   F   F   F
  0.6666616583164030  0.6671206831922113  0.9936109427536157   T   T   T
  0.7775187912362469  0.8891482087640199  0.1511338229210182   F   F   F
  0.8903768057240420  0.7810923865354716  0.3031680502756898   T   T   T
  0.7836939892214735  0.8870832985598175  0.3869541796189255   T   T   T
  0.6656490631335906  0.6633626419252520  0.2299534822975647   T   T   T
  0.8886152357456680  0.7780517642545419  0.0743977293638878   F   F   F
  0.3407312322991753  0.3278946217170548  0.3398400724170368   T   T   T
  0.0041247254408333  0.0011657971010537  0.3437394934263353   T   T   T
  0.2218501762456953  0.1102239247886203  0.1898686794074607   F   F   F
  0.1098854910736051  0.2201443445872826  0.0326715400825250   F   F   F
  0.3317042461535429 -0.0075760511096841  0.3434460720596473   T   T   T
  0.5560381075720500  0.1106288924275205  0.1902727234860180   F   F   F
  0.4443421495732167  0.2223238504273368  0.0343927543068929   F   F   F
  0.6689369939697216 -0.0008930326115829  0.3473715267054741   T   T   T
  0.8906884666466510  0.1122302182436314  0.1917875071192583   F   F   F
  0.7782590134808629  0.2221955093908363  0.0350294847852624   F   F   F
  0.9923401287190396  0.3303955581784708  0.3531008603684826   T   T   T
  0.2219777775740184  0.4446882224295550  0.1824019510284387   F   F   F
  0.1099793643927711  0.5566876356054138  0.0328747584124187   F   F   F
  0.5564430752044487  0.4448158237541691  0.1898686794072688   F   F   F
  0.4465216554153244  0.5567815089267185  0.0326715400825393   F   F   F
  0.6723110355605629  0.3352282458968828  0.3479608898411178   T   T   T
  0.8906799457320531  0.4445999524979243  0.1913549259869498   F   F   F
  0.7776235115563921  0.5550495701219376  0.0345716764199864   F   F   F
 -0.0005400212115953  0.6664414901791662  0.3459256844365817   T   T   T
  0.2220660475049669  0.7759870542703169  0.1913549259869498   F   F   F
  0.1116174298780734  0.8890434884432139  0.0345716764200432   F   F   F
  0.3348051365108847  0.6736932323592448  0.3539919041851378   T   T   T
  0.5544367817543687  0.7759785333549161  0.1917875071190949   F   F   F
  0.4444704906094898  0.8884079865186294  0.0350294847852695   F   F   F
  0.6687773860078163  0.6649737129691098  0.3439653333243297   T   T   T
  0.8892692620882414  0.7773977379111230  0.1894049344339521   F   F   F
  0.7774423522900804  0.8892246477100514  0.0351631827546797   F   F   F
  0.3198770624894534  0.3539352491613171  0.4577204935903367   T   T   T
  0.4153095204614710  0.2321698109765891  0.4454318828945696   T   T   T
 
  0.00000000E+00  0.00000000E+00  0.00000000E+00
  0.00000000E+00  0.00000000E+00  0.00000000E+00
  0.00000000E+00  0.00000000E+00  0.00000000E+00
  0.00000000E+00  0.00000000E+00  0.00000000E+00
  0.00000000E+00  0.00000000E+00  0.00000000E+00
  0.00000000E+00  0.00000000E+00  0.00000000E+00
  0.00000000E+00  0.00000000E+00  0.00000000E+00
  0.00000000E+00  0.00000000E+00  0.00000000E+00
  0.00000000E+00  0.00000000E+00  0.00000000E+00
  0.00000000E+00  0.00000000E+00  0.00000000E+00
  0.00000000E+00  0.00000000E+00  0.00000000E+00
  0.00000000E+00  0.00000000E+00  0.00000000E+00
  0.00000000E+00  0.00000000E+00  0.00000000E+00
  0.00000000E+00  0.00000000E+00  0.00000000E+00
  0.00000000E+00  0.00000000E+00  0.00000000E+00
  0.00000000E+00  0.00000000E+00  0.00000000E+00
  0.00000000E+00  0.00000000E+00  0.00000000E+00
  0.00000000E+00  0.00000000E+00  0.00000000E+00
  0.00000000E+00  0.00000000E+00  0.00000000E+00
  0.00000000E+00  0.00000000E+00  0.00000000E+00
  0.00000000E+00  0.00000000E+00  0.00000000E+00
  0.00000000E+00  0.00000000E+00  0.00000000E+00
  0.00000000E+00  0.00000000E+00  0.00000000E+00
  0.00000000E+00  0.00000000E+00  0.00000000E+00
  0.00000000E+00  0.00000000E+00  0.00000000E+00
  0.00000000E+00  0.00000000E+00  0.00000000E+00
  0.00000000E+00  0.00000000E+00  0.00000000E+00
  0.00000000E+00  0.00000000E+00  0.00000000E+00
  0.00000000E+00  0.00000000E+00  0.00000000E+00
  0.00000000E+00  0.00000000E+00  0.00000000E+00
  0.00000000E+00  0.00000000E+00  0.00000000E+00
  0.00000000E+00  0.00000000E+00  0.00000000E+00
  0.00000000E+00  0.00000000E+00  0.00000000E+00
  0.00000000E+00  0.00000000E+00  0.00000000E+00
  0.00000000E+00  0.00000000E+00  0.00000000E+00
  0.00000000E+00  0.00000000E+00  0.00000000E+00
  0.00000000E+00  0.00000000E+00  0.00000000E+00
  0.00000000E+00  0.00000000E+00  0.00000000E+00
  0.00000000E+00  0.00000000E+00  0.00000000E+00
  0.00000000E+00  0.00000000E+00  0.00000000E+00
  0.00000000E+00  0.00000000E+00  0.00000000E+00
  0.00000000E+00  0.00000000E+00  0.00000000E+00
  0.00000000E+00  0.00000000E+00  0.00000000E+00
  0.00000000E+00  0.00000000E+00  0.00000000E+00
  0.00000000E+00  0.00000000E+00  0.00000000E+00
  0.00000000E+00  0.00000000E+00  0.00000000E+00
  0.00000000E+00  0.00000000E+00  0.00000000E+00
  0.00000000E+00  0.00000000E+00  0.00000000E+00
  0.00000000E+00  0.00000000E+00  0.00000000E+00
  0.00000000E+00  0.00000000E+00  0.00000000E+00
  0.00000000E+00  0.00000000E+00  0.00000000E+00
  0.00000000E+00  0.00000000E+00  0.00000000E+00
  0.00000000E+00  0.00000000E+00  0.00000000E+00
  0.00000000E+00  0.00000000E+00  0.00000000E+00
  0.00000000E+00  0.00000000E+00  0.00000000E+00
  0.00000000E+00  0.00000000E+00  0.00000000E+00
  0.00000000E+00  0.00000000E+00  0.00000000E+00
  0.00000000E+00  0.00000000E+00  0.00000000E+00
  0.00000000E+00  0.00000000E+00  0.00000000E+00
  0.00000000E+00  0.00000000E+00  0.00000000E+00
  0.00000000E+00  0.00000000E+00  0.00000000E+00
  0.00000000E+00  0.00000000E+00  0.00000000E+00
  0.00000000E+00  0.00000000E+00  0.00000000E+00
  0.00000000E+00  0.00000000E+00  0.00000000E+00
  0.00000000E+00  0.00000000E+00  0.00000000E+00
  0.00000000E+00  0.00000000E+00  0.00000000E+00
  0.00000000E+00  0.00000000E+00  0.00000000E+00
  0.00000000E+00  0.00000000E+00  0.00000000E+00
  0.00000000E+00  0.00000000E+00  0.00000000E+00
  0.00000000E+00  0.00000000E+00  0.00000000E+00
  0.00000000E+00  0.00000000E+00  0.00000000E+00
  0.00000000E+00  0.00000000E+00  0.00000000E+00
  0.00000000E+00  0.00000000E+00  0.00000000E+00
  0.00000000E+00  0.00000000E+00  0.00000000E+00
  0.00000000E+00  0.00000000E+00  0.00000000E+00
  0.00000000E+00  0.00000000E+00  0.00000000E+00
  0.00000000E+00  0.00000000E+00  0.00000000E+00
  0.00000000E+00  0.00000000E+00  0.00000000E+00
  0.00000000E+00  0.00000000E+00  0.00000000E+00
  0.00000000E+00  0.00000000E+00  0.00000000E+00
  0.00000000E+00  0.00000000E+00  0.00000000E+00
  0.00000000E+00  0.00000000E+00  0.00000000E+00
