CeO2-you-111-you-Pb                     
   1.00000000000000     
     9.8399228701425674   -5.6810824887695439   -0.0000000000000000
     0.0000000003868692   11.3621629787094776    0.0000000000000000
    -0.0000000000000000    0.0000000000000000   21.2961752251326111
   O    Pb   Ce
    54     1    26
Selective dynamics
Direct
 -0.0001659400703855 -0.0000444103580817  0.9974879772440832   T   T   T
  0.1106974562081979  0.2220152281041221  0.1501346001561176   T   T   T
  0.2228911260796241  0.1124492521591028  0.3020968929906420   T   T   T
  0.1181108123316116  0.2257219061651936  0.3816246242049849   T   T   T
 -0.0001711912910717 -0.0002273979660203  0.2293358615145180   T   T   T
  0.2222569632534224  0.1111809265068479  0.0761796813020558   T   T   T
  0.3334545297123086 -0.0000444103580774  0.9974879772440832   T   T   T
  0.4446507718959204  0.2220152281041413  0.1501346001561176   T   T   T
  0.5548214468435173  0.1118455531561898  0.3039607494882317   T   T   T
  0.4409440938335781  0.2257219061646487  0.3816246242049849   T   T   T
  0.3332767933250169 -0.0002273979660441  0.2293358615145180   T   T   T
  0.5555534022619621  0.1111135977380229  0.0764331003288631   T   T   T
  0.6666669999999968  0.0000000000000000  0.9975478277512086   T   T   T
  0.7776815273154628  0.2220290546309369  0.1502978049685255   T   T   T
  0.8903581063127644  0.1118455531562810  0.3039607494882317   T   T   T
  0.7779081923244104  0.2224823846488272  0.3815222560360629   T   T   T
  0.6666669999999968  0.0000000000000000  0.2296303877331496   T   T   T
  0.8888941954760672  0.1111135977380286  0.0764331003288631   T   T   T
 -0.0001659400703821  0.3332114702877089  0.9974879772440832   T   T   T
  0.1110086076511308  0.5556583923487560  0.1500665253559189   T   T   T
  0.2228911260799445  0.4437748739205175  0.3020968929906420   T   T   T
  0.1114045072802696  0.5552624927197095  0.3808205571292491   T   T   T
 -0.0001711912911568  0.3333892066748980  0.2293358615145180   T   T   T
  0.2222569632534081  0.4444090367465706  0.0761796813020558   T   T   T
  0.3333330000000032  0.3333330000000032  0.9974838788176040   T   T   T
  0.4446507718958773  0.5559695437917438  0.1501346001561176   T   T   T
  0.5542177478404385  0.4437748739203752  0.3020968929906420   T   T   T
  0.4409440938348058  0.5485561876701648  0.3816246242049849   T   T   T
  0.3333330000000032  0.3333330000000032  0.2284806603410733   T   T   T
  0.5554860734931766  0.4444090367465769  0.0761796813020558   T   T   T
  0.6667114103580830  0.3332114702877115  0.9974879772440832   T   T   T
  0.7779827846976572  0.5556583923487919  0.1500665253559189   T   T   T
  0.8889487666661942  0.4445635333323486  0.3028322363254637   T   T   T
  0.7771909854394434  0.5552624927197171  0.3808205571292491   T   T   T
  0.6668943979660862  0.3333892066749120  0.2293358615145180   T   T   T
  0.8887734361818951  0.4442128723638185  0.0763253015357271   T   T   T
 -0.0000000000000000  0.6666669999999968  0.9977334835058621   T   T   T
  0.1110086076512119  0.8886842153024566  0.1500665253559189   T   T   T
  0.2221024666675244  0.7777182333338026  0.3028322363254637   T   T   T
  0.1114045072802868  0.8894760145605780  0.3808205571292491   T   T   T
 -0.0000000000000000  0.6666669999999968  0.2290545513720274   T   T   T
  0.2224531276362764  0.7778935638181017  0.0763253015357271   T   T   T
  0.3334545297123025  0.6668329400703700  0.9974879772440832   T   T   T
  0.4446369453690783  0.8889854726845340  0.1502978049685255   T   T   T
  0.5548214468437230  0.7763088936875292  0.3039607494882317   T   T   T
  0.4441836153511711  0.8887588076755863  0.3815222560360629   T   T   T
  0.3332767933249855  0.6668381912911083  0.2293358615145180   T   T   T
  0.5555534022619752  0.7777728045239485  0.0764331003288631   T   T   T
  0.6667114103580735  0.6668329400703684  0.9974879772440832   T   T   T
  0.7776815273154516  0.8889854726845291  0.1502978049685255   T   T   T
  0.8889487666662814  0.7777182333338416  0.3028322363254637   T   T   T
  0.7779081923244114  0.8887588076755866  0.3815222560360629   T   T   T
  0.6668943979661400  0.6668381912911461  0.2293358615145180   T   T   T
  0.8887734361818288  0.7778935638180724  0.0763253015357271   T   T   T
  0.3333330000000032  0.3333330000000032  0.3423247641644593   T   T   T
  0.0008330677386288  0.0001521845044621  0.3419741798686402   T   T   T
  0.2225477511741575  0.1117625023482257  0.1898375011458205   T   T   T
  0.1111494211475438  0.2222412105737598  0.0369502260864588   T   T   T
  0.3326521167657727  0.0001521845043769  0.3419741798686402   T   T   T
  0.5554705919856978  0.1111964080142538  0.1896291662454721   T   T   T
  0.4444247894262123  0.2222412105737478  0.0369502260864588   T   T   T
  0.6666669999999968  0.0000000000000000  0.3426732561468187   T   T   T
  0.8890598160285725  0.1111964080142698  0.1896291662454721   T   T   T
  0.7777890211844386  0.2222440423688751  0.0369144767077534   T   T   T
  0.0008330677384850  0.3340138832339780  0.3419741798686402   T   T   T
  0.2225477511743514  0.4441182488259279  0.1898375011458205   T   T   T
  0.1111555647061955  0.5555114352938363  0.0369573976694852   T   T   T
  0.5549044976514984  0.4441182488258418  0.1898375011458205   T   T   T
  0.4444247894262395  0.5555175788524994  0.0369502260864588   T   T   T
  0.6665148154955506  0.3340138832339567  0.3419741798686402   T   T   T
  0.8888976033625735  0.4444612067251252  0.1894628336412615   T   T   T
  0.7776888705876281  0.5555114352938277  0.0369573976694852   T   T   T
 -0.0000000000000000  0.6666669999999968  0.3415312844501759   T   T   T
  0.2222047932748054  0.7777693966374233  0.1894628336412615   T   T   T
  0.1111555647061762  0.8889781294123406  0.0369573976694852   T   T   T
  0.3326521167658207  0.6658339322615814  0.3419741798686402   T   T   T
  0.5554705919857339  0.7776071839714764  0.1896291662454721   T   T   T
  0.4444219576310968  0.8888779788155582  0.0369144767077534   T   T   T
  0.6665148154957424  0.6658339322616449  0.3419741798686402   T   T   T
  0.8888976033626212  0.7777693966374444  0.1894628336412615   T   T   T
  0.7777890211844576  0.8888779788155666  0.0369144767077534   T   T   T
 
  0.00000000E+00  0.00000000E+00  0.00000000E+00
  0.00000000E+00  0.00000000E+00  0.00000000E+00
  0.00000000E+00  0.00000000E+00  0.00000000E+00
  0.00000000E+00  0.00000000E+00  0.00000000E+00
  0.00000000E+00  0.00000000E+00  0.00000000E+00
  0.00000000E+00  0.00000000E+00  0.00000000E+00
  0.00000000E+00  0.00000000E+00  0.00000000E+00
  0.00000000E+00  0.00000000E+00  0.00000000E+00
  0.00000000E+00  0.00000000E+00  0.00000000E+00
  0.00000000E+00  0.00000000E+00  0.00000000E+00
  0.00000000E+00  0.00000000E+00  0.00000000E+00
  0.00000000E+00  0.00000000E+00  0.00000000E+00
  0.00000000E+00  0.00000000E+00  0.00000000E+00
  0.00000000E+00  0.00000000E+00  0.00000000E+00
  0.00000000E+00  0.00000000E+00  0.00000000E+00
  0.00000000E+00  0.00000000E+00  0.00000000E+00
  0.00000000E+00  0.00000000E+00  0.00000000E+00
  0.00000000E+00  0.00000000E+00  0.00000000E+00
  0.00000000E+00  0.00000000E+00  0.00000000E+00
  0.00000000E+00  0.00000000E+00  0.00000000E+00
  0.00000000E+00  0.00000000E+00  0.00000000E+00
  0.00000000E+00  0.00000000E+00  0.00000000E+00
  0.00000000E+00  0.00000000E+00  0.00000000E+00
  0.00000000E+00  0.00000000E+00  0.00000000E+00
  0.00000000E+00  0.00000000E+00  0.00000000E+00
  0.00000000E+00  0.00000000E+00  0.00000000E+00
  0.00000000E+00  0.00000000E+00  0.00000000E+00
  0.00000000E+00  0.00000000E+00  0.00000000E+00
  0.00000000E+00  0.00000000E+00  0.00000000E+00
  0.00000000E+00  0.00000000E+00  0.00000000E+00
  0.00000000E+00  0.00000000E+00  0.00000000E+00
  0.00000000E+00  0.00000000E+00  0.00000000E+00
  0.00000000E+00  0.00000000E+00  0.00000000E+00
  0.00000000E+00  0.00000000E+00  0.00000000E+00
  0.00000000E+00  0.00000000E+00  0.00000000E+00
  0.00000000E+00  0.00000000E+00  0.00000000E+00
  0.00000000E+00  0.00000000E+00  0.00000000E+00
  0.00000000E+00  0.00000000E+00  0.00000000E+00
  0.00000000E+00  0.00000000E+00  0.00000000E+00
  0.00000000E+00  0.00000000E+00  0.00000000E+00
  0.00000000E+00  0.00000000E+00  0.00000000E+00
  0.00000000E+00  0.00000000E+00  0.00000000E+00
  0.00000000E+00  0.00000000E+00  0.00000000E+00
  0.00000000E+00  0.00000000E+00  0.00000000E+00
  0.00000000E+00  0.00000000E+00  0.00000000E+00
  0.00000000E+00  0.00000000E+00  0.00000000E+00
  0.00000000E+00  0.00000000E+00  0.00000000E+00
  0.00000000E+00  0.00000000E+00  0.00000000E+00
  0.00000000E+00  0.00000000E+00  0.00000000E+00
  0.00000000E+00  0.00000000E+00  0.00000000E+00
  0.00000000E+00  0.00000000E+00  0.00000000E+00
  0.00000000E+00  0.00000000E+00  0.00000000E+00
  0.00000000E+00  0.00000000E+00  0.00000000E+00
  0.00000000E+00  0.00000000E+00  0.00000000E+00
  0.00000000E+00  0.00000000E+00  0.00000000E+00
  0.00000000E+00  0.00000000E+00  0.00000000E+00
  0.00000000E+00  0.00000000E+00  0.00000000E+00
  0.00000000E+00  0.00000000E+00  0.00000000E+00
  0.00000000E+00  0.00000000E+00  0.00000000E+00
  0.00000000E+00  0.00000000E+00  0.00000000E+00
  0.00000000E+00  0.00000000E+00  0.00000000E+00
  0.00000000E+00  0.00000000E+00  0.00000000E+00
  0.00000000E+00  0.00000000E+00  0.00000000E+00
  0.00000000E+00  0.00000000E+00  0.00000000E+00
  0.00000000E+00  0.00000000E+00  0.00000000E+00
  0.00000000E+00  0.00000000E+00  0.00000000E+00
  0.00000000E+00  0.00000000E+00  0.00000000E+00
  0.00000000E+00  0.00000000E+00  0.00000000E+00
  0.00000000E+00  0.00000000E+00  0.00000000E+00
  0.00000000E+00  0.00000000E+00  0.00000000E+00
  0.00000000E+00  0.00000000E+00  0.00000000E+00
  0.00000000E+00  0.00000000E+00  0.00000000E+00
  0.00000000E+00  0.00000000E+00  0.00000000E+00
  0.00000000E+00  0.00000000E+00  0.00000000E+00
  0.00000000E+00  0.00000000E+00  0.00000000E+00
  0.00000000E+00  0.00000000E+00  0.00000000E+00
  0.00000000E+00  0.00000000E+00  0.00000000E+00
  0.00000000E+00  0.00000000E+00  0.00000000E+00
  0.00000000E+00  0.00000000E+00  0.00000000E+00
  0.00000000E+00  0.00000000E+00  0.00000000E+00
  0.00000000E+00  0.00000000E+00  0.00000000E+00
