CeO2-you-111-you-Tl                     
   1.00000000000000     
     9.8666432551635399   -5.6975726413441841    0.0006440905225950
    -0.0009207012310151   11.3935485761783593   -0.0006440904046599
     0.0007394737852041   -0.0012808060634469   21.2030945078075099
   O    Tl   Ce   H 
    53     1    26     2
Selective dynamics
Direct
  0.9998178811138838  0.9995046611233102  0.9968920856717285   T   T   T
  0.1088570144005416  0.2203953111101811  0.1473782659124865   F   F   F
  0.2416605289273479  0.1221356895463066  0.3082491004996432   T   T   T
  0.1000699696178242  0.2091430920209602  0.3830975071865704   T   T   T
  0.0051550133143427  0.0019604330627902  0.2306594578909266   T   T   T
  0.2219322747901487  0.1107785165223660  0.0755308042438045   F   F   F
  0.3353479289444234  0.0014033204578065  0.9978258498262196   T   T   T
  0.4416801479023889  0.2249858520974115  0.1515737911417716   F   F   F
  0.5518553615149380  0.1129257288067928  0.3019878571113215   T   T   T
  0.4743253686006035  0.1893861505350603  0.4071822376094368   T   T   T
  0.3317858682114172 -0.0014179780347899  0.2277001761160798   T   T   T
  0.5559907176392258  0.1106762823607284  0.0786441621003107   F   F   F
  0.6657623494927298  0.0007516380805279  0.9972755928724444   T   T   T
  0.7845152231112067  0.2250969876323623  0.1521155128755893   F   F   F
  0.8809547274621108  0.1015856035230958  0.3016239675199640   T   T   T
  0.7684122093529351  0.2166043402375752  0.3835315836264095   T   T   T
  0.6645188885915312  0.0009348668400912  0.2277774531916358   T   T   T
  0.8878074965623668  0.1100578393953384  0.0755760031825403   F   F   F
  0.9980459994866990  0.3322299836788840  0.9965447874883455   T   T   T
  0.1105469997563304  0.5561200002421174  0.1476501890598882   F   F   F
  0.1243232069455659  0.5623087087989272  0.3777112382620784   T   T   T
  0.0162340865117118  0.3415040417858483  0.2331049495276593   T   T   T
  0.2223258256203238  0.4443401743801800  0.0729304353306048   F   F   F
  0.3340180385992174  0.3322668903052569  0.9964093602078324   T   T   T
  0.4462706888922838  0.5578099856001586  0.1473782659124510   F   F   F
  0.5481583618519842  0.4301625450095554  0.3088005716078963   T   T   T
  0.4332582535205703  0.5629785043841338  0.3748243587140304   T   T   T
  0.3269375547940948  0.3414335494004988  0.2247429232969812   T   T   T
  0.5558884834776379  0.4447337252096659  0.0755308042438045   F   F   F
  0.6659471748049212  0.3319551644181686  0.9979251370269140   T   T   T
  0.7778736206279859  0.5554068467238977  0.1507224528005366   F   F   F
  0.8858277910964736  0.4483894290562603  0.3032890849127663   T   T   T
  0.7784959572291805  0.5586678827616670  0.3827897984628560   T   T   T
  0.6679780876819713  0.3338950825316991  0.2279971576214508   T   T   T
  0.8881695351383811  0.4442679967508667  0.0757431329337948   F   F   F
  0.9999208800583486  0.6672144680569848  0.9970700874647531   T   T   T
  0.1112601532753956  0.8887933793711298  0.1507224528005295   F   F   F
  0.2233537653199092  0.7817676275635483  0.3017840195154335   T   T   T
  0.1100321870379408  0.8868816381443387  0.3811124498242833   T   T   T
  0.0010487901943109  0.6675943704982611  0.2288043125935002   T   T   T
  0.2223980032488200  0.7784974648611680  0.0757431329337805   F   F   F
  0.3342073754807003  0.6684909054132961  0.9967398719344255   T   T   T
  0.4415690123677294  0.8821517768884917  0.1521155128756178   F   F   F
  0.5598959424374259  0.7843027875483711  0.3018977667532821   T   T   T
  0.4454123008609333  0.8907392750302460  0.3832060862852982   T   T   T
  0.3250841166117773  0.6502498919177344  0.2345023317267263   T   T   T
  0.5566091606051984  0.7788595034379568  0.0755760031825190   F   F   F
  0.6673877746067439  0.6672727395643563  0.9966818497723493   T   T   T
  0.7775181960631272  0.8891488039373669  0.1508194274874342   F   F   F
  0.8870002294252693  0.7759814706571003  0.3023114861884619   T   T   T
  0.7748225456848152  0.8838542869270707  0.3829275983251169   T   T   T
  0.6635248111098290  0.6622389375367572  0.2306258884291665   T   T   T
  0.8886429562449152  0.7780240437548755  0.0762918988987806   F   F   F
  0.3385962731607058  0.3204555752889682  0.3729843271133273   T   T   T
 -0.0008612219350190 -0.0001760199311486  0.3432838086003238   T   T   T
  0.2223781028350444  0.1129730260695894  0.1909028177530132   F   F   F
  0.1101019415574029  0.2202506921458038  0.0349873195184571   F   F   F
  0.3312020987358846 -0.0032694105408493  0.3415731999853628   T   T   T
  0.5556066564699265  0.1110603435313493  0.1902426521129570   F   F   F
  0.4442190059879394  0.2224469940119604  0.0372707832297436   F   F   F
  0.6673085859838612  0.0009830400475332  0.3425856641820896   T   T   T
  0.8900010763085007  0.1116603464825587  0.1905748958437670   F   F   F
  0.7780971735955404  0.2222459895314088  0.0370964771128754   F   F   F
  0.9919558728965335  0.3261002835098670  0.3489881971228422   T   T   T
  0.2228103473239926  0.4438556526724682  0.1822572209935842   F   F   F
  0.1101433380669832  0.5565236619328218  0.0351893796302107   F   F   F
  0.5536939739287092  0.4442878971636404  0.1909028177530274   F   F   F
  0.4464153078539965  0.5565650584424660  0.0349873195184642   F   F   F
  0.6717346411117143  0.3362646016224543  0.3420066581954682   T   T   T
  0.8898359723919356  0.4448183636143810  0.1905192354996075   F   F   F
  0.7772143116183869  0.5547610581699942  0.0374248089533253   F   F   F
 -0.0005899003002162  0.6670297852803619  0.3416997827447648   T   T   T
  0.2218476363885244  0.7768310276128716  0.1905192354996430   F   F   F
  0.1119059418305639  0.8894526883819367  0.0374248089533182   F   F   F
  0.3395029071807606  0.6795745129628818  0.3449745621195357   T   T   T
  0.5550066535142690  0.7766659236911835  0.1905748958438167   F   F   F
  0.4444200104684128  0.8885698264046979  0.0370964771128826   F   F   F
  0.6638491589265024  0.6643051342196157  0.3423333352806820   T   T   T
  0.8889017139665114  0.7777652860342741  0.1888934358846868   F   F   F
  0.7773828065435566  0.8892841934560494  0.0370758482889357   F   F   F
  0.3752473389378860  0.3354195102932539  0.4570286026422834   T   T   T
  0.4584441329885237  0.2088508830663493  0.4500271227581396   T   T   T
 
  0.00000000E+00  0.00000000E+00  0.00000000E+00
  0.00000000E+00  0.00000000E+00  0.00000000E+00
  0.00000000E+00  0.00000000E+00  0.00000000E+00
  0.00000000E+00  0.00000000E+00  0.00000000E+00
  0.00000000E+00  0.00000000E+00  0.00000000E+00
  0.00000000E+00  0.00000000E+00  0.00000000E+00
  0.00000000E+00  0.00000000E+00  0.00000000E+00
  0.00000000E+00  0.00000000E+00  0.00000000E+00
  0.00000000E+00  0.00000000E+00  0.00000000E+00
  0.00000000E+00  0.00000000E+00  0.00000000E+00
  0.00000000E+00  0.00000000E+00  0.00000000E+00
  0.00000000E+00  0.00000000E+00  0.00000000E+00
  0.00000000E+00  0.00000000E+00  0.00000000E+00
  0.00000000E+00  0.00000000E+00  0.00000000E+00
  0.00000000E+00  0.00000000E+00  0.00000000E+00
  0.00000000E+00  0.00000000E+00  0.00000000E+00
  0.00000000E+00  0.00000000E+00  0.00000000E+00
  0.00000000E+00  0.00000000E+00  0.00000000E+00
  0.00000000E+00  0.00000000E+00  0.00000000E+00
  0.00000000E+00  0.00000000E+00  0.00000000E+00
  0.00000000E+00  0.00000000E+00  0.00000000E+00
  0.00000000E+00  0.00000000E+00  0.00000000E+00
  0.00000000E+00  0.00000000E+00  0.00000000E+00
  0.00000000E+00  0.00000000E+00  0.00000000E+00
  0.00000000E+00  0.00000000E+00  0.00000000E+00
  0.00000000E+00  0.00000000E+00  0.00000000E+00
  0.00000000E+00  0.00000000E+00  0.00000000E+00
  0.00000000E+00  0.00000000E+00  0.00000000E+00
  0.00000000E+00  0.00000000E+00  0.00000000E+00
  0.00000000E+00  0.00000000E+00  0.00000000E+00
  0.00000000E+00  0.00000000E+00  0.00000000E+00
  0.00000000E+00  0.00000000E+00  0.00000000E+00
  0.00000000E+00  0.00000000E+00  0.00000000E+00
  0.00000000E+00  0.00000000E+00  0.00000000E+00
  0.00000000E+00  0.00000000E+00  0.00000000E+00
  0.00000000E+00  0.00000000E+00  0.00000000E+00
  0.00000000E+00  0.00000000E+00  0.00000000E+00
  0.00000000E+00  0.00000000E+00  0.00000000E+00
  0.00000000E+00  0.00000000E+00  0.00000000E+00
  0.00000000E+00  0.00000000E+00  0.00000000E+00
  0.00000000E+00  0.00000000E+00  0.00000000E+00
  0.00000000E+00  0.00000000E+00  0.00000000E+00
  0.00000000E+00  0.00000000E+00  0.00000000E+00
  0.00000000E+00  0.00000000E+00  0.00000000E+00
  0.00000000E+00  0.00000000E+00  0.00000000E+00
  0.00000000E+00  0.00000000E+00  0.00000000E+00
  0.00000000E+00  0.00000000E+00  0.00000000E+00
  0.00000000E+00  0.00000000E+00  0.00000000E+00
  0.00000000E+00  0.00000000E+00  0.00000000E+00
  0.00000000E+00  0.00000000E+00  0.00000000E+00
  0.00000000E+00  0.00000000E+00  0.00000000E+00
  0.00000000E+00  0.00000000E+00  0.00000000E+00
  0.00000000E+00  0.00000000E+00  0.00000000E+00
  0.00000000E+00  0.00000000E+00  0.00000000E+00
  0.00000000E+00  0.00000000E+00  0.00000000E+00
  0.00000000E+00  0.00000000E+00  0.00000000E+00
  0.00000000E+00  0.00000000E+00  0.00000000E+00
  0.00000000E+00  0.00000000E+00  0.00000000E+00
  0.00000000E+00  0.00000000E+00  0.00000000E+00
  0.00000000E+00  0.00000000E+00  0.00000000E+00
  0.00000000E+00  0.00000000E+00  0.00000000E+00
  0.00000000E+00  0.00000000E+00  0.00000000E+00
  0.00000000E+00  0.00000000E+00  0.00000000E+00
  0.00000000E+00  0.00000000E+00  0.00000000E+00
  0.00000000E+00  0.00000000E+00  0.00000000E+00
  0.00000000E+00  0.00000000E+00  0.00000000E+00
  0.00000000E+00  0.00000000E+00  0.00000000E+00
  0.00000000E+00  0.00000000E+00  0.00000000E+00
  0.00000000E+00  0.00000000E+00  0.00000000E+00
  0.00000000E+00  0.00000000E+00  0.00000000E+00
  0.00000000E+00  0.00000000E+00  0.00000000E+00
  0.00000000E+00  0.00000000E+00  0.00000000E+00
  0.00000000E+00  0.00000000E+00  0.00000000E+00
  0.00000000E+00  0.00000000E+00  0.00000000E+00
  0.00000000E+00  0.00000000E+00  0.00000000E+00
  0.00000000E+00  0.00000000E+00  0.00000000E+00
  0.00000000E+00  0.00000000E+00  0.00000000E+00
  0.00000000E+00  0.00000000E+00  0.00000000E+00
  0.00000000E+00  0.00000000E+00  0.00000000E+00
  0.00000000E+00  0.00000000E+00  0.00000000E+00
  0.00000000E+00  0.00000000E+00  0.00000000E+00
  0.00000000E+00  0.00000000E+00  0.00000000E+00
