CeO2-you-111-you-Bi                     
   1.00000000000000     
     9.8692771926929161   -5.6901123005032259   -0.0022150946831396
     0.0068571100569485   11.3920994606020543    0.0022150943224671
    -0.0022146511767568    0.0038358882388099   21.2088272741057509
   O    Bi   Ce
    53     1    26
Selective dynamics
Direct
 -0.0003011167086896 -0.0005134021720263  0.9971625120059903   T   T   T
  0.1100550900848924  0.2211313907330173  0.1472554323810846   T   T   T
  0.2242096590906598  0.1082916993131279  0.3019745974830186   T   T   T
  0.1021064745561522  0.2166087226335684  0.3795665923694440   T   T   T
  0.0008156640826148  0.0014358022529927  0.2288852149214295   T   T   T
  0.2218321142191378  0.1103038369074146  0.0756233945251977   T   T   T
  0.3352660371810992  0.0011124709663649  0.9980343108852522   T   T   T
  0.4413718058861895  0.2252941941132758  0.1515521426086310   T   T   T
  0.5550337836484475  0.1116332163508894  0.3021632430920334   T   T   T
  0.4485936673295233  0.2180723326718053  0.3853683949670402   T   T   T
  0.3342474166252783  0.0001564563597850  0.2274288853687692   T   T   T
  0.5559497031190851  0.1107172968809044  0.0785859412205926   T   T   T
  0.6657859996584046  0.0008810003420544  0.9976894435004648   T   T   T
  0.7850563527355519  0.2264388481654317  0.1518011497162362   T   T   T
  0.8814858209510064  0.1062581083166421  0.3013683710591549   T   T   T
  0.7711377359875513  0.2192548485922526  0.3843102258502736   T   T   T
  0.6653004556898972  0.0013665443096367  0.2265671550806523   T   T   T
  0.8881154826768248  0.1102069890118972  0.0755158419890889   T   T   T
 -0.0019652695983878  0.3323641146937784  0.9965808216184188   T   T   T
  0.1103567119208883  0.5563102880773095  0.1475017366888120   T   T   T
  0.1170847670285730  0.5495822329699181  0.3756747231817984   T   T   T
  0.0182333784723312  0.3422433285405196  0.2340198258550445   T   T   T
  0.2221417778826135  0.4445242221177118  0.0726163789920874   T   T   T
  0.3344048989216346  0.3322611010783194  0.9966706537687652   T   T   T
  0.4455346092691990  0.5566119099159278  0.1472554323808692   T   T   T
  0.5583753006867781  0.4424563409092528  0.3019745974831620   T   T   T
  0.4500572773699566  0.5645605254470070  0.3795665923694382   T   T   T
  0.3250493261629326  0.3416166738387552  0.2325783795264290   T   T   T
  0.5563631630928668  0.4448338857809259  0.0756233945252024   T   T   T
  0.6655545290333886  0.3313999628185280  0.9980343108852385   T   T   T
  0.7781302777926451  0.5556350653733854  0.1508516944901037   T   T   T
  0.8837865479690103  0.4442046503347442  0.3026118651099374   T   T   T
  0.7801424909461870  0.5580085036088249  0.3818847373205587   T   T   T
  0.6665105436395066  0.3324185833748131  0.2274288853688324   T   T   T
  0.8885395237133207  0.4446896372477714  0.0755047257793758   T   T   T
 -0.0006370689689208  0.6673040689683049  0.9971610559680633   T   T   T
  0.1110319346259501  0.8885367222065936  0.1508516944900827   T   T   T
  0.2224613496633560  0.7828804520277544  0.3026118651098961   T   T   T
  0.1086584963910918  0.8865245090529396  0.3818847373205327   T   T   T
  0.0006702221020449  0.6659967778968634  0.2291332678403589   T   T   T
  0.2219763627519273  0.7781274762862715  0.0755047257793405   T   T   T
  0.3343018853064048  0.6686322695985732  0.9965808216183851   T   T   T
  0.4402271518348645  0.8816106472645678  0.1518011497163338   T   T   T
  0.5604088916853723  0.7851811790483781  0.3013683710591110   T   T   T
  0.4474111514071256  0.8955292640085873  0.3843102258499612   T   T   T
  0.3244226714592163  0.6484336215275486  0.2340198258549115   T   T   T
  0.5564600109884064  0.7785515173231741  0.0755158419890718   T   T   T
  0.6671804021722741  0.6669681167086942  0.9971625120059586   T   T   T
  0.7775501942257218  0.8891168057745946  0.1510026564920525   T   T   T
  0.8888388735336642  0.7778281264657760  0.3020577424301195   T   T   T
  0.7778880945066536  0.8887789054935832  0.3820267924571124   T   T   T
  0.6652311977478130  0.6658513359179531  0.2288852149214495   T   T   T
  0.8886631046613351  0.7780038953385542  0.0765182011529626   T   T   T
  0.3417351338718741  0.3249308661253912  0.3465970408345362   T   T   T
 -0.0005499887977897  0.0005653184082437  0.3425370758903611   T   T   T
  0.2216217743452273  0.1118340844514467  0.1903988292350837   T   T   T
  0.1099979323908502  0.2201909777135354  0.0348985583614862   T   T   T
  0.3325400488379165 -0.0001944043207615  0.3422825758272924   T   T   T
  0.5553740128019130  0.1112929871991782  0.1900859581486830   T   T   T
  0.4443122729599563  0.2223537270400694  0.0372456039543105   T   T   T
  0.6662565907967590  0.0004104092035648  0.3421829533379888   T   T   T
  0.8898531187205913  0.1117756721376978  0.1903231341272156   T   T   T
  0.7780498380057722  0.2224007124652922  0.0371797927708793   T   T   T
 -0.0122427302295043  0.3251193925236609  0.3473209466771965   T   T   T
  0.2222308921073703  0.4444351078896614  0.1817618418123740   T   T   T
  0.1099784600258016  0.5566885399743096  0.0348696308777164   T   T   T
  0.5548329155468923  0.4450442256536800  0.1903988292351384   T   T   T
  0.4464750222860229  0.5566690676087492  0.0348985583614942   T   T   T
  0.6668614043242795  0.3341259511633917  0.3422825758273315   T   T   T
  0.8901327798114852  0.4449180547698866  0.1906365224785743   T   T   T
  0.7774826773698178  0.5551398267992150  0.0375040908865183   T   T   T
 -0.0004557446631581  0.6671227446663577  0.3414741818976720   T   T   T
  0.2217479452327459  0.7765342201929691  0.1906365224786103   T   T   T
  0.1115271732014080  0.8891843226304986  0.0375040908865113   T   T   T
  0.3415466074753057  0.6789097302316458  0.3473209466778035   T   T   T
  0.5548913278591666  0.7768138812791457  0.1903231341273292   T   T   T
  0.4442652875346048  0.8886171619943583  0.0371797927709127   T   T   T
  0.6661016815904690  0.6672169887962608  0.3425370758901540   T   T   T
  0.8886660970281561  0.7780009029726216  0.1896426936095133   T   T   T
  0.7774385423546919  0.8892284576446954  0.0372727365932937   T   T   T
 
  0.00000000E+00  0.00000000E+00  0.00000000E+00
  0.00000000E+00  0.00000000E+00  0.00000000E+00
  0.00000000E+00  0.00000000E+00  0.00000000E+00
  0.00000000E+00  0.00000000E+00  0.00000000E+00
  0.00000000E+00  0.00000000E+00  0.00000000E+00
  0.00000000E+00  0.00000000E+00  0.00000000E+00
  0.00000000E+00  0.00000000E+00  0.00000000E+00
  0.00000000E+00  0.00000000E+00  0.00000000E+00
  0.00000000E+00  0.00000000E+00  0.00000000E+00
  0.00000000E+00  0.00000000E+00  0.00000000E+00
  0.00000000E+00  0.00000000E+00  0.00000000E+00
  0.00000000E+00  0.00000000E+00  0.00000000E+00
  0.00000000E+00  0.00000000E+00  0.00000000E+00
  0.00000000E+00  0.00000000E+00  0.00000000E+00
  0.00000000E+00  0.00000000E+00  0.00000000E+00
  0.00000000E+00  0.00000000E+00  0.00000000E+00
  0.00000000E+00  0.00000000E+00  0.00000000E+00
  0.00000000E+00  0.00000000E+00  0.00000000E+00
  0.00000000E+00  0.00000000E+00  0.00000000E+00
  0.00000000E+00  0.00000000E+00  0.00000000E+00
  0.00000000E+00  0.00000000E+00  0.00000000E+00
  0.00000000E+00  0.00000000E+00  0.00000000E+00
  0.00000000E+00  0.00000000E+00  0.00000000E+00
  0.00000000E+00  0.00000000E+00  0.00000000E+00
  0.00000000E+00  0.00000000E+00  0.00000000E+00
  0.00000000E+00  0.00000000E+00  0.00000000E+00
  0.00000000E+00  0.00000000E+00  0.00000000E+00
  0.00000000E+00  0.00000000E+00  0.00000000E+00
  0.00000000E+00  0.00000000E+00  0.00000000E+00
  0.00000000E+00  0.00000000E+00  0.00000000E+00
  0.00000000E+00  0.00000000E+00  0.00000000E+00
  0.00000000E+00  0.00000000E+00  0.00000000E+00
  0.00000000E+00  0.00000000E+00  0.00000000E+00
  0.00000000E+00  0.00000000E+00  0.00000000E+00
  0.00000000E+00  0.00000000E+00  0.00000000E+00
  0.00000000E+00  0.00000000E+00  0.00000000E+00
  0.00000000E+00  0.00000000E+00  0.00000000E+00
  0.00000000E+00  0.00000000E+00  0.00000000E+00
  0.00000000E+00  0.00000000E+00  0.00000000E+00
  0.00000000E+00  0.00000000E+00  0.00000000E+00
  0.00000000E+00  0.00000000E+00  0.00000000E+00
  0.00000000E+00  0.00000000E+00  0.00000000E+00
  0.00000000E+00  0.00000000E+00  0.00000000E+00
  0.00000000E+00  0.00000000E+00  0.00000000E+00
  0.00000000E+00  0.00000000E+00  0.00000000E+00
  0.00000000E+00  0.00000000E+00  0.00000000E+00
  0.00000000E+00  0.00000000E+00  0.00000000E+00
  0.00000000E+00  0.00000000E+00  0.00000000E+00
  0.00000000E+00  0.00000000E+00  0.00000000E+00
  0.00000000E+00  0.00000000E+00  0.00000000E+00
  0.00000000E+00  0.00000000E+00  0.00000000E+00
  0.00000000E+00  0.00000000E+00  0.00000000E+00
  0.00000000E+00  0.00000000E+00  0.00000000E+00
  0.00000000E+00  0.00000000E+00  0.00000000E+00
  0.00000000E+00  0.00000000E+00  0.00000000E+00
  0.00000000E+00  0.00000000E+00  0.00000000E+00
  0.00000000E+00  0.00000000E+00  0.00000000E+00
  0.00000000E+00  0.00000000E+00  0.00000000E+00
  0.00000000E+00  0.00000000E+00  0.00000000E+00
  0.00000000E+00  0.00000000E+00  0.00000000E+00
  0.00000000E+00  0.00000000E+00  0.00000000E+00
  0.00000000E+00  0.00000000E+00  0.00000000E+00
  0.00000000E+00  0.00000000E+00  0.00000000E+00
  0.00000000E+00  0.00000000E+00  0.00000000E+00
  0.00000000E+00  0.00000000E+00  0.00000000E+00
  0.00000000E+00  0.00000000E+00  0.00000000E+00
  0.00000000E+00  0.00000000E+00  0.00000000E+00
  0.00000000E+00  0.00000000E+00  0.00000000E+00
  0.00000000E+00  0.00000000E+00  0.00000000E+00
  0.00000000E+00  0.00000000E+00  0.00000000E+00
  0.00000000E+00  0.00000000E+00  0.00000000E+00
  0.00000000E+00  0.00000000E+00  0.00000000E+00
  0.00000000E+00  0.00000000E+00  0.00000000E+00
  0.00000000E+00  0.00000000E+00  0.00000000E+00
  0.00000000E+00  0.00000000E+00  0.00000000E+00
  0.00000000E+00  0.00000000E+00  0.00000000E+00
  0.00000000E+00  0.00000000E+00  0.00000000E+00
  0.00000000E+00  0.00000000E+00  0.00000000E+00
  0.00000000E+00  0.00000000E+00  0.00000000E+00
  0.00000000E+00  0.00000000E+00  0.00000000E+00
