CeO2-you-111-you-Ni                     
   1.00000000000000     
     9.8864953867214354   -5.7079711474224455   -0.0000000012273416
    -0.0378154252860952   11.3504420522509726   -0.0235540315798074
    -0.0256574251026684   -0.0444399563412426   20.9875683142953342
   O    Ni   Ce   H 
    53     1    26     1
Selective dynamics
Direct
  0.0000707508995005  0.0003286100530415  0.9937832292383956   T   T   T
  0.1087659616563788  0.2209844670213389  0.1472331470551443   T   T   T
  0.2395298320047357  0.1323223653140811  0.3085328720368633   T   T   T
  0.0704119573106413  0.2024626080873921  0.3933666296003752   T   T   T
  0.0077368222940346  0.0040158290928076  0.2289643495374157   T   T   T
  0.2228546465854089  0.1111208264453332  0.0731524717140779   T   T   T
  0.3340263403182268 -0.0002467438117525  0.9938859085344151   T   T   T
  0.4466821687723772  0.2215641387973565  0.1483609778581470   T   T   T
  0.5486396777073053  0.1074967261435299  0.3043743763513458   T   T   T
  0.4588789537677500  0.1881948705047884  0.4124615133557282   T   T   T
  0.3287033415565139 -0.0003661895363610  0.2283245764246174   T   T   T
  0.5575833439751443  0.1111047361225331  0.0745258701533806   T   T   T
  0.6662390376010069  0.9985953502698266  0.9937892202061314   T   T   T
  0.7778575671088089  0.2214042124475102  0.1532630144596203   T   T   T
  0.8868152645071488  0.1089909204595665  0.3000880697464655   T   T   T
  0.7811157655839471  0.2121647238870890  0.3851615680526803   T   T   T
  0.6606917084681190  0.9923080280738118  0.2314747645799498   T   T   T
  0.8870303043513367  0.1106960396123213  0.0737374000707624   T   T   T
  0.0003608618845907  0.3326910493923666  0.9943895472577483   T   T   T
  0.1098726378166508  0.5551705913365503  0.1486295766609730   T   T   T
  0.2475607850779226  0.4497058954817588  0.3132378132752143   T   T   T
  0.1136054038007696  0.5593297264172696  0.3842638169086814   T   T   T
  0.0104802797848428  0.3385918558679495  0.2312275679427895   T   T   T
  0.2231798545796479  0.4458230410263418  0.0741100370568874   T   T   T
  0.3334086219686246  0.3332382059154699  0.9944445306989357   T   T   T
  0.4470915047347953  0.5592242319188228  0.1484738673119723   T   T   T
  0.5306454314939867  0.4522687465361658  0.3171309841373482   T   T   T
  0.3342959383861684  0.3351558787428925  0.2209071371530601   T   T   T
  0.5557841230635245  0.4446525213848325  0.0744264573006400   T   T   T
  0.6661507397959230  0.3322345232180999  0.9944435242918224   T   T   T
  0.7795875611562901  0.5562826838726689  0.1485458936571662   T   T   T
  0.8940787620188244  0.4464473342958830  0.3049526058754271   T   T   T
  0.7888434658219443  0.5732919504334160  0.3862220463731567   T   T   T
  0.6637783225578807  0.3392052549287798  0.2307714578610424   T   T   T
  0.8879708432046588  0.4424306327636773  0.0745706759442931   T   T   T
  0.9981424340071048  0.6642611914975339  0.9936619086721952   T   T   T
  0.1107174338649358  0.8882200802347251  0.1464673092305706   T   T   T
  0.2203593841137018  0.7779425550720939  0.3020514147017452   T   T   T
  0.1157164414166934  0.8928949500635923  0.3832677084088503   T   T   T
  0.0007532659449427  0.6685437048933189  0.2283485798583444   T   T   T
  0.2217657055280303  0.7771595471513371  0.0726009216980018   T   T   T
  0.3340313138946610  0.6663683493166459  0.9940260828825215   T   T   T
  0.4438726012889563  0.8888241498225559  0.1492818128897013   T   T   T
  0.5462809209606900  0.7591475001406169  0.3113518612167300   T   T   T
  0.4395489428819151  0.8843429357785922  0.3830559852477189   T   T   T
  0.3313526398114003  0.6669165081045573  0.2283046236510066   T   T   T
  0.5565373468145803  0.7794065237093929  0.0745044894589789   T   T   T
  0.6655523055006721  0.6661196851853906  0.9943584669819950   T   T   T
  0.7791700894983214  0.8899044998854878  0.1496764635412372   T   T   T
  0.8945666491747524  0.7827051258280580  0.3018286956389438   T   T   T
  0.7800788056943414  0.8903090908625120  0.3831741438085979   T   T   T
  0.6703551913935739  0.6678151743220838  0.2286871840393349   T   T   T
  0.8890337729017229  0.7785585406132740  0.0725553246599201   T   T   T
  0.3295405663576417  0.3317365724318929  0.3135539688538386   T   T   T
  0.0063917012418189  0.0103299070747553  0.3455745865276970   T   T   T
  0.2229529608051543  0.1110984852613866  0.1876382684905740   T   T   T
  0.1109921971778437  0.2217530763746946  0.0338731090103297   T   T   T
  0.3311779318395631 -0.0001184546061434  0.3444168986111839   T   T   T
  0.5544133600288444  0.1115246850088364  0.1916058691125765   T   T   T
  0.4449490673897482  0.2215219253443545  0.0342615980047879   T   T   T
  0.6661641886434397 -0.0002275071841438  0.3454155324660275   T   T   T
  0.8904722199605931  0.1115474622524144  0.1900347788600706   T   T   T
  0.7773615384119251  0.2213216681374382  0.0351919867563067   T   T   T
  0.0006494469348641  0.3283778369704134  0.3471837927561603   T   T   T
  0.2226210901953164  0.4455549000110193  0.1877197510194173   T   T   T
  0.1098989348529957  0.5540369979942661  0.0339184108404576   T   T   T
  0.5574079127236375  0.4458554050731452  0.1882732974960783   T   T   T
  0.4445920683228758  0.5556621240965047  0.0337169042041959   T   T   T
  0.6665140553967467  0.3356107408414459  0.3501429636653371   T   T   T
  0.8890533740308223  0.4446037742451596  0.1920542016240794   T   T   T
  0.7777397883887857  0.5544201197330600  0.0343436421138716   T   T   T
  0.0010155339959041  0.6679417370480896  0.3438027467137557   T   T   T
  0.2212671961924342  0.7784526230225539  0.1868734789107714   T   T   T
  0.1108342700508563  0.8884137017901111  0.0325980791545308   T   T   T
  0.3233719311694963  0.6692431984329118  0.3403450300139067   T   T   T
  0.5553594671757520  0.7774275451972825  0.1891852294193009   T   T   T
  0.4449071590199255  0.8885601321730002  0.0340988020784753   T   T   T
  0.6832843814495839  0.6743034074593945  0.3404514729721009   T   T   T
  0.8919254989750788  0.7800402132438603  0.1876155072289398   T   T   T
  0.7773104680546421  0.8887661199770091  0.0339292692296126   T   T   T
  0.4218218649073025  0.2143798475963898  0.4478373485966577   T   T   T
 
  0.00000000E+00  0.00000000E+00  0.00000000E+00
  0.00000000E+00  0.00000000E+00  0.00000000E+00
  0.00000000E+00  0.00000000E+00  0.00000000E+00
  0.00000000E+00  0.00000000E+00  0.00000000E+00
  0.00000000E+00  0.00000000E+00  0.00000000E+00
  0.00000000E+00  0.00000000E+00  0.00000000E+00
  0.00000000E+00  0.00000000E+00  0.00000000E+00
  0.00000000E+00  0.00000000E+00  0.00000000E+00
  0.00000000E+00  0.00000000E+00  0.00000000E+00
  0.00000000E+00  0.00000000E+00  0.00000000E+00
  0.00000000E+00  0.00000000E+00  0.00000000E+00
  0.00000000E+00  0.00000000E+00  0.00000000E+00
  0.00000000E+00  0.00000000E+00  0.00000000E+00
  0.00000000E+00  0.00000000E+00  0.00000000E+00
  0.00000000E+00  0.00000000E+00  0.00000000E+00
  0.00000000E+00  0.00000000E+00  0.00000000E+00
  0.00000000E+00  0.00000000E+00  0.00000000E+00
  0.00000000E+00  0.00000000E+00  0.00000000E+00
  0.00000000E+00  0.00000000E+00  0.00000000E+00
  0.00000000E+00  0.00000000E+00  0.00000000E+00
  0.00000000E+00  0.00000000E+00  0.00000000E+00
  0.00000000E+00  0.00000000E+00  0.00000000E+00
  0.00000000E+00  0.00000000E+00  0.00000000E+00
  0.00000000E+00  0.00000000E+00  0.00000000E+00
  0.00000000E+00  0.00000000E+00  0.00000000E+00
  0.00000000E+00  0.00000000E+00  0.00000000E+00
  0.00000000E+00  0.00000000E+00  0.00000000E+00
  0.00000000E+00  0.00000000E+00  0.00000000E+00
  0.00000000E+00  0.00000000E+00  0.00000000E+00
  0.00000000E+00  0.00000000E+00  0.00000000E+00
  0.00000000E+00  0.00000000E+00  0.00000000E+00
  0.00000000E+00  0.00000000E+00  0.00000000E+00
  0.00000000E+00  0.00000000E+00  0.00000000E+00
  0.00000000E+00  0.00000000E+00  0.00000000E+00
  0.00000000E+00  0.00000000E+00  0.00000000E+00
  0.00000000E+00  0.00000000E+00  0.00000000E+00
  0.00000000E+00  0.00000000E+00  0.00000000E+00
  0.00000000E+00  0.00000000E+00  0.00000000E+00
  0.00000000E+00  0.00000000E+00  0.00000000E+00
  0.00000000E+00  0.00000000E+00  0.00000000E+00
  0.00000000E+00  0.00000000E+00  0.00000000E+00
  0.00000000E+00  0.00000000E+00  0.00000000E+00
  0.00000000E+00  0.00000000E+00  0.00000000E+00
  0.00000000E+00  0.00000000E+00  0.00000000E+00
  0.00000000E+00  0.00000000E+00  0.00000000E+00
  0.00000000E+00  0.00000000E+00  0.00000000E+00
  0.00000000E+00  0.00000000E+00  0.00000000E+00
  0.00000000E+00  0.00000000E+00  0.00000000E+00
  0.00000000E+00  0.00000000E+00  0.00000000E+00
  0.00000000E+00  0.00000000E+00  0.00000000E+00
  0.00000000E+00  0.00000000E+00  0.00000000E+00
  0.00000000E+00  0.00000000E+00  0.00000000E+00
  0.00000000E+00  0.00000000E+00  0.00000000E+00
  0.00000000E+00  0.00000000E+00  0.00000000E+00
  0.00000000E+00  0.00000000E+00  0.00000000E+00
  0.00000000E+00  0.00000000E+00  0.00000000E+00
  0.00000000E+00  0.00000000E+00  0.00000000E+00
  0.00000000E+00  0.00000000E+00  0.00000000E+00
  0.00000000E+00  0.00000000E+00  0.00000000E+00
  0.00000000E+00  0.00000000E+00  0.00000000E+00
  0.00000000E+00  0.00000000E+00  0.00000000E+00
  0.00000000E+00  0.00000000E+00  0.00000000E+00
  0.00000000E+00  0.00000000E+00  0.00000000E+00
  0.00000000E+00  0.00000000E+00  0.00000000E+00
  0.00000000E+00  0.00000000E+00  0.00000000E+00
  0.00000000E+00  0.00000000E+00  0.00000000E+00
  0.00000000E+00  0.00000000E+00  0.00000000E+00
  0.00000000E+00  0.00000000E+00  0.00000000E+00
  0.00000000E+00  0.00000000E+00  0.00000000E+00
  0.00000000E+00  0.00000000E+00  0.00000000E+00
  0.00000000E+00  0.00000000E+00  0.00000000E+00
  0.00000000E+00  0.00000000E+00  0.00000000E+00
  0.00000000E+00  0.00000000E+00  0.00000000E+00
  0.00000000E+00  0.00000000E+00  0.00000000E+00
  0.00000000E+00  0.00000000E+00  0.00000000E+00
  0.00000000E+00  0.00000000E+00  0.00000000E+00
  0.00000000E+00  0.00000000E+00  0.00000000E+00
  0.00000000E+00  0.00000000E+00  0.00000000E+00
  0.00000000E+00  0.00000000E+00  0.00000000E+00
  0.00000000E+00  0.00000000E+00  0.00000000E+00
  0.00000000E+00  0.00000000E+00  0.00000000E+00
