CeO2-you-111-you-Ta                     
   1.00000000000000     
     9.8393223069295956   -5.6807357535649050    0.0000000000000000
     0.0000000006808483   11.3614695089314210    0.0000000000000000
     0.0000000000000000    0.0000000000000000   21.0734325691210280
   O    Ta   Ce   H 
    54     1    26     1
Selective dynamics
Direct
 -0.0000797702088260 -0.0000381924968603  0.9954082414785812   T   T   T
  0.1158746519592526  0.2246038259798624  0.1514761587931801   F   F   F
  0.2346952521018179  0.1290239156267725  0.3036135266240163   T   T   T
  0.1474199590621364  0.2445270632357312  0.3796511110774899   T   T   T
  0.0015788212995268 -0.0004417551364741  0.2299033085968015   T   T   T
  0.2221423670903775  0.1109517341806310  0.0748014045582295   F   F   F
  0.3336328911791065  0.9998454173868541  0.9956182052998539   T   T   T
  0.4420621740206059  0.2246038259800685  0.1514761587931801   F   F   F
  0.5575618964746988  0.1086562273564021  0.3071021560993021   T   T   T
  0.4162225339684343  0.2511479500039078  0.3958910915103762   T   T   T
  0.3319830662795332  0.9975189858075891  0.2283101340953797   T   T   T
  0.5543190041569730  0.1123479958428106  0.0760013358053655   F   F   F
  0.6669531925737469 -0.0001704758935932  0.9966337362877588   T   T   T
  0.7767064725864472  0.2200789451725740  0.1496442373718594   F   F   F
  0.8972243645426270  0.1126224674371719  0.3058610983845352   T   T   T
  0.7900754364139161  0.2162242178731506  0.3877405966361543   T   T   T
  0.6684313433173631 -0.0015707547578082  0.2311698683293769   T   T   T
  0.8913629916859094  0.1123479958428817  0.0760013358053655   F   F   F
  0.9994703222835167  0.3327592873894745  0.9956238259487035   T   T   T
  0.1113967377453022  0.5552702622547514  0.1495167319910493   F   F   F
  0.2253493623293780  0.4414419661701339  0.3024465643245336   T   T   T
  0.1138683151301211  0.5522192162108009  0.3853762922012181   T   T   T
 -0.0006079361296115  0.3328264948496015  0.2299075024712305   T   T   T
  0.2221423670906475  0.4445236329097426  0.0748014045582295   F   F   F
  0.3331631436489857  0.3331776082137168  0.9955861445827230   T   T   T
  0.4420621740201369  0.5507923480400763  0.1514761587931801   F   F   F
  0.5375326785350947  0.4318207170930443  0.3034516717710830   T   T   T
  0.4225728174937709  0.5191562417399753  0.3797218593951295   T   T   T
  0.3301188809847726  0.3369181573391067  0.2355793382650979   T   T   T
  0.5557152658189821  0.4445236329096218  0.0748014045582295   F   F   F
  0.6671880304947129  0.3327834271450672  0.9954647364982495   T   T   T
  0.7772065245094311  0.5552702622547372  0.1495167319910493   F   F   F
  0.8948209134952440  0.4470556755404768  0.3053143841378880   T   T   T
  0.7807307501983997  0.5676983528701647  0.3845596356700607   T   T   T
  0.6688242267990046  0.3342625695153439  0.2281597676475730   T   T   T
  0.8886536624973971  0.4439733249947082  0.0750845072524058   F   F   F
 -0.0000841728842092  0.6668635363674301  0.9955830324014950   T   T   T
  0.1113967377452667  0.8894604754905231  0.1495167319910493   F   F   F
  0.2195834291280852  0.7714882325458594  0.3054002105953113   T   T   T
  0.0986656832468016  0.8859391099978600  0.3850249035635774   T   T   T
 -0.0001263766919236  0.6670699821352007  0.2285610696292039   T   T   T
  0.2226926750050140  0.7780133375025997  0.0750845072524058   F   F   F
  0.3335980400726349  0.6673845959637454  0.9954554082765366   T   T   T
  0.4465870548263666  0.8899605274135496  0.1496442373718594   F   F   F
  0.5541585793081847  0.7693904006390684  0.3059794386105864   T   T   T
  0.4507788453378327  0.8766096508605010  0.3877443114173861   T   T   T
  0.3338922068836009  0.6675617603892574  0.2300714065387486   T   T   T
  0.5543190041571222  0.7753040083143077  0.0760013358053655   F   F   F
  0.6670865506067630  0.6672815204358742  0.9956319316591137   T   T   T
  0.7767064725871791  0.8899605274138764  0.1496442373718594   F   F   F
  0.8892237847184215  0.7785392712288464  0.3023721533311070   T   T   T
  0.7803691151667519  0.8864322355970606  0.3832437379604517   T   T   T
  0.6676593165453202  0.6652676056902909  0.2299295566771401   T   T   T
  0.8886536624975889  0.7780133375026850  0.0750845072524058   F   F   F
  0.3243656306750753  0.3424447634031046  0.3323767713940010   T   T   T
  0.0045217669846600  0.0001824331129997  0.3431561933380587   T   T   T
  0.2212020196646165  0.1090710393292724  0.1905332813400165   F   F   F
  0.1115049493524936  0.2224189746765717  0.0358365035448145   F   F   F
  0.3313727193784994  0.9961269576756967  0.3465128649223772   T   T   T
  0.5555201719655614  0.1111468280358849  0.1905550114787431   F   F   F
  0.4442470253240742  0.2224189746768630  0.0358365035448145   F   F   F
  0.6687534088072796 -0.0020215830904862  0.3461511140992518   T   T   T
  0.8889606560698837  0.1111468280354444  0.1905550114787431   F   F   F
  0.7777874016558357  0.2222408033117773  0.0359583323602664   F   F   F
  0.0010169539647929  0.3337667821886637  0.3455601219601576   T   T   T
  0.2212020196645312  0.4454639803353402  0.1905332813400165   F   F   F
  0.1112810276663225  0.5553859723331627  0.0351083957194973   F   F   F
  0.5575959606708594  0.4454639803353828  0.1905332813400165   F   F   F
  0.4442470253234276  0.5551620506465724  0.0358365035448145   F   F   F
  0.6701899288900607  0.3349103389603852  0.3464461727911223   T   T   T
  0.8889636849097329  0.4445933698198488  0.1891045335181403   F   F   F
  0.7774379446669926  0.5553859723333190  0.0351083957194973   F   F   F
 -0.0004007249864911  0.6670934655938159  0.3435414801675785   T   T   T
  0.2220726301814011  0.7777033150902639  0.1891045335181403   F   F   F
  0.1112810276666849  0.8892290553335229  0.0351083957194973   F   F   F
  0.3329714765421994  0.6655712669646997  0.3456622271283379   T   T   T
  0.5555201719645595  0.7777063439286778  0.1905550114787431   F   F   F
  0.4444251966885560  0.8888795983441611  0.0359583323602664   F   F   F
  0.6668211977556420  0.6623605134233173  0.3430683703128731   T   T   T
  0.8889636849088660  0.7777033150898802  0.1891045335181403   F   F   F
  0.7777874016556083  0.8888795983440616  0.0359583323602664   F   F   F
  0.4020994494617778  0.2631283399090364  0.4404134690206268   T   T   T
 
  0.00000000E+00  0.00000000E+00  0.00000000E+00
  0.00000000E+00  0.00000000E+00  0.00000000E+00
  0.00000000E+00  0.00000000E+00  0.00000000E+00
  0.00000000E+00  0.00000000E+00  0.00000000E+00
  0.00000000E+00  0.00000000E+00  0.00000000E+00
  0.00000000E+00  0.00000000E+00  0.00000000E+00
  0.00000000E+00  0.00000000E+00  0.00000000E+00
  0.00000000E+00  0.00000000E+00  0.00000000E+00
  0.00000000E+00  0.00000000E+00  0.00000000E+00
  0.00000000E+00  0.00000000E+00  0.00000000E+00
  0.00000000E+00  0.00000000E+00  0.00000000E+00
  0.00000000E+00  0.00000000E+00  0.00000000E+00
  0.00000000E+00  0.00000000E+00  0.00000000E+00
  0.00000000E+00  0.00000000E+00  0.00000000E+00
  0.00000000E+00  0.00000000E+00  0.00000000E+00
  0.00000000E+00  0.00000000E+00  0.00000000E+00
  0.00000000E+00  0.00000000E+00  0.00000000E+00
  0.00000000E+00  0.00000000E+00  0.00000000E+00
  0.00000000E+00  0.00000000E+00  0.00000000E+00
  0.00000000E+00  0.00000000E+00  0.00000000E+00
  0.00000000E+00  0.00000000E+00  0.00000000E+00
  0.00000000E+00  0.00000000E+00  0.00000000E+00
  0.00000000E+00  0.00000000E+00  0.00000000E+00
  0.00000000E+00  0.00000000E+00  0.00000000E+00
  0.00000000E+00  0.00000000E+00  0.00000000E+00
  0.00000000E+00  0.00000000E+00  0.00000000E+00
  0.00000000E+00  0.00000000E+00  0.00000000E+00
  0.00000000E+00  0.00000000E+00  0.00000000E+00
  0.00000000E+00  0.00000000E+00  0.00000000E+00
  0.00000000E+00  0.00000000E+00  0.00000000E+00
  0.00000000E+00  0.00000000E+00  0.00000000E+00
  0.00000000E+00  0.00000000E+00  0.00000000E+00
  0.00000000E+00  0.00000000E+00  0.00000000E+00
  0.00000000E+00  0.00000000E+00  0.00000000E+00
  0.00000000E+00  0.00000000E+00  0.00000000E+00
  0.00000000E+00  0.00000000E+00  0.00000000E+00
  0.00000000E+00  0.00000000E+00  0.00000000E+00
  0.00000000E+00  0.00000000E+00  0.00000000E+00
  0.00000000E+00  0.00000000E+00  0.00000000E+00
  0.00000000E+00  0.00000000E+00  0.00000000E+00
  0.00000000E+00  0.00000000E+00  0.00000000E+00
  0.00000000E+00  0.00000000E+00  0.00000000E+00
  0.00000000E+00  0.00000000E+00  0.00000000E+00
  0.00000000E+00  0.00000000E+00  0.00000000E+00
  0.00000000E+00  0.00000000E+00  0.00000000E+00
  0.00000000E+00  0.00000000E+00  0.00000000E+00
  0.00000000E+00  0.00000000E+00  0.00000000E+00
  0.00000000E+00  0.00000000E+00  0.00000000E+00
  0.00000000E+00  0.00000000E+00  0.00000000E+00
  0.00000000E+00  0.00000000E+00  0.00000000E+00
  0.00000000E+00  0.00000000E+00  0.00000000E+00
  0.00000000E+00  0.00000000E+00  0.00000000E+00
  0.00000000E+00  0.00000000E+00  0.00000000E+00
  0.00000000E+00  0.00000000E+00  0.00000000E+00
  0.00000000E+00  0.00000000E+00  0.00000000E+00
  0.00000000E+00  0.00000000E+00  0.00000000E+00
  0.00000000E+00  0.00000000E+00  0.00000000E+00
  0.00000000E+00  0.00000000E+00  0.00000000E+00
  0.00000000E+00  0.00000000E+00  0.00000000E+00
  0.00000000E+00  0.00000000E+00  0.00000000E+00
  0.00000000E+00  0.00000000E+00  0.00000000E+00
  0.00000000E+00  0.00000000E+00  0.00000000E+00
  0.00000000E+00  0.00000000E+00  0.00000000E+00
  0.00000000E+00  0.00000000E+00  0.00000000E+00
  0.00000000E+00  0.00000000E+00  0.00000000E+00
  0.00000000E+00  0.00000000E+00  0.00000000E+00
  0.00000000E+00  0.00000000E+00  0.00000000E+00
  0.00000000E+00  0.00000000E+00  0.00000000E+00
  0.00000000E+00  0.00000000E+00  0.00000000E+00
  0.00000000E+00  0.00000000E+00  0.00000000E+00
  0.00000000E+00  0.00000000E+00  0.00000000E+00
  0.00000000E+00  0.00000000E+00  0.00000000E+00
  0.00000000E+00  0.00000000E+00  0.00000000E+00
  0.00000000E+00  0.00000000E+00  0.00000000E+00
  0.00000000E+00  0.00000000E+00  0.00000000E+00
  0.00000000E+00  0.00000000E+00  0.00000000E+00
  0.00000000E+00  0.00000000E+00  0.00000000E+00
  0.00000000E+00  0.00000000E+00  0.00000000E+00
  0.00000000E+00  0.00000000E+00  0.00000000E+00
  0.00000000E+00  0.00000000E+00  0.00000000E+00
  0.00000000E+00  0.00000000E+00  0.00000000E+00
  0.00000000E+00  0.00000000E+00  0.00000000E+00
