CeO2-you-111-you-V                      
   1.00000000000000     
     9.8880230534235931   -5.6843361569459532   -0.0309676926359445
     0.0212323223180101   11.4054457718473294    0.0309676874324266
    -0.0339082056281240    0.0587307318735342   20.9130856246907939
   O    V    Ce
    53     1    26
Selective dynamics
Direct
 -0.0005260914921658 -0.0001171455124289  0.9952315376555472   T   T   T
  0.1162893816875106  0.2237391506297924  0.1500430838660496   T   T   T
  0.2138255136638340  0.0878587366184722  0.2982728063232526   T   T   T
  0.1686881339309317  0.2632457594172321  0.3641467912493430   T   T   T
 -0.0044242574616481 -0.0027434857541739  0.2276016533224318   T   T   T
  0.2215680397980636  0.1098838910245262  0.0743286343823078   T   T   T
  0.3348081806917852  0.0012189238886299  0.9961497355633332   T   T   T
  0.4389868663289411  0.2276791336702291  0.1532885148718637   T   T   T
  0.5489791402545769  0.1176878597470312  0.3065089453352327   T   T   T
  0.4151884848235257  0.2514775151753468  0.3754245847871756   T   T   T
  0.3370838511620159 -0.0034628819399716  0.2260987324102529   T   T   T
  0.5543870101940021  0.1122799898062273  0.0782379408616651   T   T   T
  0.6654800311919644  0.0011869688111034  0.9977896506727615   T   T   T
  0.7848976845772190  0.2236506305259127  0.1511540048047109   T   T   T
  0.8869816507745304  0.1084248505706586  0.3061485802114214   T   T   T
  0.7652717368030816  0.2178334265672251  0.3873780944927290   T   T   T
  0.6647024718170660  0.0019645281844950  0.2310764982429168   T   T   T
  0.8918475030918931  0.1117469083082486  0.0754288989580502   T   T   T
 -0.0018790241952427  0.3328146416428079  0.9953337287683458   T   T   T
  0.1117226881754615  0.5549443118231697  0.1463048260546064   T   T   T
  0.1083848649948645  0.5582821350217660  0.3854022602500380   T   T   T
  0.0183226552852637  0.3435574181291181  0.2336657232578918   T   T   T
  0.2223996564112542  0.4442663435910530  0.0725517975595475   T   T   T
  0.3335727118963221  0.3330932881015198  0.9953758911500499   T   T   T
  0.4429268493751773  0.5503776183148199  0.1500430838658130   T   T   T
  0.5788082633658871  0.4528404863306901  0.2982728063260430   T   T   T
  0.4034202405828427  0.4979788660778031  0.3641467912474723   T   T   T
  0.3253263088824598  0.3413396911056462  0.2489575222883993   T   T   T
  0.5567831089742192  0.4450979602002535  0.0743286343822146   T   T   T
  0.6654480761109943  0.3318578193074634  0.9961497355631529   T   T   T
  0.7782394422910043  0.5552214727406986  0.1498595265342684   T   T   T
  0.8834879696827322  0.4438169028970121  0.3031828463697682   T   T   T
  0.7836383694563204  0.5525469125076464  0.3877854410736175   T   T   T
  0.6701298819309033  0.3295821488313298  0.2260987324099880   T   T   T
  0.8885646544308248  0.4448315504199502  0.0741440985859308   T   T   T
 -0.0010073366465342  0.6676743366465101  0.9949105468859754   T   T   T
  0.1114455272574081  0.8884275577050061  0.1498595265341694   T   T   T
  0.2228490970934554  0.7831790303029268  0.3031828463697973   T   T   T
  0.1141200874890995  0.8830286305372693  0.3877854410739682   T   T   T
  0.0019615589118645  0.6647054410815344  0.2280668271978198   T   T   T
  0.2218344495794029  0.7781023455681857  0.0741440985860626   T   T   T
  0.3338513583596865  0.6685460241982599  0.9953337287688834   T   T   T
  0.4430153694727774  0.8817693154201378  0.1511540048040959   T   T   T
  0.5582421494403225  0.7796853492270572  0.3061485802112772   T   T   T
  0.4488325734364266  0.9013952631909549  0.3873780944943500   T   T   T
  0.3231085818783735  0.6483443447299886  0.2336657232587009   T   T   T
  0.5549200916930250  0.7748194969086627  0.0754288989579934   T   T   T
  0.6667841455127813  0.6671930914918250  0.9952315376556699   T   T   T
  0.7756846842073425  0.8909823157946406  0.1504906429480052   T   T   T
  0.8911239958547716  0.7755430041420035  0.3038226815593274   T   T   T
  0.7781822244705797  0.8884847755285759  0.3863182483878639   T   T   T
  0.6694104857556772  0.6710912574650770  0.2276016533222985   T   T   T
  0.8883616703075563  0.7783053296914061  0.0751908747169581   T   T   T
  0.3350884261274738  0.3315775739229356  0.3379093388162998   T   T   T
 -0.0013400255592138 -0.0073423660192101  0.3431870589639310   T   T   T
  0.2199630567908117  0.1059371673823927  0.1911394543346903   T   T   T
  0.1102959361313383  0.2205755482441014  0.0343673755892815   T   T   T
  0.3265955288286927 -0.0038309732263252  0.3425666753658880   T   T   T
  0.5555703159311187  0.1110966840752128  0.1910469741037446   T   T   T
  0.4438594156211088  0.2228065843793957  0.0362646810495085   T   T   T
  0.6660433332923245  0.0006236667174283  0.3457287588611950   T   T   T
  0.8904804215619924  0.1119189674556399  0.1925528537115653   T   T   T
  0.7783018075830035  0.2228341546877921  0.0366165877839911   T   T   T
 -0.0111133936130158  0.3310724104622918  0.3506661505359889   T   T   T
  0.2222142073012555  0.4444517926850759  0.1833930746494264   T   T   T
  0.1101336727580961  0.5565333272395245  0.0331183793257206   T   T   T
  0.5607298326118182  0.4467029432027046  0.1911394543349882   T   T   T
  0.4460904517567495  0.5563710638693276  0.0343673755888951   T   T   T
  0.6704979732301174  0.3400704711687764  0.3425666753667331   T   T   T
  0.8921050285929616  0.4449279265005531  0.1900447784417353   T   T   T
  0.7768947012930817  0.5552557593591135  0.0349503954933734   T   T   T
  0.0016202782238912  0.6650467217972119  0.3462703627697092   T   T   T
  0.2217380735053253  0.7745619714201762  0.1900447784419939   T   T   T
  0.1114112406428292  0.8897722987083535  0.0349503954935743   T   T   T
  0.3355935895254881  0.6777803936051529  0.3506661505342599   T   T   T
  0.5547480325344412  0.7761865784347993  0.1925528537116197   T   T   T
  0.4438318453112579  0.8883651924181268  0.0366165877839260   T   T   T
  0.6740093660019482  0.6680070255469718  0.3431870589650042   T   T   T
  0.8893060499179989  0.7773609500856674  0.1886364494689906   T   T   T
  0.7770560705346716  0.8896109294654879  0.0367472310826677   T   T   T
 
  0.00000000E+00  0.00000000E+00  0.00000000E+00
  0.00000000E+00  0.00000000E+00  0.00000000E+00
  0.00000000E+00  0.00000000E+00  0.00000000E+00
  0.00000000E+00  0.00000000E+00  0.00000000E+00
  0.00000000E+00  0.00000000E+00  0.00000000E+00
  0.00000000E+00  0.00000000E+00  0.00000000E+00
  0.00000000E+00  0.00000000E+00  0.00000000E+00
  0.00000000E+00  0.00000000E+00  0.00000000E+00
  0.00000000E+00  0.00000000E+00  0.00000000E+00
  0.00000000E+00  0.00000000E+00  0.00000000E+00
  0.00000000E+00  0.00000000E+00  0.00000000E+00
  0.00000000E+00  0.00000000E+00  0.00000000E+00
  0.00000000E+00  0.00000000E+00  0.00000000E+00
  0.00000000E+00  0.00000000E+00  0.00000000E+00
  0.00000000E+00  0.00000000E+00  0.00000000E+00
  0.00000000E+00  0.00000000E+00  0.00000000E+00
  0.00000000E+00  0.00000000E+00  0.00000000E+00
  0.00000000E+00  0.00000000E+00  0.00000000E+00
  0.00000000E+00  0.00000000E+00  0.00000000E+00
  0.00000000E+00  0.00000000E+00  0.00000000E+00
  0.00000000E+00  0.00000000E+00  0.00000000E+00
  0.00000000E+00  0.00000000E+00  0.00000000E+00
  0.00000000E+00  0.00000000E+00  0.00000000E+00
  0.00000000E+00  0.00000000E+00  0.00000000E+00
  0.00000000E+00  0.00000000E+00  0.00000000E+00
  0.00000000E+00  0.00000000E+00  0.00000000E+00
  0.00000000E+00  0.00000000E+00  0.00000000E+00
  0.00000000E+00  0.00000000E+00  0.00000000E+00
  0.00000000E+00  0.00000000E+00  0.00000000E+00
  0.00000000E+00  0.00000000E+00  0.00000000E+00
  0.00000000E+00  0.00000000E+00  0.00000000E+00
  0.00000000E+00  0.00000000E+00  0.00000000E+00
  0.00000000E+00  0.00000000E+00  0.00000000E+00
  0.00000000E+00  0.00000000E+00  0.00000000E+00
  0.00000000E+00  0.00000000E+00  0.00000000E+00
  0.00000000E+00  0.00000000E+00  0.00000000E+00
  0.00000000E+00  0.00000000E+00  0.00000000E+00
  0.00000000E+00  0.00000000E+00  0.00000000E+00
  0.00000000E+00  0.00000000E+00  0.00000000E+00
  0.00000000E+00  0.00000000E+00  0.00000000E+00
  0.00000000E+00  0.00000000E+00  0.00000000E+00
  0.00000000E+00  0.00000000E+00  0.00000000E+00
  0.00000000E+00  0.00000000E+00  0.00000000E+00
  0.00000000E+00  0.00000000E+00  0.00000000E+00
  0.00000000E+00  0.00000000E+00  0.00000000E+00
  0.00000000E+00  0.00000000E+00  0.00000000E+00
  0.00000000E+00  0.00000000E+00  0.00000000E+00
  0.00000000E+00  0.00000000E+00  0.00000000E+00
  0.00000000E+00  0.00000000E+00  0.00000000E+00
  0.00000000E+00  0.00000000E+00  0.00000000E+00
  0.00000000E+00  0.00000000E+00  0.00000000E+00
  0.00000000E+00  0.00000000E+00  0.00000000E+00
  0.00000000E+00  0.00000000E+00  0.00000000E+00
  0.00000000E+00  0.00000000E+00  0.00000000E+00
  0.00000000E+00  0.00000000E+00  0.00000000E+00
  0.00000000E+00  0.00000000E+00  0.00000000E+00
  0.00000000E+00  0.00000000E+00  0.00000000E+00
  0.00000000E+00  0.00000000E+00  0.00000000E+00
  0.00000000E+00  0.00000000E+00  0.00000000E+00
  0.00000000E+00  0.00000000E+00  0.00000000E+00
  0.00000000E+00  0.00000000E+00  0.00000000E+00
  0.00000000E+00  0.00000000E+00  0.00000000E+00
  0.00000000E+00  0.00000000E+00  0.00000000E+00
  0.00000000E+00  0.00000000E+00  0.00000000E+00
  0.00000000E+00  0.00000000E+00  0.00000000E+00
  0.00000000E+00  0.00000000E+00  0.00000000E+00
  0.00000000E+00  0.00000000E+00  0.00000000E+00
  0.00000000E+00  0.00000000E+00  0.00000000E+00
  0.00000000E+00  0.00000000E+00  0.00000000E+00
  0.00000000E+00  0.00000000E+00  0.00000000E+00
  0.00000000E+00  0.00000000E+00  0.00000000E+00
  0.00000000E+00  0.00000000E+00  0.00000000E+00
  0.00000000E+00  0.00000000E+00  0.00000000E+00
  0.00000000E+00  0.00000000E+00  0.00000000E+00
  0.00000000E+00  0.00000000E+00  0.00000000E+00
  0.00000000E+00  0.00000000E+00  0.00000000E+00
  0.00000000E+00  0.00000000E+00  0.00000000E+00
  0.00000000E+00  0.00000000E+00  0.00000000E+00
  0.00000000E+00  0.00000000E+00  0.00000000E+00
  0.00000000E+00  0.00000000E+00  0.00000000E+00
