CeO2-you-111-you-Tl                     
   1.00000000000000     
     9.8670171573878367   -5.6954562409622760   -0.0018441814574059
    -0.0000000025115781   11.3909104730147295    0.0000000002229343
    -0.0041156216026602    0.0000000004323999   20.7721687515011908
   O    Tl   Ce   H 
    53     1    26     2
Selective dynamics
Direct
  0.9992271724376377  0.0005187371113582  0.9945206889202318   T   T   T
  0.1163596394743891  0.2248463197372530  0.1504747897376717   F   F   F
  0.2293914439120566  0.1161966200467543  0.3109384047290328   T   T   T
  0.0747356626786638  0.2050041340915978  0.3951762214901202   T   T   T
  0.0037434294126773  0.0024033853487343  0.2296650426755538   T   T   T
  0.2218177784907809  0.1103496989592614  0.0729700440888763   F   F   F
  0.3328571477803468  0.9995076487677806  0.9926775218634276   T   T   T
  0.4442356633514137  0.2200149803408848  0.1466029269181419   F   F   F
  0.5496513760633630  0.1035249991881854  0.3049545543534399   T   T   T
  0.4613991825506276  0.1767894286063532  0.4125598789243848   T   T   T
  0.3298440273854683 -0.0013386826075774  0.2293940970930465   T   T   T
  0.5553085432980538  0.1097365212663490  0.0729869535508811   F   F   F
  0.6683041009559350  0.0009193250996456  0.9935196803733297   T   T   T
  0.7742434087514596  0.2253389168244340  0.1511016331792447   F   F   F
  0.8861483445892469  0.1081214477125121  0.3029731287176235   T   T   T
  0.7816748711385211  0.2159108522859197  0.3882770381014752   T   T   T
  0.6679954075199488  0.0023337847172360  0.2278526639721809   T   T   T
  0.8881869632780379  0.1107599816389353  0.0760504559987680   F   F   F
  0.9988800418100343  0.3315055258012349  0.9940560174415867   T   T   T
  0.1106499346292864  0.5552185765498479  0.1498543315869227   F   F   F
  0.2185970483818203  0.4393004875013236  0.3063626135714251   T   T   T
  0.1117847399174904  0.5579483789526789  0.3863409350877681   T   T   T
 -0.0001247106932744  0.3325493909240148  0.2288522368383548   T   T   T
  0.2218177784907596  0.4448010795314588  0.0729700440888692   F   F   F
  0.3318725542348612  0.3326641519820037  0.9927329194094013   T   T   T
  0.4442356633504687  0.5575546830115243  0.1466029269180993   F   F   F
  0.4633418627637625  0.5744037851235766  0.3810206614772523   T   T   T
  0.3488160218692932  0.3410694229680242  0.2305373152796600   T   T   T
  0.5551032079951597  0.4442176039977923  0.0708915774958356   F   F   F
  0.6672519009070728  0.3327218349448844  0.9929081684259918   T   T   T
  0.7789879326812752  0.5561609663399167  0.1470983276779307   F   F   F
  0.8932407780598481  0.4451247143602567  0.3056816721096716   T   T   T
  0.7678039457287850  0.5604505122576174  0.3805994327189921   T   T   T
  0.6572108330808927  0.3412432940701882  0.2343126226103898   T   T   T
  0.8890653744176475  0.4442061124367598  0.0733419865866836   F   F   F
 -0.0000172698283724  0.6669102465352537  0.9931353113037775   T   T   T
  0.1106499346293361  0.8887653580789703  0.1498543315869085   F   F   F
  0.2198131352067598  0.7736646645089750  0.3038661924759132   T   T   T
  0.1105036048668959  0.8838233137904189  0.3861489995533369   T   T   T
  0.9977202043633262  0.6667688642141125  0.2299513226350299   T   T   T
  0.2223920895592428  0.7778630447795010  0.0735016988218007   F   F   F
  0.3327232791878413  0.6665987536499739  0.9928234393651666   T   T   T
  0.4451371322531870  0.8892355661267146  0.1498244264938862   F   F   F
  0.5601126301826910  0.7871280762483437  0.3028684746494468   T   T   T
  0.4401663547544682  0.8804075907398058  0.3860711512165279   T   T   T
  0.3334140781410250  0.6642067875685361  0.2304233580916914   T   T   T
  0.5553085432979969  0.7789050220319353  0.0729869535508527   F   F   F
  0.6672529381001305  0.6681028742309809  0.9928509706703752   T   T   T
  0.7742434087507277  0.8822374919264604  0.1511016331792518   F   F   F
  0.8923559669183391  0.7850794283651835  0.3049245395358185   T   T   T
  0.7792213979653683  0.8936825510705491  0.3884071703105244   T   T   T
  0.6584624993230828  0.6494208417981842  0.2357793928319650   T   T   T
  0.8890653744176547  0.7781922619807773  0.0733419865866978   F   F   F
  0.3044785744585796  0.3275933033562035  0.3628669690413885   T   T   T
  0.0017835654393155  0.0039953526827866  0.3466451590507045   T   T   T
  0.2238884841396072  0.1129503229624120  0.1910041526117894   F   F   F
  0.1113292436023556  0.2223311218011688  0.0341854877057415   F   F   F
  0.3280260884416040  0.9889712558653224  0.3458137113482605   T   T   T
  0.5550412195150400  0.1117059667384268  0.1904390195091636   F   F   F
  0.4432180133903856  0.2200258517409637  0.0317344256321732   F   F   F
  0.6660059885995646  0.0012362477658609  0.3454017959379081   T   T   T
  0.8890225191232659  0.1111777595620254  0.1902415670351658   F   F   F
  0.7774054174099092  0.2221251403145246  0.0340355512134423   F   F   F
 -0.0027708402877946  0.3313472157189268  0.3465826577360527   T   T   T
  0.2238884841397777  0.4442711611762746  0.1910041526118036   F   F   F
  0.1106310001302759  0.5546705622467414  0.0340448744178588   F   F   F
  0.5543025441167586  0.4438172720569398  0.1820865956621915   F   F   F
  0.4432180133907551  0.5565261616492805  0.0317344256321661   F   F   F
  0.6709801859049245  0.3261425137627564  0.3526399188104405   T   T   T
  0.8883519519109200  0.4448764071443208  0.1905395604112812   F   F   F
  0.7795844113272565  0.5564592056635860  0.0320752571638678   F   F   F
 -0.0015165766591228  0.6651130033682519  0.3450028437873948   T   T   T
  0.2222294725915646  0.7777817362961059  0.1886924074407261   F   F   F
  0.1106310001301409  0.8892944378839474  0.0340448744178588   F   F   F
  0.3343420818897685  0.6655942486276962  0.3456216693474206   T   T   T
  0.5550412195170580  0.7766682527763180  0.1904390195091921   F   F   F
  0.4450366117563149  0.8891853058779731  0.0336147216652449   F   F   F
  0.6742182527580617  0.6837299171735826  0.3487031421766026   T   T   T
  0.8883519519125329  0.7768085447701125  0.1905395604113025   F   F   F
  0.7774054174104847  0.8886132770957147  0.0340355512134494   F   F   F
  0.3682500270178350  0.3275630884503399  0.4416088070901006   T   T   T
  0.4221637404850390  0.2044560799733814  0.4468984310802978   T   T   T
 
  0.00000000E+00  0.00000000E+00  0.00000000E+00
  0.00000000E+00  0.00000000E+00  0.00000000E+00
  0.00000000E+00  0.00000000E+00  0.00000000E+00
  0.00000000E+00  0.00000000E+00  0.00000000E+00
  0.00000000E+00  0.00000000E+00  0.00000000E+00
  0.00000000E+00  0.00000000E+00  0.00000000E+00
  0.00000000E+00  0.00000000E+00  0.00000000E+00
  0.00000000E+00  0.00000000E+00  0.00000000E+00
  0.00000000E+00  0.00000000E+00  0.00000000E+00
  0.00000000E+00  0.00000000E+00  0.00000000E+00
  0.00000000E+00  0.00000000E+00  0.00000000E+00
  0.00000000E+00  0.00000000E+00  0.00000000E+00
  0.00000000E+00  0.00000000E+00  0.00000000E+00
  0.00000000E+00  0.00000000E+00  0.00000000E+00
  0.00000000E+00  0.00000000E+00  0.00000000E+00
  0.00000000E+00  0.00000000E+00  0.00000000E+00
  0.00000000E+00  0.00000000E+00  0.00000000E+00
  0.00000000E+00  0.00000000E+00  0.00000000E+00
  0.00000000E+00  0.00000000E+00  0.00000000E+00
  0.00000000E+00  0.00000000E+00  0.00000000E+00
  0.00000000E+00  0.00000000E+00  0.00000000E+00
  0.00000000E+00  0.00000000E+00  0.00000000E+00
  0.00000000E+00  0.00000000E+00  0.00000000E+00
  0.00000000E+00  0.00000000E+00  0.00000000E+00
  0.00000000E+00  0.00000000E+00  0.00000000E+00
  0.00000000E+00  0.00000000E+00  0.00000000E+00
  0.00000000E+00  0.00000000E+00  0.00000000E+00
  0.00000000E+00  0.00000000E+00  0.00000000E+00
  0.00000000E+00  0.00000000E+00  0.00000000E+00
  0.00000000E+00  0.00000000E+00  0.00000000E+00
  0.00000000E+00  0.00000000E+00  0.00000000E+00
  0.00000000E+00  0.00000000E+00  0.00000000E+00
  0.00000000E+00  0.00000000E+00  0.00000000E+00
  0.00000000E+00  0.00000000E+00  0.00000000E+00
  0.00000000E+00  0.00000000E+00  0.00000000E+00
  0.00000000E+00  0.00000000E+00  0.00000000E+00
  0.00000000E+00  0.00000000E+00  0.00000000E+00
  0.00000000E+00  0.00000000E+00  0.00000000E+00
  0.00000000E+00  0.00000000E+00  0.00000000E+00
  0.00000000E+00  0.00000000E+00  0.00000000E+00
  0.00000000E+00  0.00000000E+00  0.00000000E+00
  0.00000000E+00  0.00000000E+00  0.00000000E+00
  0.00000000E+00  0.00000000E+00  0.00000000E+00
  0.00000000E+00  0.00000000E+00  0.00000000E+00
  0.00000000E+00  0.00000000E+00  0.00000000E+00
  0.00000000E+00  0.00000000E+00  0.00000000E+00
  0.00000000E+00  0.00000000E+00  0.00000000E+00
  0.00000000E+00  0.00000000E+00  0.00000000E+00
  0.00000000E+00  0.00000000E+00  0.00000000E+00
  0.00000000E+00  0.00000000E+00  0.00000000E+00
  0.00000000E+00  0.00000000E+00  0.00000000E+00
  0.00000000E+00  0.00000000E+00  0.00000000E+00
  0.00000000E+00  0.00000000E+00  0.00000000E+00
  0.00000000E+00  0.00000000E+00  0.00000000E+00
  0.00000000E+00  0.00000000E+00  0.00000000E+00
  0.00000000E+00  0.00000000E+00  0.00000000E+00
  0.00000000E+00  0.00000000E+00  0.00000000E+00
  0.00000000E+00  0.00000000E+00  0.00000000E+00
  0.00000000E+00  0.00000000E+00  0.00000000E+00
  0.00000000E+00  0.00000000E+00  0.00000000E+00
  0.00000000E+00  0.00000000E+00  0.00000000E+00
  0.00000000E+00  0.00000000E+00  0.00000000E+00
  0.00000000E+00  0.00000000E+00  0.00000000E+00
  0.00000000E+00  0.00000000E+00  0.00000000E+00
  0.00000000E+00  0.00000000E+00  0.00000000E+00
  0.00000000E+00  0.00000000E+00  0.00000000E+00
  0.00000000E+00  0.00000000E+00  0.00000000E+00
  0.00000000E+00  0.00000000E+00  0.00000000E+00
  0.00000000E+00  0.00000000E+00  0.00000000E+00
  0.00000000E+00  0.00000000E+00  0.00000000E+00
  0.00000000E+00  0.00000000E+00  0.00000000E+00
  0.00000000E+00  0.00000000E+00  0.00000000E+00
  0.00000000E+00  0.00000000E+00  0.00000000E+00
  0.00000000E+00  0.00000000E+00  0.00000000E+00
  0.00000000E+00  0.00000000E+00  0.00000000E+00
  0.00000000E+00  0.00000000E+00  0.00000000E+00
  0.00000000E+00  0.00000000E+00  0.00000000E+00
  0.00000000E+00  0.00000000E+00  0.00000000E+00
  0.00000000E+00  0.00000000E+00  0.00000000E+00
  0.00000000E+00  0.00000000E+00  0.00000000E+00
  0.00000000E+00  0.00000000E+00  0.00000000E+00
  0.00000000E+00  0.00000000E+00  0.00000000E+00
