CeO2-you-111-you-Hf                     
   1.00000000000000     
     9.8619590680797273   -5.6774977908801709    0.0092171674820506
    -0.0000000017734778   11.3549935805432227   -0.0000000010859093
     0.0210025747266469   -0.0000000021792587   20.8195059257523027
   O    Hf   Ce   H 
    53     1    26     1
Selective dynamics
Direct
 -0.0000240132047712  0.0005353008154538  0.9932175494979921   T   T   T
  0.1205904635949205  0.2252824031266014  0.1511477961452722   T   T   T
  0.2224883075340613  0.1200766375032910  0.3057463212528708   T   T   T
  0.1220669115906629  0.2315701666748106  0.3863405039774198   T   T   T
  0.0009252380735508  0.0002317189155696  0.2286871435165591   T   T   T
  0.2223155479351379  0.1095195415806426  0.0721497547454322   T   T   T
  0.3354044165284675 -0.0002977909479804  0.9920994609497111   T   T   T
  0.4422664128857454  0.2207192132048718  0.1473012028573962   T   T   T
  0.5558953327512287  0.1070063534476384  0.3077034301055599   T   T   T
  0.4351326956209485  0.2639064188197150  0.3885329776425859   T   T   T
  0.3312196097119633 -0.0010106633463351  0.2295521574089286   T   T   T
  0.5549785530717474  0.1101427742405787  0.0742797759844087   T   T   T
  0.6699262531817407  0.0008601222211276  0.9948225112920568   T   T   T
  0.7728338145430904  0.2234210599306027  0.1517426059911698   T   T   T
  0.8916814021878025  0.1112352528415045  0.3049868900920274   T   T   T
  0.7845722724634717  0.2158479011773499  0.3908210468901852   T   T   T
  0.6681280166416573 -0.0010219521446170  0.2295121727568702   T   T   T
  0.8908606741382261  0.1113849487584694  0.0768314858076058   T   T   T
  0.9995532144229192  0.3308216983014489  0.9934089768120644   T   T   T
  0.1115019881375974  0.5553834306815150  0.1487112561015001   T   T   T
  0.2125620541426661  0.4345936664521563  0.3015382101096038   T   T   T
  0.1141662571671504  0.5514345250909571  0.3871694583916161   T   T   T
  0.9982198320939945  0.3311571305136573  0.2267574024350911   T   T   T
  0.2213564725469138  0.4436052054943168  0.0719317744518995   T   T   T
  0.3335641044774754  0.3328558289938947  0.9921058484263723   T   T   T
  0.4421597389243523  0.5525669040574406  0.1457820203272303   T   T   T
  0.4314237876456615  0.5177777318502833  0.3734274043688250   T   T   T
  0.3549388033872894  0.3455932129499589  0.2394157945061503   T   T   T
  0.5569419618843334  0.4438187022514716  0.0697603212143436   T   T   T
  0.6689489907299258  0.3315998692305122  0.9923107267304125   T   T   T
  0.7801121875300240  0.5557529043653745  0.1455609346573766   T   T   T
  0.8952618399498071  0.4423178188463739  0.3044784274118347   T   T   T
  0.7867799917665873  0.5580359900065335  0.3873416791148575   T   T   T
  0.6579818057647792  0.3429170598145571  0.2342721156684814   T   T   T
  0.8905201162245974  0.4437476852579736  0.0729371965050324   T   T   T
  0.0013910272132978  0.6659932928013604  0.9917875441687066   T   T   T
  0.1109759434267275  0.8881818769893570  0.1496152749429205   T   T   T
  0.2202264743994818  0.7698861703164398  0.3049641616425926   T   T   T
  0.0979489318748909  0.8817603941752784  0.3885129217427037   T   T   T
  0.9980540314165042  0.6640913895181101  0.2291636175277459   T   T   T
  0.2228869098248044  0.7778421216615368  0.0733452938295663   T   T   T
  0.3344723590719400  0.6672460431360552  0.9924960143878253   T   T   T
  0.4448519080369584  0.8879255887391788  0.1510216988459626   T   T   T
  0.5530510738478577  0.7775843193606562  0.3044130730921839   T   T   T
  0.4455932860129632  0.8728614822559005  0.3897665340863669   T   T   T
  0.3324959813475525  0.6617621495054538  0.2293351288466911   T   T   T
  0.5555101452157116  0.7769544044459503  0.0734797483895164   T   T   T
  0.6684655387897288  0.6683354798810232  0.9921399111369265   T   T   T
  0.7748081910356407  0.8819695302753973  0.1512200319505954   T   T   T
  0.8930451733982386  0.7818688557790302  0.3033148880850017   T   T   T
  0.7835449208010722  0.8984575865700744  0.3892022199747258   T   T   T
  0.6580960317667096  0.6472836650466768  0.2328285017609508   T   T   T
  0.8908236123562201  0.7783950384954814  0.0722002129424574   T   T   T
  0.3012562378927284  0.3268675636222851  0.3373483228682060   T   T   T
  0.0000733317383151 -0.0020598781523183  0.3456773543700054   T   T   T
  0.2235184099675862  0.1096094350629399  0.1911927816862685   T   T   T
  0.1120532603446380  0.2214516160869737  0.0333604986877865   T   T   T
  0.3277713555370684 -0.0089661971939483  0.3487982146549182   T   T   T
  0.5540436721851554  0.1104837613106221  0.1930501692718159   T   T   T
  0.4442936233940366  0.2194271652209167  0.0315751408107562   T   T   T
  0.6651219689478280  0.9959767229379184  0.3469983945974525   T   T   T
  0.8889395396461390  0.1102852581678418  0.1907557831592183   T   T   T
  0.7779803971153083  0.2216428090517498  0.0347559703890972   T   T   T
 -0.0014852117063588  0.3312741457792580  0.3468315473592654   T   T   T
  0.2217128369812561  0.4445224751767429  0.1878474873097612   T   T   T
  0.1113503922641754  0.5546973833205200  0.0328581459688317   T   T   T
  0.5570413852488776  0.4446508028018212  0.1808224654095753   T   T   T
  0.4445632910200663  0.5563721635175897  0.0309040316536726   T   T   T
  0.6793357500495789  0.3306228589182964  0.3512170448915743   T   T   T
  0.8879480992577289  0.4438707934438338  0.1901393707725487   T   T   T
  0.7808195354524131  0.5561051786574807  0.0309379596941189   T   T   T
 -0.0010781411100376  0.6653743038569506  0.3462917727875564   T   T   T
  0.2218104237834956  0.7766727391620609  0.1897574224851462   T   T   T
  0.1119285799538245  0.8890001834793310  0.0334969967169798   T   T   T
  0.3325724261111023  0.6614222913779721  0.3448640973048579   T   T   T
  0.5551166649743363  0.7746061410227477  0.1913061088967722   T   T   T
  0.4458276252472694  0.8890941904947308  0.0347623962021861   T   T   T
  0.6718233461073234  0.6729978278038219  0.3525155719594266   T   T   T
  0.8881875083557056  0.7753452541130842  0.1907229744400876   T   T   T
  0.7785754171660239  0.8882051334184125  0.0343978787282158   T   T   T
  0.4464436781923774  0.3002357176096846  0.4319569854238441   T   T   T
 
  0.00000000E+00  0.00000000E+00  0.00000000E+00
  0.00000000E+00  0.00000000E+00  0.00000000E+00
  0.00000000E+00  0.00000000E+00  0.00000000E+00
  0.00000000E+00  0.00000000E+00  0.00000000E+00
  0.00000000E+00  0.00000000E+00  0.00000000E+00
  0.00000000E+00  0.00000000E+00  0.00000000E+00
  0.00000000E+00  0.00000000E+00  0.00000000E+00
  0.00000000E+00  0.00000000E+00  0.00000000E+00
  0.00000000E+00  0.00000000E+00  0.00000000E+00
  0.00000000E+00  0.00000000E+00  0.00000000E+00
  0.00000000E+00  0.00000000E+00  0.00000000E+00
  0.00000000E+00  0.00000000E+00  0.00000000E+00
  0.00000000E+00  0.00000000E+00  0.00000000E+00
  0.00000000E+00  0.00000000E+00  0.00000000E+00
  0.00000000E+00  0.00000000E+00  0.00000000E+00
  0.00000000E+00  0.00000000E+00  0.00000000E+00
  0.00000000E+00  0.00000000E+00  0.00000000E+00
  0.00000000E+00  0.00000000E+00  0.00000000E+00
  0.00000000E+00  0.00000000E+00  0.00000000E+00
  0.00000000E+00  0.00000000E+00  0.00000000E+00
  0.00000000E+00  0.00000000E+00  0.00000000E+00
  0.00000000E+00  0.00000000E+00  0.00000000E+00
  0.00000000E+00  0.00000000E+00  0.00000000E+00
  0.00000000E+00  0.00000000E+00  0.00000000E+00
  0.00000000E+00  0.00000000E+00  0.00000000E+00
  0.00000000E+00  0.00000000E+00  0.00000000E+00
  0.00000000E+00  0.00000000E+00  0.00000000E+00
  0.00000000E+00  0.00000000E+00  0.00000000E+00
  0.00000000E+00  0.00000000E+00  0.00000000E+00
  0.00000000E+00  0.00000000E+00  0.00000000E+00
  0.00000000E+00  0.00000000E+00  0.00000000E+00
  0.00000000E+00  0.00000000E+00  0.00000000E+00
  0.00000000E+00  0.00000000E+00  0.00000000E+00
  0.00000000E+00  0.00000000E+00  0.00000000E+00
  0.00000000E+00  0.00000000E+00  0.00000000E+00
  0.00000000E+00  0.00000000E+00  0.00000000E+00
  0.00000000E+00  0.00000000E+00  0.00000000E+00
  0.00000000E+00  0.00000000E+00  0.00000000E+00
  0.00000000E+00  0.00000000E+00  0.00000000E+00
  0.00000000E+00  0.00000000E+00  0.00000000E+00
  0.00000000E+00  0.00000000E+00  0.00000000E+00
  0.00000000E+00  0.00000000E+00  0.00000000E+00
  0.00000000E+00  0.00000000E+00  0.00000000E+00
  0.00000000E+00  0.00000000E+00  0.00000000E+00
  0.00000000E+00  0.00000000E+00  0.00000000E+00
  0.00000000E+00  0.00000000E+00  0.00000000E+00
  0.00000000E+00  0.00000000E+00  0.00000000E+00
  0.00000000E+00  0.00000000E+00  0.00000000E+00
  0.00000000E+00  0.00000000E+00  0.00000000E+00
  0.00000000E+00  0.00000000E+00  0.00000000E+00
  0.00000000E+00  0.00000000E+00  0.00000000E+00
  0.00000000E+00  0.00000000E+00  0.00000000E+00
  0.00000000E+00  0.00000000E+00  0.00000000E+00
  0.00000000E+00  0.00000000E+00  0.00000000E+00
  0.00000000E+00  0.00000000E+00  0.00000000E+00
  0.00000000E+00  0.00000000E+00  0.00000000E+00
  0.00000000E+00  0.00000000E+00  0.00000000E+00
  0.00000000E+00  0.00000000E+00  0.00000000E+00
  0.00000000E+00  0.00000000E+00  0.00000000E+00
  0.00000000E+00  0.00000000E+00  0.00000000E+00
  0.00000000E+00  0.00000000E+00  0.00000000E+00
  0.00000000E+00  0.00000000E+00  0.00000000E+00
  0.00000000E+00  0.00000000E+00  0.00000000E+00
  0.00000000E+00  0.00000000E+00  0.00000000E+00
  0.00000000E+00  0.00000000E+00  0.00000000E+00
  0.00000000E+00  0.00000000E+00  0.00000000E+00
  0.00000000E+00  0.00000000E+00  0.00000000E+00
  0.00000000E+00  0.00000000E+00  0.00000000E+00
  0.00000000E+00  0.00000000E+00  0.00000000E+00
  0.00000000E+00  0.00000000E+00  0.00000000E+00
  0.00000000E+00  0.00000000E+00  0.00000000E+00
  0.00000000E+00  0.00000000E+00  0.00000000E+00
  0.00000000E+00  0.00000000E+00  0.00000000E+00
  0.00000000E+00  0.00000000E+00  0.00000000E+00
  0.00000000E+00  0.00000000E+00  0.00000000E+00
  0.00000000E+00  0.00000000E+00  0.00000000E+00
  0.00000000E+00  0.00000000E+00  0.00000000E+00
  0.00000000E+00  0.00000000E+00  0.00000000E+00
  0.00000000E+00  0.00000000E+00  0.00000000E+00
  0.00000000E+00  0.00000000E+00  0.00000000E+00
  0.00000000E+00  0.00000000E+00  0.00000000E+00
