CeO2-you-111-you-V                      
   1.00000000000000     
     9.8603410570148711   -5.6928709342280950    0.0000000000000000
    -0.0000000015599667   11.3857398621055275    0.0000000000000000
     0.0000000000000000    0.0000000000000000   20.7699082431055615
   O    V    Ce   H 
    54     1    26     2
Selective dynamics
Direct
  0.0004188675417036  0.0005100771130328  0.9885484309202572   T   T   T
  0.1104633783407085  0.2154846240937007  0.1428025621452579   T   T   T
  0.2553030648635959  0.1649577815479758  0.3293651960373425   T   T   T
  0.0585786040254495  0.2116121491047321  0.4141804991581357   T   T   T
  0.0183614103132201  0.0071646850874945  0.2301908582345067   T   T   T
  0.2237865315540933  0.1075439035208273  0.0670973289900734   T   T   T
  0.3391563290353004  0.0009887602448683  0.9884589425715733   T   T   T
  0.4464682431526666  0.2219216809663008  0.1428381059712877   T   T   T
  0.5491780532634739  0.1079594843782229  0.3041861503032480   T   T   T
  0.4669349618845137  0.1755672728566014  0.4186761577498899   T   T   T
  0.3246724898019580  0.0056086850035397  0.2308218972457635   T   T   T
  0.5599988534238676  0.1108905895504934  0.0714112661845571   T   T   T
  0.6701868513251059  0.0012540775422239  0.9894199430311540   T   T   T
  0.7812292868228580  0.2266050911065681  0.1499406111366031   T   T   T
  0.8928233348770592  0.1148817498015847  0.3037555162111775   T   T   T
  0.7827740988351174  0.2190595008982372  0.3869535206398125   T   T   T
  0.6699362031476662  0.0052746382888179  0.2274699537572076   T   T   T
  0.8886267999659364  0.1100180814313802  0.0715952632131172   T   T   T
  0.0009046884981582  0.3324194429366281  0.9894423099556291   T   T   T
  0.1092414160261925  0.5624227184358942  0.1454584329595436   T   T   T
  0.2456225055784113  0.4173096497927649  0.3189602016512169   T   T   T
  0.1150535967675803  0.5505974926788836  0.3811567229047310   T   T   T
  0.0045594682865608  0.3378614703343089  0.2313627886611168   T   T   T
  0.2239627757746640  0.4468935639401498  0.0667280495422075   T   T   T
  0.3369553031555874  0.3337090662719506  0.9897800244651176   T   T   T
  0.4552291868557461  0.5590659718568517  0.1432462202149249   T   T   T
  0.5071964995823744  0.4217945561997254  0.3251846504270651   T   T   T
  0.4735630962892063  0.6147482444260353  0.3985912498578210   T   T   T
  0.3389110461003970  0.3269356807216310  0.2241663162785829   T   T   T
  0.5620115601884873  0.4453424999284592  0.0677605281178909   T   T   T
  0.6693439703659734  0.3320655379043909  0.9886737052578281   T   T   T
  0.7846421040894278  0.5605593170752611  0.1451813489667138   T   T   T
  0.8900905963568241  0.4482391997796717  0.3048794759311169   T   T   T
  0.7830108353566289  0.5687788858085441  0.3868842224250981   T   T   T
  0.6622747030944831  0.3407306167928754  0.2288027687616540   T   T   T
  0.8904320262124941  0.4449795902923856  0.0697959106575527   T   T   T
  0.0023248240325233  0.6681494223426310  0.9882027761080596   T   T   T
  0.1110023522366249  0.8841520482429313  0.1441720225667291   T   T   T
  0.2281101838374788  0.7783899030483682  0.3047501419817056   T   T   T
  0.1243117287464344  0.8880125054824725  0.3865104376259819   T   T   T
  0.0026675330090042  0.6699202899502035  0.2299374052433037   T   T   T
  0.2264990883987917  0.7794094067357971  0.0690688598557554   T   T   T
  0.3391691988033884  0.6695672646265995  0.9890234411278840   T   T   T
  0.4444439350767248  0.8904561126316318  0.1501607696007063   T   T   T
  0.5638383138231237  0.7855971329057612  0.3006147538721105   T   T   T
  0.4489033448396146  0.8882056449741348  0.3868179870839920   T   T   T
  0.3359078774919789  0.6648267871251569  0.2313846141506372   T   T   T
  0.5607035883681621  0.7822364473264372  0.0716031736951026   T   T   T
  0.6691377750084067  0.6687135988862805  0.9889054562387039   T   T   T
  0.7824750344187524  0.8888517528987746  0.1525320904642766   T   T   T
  0.8898006529028037  0.7801353437148272  0.3050186820121831   T   T   T
  0.7702607441771252  0.8904223020527858  0.3891534380745203   T   T   T
  0.6627401504959082  0.6521563453407678  0.2319137322883361   T   T   T
  0.8909020070525920  0.7800036901196674  0.0697897914746446   T   T   T
  0.3365191873292123  0.3337278706988544  0.3086870913501615   T   T   T
  0.0003485935421053  0.0017872550714528  0.3533701141046808   T   T   T
  0.2192401378340684  0.1027477307587885  0.1775734602677821   T   T   T
  0.1115395312461373  0.2223685844271649  0.0283552834440293   T   T   T
  0.3369484687877742 -0.0088467808700189  0.3489447683722124   T   T   T
  0.5568569250523318  0.1141057217529956  0.1897625923798508   T   T   T
  0.4491438193036901  0.2214871882915073  0.0273566181264026   T   T   T
  0.6707846329336192  0.0034503108576909  0.3448573018132175   T   T   T
  0.8936384629547567  0.1138530396613276  0.1900565976350033   T   T   T
  0.7802669721400245  0.2225050375458327  0.0313570279578432   T   T   T
  0.9924809953539078  0.3337210922461633  0.3462741718785583   T   T   T
  0.2228659938354627  0.4476211504691572  0.1822253520490146   T   T   T
  0.1136410996331663  0.5572110586526384  0.0300534896929631   T   T   T
  0.5658541132639077  0.4492724162457738  0.1789049773976172   T   T   T
  0.4480148886761602  0.5583861903508902  0.0285228528481241   T   T   T
  0.6674678611390464  0.3341195813874265  0.3534622327392848   T   T   T
  0.8909494642566934  0.4460455725064006  0.1894915510645083   T   T   T
  0.7827262386113842  0.5580598687875774  0.0287093582742117   T   T   T
  0.0004874831672265  0.6681679189003218  0.3443696363828624   T   T   T
  0.2251605867009801  0.7779033638003734  0.1894091259303599   T   T   T
  0.1122223489134972  0.8869096617625151  0.0281170176330374   T   T   T
  0.3455157405792286  0.6719930095968752  0.3484970470671975   T   T   T
  0.5575692560191272  0.7778113304789411  0.1891529129513130   T   T   T
  0.4484663772655363  0.8904010668918838  0.0307581573343691   T   T   T
  0.6692081396636944  0.6772355269327756  0.3513139678218721   T   T   T
  0.8913531354867135  0.7796971680321758  0.1916659443420086   T   T   T
  0.7806209829317589  0.8903785728830417  0.0310585520987205   T   T   T
  0.1341826599064236  0.2601008989325482  0.4436537642707472   T   T   T
  0.4307558299994818  0.1961692568286696  0.4566363287706787   T   T   T
 
  0.00000000E+00  0.00000000E+00  0.00000000E+00
  0.00000000E+00  0.00000000E+00  0.00000000E+00
  0.00000000E+00  0.00000000E+00  0.00000000E+00
  0.00000000E+00  0.00000000E+00  0.00000000E+00
  0.00000000E+00  0.00000000E+00  0.00000000E+00
  0.00000000E+00  0.00000000E+00  0.00000000E+00
  0.00000000E+00  0.00000000E+00  0.00000000E+00
  0.00000000E+00  0.00000000E+00  0.00000000E+00
  0.00000000E+00  0.00000000E+00  0.00000000E+00
  0.00000000E+00  0.00000000E+00  0.00000000E+00
  0.00000000E+00  0.00000000E+00  0.00000000E+00
  0.00000000E+00  0.00000000E+00  0.00000000E+00
  0.00000000E+00  0.00000000E+00  0.00000000E+00
  0.00000000E+00  0.00000000E+00  0.00000000E+00
  0.00000000E+00  0.00000000E+00  0.00000000E+00
  0.00000000E+00  0.00000000E+00  0.00000000E+00
  0.00000000E+00  0.00000000E+00  0.00000000E+00
  0.00000000E+00  0.00000000E+00  0.00000000E+00
  0.00000000E+00  0.00000000E+00  0.00000000E+00
  0.00000000E+00  0.00000000E+00  0.00000000E+00
  0.00000000E+00  0.00000000E+00  0.00000000E+00
  0.00000000E+00  0.00000000E+00  0.00000000E+00
  0.00000000E+00  0.00000000E+00  0.00000000E+00
  0.00000000E+00  0.00000000E+00  0.00000000E+00
  0.00000000E+00  0.00000000E+00  0.00000000E+00
  0.00000000E+00  0.00000000E+00  0.00000000E+00
  0.00000000E+00  0.00000000E+00  0.00000000E+00
  0.00000000E+00  0.00000000E+00  0.00000000E+00
  0.00000000E+00  0.00000000E+00  0.00000000E+00
  0.00000000E+00  0.00000000E+00  0.00000000E+00
  0.00000000E+00  0.00000000E+00  0.00000000E+00
  0.00000000E+00  0.00000000E+00  0.00000000E+00
  0.00000000E+00  0.00000000E+00  0.00000000E+00
  0.00000000E+00  0.00000000E+00  0.00000000E+00
  0.00000000E+00  0.00000000E+00  0.00000000E+00
  0.00000000E+00  0.00000000E+00  0.00000000E+00
  0.00000000E+00  0.00000000E+00  0.00000000E+00
  0.00000000E+00  0.00000000E+00  0.00000000E+00
  0.00000000E+00  0.00000000E+00  0.00000000E+00
  0.00000000E+00  0.00000000E+00  0.00000000E+00
  0.00000000E+00  0.00000000E+00  0.00000000E+00
  0.00000000E+00  0.00000000E+00  0.00000000E+00
  0.00000000E+00  0.00000000E+00  0.00000000E+00
  0.00000000E+00  0.00000000E+00  0.00000000E+00
  0.00000000E+00  0.00000000E+00  0.00000000E+00
  0.00000000E+00  0.00000000E+00  0.00000000E+00
  0.00000000E+00  0.00000000E+00  0.00000000E+00
  0.00000000E+00  0.00000000E+00  0.00000000E+00
  0.00000000E+00  0.00000000E+00  0.00000000E+00
  0.00000000E+00  0.00000000E+00  0.00000000E+00
  0.00000000E+00  0.00000000E+00  0.00000000E+00
  0.00000000E+00  0.00000000E+00  0.00000000E+00
  0.00000000E+00  0.00000000E+00  0.00000000E+00
  0.00000000E+00  0.00000000E+00  0.00000000E+00
  0.00000000E+00  0.00000000E+00  0.00000000E+00
  0.00000000E+00  0.00000000E+00  0.00000000E+00
  0.00000000E+00  0.00000000E+00  0.00000000E+00
  0.00000000E+00  0.00000000E+00  0.00000000E+00
  0.00000000E+00  0.00000000E+00  0.00000000E+00
  0.00000000E+00  0.00000000E+00  0.00000000E+00
  0.00000000E+00  0.00000000E+00  0.00000000E+00
  0.00000000E+00  0.00000000E+00  0.00000000E+00
  0.00000000E+00  0.00000000E+00  0.00000000E+00
  0.00000000E+00  0.00000000E+00  0.00000000E+00
  0.00000000E+00  0.00000000E+00  0.00000000E+00
  0.00000000E+00  0.00000000E+00  0.00000000E+00
  0.00000000E+00  0.00000000E+00  0.00000000E+00
  0.00000000E+00  0.00000000E+00  0.00000000E+00
  0.00000000E+00  0.00000000E+00  0.00000000E+00
  0.00000000E+00  0.00000000E+00  0.00000000E+00
  0.00000000E+00  0.00000000E+00  0.00000000E+00
  0.00000000E+00  0.00000000E+00  0.00000000E+00
  0.00000000E+00  0.00000000E+00  0.00000000E+00
  0.00000000E+00  0.00000000E+00  0.00000000E+00
  0.00000000E+00  0.00000000E+00  0.00000000E+00
  0.00000000E+00  0.00000000E+00  0.00000000E+00
  0.00000000E+00  0.00000000E+00  0.00000000E+00
  0.00000000E+00  0.00000000E+00  0.00000000E+00
  0.00000000E+00  0.00000000E+00  0.00000000E+00
  0.00000000E+00  0.00000000E+00  0.00000000E+00
  0.00000000E+00  0.00000000E+00  0.00000000E+00
  0.00000000E+00  0.00000000E+00  0.00000000E+00
  0.00000000E+00  0.00000000E+00  0.00000000E+00
