CeO2-you-111-you-V                      
   1.00000000000000     
     9.8584634594416496   -5.7224825479709525    0.0377904399137240
    -0.0000000012051932   11.4449630797986188   -0.0000000044097182
     0.0825018270130831   -0.0000000084047274   20.9168348555509453
   O    V    Ce   H 
    53     1    26     1
Selective dynamics
Direct
  0.0008206054332951  0.0018276587991640  0.9949878360891433   T   T   T
  0.1124808364639605  0.2178775895668298  0.1479818119369171   T   T   T
  0.2405154380645220  0.1369742781177312  0.3090763503322792   T   T   T
  0.1318939026329964  0.2365137347348781  0.3774630307944181   T   T   T
  0.0077012761996347  0.0046739949751987  0.2317440510741577   T   T   T
  0.2239030965997202  0.1105031906270115  0.0727163217004804   T   T   T
  0.3367653153870909  0.0026488777356157  0.9929568259872000   T   T   T
  0.4429240110802037  0.2235038015854496  0.1472842567440920   T   T   T
  0.5504768054037978  0.1079426588926524  0.3045879625923749   T   T   T
  0.4516941115235144  0.1838413349020044  0.4124734286488694   T   T   T
  0.3289437374493087  0.0020069890976929  0.2298299647987919   T   T   T
  0.5569847471355238  0.1138888891016185  0.0740828390354399   T   T   T
  0.6701518077497614  0.0022720745780887  0.9949266364222873   T   T   T
  0.7745456706579422  0.2252291922959290  0.1522473777970484   T   T   T
  0.8920199076752366  0.1122809499441765  0.3051251011192834   T   T   T
  0.7822603078481424  0.2178766519610058  0.3867754207657770   T   T   T
  0.6674651632616394  0.0010015482969241  0.2308071347550786   T   T   T
  0.8872695437321655  0.1110933726732979  0.0768018211197280   T   T   T
 -0.0007569530057865  0.3314041846208950  0.9948853673454582   T   T   T
  0.1061079856059169  0.5608809741827548  0.1468880057618723   T   T   T
  0.2286571553421502  0.4393905248499318  0.3062685415858717   T   T   T
  0.0945172281484886  0.5464475585595336  0.3858065821519580   T   T   T
  0.9950257541744204  0.3323865650253152  0.2304044330814165   T   T   T
  0.2235551832694160  0.4471352695256796  0.0698992224331934   T   T   T
  0.3355558747289223  0.3339925501954009  0.9937917587131455   T   T   T
  0.4534015754394689  0.5619327102636870  0.1459538472235434   T   T   T
  0.4342609495583374  0.4169001406958058  0.3627000297701685   T   T   T
  0.3417325809560989  0.3379362497827723  0.2366836457822068   T   T   T
  0.5582639228836219  0.4454148124924427  0.0711229719604473   T   T   T
  0.6692890305011682  0.3346773446720708  0.9925385321012443   T   T   T
  0.7797086783801117  0.5583000059525000  0.1467155013919182   T   T   T
  0.8880058399990501  0.4435735062911598  0.3030906460186790   T   T   T
  0.7834544335404141  0.5595064078416442  0.3864560389020287   T   T   T
  0.6549414342810524  0.3436738383890275  0.2333906868269255   T   T   T
  0.8875293928173741  0.4438237530021046  0.0727483258533238   T   T   T
  0.0031387684601781  0.6688390886490568  0.9940296993919616   T   T   T
  0.1103557998246218  0.8901901825572137  0.1493889651050199   T   T   T
  0.2166619192011541  0.7801752037391960  0.3050014873825984   T   T   T
  0.1117945250411144  0.8962086580376195  0.3840331518243932   T   T   T
  0.9970601247075010  0.6671656637497424  0.2295917357312658   T   T   T
  0.2255920880013328  0.7822575050825424  0.0735450488464427   T   T   T
  0.3392556304480668  0.6720463099976133  0.9944470518064130   T   T   T
  0.4473071281901133  0.8944486469332416  0.1509229104885721   T   T   T
  0.5557289774821749  0.7777710821597345  0.3092247029109335   T   T   T
  0.4447403927978509  0.8969816041403222  0.3875261944884885   T   T   T
  0.3347333208420798  0.6748911546955174  0.2290321537141676   T   T   T
  0.5591282816969170  0.7831090891222092  0.0755416952673386   T   T   T
  0.6703145263620716  0.6711659265268268  0.9945024456313740   T   T   T
  0.7788542059558133  0.8865136436019403  0.1537714896964016   T   T   T
  0.8933136945408912  0.7849702019278029  0.3047499145704479   T   T   T
  0.7883510348515507  0.9028340520567358  0.3886005506753737   T   T   T
  0.6597771412140985  0.6496250024613315  0.2345602483599461   T   T   T
  0.8908892657788526  0.7797625647597826  0.0740725187347989   T   T   T
  0.2854043105962524  0.3201506753897821  0.3242599255086293   T   T   T
  0.0028682456819288  0.0030354300162742  0.3447433242969013   T   T   T
  0.2231854632111999  0.1118378551213235  0.1877487096383992   T   T   T
  0.1126180109127332  0.2233127077520690  0.0340796906900115   T   T   T
  0.3322170783490622  0.9966330699140250  0.3464837021855249   T   T   T
  0.5540740795583441  0.1138021155413030  0.1915184627768453   T   T   T
  0.4461805418859969  0.2225488851123457  0.0314038881042619   T   T   T
  0.6654629883620101 -0.0002796129799473  0.3456246543626381   T   T   T
  0.8902013282262583  0.1132265465206210  0.1906457542044970   T   T   T
  0.7788376080621977  0.2236240593690945  0.0347078460959619   T   T   T
 -0.0062808166686885  0.3350440514473657  0.3431970122441058   T   T   T
  0.2228109405200251  0.4488114284773377  0.1863416694407933   T   T   T
  0.1126488177387030  0.5573213386769402  0.0341693538273445   T   T   T
  0.5572601633522469  0.4471769140308527  0.1814297510391516   T   T   T
  0.4472531194927562  0.5601046678624448  0.0326094529198473   T   T   T
  0.6667817775484123  0.3284334953366096  0.3537674255084515   T   T   T
  0.8864043789865477  0.4456520690811387  0.1901510822437260   T   T   T
  0.7815875884447248  0.5578420460391363  0.0322725872619098   T   T   T
  0.9942690764749301  0.6636318490770059  0.3446552478484868   T   T   T
  0.2220565798809919  0.7796841829194339  0.1884329754216180   T   T   T
  0.1134632820634603  0.8911220369402666  0.0339219578852570   T   T   T
  0.3251651091943505  0.6739946796494359  0.3450545350571613   T   T   T
  0.5548065120945083  0.7779857960341375  0.1925607559706923   T   T   T
  0.4485430313793346  0.8925069078941196  0.0351160561358757   T   T   T
  0.6791985580488601  0.6791037669924312  0.3500033189111478   T   T   T
  0.8888939996951373  0.7774993084522442  0.1904145133536869   T   T   T
  0.7796815418013998  0.8908956547609003  0.0359338628638702   T   T   T
  0.4063855087912674  0.2285853101449062  0.4313322109606318   T   T   T
 
  0.00000000E+00  0.00000000E+00  0.00000000E+00
  0.00000000E+00  0.00000000E+00  0.00000000E+00
  0.00000000E+00  0.00000000E+00  0.00000000E+00
  0.00000000E+00  0.00000000E+00  0.00000000E+00
  0.00000000E+00  0.00000000E+00  0.00000000E+00
  0.00000000E+00  0.00000000E+00  0.00000000E+00
  0.00000000E+00  0.00000000E+00  0.00000000E+00
  0.00000000E+00  0.00000000E+00  0.00000000E+00
  0.00000000E+00  0.00000000E+00  0.00000000E+00
  0.00000000E+00  0.00000000E+00  0.00000000E+00
  0.00000000E+00  0.00000000E+00  0.00000000E+00
  0.00000000E+00  0.00000000E+00  0.00000000E+00
  0.00000000E+00  0.00000000E+00  0.00000000E+00
  0.00000000E+00  0.00000000E+00  0.00000000E+00
  0.00000000E+00  0.00000000E+00  0.00000000E+00
  0.00000000E+00  0.00000000E+00  0.00000000E+00
  0.00000000E+00  0.00000000E+00  0.00000000E+00
  0.00000000E+00  0.00000000E+00  0.00000000E+00
  0.00000000E+00  0.00000000E+00  0.00000000E+00
  0.00000000E+00  0.00000000E+00  0.00000000E+00
  0.00000000E+00  0.00000000E+00  0.00000000E+00
  0.00000000E+00  0.00000000E+00  0.00000000E+00
  0.00000000E+00  0.00000000E+00  0.00000000E+00
  0.00000000E+00  0.00000000E+00  0.00000000E+00
  0.00000000E+00  0.00000000E+00  0.00000000E+00
  0.00000000E+00  0.00000000E+00  0.00000000E+00
  0.00000000E+00  0.00000000E+00  0.00000000E+00
  0.00000000E+00  0.00000000E+00  0.00000000E+00
  0.00000000E+00  0.00000000E+00  0.00000000E+00
  0.00000000E+00  0.00000000E+00  0.00000000E+00
  0.00000000E+00  0.00000000E+00  0.00000000E+00
  0.00000000E+00  0.00000000E+00  0.00000000E+00
  0.00000000E+00  0.00000000E+00  0.00000000E+00
  0.00000000E+00  0.00000000E+00  0.00000000E+00
  0.00000000E+00  0.00000000E+00  0.00000000E+00
  0.00000000E+00  0.00000000E+00  0.00000000E+00
  0.00000000E+00  0.00000000E+00  0.00000000E+00
  0.00000000E+00  0.00000000E+00  0.00000000E+00
  0.00000000E+00  0.00000000E+00  0.00000000E+00
  0.00000000E+00  0.00000000E+00  0.00000000E+00
  0.00000000E+00  0.00000000E+00  0.00000000E+00
  0.00000000E+00  0.00000000E+00  0.00000000E+00
  0.00000000E+00  0.00000000E+00  0.00000000E+00
  0.00000000E+00  0.00000000E+00  0.00000000E+00
  0.00000000E+00  0.00000000E+00  0.00000000E+00
  0.00000000E+00  0.00000000E+00  0.00000000E+00
  0.00000000E+00  0.00000000E+00  0.00000000E+00
  0.00000000E+00  0.00000000E+00  0.00000000E+00
  0.00000000E+00  0.00000000E+00  0.00000000E+00
  0.00000000E+00  0.00000000E+00  0.00000000E+00
  0.00000000E+00  0.00000000E+00  0.00000000E+00
  0.00000000E+00  0.00000000E+00  0.00000000E+00
  0.00000000E+00  0.00000000E+00  0.00000000E+00
  0.00000000E+00  0.00000000E+00  0.00000000E+00
  0.00000000E+00  0.00000000E+00  0.00000000E+00
  0.00000000E+00  0.00000000E+00  0.00000000E+00
  0.00000000E+00  0.00000000E+00  0.00000000E+00
  0.00000000E+00  0.00000000E+00  0.00000000E+00
  0.00000000E+00  0.00000000E+00  0.00000000E+00
  0.00000000E+00  0.00000000E+00  0.00000000E+00
  0.00000000E+00  0.00000000E+00  0.00000000E+00
  0.00000000E+00  0.00000000E+00  0.00000000E+00
  0.00000000E+00  0.00000000E+00  0.00000000E+00
  0.00000000E+00  0.00000000E+00  0.00000000E+00
  0.00000000E+00  0.00000000E+00  0.00000000E+00
  0.00000000E+00  0.00000000E+00  0.00000000E+00
  0.00000000E+00  0.00000000E+00  0.00000000E+00
  0.00000000E+00  0.00000000E+00  0.00000000E+00
  0.00000000E+00  0.00000000E+00  0.00000000E+00
  0.00000000E+00  0.00000000E+00  0.00000000E+00
  0.00000000E+00  0.00000000E+00  0.00000000E+00
  0.00000000E+00  0.00000000E+00  0.00000000E+00
  0.00000000E+00  0.00000000E+00  0.00000000E+00
  0.00000000E+00  0.00000000E+00  0.00000000E+00
  0.00000000E+00  0.00000000E+00  0.00000000E+00
  0.00000000E+00  0.00000000E+00  0.00000000E+00
  0.00000000E+00  0.00000000E+00  0.00000000E+00
  0.00000000E+00  0.00000000E+00  0.00000000E+00
  0.00000000E+00  0.00000000E+00  0.00000000E+00
  0.00000000E+00  0.00000000E+00  0.00000000E+00
  0.00000000E+00  0.00000000E+00  0.00000000E+00
