CeO2-you-111-you-Ti                     
   1.00000000000000     
     9.8040322899416275   -5.6603610484190874    0.0000000011997966
     0.0430183905107126   11.3952301378587642    0.0231724018578684
     0.0248657510310825    0.0430687369243788   21.0614675456251419
   O    Ti   Ce   H 
    53     1    26     2
Selective dynamics
Direct
  0.9988394649126505 -0.0002090059965166  0.9958284922887191   T   T   T
  0.1112865606943458  0.2226981386548204  0.1486795548592355   F   F   F
  0.2474626397117408  0.1326798143564837  0.3085668261557475   T   T   T
  0.1307828368516627  0.2328955467151888  0.3753447053898255   T   T   T
  0.0064278384994988  0.0015230918222179  0.2300534438401408   T   T   T
  0.2215646423184197  0.1097962846368148  0.0727238651171049   F   F   F
  0.3346625875236380  0.9995986659218125  0.9957707134558299   T   T   T
  0.4447445779600230  0.2226981386542874  0.1486795548592283   F   F   F
  0.5541640670419304  0.1149074012563415  0.3042121303004134   T   T   T
  0.4686900504049560  0.1995075902995120  0.4078442240743411   T   T   T
  0.3302658098036488  0.9985019941864907  0.2283009675627146   T   T   T
  0.5579620876225562  0.1117599049488547  0.0759622435587062   F   F   F
  0.6668461391412582  0.9997701899681845  0.9959884397119617   T   T   T
  0.7796826048149654  0.2260312096299941  0.1528933463000186   F   F   F
  0.8929444975514188  0.1122013646156710  0.3037913061075949   T   T   T
  0.7819671138533549  0.2226949224744727  0.3827159157032864   T   T   T
  0.6673612531912673  0.0009259657760503  0.2312020087077428   T   T   T
  0.8871318173263560  0.1117599049489542  0.0759622435586778   F   F   F
  0.0007553007226421  0.3333204255224453  0.9958658284932471   T   T   T
  0.1104490249428665  0.5544158001275790  0.1499372173050730   F   F   F
  0.2368419661443625  0.4412990612786781  0.3028224625194709   T   T   T
  0.0986190770192312  0.5454461525435251  0.3841754054850365   T   T   T
  0.0047853289524723  0.3346599821049069  0.2309900729619192   T   T   T
  0.2234290314735574  0.4450907025974118  0.0760169184520905   F   F   F
  0.3334626406187029  0.3336812261681591  0.9957971789028837   T   T   T
  0.4443335996581013  0.5553351993165805  0.1522358902035066   F   F   F
  0.5174167141351805  0.4187464597395565  0.3124478239888236   T   T   T
  0.3265331819113158  0.3272150180841882  0.2284132825492006   T   T   T
  0.5549956711237698  0.4450907025973834  0.0760169184520976   F   F   F
  0.6655580753139346  0.3336486833853333  0.9959253637673244   T   T   T
  0.7772997751846660  0.5544158001274369  0.1499372173050588   F   F   F
  0.8888862665654017  0.4422725691756369  0.3020842026075337   T   T   T
  0.7807682820087581  0.5435718588075825  0.3841357123400706   T   T   T
  0.6635562502548055  0.3376758536885774  0.2313968653594057   T   T   T
  0.8887377165200192  0.4441414330399880  0.0750403469760457   F   F   F
  0.0001598240989120  0.6673057029046638  0.9958247656323395   T   T   T
  0.1102438386743572  0.8871546773482279  0.1475979216302008   F   F   F
  0.2197618450087465  0.7796894703287172  0.3049026036145355   T   T   T
  0.1148892370783346  0.8936977378722806  0.3841349769555030   T   T   T
 -0.0003095268353360  0.6672825596852519  0.2289078539442598   T   T   T
  0.2231626868529020  0.7772888116854233  0.0751013376723790   F   F   F
  0.3346870524810304  0.6666827244543500  0.9958780298265838   T   T   T
  0.4469778217416476  0.8901312101248209  0.1507420093655014   F   F   F
  0.5576414400304197  0.7771380623218066  0.3077529880569127   T   T   T
  0.4504492919524297  0.8999543448009755  0.3864600823175545   T   T   T
  0.3323292442500840  0.6675726077865053  0.2291379354563522   T   T   T
  0.5548036479830643  0.7762732959661207  0.0763467162636360   F   F   F
  0.6668547415943401  0.6671684443776159  0.9958651619749298   T   T   T
  0.7764863883834465  0.8901312101250340  0.1507420093654801   F   F   F
  0.8937226461539048  0.7799661727502600  0.3048161597827884   T   T   T
  0.7915433678603827  0.9038692033973063  0.3869258707050001   T   T   T
  0.6668547748592790  0.6614471420559599  0.2303878660186336   T   T   T
  0.8874591248326453  0.7772888116854801  0.0751013376723861   F   F   F
  0.3117363005933847  0.3287317422268611  0.3248407611170888   T   T   T
  0.0066652018043209  0.0041296208178070  0.3444422556468784   T   T   T
  0.2198367134346171  0.1063404268696075  0.1850444598486618   F   F   F
  0.1109254824283212  0.2231925842443943  0.0352411118878848   F   F   F
  0.3343816105241836 -0.0026283010207402  0.3453327994300520   T   T   T
  0.5550186791460661  0.1117966468499461  0.1906022654831858   F   F   F
  0.4456001018162254  0.2231925842446003  0.0352411118878990   F   F   F
  0.6695442210530584 -0.0005669994900167  0.3458656752089490   T   T   T
  0.8901119677035396  0.1117966468491929  0.1906022654832356   F   F   F
  0.7781961731304747  0.2230583462608493  0.0363517225446657   F   F   F
  0.0021688137968955  0.3326132304505504  0.3437321861491493   T   T   T
  0.2252233317537602  0.4449769372704893  0.1915239688870471   F   F   F
  0.1120357749418019  0.5557370265986137  0.0362004293644418   F   F   F
  0.5530876055182716  0.4449769372716048  0.1915239688870898   F   F   F
  0.4446934219580427  0.5560548439160016  0.0360849320718799   F   F   F
  0.6690456168279810  0.3324953839268555  0.3445271241103809   T   T   T
  0.8897215130342815  0.4461090260686404  0.1906724051494422   F   F   F
  0.7770342516568221  0.5557370265986705  0.0362004293644418   F   F   F
  0.9995828347140977  0.6641752585079698  0.3433664790783607   T   T   T
  0.2224029258480869  0.7771271168917693  0.1890106969936838   F   F   F
  0.1105883807945958  0.8878437615893091  0.0339893220358007   F   F   F
  0.3302771644354324  0.6693668972437830  0.3467579393974524   T   T   T
  0.5562425390684496  0.7791510781370548  0.1927283223422762   F   F   F
  0.4456438414666621  0.8890415121516355  0.0361633376060055   F   F   F
  0.6725386484179067  0.6658778404059316  0.3464000968761861   T   T   T
  0.8880571910428827  0.7771271168915845  0.1890106969937548   F   F   F
  0.7767306706848913  0.8890415121514650  0.0361633376059842   F   F   F
  0.3881610223724752  0.4655784198447300  0.3894059084323093   T   T   T
  0.4353728890618567  0.2390217541554716  0.4389888004153804   T   T   T
 
  0.00000000E+00  0.00000000E+00  0.00000000E+00
  0.00000000E+00  0.00000000E+00  0.00000000E+00
  0.00000000E+00  0.00000000E+00  0.00000000E+00
  0.00000000E+00  0.00000000E+00  0.00000000E+00
  0.00000000E+00  0.00000000E+00  0.00000000E+00
  0.00000000E+00  0.00000000E+00  0.00000000E+00
  0.00000000E+00  0.00000000E+00  0.00000000E+00
  0.00000000E+00  0.00000000E+00  0.00000000E+00
  0.00000000E+00  0.00000000E+00  0.00000000E+00
  0.00000000E+00  0.00000000E+00  0.00000000E+00
  0.00000000E+00  0.00000000E+00  0.00000000E+00
  0.00000000E+00  0.00000000E+00  0.00000000E+00
  0.00000000E+00  0.00000000E+00  0.00000000E+00
  0.00000000E+00  0.00000000E+00  0.00000000E+00
  0.00000000E+00  0.00000000E+00  0.00000000E+00
  0.00000000E+00  0.00000000E+00  0.00000000E+00
  0.00000000E+00  0.00000000E+00  0.00000000E+00
  0.00000000E+00  0.00000000E+00  0.00000000E+00
  0.00000000E+00  0.00000000E+00  0.00000000E+00
  0.00000000E+00  0.00000000E+00  0.00000000E+00
  0.00000000E+00  0.00000000E+00  0.00000000E+00
  0.00000000E+00  0.00000000E+00  0.00000000E+00
  0.00000000E+00  0.00000000E+00  0.00000000E+00
  0.00000000E+00  0.00000000E+00  0.00000000E+00
  0.00000000E+00  0.00000000E+00  0.00000000E+00
  0.00000000E+00  0.00000000E+00  0.00000000E+00
  0.00000000E+00  0.00000000E+00  0.00000000E+00
  0.00000000E+00  0.00000000E+00  0.00000000E+00
  0.00000000E+00  0.00000000E+00  0.00000000E+00
  0.00000000E+00  0.00000000E+00  0.00000000E+00
  0.00000000E+00  0.00000000E+00  0.00000000E+00
  0.00000000E+00  0.00000000E+00  0.00000000E+00
  0.00000000E+00  0.00000000E+00  0.00000000E+00
  0.00000000E+00  0.00000000E+00  0.00000000E+00
  0.00000000E+00  0.00000000E+00  0.00000000E+00
  0.00000000E+00  0.00000000E+00  0.00000000E+00
  0.00000000E+00  0.00000000E+00  0.00000000E+00
  0.00000000E+00  0.00000000E+00  0.00000000E+00
  0.00000000E+00  0.00000000E+00  0.00000000E+00
  0.00000000E+00  0.00000000E+00  0.00000000E+00
  0.00000000E+00  0.00000000E+00  0.00000000E+00
  0.00000000E+00  0.00000000E+00  0.00000000E+00
  0.00000000E+00  0.00000000E+00  0.00000000E+00
  0.00000000E+00  0.00000000E+00  0.00000000E+00
  0.00000000E+00  0.00000000E+00  0.00000000E+00
  0.00000000E+00  0.00000000E+00  0.00000000E+00
  0.00000000E+00  0.00000000E+00  0.00000000E+00
  0.00000000E+00  0.00000000E+00  0.00000000E+00
  0.00000000E+00  0.00000000E+00  0.00000000E+00
  0.00000000E+00  0.00000000E+00  0.00000000E+00
  0.00000000E+00  0.00000000E+00  0.00000000E+00
  0.00000000E+00  0.00000000E+00  0.00000000E+00
  0.00000000E+00  0.00000000E+00  0.00000000E+00
  0.00000000E+00  0.00000000E+00  0.00000000E+00
  0.00000000E+00  0.00000000E+00  0.00000000E+00
  0.00000000E+00  0.00000000E+00  0.00000000E+00
  0.00000000E+00  0.00000000E+00  0.00000000E+00
  0.00000000E+00  0.00000000E+00  0.00000000E+00
  0.00000000E+00  0.00000000E+00  0.00000000E+00
  0.00000000E+00  0.00000000E+00  0.00000000E+00
  0.00000000E+00  0.00000000E+00  0.00000000E+00
  0.00000000E+00  0.00000000E+00  0.00000000E+00
  0.00000000E+00  0.00000000E+00  0.00000000E+00
  0.00000000E+00  0.00000000E+00  0.00000000E+00
  0.00000000E+00  0.00000000E+00  0.00000000E+00
  0.00000000E+00  0.00000000E+00  0.00000000E+00
  0.00000000E+00  0.00000000E+00  0.00000000E+00
  0.00000000E+00  0.00000000E+00  0.00000000E+00
  0.00000000E+00  0.00000000E+00  0.00000000E+00
  0.00000000E+00  0.00000000E+00  0.00000000E+00
  0.00000000E+00  0.00000000E+00  0.00000000E+00
  0.00000000E+00  0.00000000E+00  0.00000000E+00
  0.00000000E+00  0.00000000E+00  0.00000000E+00
  0.00000000E+00  0.00000000E+00  0.00000000E+00
  0.00000000E+00  0.00000000E+00  0.00000000E+00
  0.00000000E+00  0.00000000E+00  0.00000000E+00
  0.00000000E+00  0.00000000E+00  0.00000000E+00
  0.00000000E+00  0.00000000E+00  0.00000000E+00
  0.00000000E+00  0.00000000E+00  0.00000000E+00
  0.00000000E+00  0.00000000E+00  0.00000000E+00
  0.00000000E+00  0.00000000E+00  0.00000000E+00
  0.00000000E+00  0.00000000E+00  0.00000000E+00
