CeO2-you-111-you-Cu                     
   1.00000000000000     
     9.8211826437460985   -5.7153982406844754    0.0090528617177749
    -0.0390884138999806   11.3630913554210906   -0.0090528601635984
     0.0100878417317085   -0.0174726534100434   21.0850369688647135
   O    Cu   Ce   H 
    53     1    26     2
Selective dynamics
Direct
 -0.0001245898358412 -0.0001528784319258  0.9952442822807521   T   T   T
  0.1047385672614425  0.2183497053863377  0.1463210947572549   F   F   F
  0.2188864600944005  0.0985142596824034  0.3046129553539779   T   T   T
  0.1085850000392155  0.2375181908837933  0.3851402246608275   T   T   T
  0.0003577340970616  0.0017873468958284  0.2300218147175861   T   T   T
  0.2218079736731937  0.1112415696193807  0.0753956265901934   F   F   F
  0.3341783780196400  0.0009215156790869  0.9960401006886040   T   T   T
  0.4449183637984788  0.2217476361986712  0.1503457070453109   F   F   F
  0.5541142859377836  0.1138409339737182  0.3057046330887318   T   T   T
  0.4646627817374120  0.2023057058850564  0.4047362891603147   T   T   T
  0.3352491728512631  0.0000799085723737  0.2288620848740996   T   T   T
  0.5569435511910328  0.1097234488090706  0.0774633031475247   F   F   F
  0.6656985725745186  0.0010485596195994  0.9945951439674137   T   T   T
  0.7842012528523625  0.2249546840026255  0.1530193629979095   F   F   F
  0.8880809354588415  0.1104102251709568  0.3048509083122502   T   T   T
  0.7767217836654079  0.2210003417221174  0.3862053351762013   T   T   T
  0.6666851084372374  0.0004213969969855  0.2305549058750896   T   T   T
  0.8850227793563974  0.1085696732172536  0.0746535669483350   F   F   F
  0.9978169465140402  0.3323834222697442  0.9950201864503693   T   T   T
  0.1099821223728057  0.5566848776237237  0.1475889229719058   F   F   F
  0.1181996275803222  0.5493270400223430  0.3783725127044580   T   T   T
  0.0185895419686010  0.3440037413003480  0.2362056070269022   T   T   T
  0.2219756358121785  0.4446903641899524  0.0717286926308844   F   F   F
  0.3337834913301111  0.3325546073856725  0.9950211255265379   T   T   T
  0.4483162946187562  0.5619284327412402  0.1463210947564662   F   F   F
  0.5678802957493120  0.4476415498537199  0.3049473528463357   T   T   T
  0.4279462067070793  0.5574499876919797  0.3845783150636471   T   T   T
  0.3276480782456748  0.3394720067173478  0.2215823781201770   T   T   T
  0.5554254303798203  0.4448580263261235  0.0753956265903000   F   F   F
  0.6650660400938049  0.3319546403519411  0.9962188278813231   T   T   T
  0.7790540124910876  0.5557768394154365  0.1509492688672651   F   F   F
  0.8853545565734536  0.4442471590112917  0.3056844126803369   T   T   T
  0.7813631563448643  0.5597551006928643  0.3870070771569131   T   T   T
  0.6668957147014331  0.3316815566343735  0.2288973695560740   T   T   T
  0.8875178657864069  0.4438200058635715  0.0753808674899545   F   F   F
  0.9996988687309121  0.6671156784817628  0.9957418856320384   T   T   T
  0.1108901605831605  0.8876129875066567  0.1509492688671656   F   F   F
  0.2222526304669011  0.7817903261775104  0.3054258802800037   T   T   T
  0.1078876329675763  0.8863547780324073  0.3871295828757635   T   T   T
  0.0010785785085345  0.6658617420374798  0.2312667711925584   T   T   T
  0.2228459941362004  0.7791491342131849  0.0753808674898835   F   F   F
  0.3339035341185191  0.6683206095605690  0.9951510908729719   T   T   T
  0.4417113160000099  0.8824657471486219  0.1530193629982790   F   F   F
  0.5567100078003334  0.7793232403137881  0.3050700410567047   T   T   T
  0.4464023825308803  0.8914792377414374  0.3858661750823336   T   T   T
  0.3230539191691306  0.6480587702602779  0.2362368398419243   T   T   T
  0.5580973267828071  0.7816442206449068  0.0746535669483137   F   F   F
  0.6669207482214685  0.6668268983843808  0.9949758732828310   T   T   T
  0.7790435214573179  0.8876234785427357  0.1522323168654367   F   F   F
  0.8893996966151803  0.7774063791086652  0.3044842501216674   T   T   T
  0.7785194900541554  0.8886646099090818  0.3832265010499857   T   T   T
  0.6644588722944582  0.6663426776580261  0.2303397370040119   T   T   T
  0.8883602218602036  0.7783067781384290  0.0756038555116803   F   F   F
  0.2895614629026348  0.3766186229834818  0.3988694966667405   T   T   T
  0.0056886222256507  0.0034446848312451  0.3436238449925796   T   T   T
  0.2254600958831006  0.1155407466530320  0.1915773974904909   F   F   F
  0.1095816311986582  0.2198130336282702  0.0334871585858139   F   F   F
  0.3293781816269810  0.0016102916831895  0.3444974477165690   T   T   T
  0.5561864688078373  0.1104805311954848  0.1915338425894646   F   F   F
  0.4444466117146035  0.2222193882849481  0.0362540753328986   F   F   F
  0.6674840537051854 -0.0000517541361821  0.3452922901853341   T   T   T
  0.8901830578096792  0.1112473821927722  0.1908502928384905   F   F   F
  0.7775000059377604  0.2217087290439537  0.0357760667697917   F   F   F
  0.9875854362088902  0.3271741975417842  0.3474493973521061   T   T   T
  0.2225324703430545  0.4441335296494344  0.1806314425045841   F   F   F
  0.1097262045563028  0.5569407954417258  0.0340782088152451   F   F   F
  0.5511262533443215  0.4412059041142129  0.1915773974905193   F   F   F
  0.4468529663715444  0.5570853688016655  0.0334871585857286   F   F   F
  0.6657352023066223  0.3377506303244517  0.3445732011278633   T   T   T
  0.8885202094971234  0.4444037053525207  0.1914450855271852   F   F   F
  0.7771907394353263  0.5547808534088858  0.0366586409334388   F   F   F
  0.9984853817249950  0.6686892645512217  0.3447057821842480   T   T   T
  0.2222622946522108  0.7781467905121175  0.1914450855274339   F   F   F
  0.1118861465928020  0.8894762605662336  0.0366586409333678   F   F   F
  0.3398138852377510  0.6798752402151061  0.3472817463144297   T   T   T
  0.5554196178014195  0.7764839421883423  0.1908502928389169   F   F   F
  0.4449572709546317  0.8891669940625633  0.0357760667699196   F   F   F
  0.6631563140315291  0.6611287021140877  0.3435798600118657   T   T   T
  0.8894159830827988  0.7772510169199265  0.1901260964655123   F   F   F
  0.7773761057858763  0.8892908942135094  0.0353637745745203   F   F   F
  0.3413610112444379  0.3242086289438876  0.4529469087352469   T   T   T
  0.4187999719172220  0.2481319431144275  0.4239937208449813   T   T   T
 
  0.00000000E+00  0.00000000E+00  0.00000000E+00
  0.00000000E+00  0.00000000E+00  0.00000000E+00
  0.00000000E+00  0.00000000E+00  0.00000000E+00
  0.00000000E+00  0.00000000E+00  0.00000000E+00
  0.00000000E+00  0.00000000E+00  0.00000000E+00
  0.00000000E+00  0.00000000E+00  0.00000000E+00
  0.00000000E+00  0.00000000E+00  0.00000000E+00
  0.00000000E+00  0.00000000E+00  0.00000000E+00
  0.00000000E+00  0.00000000E+00  0.00000000E+00
  0.00000000E+00  0.00000000E+00  0.00000000E+00
  0.00000000E+00  0.00000000E+00  0.00000000E+00
  0.00000000E+00  0.00000000E+00  0.00000000E+00
  0.00000000E+00  0.00000000E+00  0.00000000E+00
  0.00000000E+00  0.00000000E+00  0.00000000E+00
  0.00000000E+00  0.00000000E+00  0.00000000E+00
  0.00000000E+00  0.00000000E+00  0.00000000E+00
  0.00000000E+00  0.00000000E+00  0.00000000E+00
  0.00000000E+00  0.00000000E+00  0.00000000E+00
  0.00000000E+00  0.00000000E+00  0.00000000E+00
  0.00000000E+00  0.00000000E+00  0.00000000E+00
  0.00000000E+00  0.00000000E+00  0.00000000E+00
  0.00000000E+00  0.00000000E+00  0.00000000E+00
  0.00000000E+00  0.00000000E+00  0.00000000E+00
  0.00000000E+00  0.00000000E+00  0.00000000E+00
  0.00000000E+00  0.00000000E+00  0.00000000E+00
  0.00000000E+00  0.00000000E+00  0.00000000E+00
  0.00000000E+00  0.00000000E+00  0.00000000E+00
  0.00000000E+00  0.00000000E+00  0.00000000E+00
  0.00000000E+00  0.00000000E+00  0.00000000E+00
  0.00000000E+00  0.00000000E+00  0.00000000E+00
  0.00000000E+00  0.00000000E+00  0.00000000E+00
  0.00000000E+00  0.00000000E+00  0.00000000E+00
  0.00000000E+00  0.00000000E+00  0.00000000E+00
  0.00000000E+00  0.00000000E+00  0.00000000E+00
  0.00000000E+00  0.00000000E+00  0.00000000E+00
  0.00000000E+00  0.00000000E+00  0.00000000E+00
  0.00000000E+00  0.00000000E+00  0.00000000E+00
  0.00000000E+00  0.00000000E+00  0.00000000E+00
  0.00000000E+00  0.00000000E+00  0.00000000E+00
  0.00000000E+00  0.00000000E+00  0.00000000E+00
  0.00000000E+00  0.00000000E+00  0.00000000E+00
  0.00000000E+00  0.00000000E+00  0.00000000E+00
  0.00000000E+00  0.00000000E+00  0.00000000E+00
  0.00000000E+00  0.00000000E+00  0.00000000E+00
  0.00000000E+00  0.00000000E+00  0.00000000E+00
  0.00000000E+00  0.00000000E+00  0.00000000E+00
  0.00000000E+00  0.00000000E+00  0.00000000E+00
  0.00000000E+00  0.00000000E+00  0.00000000E+00
  0.00000000E+00  0.00000000E+00  0.00000000E+00
  0.00000000E+00  0.00000000E+00  0.00000000E+00
  0.00000000E+00  0.00000000E+00  0.00000000E+00
  0.00000000E+00  0.00000000E+00  0.00000000E+00
  0.00000000E+00  0.00000000E+00  0.00000000E+00
  0.00000000E+00  0.00000000E+00  0.00000000E+00
  0.00000000E+00  0.00000000E+00  0.00000000E+00
  0.00000000E+00  0.00000000E+00  0.00000000E+00
  0.00000000E+00  0.00000000E+00  0.00000000E+00
  0.00000000E+00  0.00000000E+00  0.00000000E+00
  0.00000000E+00  0.00000000E+00  0.00000000E+00
  0.00000000E+00  0.00000000E+00  0.00000000E+00
  0.00000000E+00  0.00000000E+00  0.00000000E+00
  0.00000000E+00  0.00000000E+00  0.00000000E+00
  0.00000000E+00  0.00000000E+00  0.00000000E+00
  0.00000000E+00  0.00000000E+00  0.00000000E+00
  0.00000000E+00  0.00000000E+00  0.00000000E+00
  0.00000000E+00  0.00000000E+00  0.00000000E+00
  0.00000000E+00  0.00000000E+00  0.00000000E+00
  0.00000000E+00  0.00000000E+00  0.00000000E+00
  0.00000000E+00  0.00000000E+00  0.00000000E+00
  0.00000000E+00  0.00000000E+00  0.00000000E+00
  0.00000000E+00  0.00000000E+00  0.00000000E+00
  0.00000000E+00  0.00000000E+00  0.00000000E+00
  0.00000000E+00  0.00000000E+00  0.00000000E+00
  0.00000000E+00  0.00000000E+00  0.00000000E+00
  0.00000000E+00  0.00000000E+00  0.00000000E+00
  0.00000000E+00  0.00000000E+00  0.00000000E+00
  0.00000000E+00  0.00000000E+00  0.00000000E+00
  0.00000000E+00  0.00000000E+00  0.00000000E+00
  0.00000000E+00  0.00000000E+00  0.00000000E+00
  0.00000000E+00  0.00000000E+00  0.00000000E+00
  0.00000000E+00  0.00000000E+00  0.00000000E+00
  0.00000000E+00  0.00000000E+00  0.00000000E+00
