CeO2-you-111-you-Tc                     
   1.00000000000000     
     9.9086202594717552   -5.7151863606632274    0.0254611381271145
    -0.0000000066711674   11.4303706982479749   -0.0000000028562683
     0.0571192636307195   -0.0000000056160364   20.6542671700291294
   O    Tc   Ce   H 
    53     1    26     2
Selective dynamics
Direct
  0.9993154428564265  0.0017621844529107  0.9941979188170136   T   T   T
  0.1244349470394965  0.2288839735207020  0.1532346054364524   F   F   F
  0.2270109991342649  0.1208697928963022  0.3029232459042411   T   T   T
  0.1579968404657972  0.2441544689861022  0.3899174811342023   T   T   T
 -0.0013476515481290  0.9986565066976544  0.2267857066640342   T   T   T
  0.2212481721695951  0.1097628016051075  0.0721597673258003   F   F   F
  0.3346756276216504  0.0005138630472040  0.9923597522000841   T   T   T
  0.4405765086234865  0.2237738086230650  0.1482791066525877   F   F   F
  0.5448330864278815  0.1068945140160766  0.3070675268613589   T   T   T
  0.4247941474876113  0.2445149604886027  0.3865509915493947   T   T   T
  0.3297057292642353  0.9976235047149288  0.2284752643593847   T   T   T
  0.5535521073998737  0.1107291514335600  0.0742481482790183   F   F   F
  0.6698968447981427  0.0012579230913698  0.9955573708956257   T   T   T
  0.7715674610123173  0.2232117045507067  0.1519676936247620   F   F   F
  0.8864337089229083  0.1105468061073238  0.3057504813730647   T   T   T
  0.7666461773681470  0.2078155733848068  0.3934509318202863   T   T   T
  0.6627740800122244  0.9974710551398253  0.2310298502481383   T   T   T
  0.8909166489764431  0.1121248244879283  0.0781490101737177   F   F   F
  0.9989825014936905  0.3303553596592209  0.9941304270971595   T   T   T
  0.1109707524261978  0.5553938396492981  0.1479210088418839   F   F   F
  0.2245871809733539  0.4372031861495207  0.3041929461574670   T   T   T
  0.1223972664115655  0.5698057126796614  0.3881755416830052   T   T   T
 -0.0000616419630556  0.3342824169020154  0.2267934091486288   T   T   T
  0.2212481721698225  0.4448183705620750  0.0721597673259637   F   F   F
  0.3328588371216577  0.3330946237451186  0.9929288504794157   T   T   T
  0.4405765086183990  0.5501366999988235  0.1482791066527938   F   F   F
  0.4330643262949845  0.4913911624808482  0.3731231116481987   T   T   T
  0.3628386063298076  0.3466682232623573  0.2458864573096760   T   T   T
  0.5569322287532046  0.4451321143770102  0.0699467019714390   F   F   F
  0.6681537742065448  0.3319809991873243  0.9930025003961691   T   T   T
  0.7791204859073915  0.5562272429551243  0.1456058513848717   F   F   F
  0.8934655778990378  0.4471177149680939  0.3053162406371043   T   T   T
  0.7863375591648233  0.5593194453662613  0.3894200772722779   T   T   T
  0.6591603381373913  0.3426136269922625  0.2336503651555882   T   T   T
  0.8896640141921566  0.4440644761824046  0.0725878239069928   F   F   F
  0.0003219683935928  0.6665767553086349  0.9917084016033242   T   T   T
  0.1109707524233272  0.8889109127727011  0.1479210088420118   F   F   F
  0.2206180335864379  0.7768702729324899  0.3018237122423012   T   T   T
  0.1219751693764350  0.8861981991034400  0.3876630600379105   T   T   T
  0.9983562989162030  0.6659843223644533  0.2276911331128816   T   T   T
  0.2220368297952575  0.7776854148971140  0.0717645401458284   F   F   F
  0.3346243177923460  0.6673476484326324  0.9924483784532633   T   T   T
  0.4444753936907588  0.8889046968461614  0.1498575700350742   F   F   F
  0.5432398760885744  0.7715340875574032  0.3080426185809821   T   T   T
  0.4324461033165147  0.8841935798968567  0.3872704166592611   T   T   T
  0.3287383207839499  0.6636957682674222  0.2291235320621814   T   T   T
  0.5535521074006198  0.7761559559673117  0.0742481482791533   F   F   F
  0.6684487513799686  0.6695567593927485  0.9930381564289760   T   T   T
  0.7715674610105694  0.8816887564628573  0.1519676936244281   F   F   F
  0.8923143103191642  0.7788418090708450  0.3050262085804674   T   T   T
  0.7662043088268844  0.8934022947794097  0.3930117730935097   T   T   T
  0.6586741551245191  0.6508099761275323  0.2332374389290172   T   T   T
  0.8896640141926042  0.7789325380089664  0.0725878239070212   F   F   F
  0.3085398955995619  0.3306352547171763  0.3371849954993320   T   T   T
  0.0005028015932678 -0.0003293496390257  0.3490820206944495   T   T   T
  0.2194347794985703  0.1068299447142778  0.1902067387201498   F   F   F
  0.1118724583150126  0.2226027291583179  0.0344902756634653   F   F   F
  0.3252656409284569  0.9934046379461143  0.3431894520075175   T   T   T
  0.5535311315946103  0.1118342615847823  0.1919596722707837   F   F   F
  0.4436846208134426  0.2203851061274875  0.0319012681795456   F   F   F
  0.6636131554663993  0.9984398664561031  0.3489079139428952   T   T   T
  0.8877957509245391  0.1105643754646408  0.1932271158173862   F   F   F
  0.7779827968585664  0.2222692781341067  0.0354703193788168   F   F   F
  0.9972672434466272  0.3328784415410659  0.3505083172881496   T   T   T
  0.2194347794985347  0.4459378347804019  0.1902067387203630   F   F   F
  0.1108860502656341  0.5543814794223394  0.0324452069545771   F   F   F
  0.5606205454745492  0.4469762727347089  0.1814245837124346   F   F   F
  0.4436846208130731  0.5566335146853731  0.0319012681793538   F   F   F
  0.6756305215916467  0.3318870206811426  0.3527524955174857   T   T   T
  0.8874829966503910  0.4444364149631639  0.1906902256842713   F   F   F
  0.7804862753028132  0.5569101376505969  0.0307290827299553   F   F   F
 -0.0024485505840165  0.6657340492838747  0.3462180176402167   T   T   T
  0.2197490560272044  0.7765415280150592  0.1865435043083323   F   F   F
  0.1108860502659823  0.8898385708452778  0.0324452069546126   F   F   F
  0.3258354040653881  0.6707617096294868  0.3437871299331189   T   T   T
  0.5535311316005647  0.7750298700074367  0.1919596722707482   F   F   F
  0.4455299662800485  0.8894319831399002  0.0343295455053436   F   F   F
  0.6751972860986684  0.6766082456592286  0.3530053123657134   T   T   T
  0.8874829966550308  0.7763795816991745  0.1906902256848966   F   F   F
  0.7779827968612381  0.8890465187262748  0.0354703193786392   F   F   F
  0.3201562647864080  0.3355628331376166  0.4970951913650791   T   T   T
  0.4148397738580858  0.2632923068776831  0.4318252927262804   T   T   T
 
  0.00000000E+00  0.00000000E+00  0.00000000E+00
  0.00000000E+00  0.00000000E+00  0.00000000E+00
  0.00000000E+00  0.00000000E+00  0.00000000E+00
  0.00000000E+00  0.00000000E+00  0.00000000E+00
  0.00000000E+00  0.00000000E+00  0.00000000E+00
  0.00000000E+00  0.00000000E+00  0.00000000E+00
  0.00000000E+00  0.00000000E+00  0.00000000E+00
  0.00000000E+00  0.00000000E+00  0.00000000E+00
  0.00000000E+00  0.00000000E+00  0.00000000E+00
  0.00000000E+00  0.00000000E+00  0.00000000E+00
  0.00000000E+00  0.00000000E+00  0.00000000E+00
  0.00000000E+00  0.00000000E+00  0.00000000E+00
  0.00000000E+00  0.00000000E+00  0.00000000E+00
  0.00000000E+00  0.00000000E+00  0.00000000E+00
  0.00000000E+00  0.00000000E+00  0.00000000E+00
  0.00000000E+00  0.00000000E+00  0.00000000E+00
  0.00000000E+00  0.00000000E+00  0.00000000E+00
  0.00000000E+00  0.00000000E+00  0.00000000E+00
  0.00000000E+00  0.00000000E+00  0.00000000E+00
  0.00000000E+00  0.00000000E+00  0.00000000E+00
  0.00000000E+00  0.00000000E+00  0.00000000E+00
  0.00000000E+00  0.00000000E+00  0.00000000E+00
  0.00000000E+00  0.00000000E+00  0.00000000E+00
  0.00000000E+00  0.00000000E+00  0.00000000E+00
  0.00000000E+00  0.00000000E+00  0.00000000E+00
  0.00000000E+00  0.00000000E+00  0.00000000E+00
  0.00000000E+00  0.00000000E+00  0.00000000E+00
  0.00000000E+00  0.00000000E+00  0.00000000E+00
  0.00000000E+00  0.00000000E+00  0.00000000E+00
  0.00000000E+00  0.00000000E+00  0.00000000E+00
  0.00000000E+00  0.00000000E+00  0.00000000E+00
  0.00000000E+00  0.00000000E+00  0.00000000E+00
  0.00000000E+00  0.00000000E+00  0.00000000E+00
  0.00000000E+00  0.00000000E+00  0.00000000E+00
  0.00000000E+00  0.00000000E+00  0.00000000E+00
  0.00000000E+00  0.00000000E+00  0.00000000E+00
  0.00000000E+00  0.00000000E+00  0.00000000E+00
  0.00000000E+00  0.00000000E+00  0.00000000E+00
  0.00000000E+00  0.00000000E+00  0.00000000E+00
  0.00000000E+00  0.00000000E+00  0.00000000E+00
  0.00000000E+00  0.00000000E+00  0.00000000E+00
  0.00000000E+00  0.00000000E+00  0.00000000E+00
  0.00000000E+00  0.00000000E+00  0.00000000E+00
  0.00000000E+00  0.00000000E+00  0.00000000E+00
  0.00000000E+00  0.00000000E+00  0.00000000E+00
  0.00000000E+00  0.00000000E+00  0.00000000E+00
  0.00000000E+00  0.00000000E+00  0.00000000E+00
  0.00000000E+00  0.00000000E+00  0.00000000E+00
  0.00000000E+00  0.00000000E+00  0.00000000E+00
  0.00000000E+00  0.00000000E+00  0.00000000E+00
  0.00000000E+00  0.00000000E+00  0.00000000E+00
  0.00000000E+00  0.00000000E+00  0.00000000E+00
  0.00000000E+00  0.00000000E+00  0.00000000E+00
  0.00000000E+00  0.00000000E+00  0.00000000E+00
  0.00000000E+00  0.00000000E+00  0.00000000E+00
  0.00000000E+00  0.00000000E+00  0.00000000E+00
  0.00000000E+00  0.00000000E+00  0.00000000E+00
  0.00000000E+00  0.00000000E+00  0.00000000E+00
  0.00000000E+00  0.00000000E+00  0.00000000E+00
  0.00000000E+00  0.00000000E+00  0.00000000E+00
  0.00000000E+00  0.00000000E+00  0.00000000E+00
  0.00000000E+00  0.00000000E+00  0.00000000E+00
  0.00000000E+00  0.00000000E+00  0.00000000E+00
  0.00000000E+00  0.00000000E+00  0.00000000E+00
  0.00000000E+00  0.00000000E+00  0.00000000E+00
  0.00000000E+00  0.00000000E+00  0.00000000E+00
  0.00000000E+00  0.00000000E+00  0.00000000E+00
  0.00000000E+00  0.00000000E+00  0.00000000E+00
  0.00000000E+00  0.00000000E+00  0.00000000E+00
  0.00000000E+00  0.00000000E+00  0.00000000E+00
  0.00000000E+00  0.00000000E+00  0.00000000E+00
  0.00000000E+00  0.00000000E+00  0.00000000E+00
  0.00000000E+00  0.00000000E+00  0.00000000E+00
  0.00000000E+00  0.00000000E+00  0.00000000E+00
  0.00000000E+00  0.00000000E+00  0.00000000E+00
  0.00000000E+00  0.00000000E+00  0.00000000E+00
  0.00000000E+00  0.00000000E+00  0.00000000E+00
  0.00000000E+00  0.00000000E+00  0.00000000E+00
  0.00000000E+00  0.00000000E+00  0.00000000E+00
  0.00000000E+00  0.00000000E+00  0.00000000E+00
  0.00000000E+00  0.00000000E+00  0.00000000E+00
  0.00000000E+00  0.00000000E+00  0.00000000E+00
