CeO2-you-111-you-Rh                     
   1.00000000000000     
     9.8200904642133562   -5.6696322416929537    0.0000000004416082
     0.0230928492644757   11.3792604735531633    0.0082387772396385
     0.0088499371747241    0.0153285382190821   20.9263051931956987
   O    Rh   Ce   H 
    53     1    26     2
Selective dynamics
Direct
 -0.0004884580585282  0.0001534531186652  0.9945254121965277   T   T   T
  0.1076736669444642  0.2210418541722063  0.1486412039901310   F   F   F
  0.2265079692790898  0.1154966814934350  0.3069496874384546   T   T   T
  0.1195943287616806  0.2278223351403289  0.3835363193595643   T   T   T
  0.0019079004851835 -0.0002131566535275  0.2294547965068635   T   T   T
  0.2216307065957324  0.1099284131914757  0.0732390360217110   F   F   F
  0.3339637313061264  0.0001393551319855  0.9942507246813918   T   T   T
  0.4467011872276956  0.2210418541720713  0.1486412039901595   F   F   F
  0.5600602040000615  0.1151512796196022  0.3063210277927187   T   T   T
  0.4803986022469509  0.2073581564516851  0.4145945792080598   T   T   T
  0.3315960471619123 -0.0001506091777639  0.2274065758007262   T   T   T
  0.5578156695987104  0.1109781870648163  0.0747768034515843   F   F   F
  0.6668406317854546  0.0001343044990282  0.9937082165535187   T   T   T
  0.7786867896242171  0.2240395792485259  0.1532504177495682   F   F   F
  0.8912441919903809  0.1127309722822650  0.3046332209364247   T   T   T
  0.7857980468833968  0.2242547355703192  0.3859143699016146   T   T   T
  0.6656055267042127  0.9959483036671674  0.2316483277193638   T   T   T
  0.8864965174662345  0.1109781870650153  0.0747768034516127   F   F   F
  0.0007195364544203  0.3329947413846073  0.9947273041088522   T   T   T
  0.1100089706318030  0.5547626004540405  0.1494256483791929   F   F   F
  0.2466120604435521  0.4571244877829325  0.3133896612500985   T   T   T
  0.1109052686129164  0.5572298771973091  0.3851742778062379   T   T   T
  0.0103240386942089  0.3381473060676879  0.2330466356798691   T   T   T
  0.2233056269679281  0.4445491222116331  0.0750278305031884   F   F   F
  0.3326048786266332  0.3326143674716637  0.9947489340006175   T   T   T
  0.4459100152913749  0.5584880305830140  0.1498606354447460   F   F   F
  0.5315584773039366  0.4265427825562106  0.3131861524244525   T   T   T
  0.3318061944494480  0.3312914774007966  0.2264814155559657   T   T   T
  0.5545774952435849  0.4445491222115123  0.0750278305031742   F   F   F
  0.6658721167745363  0.3334017733435417  0.9944575699039936   T   T   T
  0.7780866298222975  0.5547626004539765  0.1494256483792071   F   F   F
  0.8907710593297170  0.4438285104684629  0.3040986951215248   T   T   T
  0.7827744622784044  0.5476346439664477  0.3867560405328611   T   T   T
  0.6649921099249718  0.3377912162549264  0.2307973021123519   T   T   T
  0.8879181419668001  0.4425022839335995  0.0746993620168155   F   F   F
  0.9998089131543226  0.6662768691933373  0.9947166578861173   T   T   T
  0.1103159504609508  0.8872989009217775  0.1477407149470409   F   F   F
  0.2196833005716796  0.7779421469230503  0.3045688296000749   T   T   T
  0.0953970582131957  0.8812711411162986  0.3884146269098453   T   T   T
 -0.0000722393827985  0.6673822895576794  0.2291373469990724   T   T   T
  0.2230248045833889  0.7773200799388178  0.0736726494774516   F   F   F
  0.3334122912952725  0.6656601932684976  0.9942640812355047   T   T   T
  0.4464575332067326  0.8896579013544041  0.1493494917309235   F   F   F
  0.5455004603971738  0.7675726791552407  0.3080286934855933   T   T   T
  0.4484254027628204  0.8800828144611478  0.3895660239589083   T   T   T
  0.3296444632397509  0.6658882275517671  0.2291072591049786   T   T   T
  0.5557867853123568  0.7782395706246987  0.0743498505029265   F   F   F
  0.6662350748419659  0.6661763751231765  0.9943666018455296   T   T   T
  0.7765333681478239  0.8896579013546670  0.1493494917309164   F   F   F
  0.8890509936868831  0.7777276108269436  0.3035725241873183   T   T   T
  0.7837419705681281  0.8997134173902230  0.3870328924608171   T   T   T
  0.6654515382170041  0.6627989090679822  0.2285351003998474   T   T   T
  0.8876282753555316  0.7773200799388960  0.0736726494774658   F   F   F
  0.2754520147022532  0.3024211784015615  0.3229677769004703   T   T   T
 -0.0038989367773736 -0.0051952433134812  0.3457316373833385   T   T   T
  0.2215769182314986  0.1098208364627737  0.1878471291987225   F   F   F
  0.1106899271128583  0.2222116139885983  0.0345820388731468   F   F   F
  0.3343776358442481  0.0007684848023030  0.3530758248949082   T   T   T
  0.5549686651199366  0.1109791111120444  0.1906840334722446   F   F   F
  0.4448546868757504  0.2222116139887689  0.0345820388731468   F   F   F
  0.6686450971553960  0.0003018014117853  0.3465907046377503   T   T   T
  0.8893444459916395  0.1109791111113623  0.1906840334722801   F   F   F
  0.7780178606961954  0.2227017213923688  0.0351554536475902   F   F   F
 -0.0005305072540438  0.3349571996292463  0.3460631346514381   T   T   T
  0.2249586580045744  0.4438893998480395  0.1902514347728683   F   F   F
  0.1112645473955638  0.5549369544375793  0.0349645287525320   F   F   F
  0.5522647418439988  0.4438893998485085  0.1902514347729607   F   F   F
  0.4444804645189251  0.5556289290377805  0.0342770252658937   F   F   F
  0.6671551666611297  0.3346639750343172  0.3455330795473971   T   T   T
  0.8894253146256617  0.4455166292514647  0.1913633481225006   F   F   F
  0.7770054070421182  0.5549369544377640  0.0349645287525391   F   F   F
 -0.0023894774535182  0.6667255673256315  0.3456288354832858   T   T   T
  0.2219467476550179  0.7775848092209401  0.1879595934481131   F   F   F
  0.1108868795491986  0.8884407590984367  0.0331238846399629   F   F   F
  0.3276096319500713  0.6789675570563752  0.3419832832452506   T   T   T
  0.5555288418721460  0.7777236837442061  0.1902434837675102   F   F   F
  0.4455318939238992  0.8893399399797772  0.0343039485857517   F   F   F
  0.6712737316893540  0.6627465547428547  0.3438888117535781   T   T   T
  0.8889710615654138  0.7775848092204143  0.1879595934481060   F   F   F
  0.7771410460559594  0.8893399399797843  0.0343039485857517   F   F   F
  0.4274628714639576  0.5280261706131755  0.4288323290517395   T   T   T
  0.4485334824552087  0.2520535900529388  0.4436440956131639   T   T   T
 
  0.00000000E+00  0.00000000E+00  0.00000000E+00
  0.00000000E+00  0.00000000E+00  0.00000000E+00
  0.00000000E+00  0.00000000E+00  0.00000000E+00
  0.00000000E+00  0.00000000E+00  0.00000000E+00
  0.00000000E+00  0.00000000E+00  0.00000000E+00
  0.00000000E+00  0.00000000E+00  0.00000000E+00
  0.00000000E+00  0.00000000E+00  0.00000000E+00
  0.00000000E+00  0.00000000E+00  0.00000000E+00
  0.00000000E+00  0.00000000E+00  0.00000000E+00
  0.00000000E+00  0.00000000E+00  0.00000000E+00
  0.00000000E+00  0.00000000E+00  0.00000000E+00
  0.00000000E+00  0.00000000E+00  0.00000000E+00
  0.00000000E+00  0.00000000E+00  0.00000000E+00
  0.00000000E+00  0.00000000E+00  0.00000000E+00
  0.00000000E+00  0.00000000E+00  0.00000000E+00
  0.00000000E+00  0.00000000E+00  0.00000000E+00
  0.00000000E+00  0.00000000E+00  0.00000000E+00
  0.00000000E+00  0.00000000E+00  0.00000000E+00
  0.00000000E+00  0.00000000E+00  0.00000000E+00
  0.00000000E+00  0.00000000E+00  0.00000000E+00
  0.00000000E+00  0.00000000E+00  0.00000000E+00
  0.00000000E+00  0.00000000E+00  0.00000000E+00
  0.00000000E+00  0.00000000E+00  0.00000000E+00
  0.00000000E+00  0.00000000E+00  0.00000000E+00
  0.00000000E+00  0.00000000E+00  0.00000000E+00
  0.00000000E+00  0.00000000E+00  0.00000000E+00
  0.00000000E+00  0.00000000E+00  0.00000000E+00
  0.00000000E+00  0.00000000E+00  0.00000000E+00
  0.00000000E+00  0.00000000E+00  0.00000000E+00
  0.00000000E+00  0.00000000E+00  0.00000000E+00
  0.00000000E+00  0.00000000E+00  0.00000000E+00
  0.00000000E+00  0.00000000E+00  0.00000000E+00
  0.00000000E+00  0.00000000E+00  0.00000000E+00
  0.00000000E+00  0.00000000E+00  0.00000000E+00
  0.00000000E+00  0.00000000E+00  0.00000000E+00
  0.00000000E+00  0.00000000E+00  0.00000000E+00
  0.00000000E+00  0.00000000E+00  0.00000000E+00
  0.00000000E+00  0.00000000E+00  0.00000000E+00
  0.00000000E+00  0.00000000E+00  0.00000000E+00
  0.00000000E+00  0.00000000E+00  0.00000000E+00
  0.00000000E+00  0.00000000E+00  0.00000000E+00
  0.00000000E+00  0.00000000E+00  0.00000000E+00
  0.00000000E+00  0.00000000E+00  0.00000000E+00
  0.00000000E+00  0.00000000E+00  0.00000000E+00
  0.00000000E+00  0.00000000E+00  0.00000000E+00
  0.00000000E+00  0.00000000E+00  0.00000000E+00
  0.00000000E+00  0.00000000E+00  0.00000000E+00
  0.00000000E+00  0.00000000E+00  0.00000000E+00
  0.00000000E+00  0.00000000E+00  0.00000000E+00
  0.00000000E+00  0.00000000E+00  0.00000000E+00
  0.00000000E+00  0.00000000E+00  0.00000000E+00
  0.00000000E+00  0.00000000E+00  0.00000000E+00
  0.00000000E+00  0.00000000E+00  0.00000000E+00
  0.00000000E+00  0.00000000E+00  0.00000000E+00
  0.00000000E+00  0.00000000E+00  0.00000000E+00
  0.00000000E+00  0.00000000E+00  0.00000000E+00
  0.00000000E+00  0.00000000E+00  0.00000000E+00
  0.00000000E+00  0.00000000E+00  0.00000000E+00
  0.00000000E+00  0.00000000E+00  0.00000000E+00
  0.00000000E+00  0.00000000E+00  0.00000000E+00
  0.00000000E+00  0.00000000E+00  0.00000000E+00
  0.00000000E+00  0.00000000E+00  0.00000000E+00
  0.00000000E+00  0.00000000E+00  0.00000000E+00
  0.00000000E+00  0.00000000E+00  0.00000000E+00
  0.00000000E+00  0.00000000E+00  0.00000000E+00
  0.00000000E+00  0.00000000E+00  0.00000000E+00
  0.00000000E+00  0.00000000E+00  0.00000000E+00
  0.00000000E+00  0.00000000E+00  0.00000000E+00
  0.00000000E+00  0.00000000E+00  0.00000000E+00
  0.00000000E+00  0.00000000E+00  0.00000000E+00
  0.00000000E+00  0.00000000E+00  0.00000000E+00
  0.00000000E+00  0.00000000E+00  0.00000000E+00
  0.00000000E+00  0.00000000E+00  0.00000000E+00
  0.00000000E+00  0.00000000E+00  0.00000000E+00
  0.00000000E+00  0.00000000E+00  0.00000000E+00
  0.00000000E+00  0.00000000E+00  0.00000000E+00
  0.00000000E+00  0.00000000E+00  0.00000000E+00
  0.00000000E+00  0.00000000E+00  0.00000000E+00
  0.00000000E+00  0.00000000E+00  0.00000000E+00
  0.00000000E+00  0.00000000E+00  0.00000000E+00
  0.00000000E+00  0.00000000E+00  0.00000000E+00
  0.00000000E+00  0.00000000E+00  0.00000000E+00
