CeO2-you-111-you-Rh                     
   1.00000000000000     
     9.8233830256120651   -5.7151154850458745    0.0085572139763985
    -0.0377433497668492   11.3648555634598907   -0.0085572124828213
     0.0091720443586212   -0.0158864459101599   21.1552906720607616
   O    Rh   Ce H
    53     1    26 1
Selective dynamics
Direct
 -0.0002759043991429 -0.0001847486362497  0.9958326050191753   T   T   T
  0.1067482595035890  0.2190411089283574  0.1469821967096852   T   T   T
  0.2390480850775552  0.1330646185895513  0.3062361324058279   T   T   T
  0.1287442162379124  0.2530305746815265  0.3702959756994045   T   T   T
  0.0052712854304638  0.0030540575028366  0.2310050583058070   T   T   T
  0.2219611101243173  0.1110012399914260  0.0755537753479416   T   T   T
  0.3349181759856741  0.0011718800323487  0.9967380839867666   T   T   T
  0.4445964464946362  0.2220695535034020  0.1504681588862605   T   T   T
  0.5585167947198348  0.1081502052822153  0.3012003204793556   T   T   T
  0.4716612489311619  0.1950047510892067  0.3968258218322074   T   T   T
  0.3320051835500887  0.0012996591764067  0.2295685449117005   T   T   T
  0.5567206253174506  0.1099463746820984  0.0778019611246300   T   T   T
  0.6660071383646337  0.0006598616373809  0.9956894188058416   T   T   T
  0.7831418239398603  0.2243361853149884  0.1528153605579521   T   T   T
  0.8880451029360212  0.1086896495958248  0.3039587234470347   T   T   T
  0.7791811543419468  0.2190111944420517  0.3852425918608280   T   T   T
  0.6683837638860898 -0.0017167638853515  0.2289036721477450   T   T   T
  0.8859200054187477  0.1091468445733948  0.0755137929034092   T   T   T
 -0.0016695861055033  0.3323263495101374  0.9959688646790884   T   T   T
  0.1101590076027368  0.5565079923954820  0.1481003303362061   T   T   T
  0.1139367751799106  0.5527302248394742  0.3781978126673542   T   T   T
  0.0155018798535187  0.3427263554261499  0.2340820135324644   T   T   T
  0.2219721960981141  0.4446938039042725  0.0729376398447796   T   T   T
  0.3337653865395286  0.3329006134585353  0.9960068361850827   T   T   T
  0.4476248910769942  0.5599187404990690  0.1469821967095055   T   T   T
  0.5336023814009341  0.4276179149159455  0.3062361324071609   T   T   T
  0.4136354253150183  0.5379227837643401  0.3702959757016683   T   T   T
  0.3268250804420732  0.3398409195420546  0.2241194294657628   T   T   T
  0.5556657600070131  0.4447048898737749  0.0755537753479073   T   T   T
  0.6654951199672273  0.3317478240137095  0.9967380839867350   T   T   T
  0.7790509066170859  0.5559604189073426  0.1507832535701751   T   T   T
  0.8845501955974067  0.4435268185791101  0.3045970726705964   T   T   T
  0.7734901797469085  0.5575207809255056  0.3814534392942814   T   T   T
  0.6653673408186054  0.3346608164467246  0.2295685449116621   T   T   T
  0.8878151959607047  0.4439819883793993  0.0756837304566893   T   T   T
 -0.0001993471735386  0.6668663471722889  0.9962495043043269   T   T   T
  0.1107065810909440  0.8876160933805182  0.1507832535700673   T   T   T
  0.2231391814202781  0.7821168043998328  0.3045970726704517   T   T   T
  0.1091462190722182  0.8931768202503680  0.3814534392944264   T   T   T
  0.0003808312403776  0.6662861687560172  0.2303140913897411   T   T   T
  0.2226840116197701  0.7788518040381036  0.0756837304567334   T   T   T
  0.3343396504918338  0.6683365861075501  0.9959688646792154   T   T   T
  0.4423298146878861  0.8835251760607045  0.1528153605578376   T   T   T
  0.5579773504072805  0.7786218970647613  0.3039587234467136   T   T   T
  0.4476548055617603  0.8874858456614798  0.3852425918610093   T   T   T
  0.3239396445833486  0.6511651201598515  0.2340820135340062   T   T   T
  0.5575201554285121  0.7807469945830862  0.0755137929034749   T   T   T
  0.6668517486363646  0.6669429043985579  0.9958326050191747   T   T   T
  0.7790871036787376  0.8875798963209218  0.1517029568173281   T   T   T
  0.8884103470219553  0.7782566529760973  0.3027477034191740   T   T   T
  0.7797913151142245  0.8868756848837405  0.3826830414337896   T   T   T
  0.6636129424973336  0.6613957145698397  0.2310050583057434   T   T   T
  0.8887290352241556  0.7779379647742374  0.0757371498371162   T   T   T
  0.3230179332546481  0.3436480667371449  0.3321420234105929   T   T   T
  0.0069438425012726  0.0063610565510543  0.3420120243502779   T   T   T
  0.2245158345307350  0.1138680230470186  0.1909542902904920   T   T   T
  0.1098813268913017  0.2200968262169514  0.0343297958482476   T   T   T
  0.3392212673595403  0.0085736223962609  0.3464018619393175   T   T   T
  0.5560733269253867  0.1105936730765978  0.1912381498259942   T   T   T
  0.4446619495334749  0.2220040504666548  0.0366376587135799   T   T   T
  0.6683130982962380 -0.0016460982929865  0.3449197493277367   T   T   T
  0.8902213127736484  0.1111413304429415  0.1907114684468870   T   T   T
  0.7775369626538757  0.2216146221372421  0.0364167763113124   T   T   T
 -0.0079982647016241  0.3306809109782393  0.3451479235246089   T   T   T
  0.2225375083891341  0.4441284916058441  0.1818697989153949   T   T   T
  0.1100140069622396  0.5566529930361754  0.0348123138774575   T   T   T
  0.5527989769495129  0.4421501654662861  0.1909542902907342   T   T   T
  0.4465691737825319  0.5567856731090342  0.0343297958480588   T   T   T
  0.6580933775927593  0.3274447326314714  0.3464018619400805   T   T   T
  0.8885807743285428  0.4444496456140721  0.1913607083557403   T   T   T
  0.7774761108293696  0.5548069398153710  0.0369061218954966   T   T   T
 -0.0020051651920616  0.6686721652007449  0.3423021801149982   T   T   T
  0.2222163543904765  0.7780862256823036  0.1913607083561054   T   T   T
  0.1118600601866978  0.8891908891726468  0.0369061218955138   T   T   T
  0.3359850890179920  0.6746652646954838  0.3451479235231312   T   T   T
  0.5555256695506081  0.7764456872259715  0.1907114684471717   T   T   T
  0.4450513778615625  0.8891300373465956  0.0364167763113314   T   T   T
  0.6603059434465222  0.6597231575002190  0.3420120243512566   T   T   T
  0.8892701111932293  0.7773968888104252  0.1901057698811054   T   T   T
  0.7776259981098230  0.8890410018898407  0.0361061343084635   T   T   T
0.446598 0.216020 0.433410 T T T 
 
  0.00000000E+00  0.00000000E+00  0.00000000E+00
  0.00000000E+00  0.00000000E+00  0.00000000E+00
  0.00000000E+00  0.00000000E+00  0.00000000E+00
  0.00000000E+00  0.00000000E+00  0.00000000E+00
  0.00000000E+00  0.00000000E+00  0.00000000E+00
  0.00000000E+00  0.00000000E+00  0.00000000E+00
  0.00000000E+00  0.00000000E+00  0.00000000E+00
  0.00000000E+00  0.00000000E+00  0.00000000E+00
  0.00000000E+00  0.00000000E+00  0.00000000E+00
  0.00000000E+00  0.00000000E+00  0.00000000E+00
  0.00000000E+00  0.00000000E+00  0.00000000E+00
  0.00000000E+00  0.00000000E+00  0.00000000E+00
  0.00000000E+00  0.00000000E+00  0.00000000E+00
  0.00000000E+00  0.00000000E+00  0.00000000E+00
  0.00000000E+00  0.00000000E+00  0.00000000E+00
  0.00000000E+00  0.00000000E+00  0.00000000E+00
  0.00000000E+00  0.00000000E+00  0.00000000E+00
  0.00000000E+00  0.00000000E+00  0.00000000E+00
  0.00000000E+00  0.00000000E+00  0.00000000E+00
  0.00000000E+00  0.00000000E+00  0.00000000E+00
  0.00000000E+00  0.00000000E+00  0.00000000E+00
  0.00000000E+00  0.00000000E+00  0.00000000E+00
  0.00000000E+00  0.00000000E+00  0.00000000E+00
  0.00000000E+00  0.00000000E+00  0.00000000E+00
  0.00000000E+00  0.00000000E+00  0.00000000E+00
  0.00000000E+00  0.00000000E+00  0.00000000E+00
  0.00000000E+00  0.00000000E+00  0.00000000E+00
  0.00000000E+00  0.00000000E+00  0.00000000E+00
  0.00000000E+00  0.00000000E+00  0.00000000E+00
  0.00000000E+00  0.00000000E+00  0.00000000E+00
  0.00000000E+00  0.00000000E+00  0.00000000E+00
  0.00000000E+00  0.00000000E+00  0.00000000E+00
  0.00000000E+00  0.00000000E+00  0.00000000E+00
  0.00000000E+00  0.00000000E+00  0.00000000E+00
  0.00000000E+00  0.00000000E+00  0.00000000E+00
  0.00000000E+00  0.00000000E+00  0.00000000E+00
  0.00000000E+00  0.00000000E+00  0.00000000E+00
  0.00000000E+00  0.00000000E+00  0.00000000E+00
  0.00000000E+00  0.00000000E+00  0.00000000E+00
  0.00000000E+00  0.00000000E+00  0.00000000E+00
  0.00000000E+00  0.00000000E+00  0.00000000E+00
  0.00000000E+00  0.00000000E+00  0.00000000E+00
  0.00000000E+00  0.00000000E+00  0.00000000E+00
  0.00000000E+00  0.00000000E+00  0.00000000E+00
  0.00000000E+00  0.00000000E+00  0.00000000E+00
  0.00000000E+00  0.00000000E+00  0.00000000E+00
  0.00000000E+00  0.00000000E+00  0.00000000E+00
  0.00000000E+00  0.00000000E+00  0.00000000E+00
  0.00000000E+00  0.00000000E+00  0.00000000E+00
  0.00000000E+00  0.00000000E+00  0.00000000E+00
  0.00000000E+00  0.00000000E+00  0.00000000E+00
  0.00000000E+00  0.00000000E+00  0.00000000E+00
  0.00000000E+00  0.00000000E+00  0.00000000E+00
  0.00000000E+00  0.00000000E+00  0.00000000E+00
  0.00000000E+00  0.00000000E+00  0.00000000E+00
  0.00000000E+00  0.00000000E+00  0.00000000E+00
  0.00000000E+00  0.00000000E+00  0.00000000E+00
  0.00000000E+00  0.00000000E+00  0.00000000E+00
  0.00000000E+00  0.00000000E+00  0.00000000E+00
  0.00000000E+00  0.00000000E+00  0.00000000E+00
  0.00000000E+00  0.00000000E+00  0.00000000E+00
  0.00000000E+00  0.00000000E+00  0.00000000E+00
  0.00000000E+00  0.00000000E+00  0.00000000E+00
  0.00000000E+00  0.00000000E+00  0.00000000E+00
  0.00000000E+00  0.00000000E+00  0.00000000E+00
  0.00000000E+00  0.00000000E+00  0.00000000E+00
  0.00000000E+00  0.00000000E+00  0.00000000E+00
  0.00000000E+00  0.00000000E+00  0.00000000E+00
  0.00000000E+00  0.00000000E+00  0.00000000E+00
  0.00000000E+00  0.00000000E+00  0.00000000E+00
  0.00000000E+00  0.00000000E+00  0.00000000E+00
  0.00000000E+00  0.00000000E+00  0.00000000E+00
  0.00000000E+00  0.00000000E+00  0.00000000E+00
  0.00000000E+00  0.00000000E+00  0.00000000E+00
  0.00000000E+00  0.00000000E+00  0.00000000E+00
  0.00000000E+00  0.00000000E+00  0.00000000E+00
  0.00000000E+00  0.00000000E+00  0.00000000E+00
  0.00000000E+00  0.00000000E+00  0.00000000E+00
  0.00000000E+00  0.00000000E+00  0.00000000E+00
  0.00000000E+00  0.00000000E+00  0.00000000E+00
