CeO2-you-111-you-Ti                     
   1.00000000000000     
     9.8040322899416275   -5.6603610484190874    0.0000000011997966
     0.0430183905107126   11.3952301378587642    0.0231724018578684
     0.0248657510310825    0.0430687369243788   21.0614675456251419
   O    Ti   Ce   H 
    53     1    26     1
Selective dynamics
Direct
  0.9995688729692916  0.0012876807229022  0.9945740749319559   T   T   T
  0.1147795184935744  0.2243918392151116  0.1481961611024600   T   T   T
  0.2435813218172546  0.1291712045511978  0.3049632958432792   T   T   T
  0.1309460445272276  0.2318880180363564  0.3768879629056511   T   T   T
  0.0086755375758430  0.0046089759059671  0.2293067578880732   T   T   T
  0.2224262271469942  0.1105682812448946  0.0724288610057875   T   T   T
  0.3345567915313146  0.0005424417511134  0.9933411108596160   T   T   T
  0.4445833252444036  0.2219672620583107  0.1462807150447309   T   T   T
  0.5529547011268962  0.1087613490910819  0.3033408038764984   T   T   T
  0.4553894191462968  0.1763711904077832  0.4128741348673881   T   T   T
  0.3307544802676979  0.9987563156388501  0.2275973369898720   T   T   T
  0.5563399630396901  0.1116158967002549  0.0739319578735558   T   T   T
  0.6685558789908355  0.0012602356090668  0.9948361995715225   T   T   T
  0.7759876054155036  0.2255963617272690  0.1520952728482768   T   T   T
  0.8939804263020461  0.1127642137794373  0.3026846430059680   T   T   T
  0.7862951066357803  0.2169956394970221  0.3858034864038877   T   T   T
  0.6689546149330213  0.0008492669128456  0.2291804848311434   T   T   T
  0.8875670575360805  0.1109124826023540  0.0762138457491003   T   T   T
 -0.0004256562501343  0.3319936298765163  0.9948760597745562   T   T   T
  0.1088809537516222  0.5555651804177436  0.1480085882209372   T   T   T
  0.2312605933933596  0.4407057555374884  0.3022967390336232   T   T   T
  0.1007404675353609  0.5463370296262159  0.3840918650542562   T   T   T
  0.0041648596831971  0.3348160525181628  0.2281024014592179   T   T   T
  0.2226939626234669  0.4463844832783136  0.0729598329546699   T   T   T
  0.3323774080310670  0.3340033901128368  0.9938246959298522   T   T   T
  0.4450340826558471  0.5571332157069500  0.1465981919469279   T   T   T
  0.4698798481163421  0.4292363579577008  0.3517478310713980   T   T   T
  0.3382775644612213  0.3356550557928711  0.2291232257251751   T   T   T
  0.5566731096634686  0.4446932572046920  0.0713371839678691   T   T   T
  0.6666865100265120  0.3326938562598018  0.9930614863004521   T   T   T
  0.7799417814309759  0.5574389940453530  0.1460149946117297   T   T   T
  0.8908022202847471  0.4419454386474954  0.3014585880251347   T   T   T
  0.7923793279469440  0.5610462718133792  0.3862449650113221   T   T   T
  0.6557716664740845  0.3434634241808354  0.2330334002265133   T   T   T
  0.8881458532041885  0.4439018151943939  0.0727827382515944   T   T   T
  0.0013287133971255  0.6677443493022579  0.9932618851949309   T   T   T
  0.1104592670535728  0.8888788930464653  0.1473296938776231   T   T   T
  0.2207070736360596  0.7778583145086116  0.3026969869093095   T   T   T
  0.1155686140127791  0.8937475564821658  0.3829499130969063   T   T   T
 -0.0011676784326629  0.6661286628394421  0.2279524189846888   T   T   T
  0.2234967002557876  0.7783535840599268  0.0733508221161297   T   T   T
  0.3348896811995841  0.6680012706907771  0.9937353240502378   T   T   T
  0.4470477825888451  0.8909732028505097  0.1500211767110699   T   T   T
  0.5594471426703999  0.7785143181893185  0.3052239636781982   T   T   T
  0.4496666541454323  0.8945211143011034  0.3855351083241608   T   T   T
  0.3323840672020594  0.6658832059372515  0.2262127603067978   T   T   T
  0.5571972587928902  0.7791706973923179  0.0744109082223891   T   T   T
  0.6669363263991627  0.6682673201670795  0.9934300681921300   T   T   T
  0.7786504159745262  0.8864485361126444  0.1522702569497912   T   T   T
  0.8960370293378490  0.7841298394936939  0.3024645092900261   T   T   T
  0.7924002479463154  0.9033422384031873  0.3866071297762529   T   T   T
  0.6617907548654434  0.6507507189015319  0.2311962160291019   T   T   T
  0.8891550103334310  0.7786318907539376  0.0725645279501093   T   T   T
  0.2977116304868304  0.3192495670124397  0.3226473165513487   T   T   T
  0.0069807382087047  0.0036763975613933  0.3436212606873533   T   T   T
  0.2244617620401846  0.1106629012217856  0.1871943225683357   T   T   T
  0.1112478531769231  0.2228586763748824  0.0340749509318232   T   T   T
  0.3348660751082422 -0.0063673066094785  0.3450256046604789   T   T   T
  0.5551846666420086  0.1124256194464002  0.1915264242755141   T   T   T
  0.4447709284163034  0.2213652868627386  0.0320457422528189   T   T   T
  0.6699991432675690  0.0006377764297306  0.3449005305155404   T   T   T
  0.8908672433926227  0.1124524990507571  0.1900702517715444   T   T   T
  0.7776404843390692  0.2229898867321873  0.0351784342974485   T   T   T
  0.0002169768640007  0.3335838767337940  0.3431033091508082   T   T   T
  0.2227672522280164  0.4468099690394176  0.1865199204052293   T   T   T
  0.1109585794060544  0.5560623245696416  0.0339326510927291   T   T   T
  0.5565184583965220  0.4453196437420628  0.1815575610377931   T   T   T
  0.4451147212794991  0.5582246573726128  0.0323518721934942   T   T   T
  0.6666465725535916  0.3299419198070718  0.3532867345252881   T   T   T
  0.8867555323010802  0.4449160414347607  0.1907953634129592   T   T   T
  0.7798422179048043  0.5570793832592000  0.0323343739497456   T   T   T
 -0.0013800662672453  0.6627840041585852  0.3435461161995551   T   T   T
  0.2225773058390086  0.7781913521109306  0.1876279777017613   T   T   T
  0.1115453942788805  0.8897922789813748  0.0334298411631457   T   T   T
  0.3295728516587924  0.6703328294344704  0.3427207188753047   T   T   T
  0.5565958942643342  0.7773798343016521  0.1918064963979258   T   T   T
  0.4466890025703202  0.8905214484066287  0.0351265364037083   T   T   T
  0.6796518708427833  0.6741479331825461  0.3474396425263749   T   T   T
  0.8896369751729112  0.7770370299415861  0.1897097989608478   T   T   T
  0.7781636701226221  0.8896984055101591  0.0350853644328196   T   T   T
  0.4113737583949394  0.2120221868758907  0.4401143202345422   T   T   T
 
  0.00000000E+00  0.00000000E+00  0.00000000E+00
  0.00000000E+00  0.00000000E+00  0.00000000E+00
  0.00000000E+00  0.00000000E+00  0.00000000E+00
  0.00000000E+00  0.00000000E+00  0.00000000E+00
  0.00000000E+00  0.00000000E+00  0.00000000E+00
  0.00000000E+00  0.00000000E+00  0.00000000E+00
  0.00000000E+00  0.00000000E+00  0.00000000E+00
  0.00000000E+00  0.00000000E+00  0.00000000E+00
  0.00000000E+00  0.00000000E+00  0.00000000E+00
  0.00000000E+00  0.00000000E+00  0.00000000E+00
  0.00000000E+00  0.00000000E+00  0.00000000E+00
  0.00000000E+00  0.00000000E+00  0.00000000E+00
  0.00000000E+00  0.00000000E+00  0.00000000E+00
  0.00000000E+00  0.00000000E+00  0.00000000E+00
  0.00000000E+00  0.00000000E+00  0.00000000E+00
  0.00000000E+00  0.00000000E+00  0.00000000E+00
  0.00000000E+00  0.00000000E+00  0.00000000E+00
  0.00000000E+00  0.00000000E+00  0.00000000E+00
  0.00000000E+00  0.00000000E+00  0.00000000E+00
  0.00000000E+00  0.00000000E+00  0.00000000E+00
  0.00000000E+00  0.00000000E+00  0.00000000E+00
  0.00000000E+00  0.00000000E+00  0.00000000E+00
  0.00000000E+00  0.00000000E+00  0.00000000E+00
  0.00000000E+00  0.00000000E+00  0.00000000E+00
  0.00000000E+00  0.00000000E+00  0.00000000E+00
  0.00000000E+00  0.00000000E+00  0.00000000E+00
  0.00000000E+00  0.00000000E+00  0.00000000E+00
  0.00000000E+00  0.00000000E+00  0.00000000E+00
  0.00000000E+00  0.00000000E+00  0.00000000E+00
  0.00000000E+00  0.00000000E+00  0.00000000E+00
  0.00000000E+00  0.00000000E+00  0.00000000E+00
  0.00000000E+00  0.00000000E+00  0.00000000E+00
  0.00000000E+00  0.00000000E+00  0.00000000E+00
  0.00000000E+00  0.00000000E+00  0.00000000E+00
  0.00000000E+00  0.00000000E+00  0.00000000E+00
  0.00000000E+00  0.00000000E+00  0.00000000E+00
  0.00000000E+00  0.00000000E+00  0.00000000E+00
  0.00000000E+00  0.00000000E+00  0.00000000E+00
  0.00000000E+00  0.00000000E+00  0.00000000E+00
  0.00000000E+00  0.00000000E+00  0.00000000E+00
  0.00000000E+00  0.00000000E+00  0.00000000E+00
  0.00000000E+00  0.00000000E+00  0.00000000E+00
  0.00000000E+00  0.00000000E+00  0.00000000E+00
  0.00000000E+00  0.00000000E+00  0.00000000E+00
  0.00000000E+00  0.00000000E+00  0.00000000E+00
  0.00000000E+00  0.00000000E+00  0.00000000E+00
  0.00000000E+00  0.00000000E+00  0.00000000E+00
  0.00000000E+00  0.00000000E+00  0.00000000E+00
  0.00000000E+00  0.00000000E+00  0.00000000E+00
  0.00000000E+00  0.00000000E+00  0.00000000E+00
  0.00000000E+00  0.00000000E+00  0.00000000E+00
  0.00000000E+00  0.00000000E+00  0.00000000E+00
  0.00000000E+00  0.00000000E+00  0.00000000E+00
  0.00000000E+00  0.00000000E+00  0.00000000E+00
  0.00000000E+00  0.00000000E+00  0.00000000E+00
  0.00000000E+00  0.00000000E+00  0.00000000E+00
  0.00000000E+00  0.00000000E+00  0.00000000E+00
  0.00000000E+00  0.00000000E+00  0.00000000E+00
  0.00000000E+00  0.00000000E+00  0.00000000E+00
  0.00000000E+00  0.00000000E+00  0.00000000E+00
  0.00000000E+00  0.00000000E+00  0.00000000E+00
  0.00000000E+00  0.00000000E+00  0.00000000E+00
  0.00000000E+00  0.00000000E+00  0.00000000E+00
  0.00000000E+00  0.00000000E+00  0.00000000E+00
  0.00000000E+00  0.00000000E+00  0.00000000E+00
  0.00000000E+00  0.00000000E+00  0.00000000E+00
  0.00000000E+00  0.00000000E+00  0.00000000E+00
  0.00000000E+00  0.00000000E+00  0.00000000E+00
  0.00000000E+00  0.00000000E+00  0.00000000E+00
  0.00000000E+00  0.00000000E+00  0.00000000E+00
  0.00000000E+00  0.00000000E+00  0.00000000E+00
  0.00000000E+00  0.00000000E+00  0.00000000E+00
  0.00000000E+00  0.00000000E+00  0.00000000E+00
  0.00000000E+00  0.00000000E+00  0.00000000E+00
  0.00000000E+00  0.00000000E+00  0.00000000E+00
  0.00000000E+00  0.00000000E+00  0.00000000E+00
  0.00000000E+00  0.00000000E+00  0.00000000E+00
  0.00000000E+00  0.00000000E+00  0.00000000E+00
  0.00000000E+00  0.00000000E+00  0.00000000E+00
  0.00000000E+00  0.00000000E+00  0.00000000E+00
  0.00000000E+00  0.00000000E+00  0.00000000E+00
