CeO2-you-111-you-Ge                     
   1.00000000000000     
     9.8521147621421363   -5.6498604839235886   -0.0130751294360552
     0.0331349869597751   11.3571104565652803    0.0130751271948454
    -0.0139934801802886    0.0242374173118659   21.1576572424859037
   O    Ge   Ce
    53     1    26
Selective dynamics
Direct
  0.0000878716209278 -0.0001937967561557  0.9958989865782445   T   T   T
  0.1061745875722657  0.2192019750242729  0.1459796950368444   T   T   T
  0.2312001211074377  0.1231105670203029  0.3052338482050699   T   T   T
  0.0696240507296389  0.2023183788506244  0.3876134040275827   T   T   T
  0.0033861961183704  0.0032128712771908  0.2297875579888827   T   T   T
  0.2218610494480132  0.1102872278400122  0.0757827803600700   T   T   T
  0.3346426532808017  0.0009423386573832  0.9976943911960359   T   T   T
  0.4444078732583011  0.2222581267413033  0.1504600128503014   T   T   T
  0.5551449509205751  0.1115220490790178  0.3031881478777316   T   T   T
  0.4466684628574666  0.2199975371456500  0.3851422764502551   T   T   T
  0.3322933630334678 -0.0001348157450810  0.2292612192520580   T   T   T
  0.5572345017837917  0.1094324982156179  0.0778344040165330   T   T   T
  0.6658564730742880  0.0008105269269098  0.9957519032997593   T   T   T
  0.7847589855097746  0.2277675686009802  0.1516124212075843   T   T   T
  0.8795529548288633  0.1079759730623597  0.2997743058145747   T   T   T
  0.7736244153179004  0.2208006314824752  0.3847041532502011   T   T   T
  0.6651495083058911  0.0015174916947920  0.2256154712642355   T   T   T
  0.8861141477602545  0.1091902740175794  0.0743645441093739   T   T   T
 -0.0015306190285423  0.3327081639842385  0.9959797177526206   T   T   T
  0.1105090462158834  0.5561579537821105  0.1478514039285655   T   T   T
  0.1222180570888964  0.5444489429052370  0.3744303218485042   T   T   T
  0.0204979978114457  0.3420535257472361  0.2351013576987157   T   T   T
  0.2225110101660479  0.4441549898354075  0.0720423259798642   T   T   T
  0.3345512784025550  0.3321147215970092  0.9960385236852204   T   T   T
  0.4474640249809137  0.5604924124293741  0.1459796950368638   T   T   T
  0.5435564329837478  0.4354658788934689  0.3052338482049510   T   T   T
  0.4643476211529708  0.5970429492715090  0.3876134040271264   T   T   T
  0.3279645677048569  0.3387014323029726  0.2229794447374515   T   T   T
  0.5563797721598215  0.4448049505512857  0.0757827803601415   T   T   T
  0.6657246613420859  0.3320233467188446  0.9976943911959862   T   T   T
  0.7797046844776689  0.5564130772135122  0.1512656167867027   T   T   T
  0.8864732020718000  0.4417021690640680  0.3039761973802745   T   T   T
  0.7793596101625936  0.5560028696099054  0.3808250092317565   T   T   T
  0.6668018157424540  0.3343726369653165  0.2292612192521926   T   T   T
  0.8894668857302603  0.4454256281044206  0.0752306000499484   T   T   T
 -0.0011120354126019  0.6677790354117281  0.9962879849765711   T   T   T
  0.1102539227844573  0.8869623155200096  0.1512656167867288   T   T   T
  0.2249638309354876  0.7801937979258282  0.3039761973802690   T   T   T
  0.1106641303900988  0.8873073898356363  0.3808250092316716   T   T   T
  0.0017606666010444  0.6649063333959169  0.2304371304824024   T   T   T
  0.2212403718945704  0.7772001142687328  0.0752306000498299   T   T   T
  0.3339578360166900  0.6681976190296678  0.9959797177524771   T   T   T
  0.4388984313999771  0.8819080144887234  0.1516124212076606   T   T   T
  0.5586910269399640  0.7871140451725479  0.2997743058143739   T   T   T
  0.4458653685173128  0.8930425846793681  0.3847041532497843   T   T   T
  0.3246124742510487  0.6461690021839670  0.2351013576980637   T   T   T
  0.5574767259841520  0.7805528522409527  0.0743645441093352   T   T   T
  0.6668607967564113  0.6665791283786194  0.9958989865782492   T   T   T
  0.7782236573278188  0.8884433426730100  0.1510020905383397   T   T   T
  0.8892087323027026  0.7774582676961864  0.3027049642192705   T   T   T
  0.7767796036692908  0.8898873963306450  0.3812467456103072   T   T   T
  0.6634541287234874  0.6632808038825785  0.2297875579887663   T   T   T
  0.8883092510108683  0.7783577489882557  0.0760163569589054   T   T   T
  0.3553552981841466  0.3113107018032399  0.3471427485291207   T   T   T
 -0.0010786513936193  0.0028615628281801  0.3436660899565995   T   T   T
  0.2228977891496692  0.1141610021513777  0.1905690068860616   T   T   T
  0.1098609021926207  0.2200077682294191  0.0339561571928719   T   T   T
  0.3317270279947417  0.0008244467072313  0.3426984989942680   T   T   T
  0.5554835663946546  0.1111834336075927  0.1900297224573381   T   T   T
  0.4444271942331351  0.2222388057677780  0.0369972007189938   T   T   T
  0.6660528137416851  0.0006141862602771  0.3424321799877700   T   T   T
  0.8899762065800906  0.1116909547226569  0.1893416694146570   T   T   T
  0.7777765564878172  0.2224324923693682  0.0361693312989613   T   T   T
 -0.0128492757774281  0.3209986783407164  0.3476101530432349   T   T   T
  0.2233298180198614  0.4433361819711987  0.1811312568209080   T   T   T
  0.1097865973027546  0.5568804026980004  0.0344373341625647   T   T   T
  0.5525059978463704  0.4437682108495221  0.1905690068859591   T   T   T
  0.4466582317677192  0.5568060978062376  0.0339561571929675   T   T   T
  0.6658425532955049  0.3349389720070708  0.3426984989938825   T   T   T
  0.8907961619453395  0.4447608898552672  0.1907972823811483   T   T   T
  0.7776322436315667  0.5558376609809974  0.0373032446539265   T   T   T
  0.0002721134751187  0.6663948865313567  0.3413628273495133   T   T   T
  0.2219051101490402  0.7758708380640778  0.1907972823811300   T   T   T
  0.1108293390220224  0.8890347563709495  0.0373032446539349   T   T   T
  0.3456673216591195  0.6795162757828245  0.3476101530443007   T   T   T
  0.5549760452695491  0.7766907934193281  0.1893416694145973   T   T   T
  0.4442335076290049  0.8888904435124141  0.0361693312989125   T   T   T
  0.6638054371681861  0.6677456513926414  0.3436660899560647   T   T   T
  0.8887674115965616  0.7778995884065124  0.1903016193375971   T   T   T
  0.7772495466484942  0.8894174533502389  0.0356651224175991   T   T   T
 
  0.00000000E+00  0.00000000E+00  0.00000000E+00
  0.00000000E+00  0.00000000E+00  0.00000000E+00
  0.00000000E+00  0.00000000E+00  0.00000000E+00
  0.00000000E+00  0.00000000E+00  0.00000000E+00
  0.00000000E+00  0.00000000E+00  0.00000000E+00
  0.00000000E+00  0.00000000E+00  0.00000000E+00
  0.00000000E+00  0.00000000E+00  0.00000000E+00
  0.00000000E+00  0.00000000E+00  0.00000000E+00
  0.00000000E+00  0.00000000E+00  0.00000000E+00
  0.00000000E+00  0.00000000E+00  0.00000000E+00
  0.00000000E+00  0.00000000E+00  0.00000000E+00
  0.00000000E+00  0.00000000E+00  0.00000000E+00
  0.00000000E+00  0.00000000E+00  0.00000000E+00
  0.00000000E+00  0.00000000E+00  0.00000000E+00
  0.00000000E+00  0.00000000E+00  0.00000000E+00
  0.00000000E+00  0.00000000E+00  0.00000000E+00
  0.00000000E+00  0.00000000E+00  0.00000000E+00
  0.00000000E+00  0.00000000E+00  0.00000000E+00
  0.00000000E+00  0.00000000E+00  0.00000000E+00
  0.00000000E+00  0.00000000E+00  0.00000000E+00
  0.00000000E+00  0.00000000E+00  0.00000000E+00
  0.00000000E+00  0.00000000E+00  0.00000000E+00
  0.00000000E+00  0.00000000E+00  0.00000000E+00
  0.00000000E+00  0.00000000E+00  0.00000000E+00
  0.00000000E+00  0.00000000E+00  0.00000000E+00
  0.00000000E+00  0.00000000E+00  0.00000000E+00
  0.00000000E+00  0.00000000E+00  0.00000000E+00
  0.00000000E+00  0.00000000E+00  0.00000000E+00
  0.00000000E+00  0.00000000E+00  0.00000000E+00
  0.00000000E+00  0.00000000E+00  0.00000000E+00
  0.00000000E+00  0.00000000E+00  0.00000000E+00
  0.00000000E+00  0.00000000E+00  0.00000000E+00
  0.00000000E+00  0.00000000E+00  0.00000000E+00
  0.00000000E+00  0.00000000E+00  0.00000000E+00
  0.00000000E+00  0.00000000E+00  0.00000000E+00
  0.00000000E+00  0.00000000E+00  0.00000000E+00
  0.00000000E+00  0.00000000E+00  0.00000000E+00
  0.00000000E+00  0.00000000E+00  0.00000000E+00
  0.00000000E+00  0.00000000E+00  0.00000000E+00
  0.00000000E+00  0.00000000E+00  0.00000000E+00
  0.00000000E+00  0.00000000E+00  0.00000000E+00
  0.00000000E+00  0.00000000E+00  0.00000000E+00
  0.00000000E+00  0.00000000E+00  0.00000000E+00
  0.00000000E+00  0.00000000E+00  0.00000000E+00
  0.00000000E+00  0.00000000E+00  0.00000000E+00
  0.00000000E+00  0.00000000E+00  0.00000000E+00
  0.00000000E+00  0.00000000E+00  0.00000000E+00
  0.00000000E+00  0.00000000E+00  0.00000000E+00
  0.00000000E+00  0.00000000E+00  0.00000000E+00
  0.00000000E+00  0.00000000E+00  0.00000000E+00
  0.00000000E+00  0.00000000E+00  0.00000000E+00
  0.00000000E+00  0.00000000E+00  0.00000000E+00
  0.00000000E+00  0.00000000E+00  0.00000000E+00
  0.00000000E+00  0.00000000E+00  0.00000000E+00
  0.00000000E+00  0.00000000E+00  0.00000000E+00
  0.00000000E+00  0.00000000E+00  0.00000000E+00
  0.00000000E+00  0.00000000E+00  0.00000000E+00
  0.00000000E+00  0.00000000E+00  0.00000000E+00
  0.00000000E+00  0.00000000E+00  0.00000000E+00
  0.00000000E+00  0.00000000E+00  0.00000000E+00
  0.00000000E+00  0.00000000E+00  0.00000000E+00
  0.00000000E+00  0.00000000E+00  0.00000000E+00
  0.00000000E+00  0.00000000E+00  0.00000000E+00
  0.00000000E+00  0.00000000E+00  0.00000000E+00
  0.00000000E+00  0.00000000E+00  0.00000000E+00
  0.00000000E+00  0.00000000E+00  0.00000000E+00
  0.00000000E+00  0.00000000E+00  0.00000000E+00
  0.00000000E+00  0.00000000E+00  0.00000000E+00
  0.00000000E+00  0.00000000E+00  0.00000000E+00
  0.00000000E+00  0.00000000E+00  0.00000000E+00
  0.00000000E+00  0.00000000E+00  0.00000000E+00
  0.00000000E+00  0.00000000E+00  0.00000000E+00
  0.00000000E+00  0.00000000E+00  0.00000000E+00
  0.00000000E+00  0.00000000E+00  0.00000000E+00
  0.00000000E+00  0.00000000E+00  0.00000000E+00
  0.00000000E+00  0.00000000E+00  0.00000000E+00
  0.00000000E+00  0.00000000E+00  0.00000000E+00
  0.00000000E+00  0.00000000E+00  0.00000000E+00
  0.00000000E+00  0.00000000E+00  0.00000000E+00
  0.00000000E+00  0.00000000E+00  0.00000000E+00
