CeO2-you-111-you-Ru                     
   1.00000000000000     
     9.8809530401205770   -5.6653203400641132    0.0037551451733296
    -0.0000000039326309   11.3306386793893044   -0.0000000003420548
     0.0087823004912364   -0.0000000007446759   21.0180464334301043
   O    Ru   Ce H
    53     1    26 2
Selective dynamics
Direct
  0.0001928569361349  0.0013674633793048  0.9955367561112617   T   T   T
  0.1137558769626478  0.2235444384812743  0.1494107487925058   F   F   F
  0.2200161411589936  0.1282679555990210  0.3036638365359269   T   T   T
  0.0972761771895445  0.2153045885960647  0.3889272913040494   T   T   T
  0.0009089068729122  0.0016973097787737  0.2282857446626533   T   T   T
  0.2225878510051321  0.1109220173397458  0.0740741736120230   F   F   F
  0.3344480830965333  0.0000802206088859  0.9948742716673915   T   T   T
  0.4451809307329488  0.2194589300266081  0.1465445348352432   F   F   F
  0.5492439576858552  0.1062044314603456  0.3065277552883683   T   T   T
  0.4351553737936303  0.2588557465898828  0.3707005724142946   T   T   T
  0.3296095707360215  0.0025948379598477  0.2304648832327459   T   T   T
  0.5561319101326905  0.1092022287699339  0.0750979427120828   F   F   F
  0.6695444701189255  0.0014387350593845  0.9954376444641896   T   T   T
  0.7732796072733831  0.2236741978507321  0.1528246036460221   F   F   F
  0.8870000960257558  0.1101665480133324  0.3028367289888976   T   T   T
  0.7808220263952342  0.2144305903338887  0.3876667849689042   T   T   T
  0.6646314169475962 -0.0010177915262377  0.2303940519162093   T   T   T
  0.8879888649031008  0.1106609324513839  0.0773509767547692   F   F   F
  0.0001928569360495  0.3321583935563611  0.9955367561112934   T   T   T
  0.1102079480248029  0.5552002953325668  0.1498826161127731   F   F   F
  0.2200161411582751  0.4250811855530553  0.3036638365376239   T   T   T
  0.1204753057021752  0.5574423134751730  0.3825372790079958   T   T   T
  0.0009089068744140  0.3325445970932906  0.2282857446625739   T   T   T
  0.2225878510051773  0.4449988336644514  0.0740741736119839   F   F   F
  0.3330118338509024  0.3331724169250753  0.9948412945894428   T   T   T
  0.4451809307308312  0.5590560007071249  0.1465445348355808   F   F   F
  0.4351553737926075  0.5096336272150750  0.3707005724167740   T   T   T
  0.3495184732876130  0.3414257366405569  0.2270251324154680   T   T   T
  0.5567241650507141  0.4450280825258872  0.0717998263277919   F   F   F
  0.6684177793419339  0.3324471775440952  0.9951174711619505   T   T   T
  0.7803797658978345  0.5568568829492662  0.1470310868514027   F   F   F
  0.8966553431343175  0.4447435003867874  0.3043022134289893   T   T   T
  0.7934810864272749  0.5634075432181858  0.3860364332837175   T   T   T
  0.6591852226787716  0.3425680665139103  0.2341174130990969   T   T   T
  0.8901075058080699  0.4434669939540156  0.0747842767584300   F   F   F
  0.0004953906804018  0.6669146953400824  0.9951833772081043   T   T   T
  0.1102079480243675  0.8883416526899661  0.1498826161128007   F   F   F
  0.2237191651350577  0.7785265825672119  0.3025044429982598   T   T   T
  0.1204753057011526  0.8963669922265385  0.3825372790082875   T   T   T
 -0.0007550160216637  0.6662894919874544  0.2294973766569212   T   T   T
  0.2229224062075922  0.7781282031035613  0.0750067863642683   F   F   F
  0.3344480830966262  0.6677018624875922  0.9948742716675003   T   T   T
  0.4428204031273182  0.8880772015639330  0.1524926767254571   F   F   F
  0.5492439576820131  0.7763725262246328  0.3065277552877143   T   T   T
  0.4364224388996127  0.8848782194492590  0.3847774690596978   T   T   T
  0.3296095707355680  0.6603487327767898  0.2304648832323769   T   T   T
  0.5561319101330129  0.7802626813642808  0.0750979427120980   F   F   F
  0.6684177793423040  0.6693036017986108  0.9951174711620462   T   T   T
  0.7732796072716259  0.8829384094217769  0.1528246036457809   F   F   F
  0.8966553431330703  0.7852448427405359  0.3043022134289260   T   T   T
  0.7808220263913800  0.8997244360593596  0.3876667849692215   T   T   T
  0.6591852226765785  0.6499501561709558  0.2341174131008557   T   T   T
  0.8901075058078191  0.7799735118533329  0.0747842767585056   F   F   F
  0.3209834758344905  0.3271582379166504  0.3408181346598758   T   T   T
  0.0009284627311501  0.0057970304430503  0.3451265653649452   T   T   T
  0.2227860964481398  0.1141080638667971  0.1893133652281187   F   F   F
  0.1114681160196558  0.2224005580103637  0.0347756794911849   F   F   F
  0.3300080320387873  0.0005997987776324  0.3418008215989493   T   T   T
  0.5542891682501839  0.1123185244633813  0.1921084256270529   F   F   F
  0.4443907091556374  0.2201723658119332  0.0333793402774316   F   F   F
  0.6641508070081573 -0.0012580964931696  0.3460495468072802   T   T   T
  0.8875044776595488  0.1104187388314436  0.1907520639687657   F   F   F
  0.7777096285186476  0.2219080296638222  0.0360522342044105   F   F   F
  0.0009284627272542  0.3284644322815872  0.3451265653650434   T   T   T
  0.2227860964478722  0.4420110325781514  0.1893133652282948   F   F   F
  0.1109198205461822  0.5548121276378422  0.0355706854338260   F   F   F
  0.5564813170391407  0.4449066585169464  0.1814672774411747   F   F   F
  0.4443907091560148  0.5575523433431621  0.0333793402772428   F   F   F
  0.6762627070458396  0.3337109068160534  0.3512211757617872   T   T   T
  0.8881412285178930  0.4441696308296598  0.1915539061462119   F   F   F
  0.7806670683344142  0.5570005341665246  0.0338307149592864   F   F   F
  0.0019401861794612  0.6676370930946071  0.3436204700772698   T   T   T
  0.2205362617522350  0.7769351308776258  0.1888146713325771   F   F   F
  0.1109198205462838  0.8894416929097103  0.0355706854338902   F   F   F
  0.3300080320407920  0.6627422332586516  0.3418008216000832   T   T   T
  0.5542891682556694  0.7753036437859082  0.1921084256271854   F   F   F
  0.4456509279581281  0.8894924639788180  0.0359827987579441   F   F   F
  0.6762627070535083  0.6758848002273242  0.3512211757599837   T   T   T
  0.8881412285226911  0.7773045976977602  0.1915539061466866   F   F   F
  0.7777096285195777  0.8891345988548441  0.0360522342043606   F   F   F
0.3209834758344905 0.3271582379166504 0.440818 T T T
0.446598 0.216020 0.433410 T T T 
 
  0.00000000E+00  0.00000000E+00  0.00000000E+00
  0.00000000E+00  0.00000000E+00  0.00000000E+00
  0.00000000E+00  0.00000000E+00  0.00000000E+00
  0.00000000E+00  0.00000000E+00  0.00000000E+00
  0.00000000E+00  0.00000000E+00  0.00000000E+00
  0.00000000E+00  0.00000000E+00  0.00000000E+00
  0.00000000E+00  0.00000000E+00  0.00000000E+00
  0.00000000E+00  0.00000000E+00  0.00000000E+00
  0.00000000E+00  0.00000000E+00  0.00000000E+00
  0.00000000E+00  0.00000000E+00  0.00000000E+00
  0.00000000E+00  0.00000000E+00  0.00000000E+00
  0.00000000E+00  0.00000000E+00  0.00000000E+00
  0.00000000E+00  0.00000000E+00  0.00000000E+00
  0.00000000E+00  0.00000000E+00  0.00000000E+00
  0.00000000E+00  0.00000000E+00  0.00000000E+00
  0.00000000E+00  0.00000000E+00  0.00000000E+00
  0.00000000E+00  0.00000000E+00  0.00000000E+00
  0.00000000E+00  0.00000000E+00  0.00000000E+00
  0.00000000E+00  0.00000000E+00  0.00000000E+00
  0.00000000E+00  0.00000000E+00  0.00000000E+00
  0.00000000E+00  0.00000000E+00  0.00000000E+00
  0.00000000E+00  0.00000000E+00  0.00000000E+00
  0.00000000E+00  0.00000000E+00  0.00000000E+00
  0.00000000E+00  0.00000000E+00  0.00000000E+00
  0.00000000E+00  0.00000000E+00  0.00000000E+00
  0.00000000E+00  0.00000000E+00  0.00000000E+00
  0.00000000E+00  0.00000000E+00  0.00000000E+00
  0.00000000E+00  0.00000000E+00  0.00000000E+00
  0.00000000E+00  0.00000000E+00  0.00000000E+00
  0.00000000E+00  0.00000000E+00  0.00000000E+00
  0.00000000E+00  0.00000000E+00  0.00000000E+00
  0.00000000E+00  0.00000000E+00  0.00000000E+00
  0.00000000E+00  0.00000000E+00  0.00000000E+00
  0.00000000E+00  0.00000000E+00  0.00000000E+00
  0.00000000E+00  0.00000000E+00  0.00000000E+00
  0.00000000E+00  0.00000000E+00  0.00000000E+00
  0.00000000E+00  0.00000000E+00  0.00000000E+00
  0.00000000E+00  0.00000000E+00  0.00000000E+00
  0.00000000E+00  0.00000000E+00  0.00000000E+00
  0.00000000E+00  0.00000000E+00  0.00000000E+00
  0.00000000E+00  0.00000000E+00  0.00000000E+00
  0.00000000E+00  0.00000000E+00  0.00000000E+00
  0.00000000E+00  0.00000000E+00  0.00000000E+00
  0.00000000E+00  0.00000000E+00  0.00000000E+00
  0.00000000E+00  0.00000000E+00  0.00000000E+00
  0.00000000E+00  0.00000000E+00  0.00000000E+00
  0.00000000E+00  0.00000000E+00  0.00000000E+00
  0.00000000E+00  0.00000000E+00  0.00000000E+00
  0.00000000E+00  0.00000000E+00  0.00000000E+00
  0.00000000E+00  0.00000000E+00  0.00000000E+00
  0.00000000E+00  0.00000000E+00  0.00000000E+00
  0.00000000E+00  0.00000000E+00  0.00000000E+00
  0.00000000E+00  0.00000000E+00  0.00000000E+00
  0.00000000E+00  0.00000000E+00  0.00000000E+00
  0.00000000E+00  0.00000000E+00  0.00000000E+00
  0.00000000E+00  0.00000000E+00  0.00000000E+00
  0.00000000E+00  0.00000000E+00  0.00000000E+00
  0.00000000E+00  0.00000000E+00  0.00000000E+00
  0.00000000E+00  0.00000000E+00  0.00000000E+00
  0.00000000E+00  0.00000000E+00  0.00000000E+00
  0.00000000E+00  0.00000000E+00  0.00000000E+00
  0.00000000E+00  0.00000000E+00  0.00000000E+00
  0.00000000E+00  0.00000000E+00  0.00000000E+00
  0.00000000E+00  0.00000000E+00  0.00000000E+00
  0.00000000E+00  0.00000000E+00  0.00000000E+00
  0.00000000E+00  0.00000000E+00  0.00000000E+00
  0.00000000E+00  0.00000000E+00  0.00000000E+00
  0.00000000E+00  0.00000000E+00  0.00000000E+00
  0.00000000E+00  0.00000000E+00  0.00000000E+00
  0.00000000E+00  0.00000000E+00  0.00000000E+00
  0.00000000E+00  0.00000000E+00  0.00000000E+00
  0.00000000E+00  0.00000000E+00  0.00000000E+00
  0.00000000E+00  0.00000000E+00  0.00000000E+00
  0.00000000E+00  0.00000000E+00  0.00000000E+00
  0.00000000E+00  0.00000000E+00  0.00000000E+00
  0.00000000E+00  0.00000000E+00  0.00000000E+00
  0.00000000E+00  0.00000000E+00  0.00000000E+00
  0.00000000E+00  0.00000000E+00  0.00000000E+00
  0.00000000E+00  0.00000000E+00  0.00000000E+00
  0.00000000E+00  0.00000000E+00  0.00000000E+00
