CeO2-you-111-you-Cu                     
   1.00000000000000     
     9.8578350868596996   -5.6483351709723282   -0.0088610021843592
    -0.0000000014108187   11.2966683514770381    0.0000000010527625
    -0.0196552002819110    0.0000000020278087   21.0616285262912371
   O    Cu   Ce   H 
    53     1    26     1
Selective dynamics
Direct
  0.0006366200757285  0.0011408628360074  0.9950755282760819   T   T   T
  0.1105350530849867  0.2201258518603235  0.1498450030502797   T   T   T
  0.2284354588664545  0.1279712964840071  0.3069392596294899   T   T   T
  0.0668515266292705  0.1977272577641876  0.3964414572770454   T   T   T
  0.0035241940707341  0.0016678269751263  0.2290680432543439   T   T   T
  0.2241350999463010  0.1116452465219888  0.0742944900341968   T   T   T
  0.3338073021635146 -0.0007882922721484  0.9938591814511959   T   T   T
  0.4477960147217204  0.2175925245191511  0.1461053860146981   T   T   T
  0.5457103539464886  0.1070608572508573  0.3076130726432486   T   T   T
  0.4359672726712442  0.2528967530940827  0.3876719086034377   T   T   T
  0.3295598034542144 -0.0007347911129025  0.2302734004139728   T   T   T
  0.5574521084773983  0.1085529309276742  0.0739653236337731   T   T   T
  0.6693299075360604  0.0006456655256703  0.9938310435944374   T   T   T
  0.7746259715990494  0.2243119985604150  0.1525999211607673   T   T   T
  0.8843889801477038  0.1067763082242604  0.3020100268848219   T   T   T
  0.7782994332250543  0.2134566644135641  0.3874758783232832   T   T   T
  0.6627262519639713  0.9999105413085599  0.2300137438958205   T   T   T
  0.8868717882860405  0.1099770576342245  0.0764655193359645   T   T   T
  0.0013882232569830  0.3321462889828740  0.9952734818693098   T   T   T
  0.1100888234481018  0.5545295121846876  0.1500961082803804   T   T   T
  0.2247156931245509  0.4239713767230337  0.3069402356568091   T   T   T
  0.1204805057943316  0.5560379270773338  0.3833924775258675   T   T   T
  0.0027992309116322  0.3330405994717969  0.2294412404689770   T   T   T
  0.2237168099951664  0.4442439728530747  0.0748602469870397   T   T   T
  0.3329893451940740  0.3330530172189030  0.9937485903551528   T   T   T
  0.4484007793751246  0.5616884815153564  0.1459696276349895   T   T   T
  0.4580378513384666  0.5322983159363646  0.3681675578230514   T   T   T
  0.3487146003933999  0.3399088219555247  0.2215565799604602   T   T   T
  0.5563951270604340  0.4436020765779436  0.0711345164485001   T   T   T
  0.6688471815842167  0.3326125360447345  0.9939190597273733   T   T   T
  0.7809025063922793  0.5570184353674409  0.1469285109277047   T   T   T
  0.8970471299052909  0.4461278847863297  0.3055069043312590   T   T   T
  0.7802523606115660  0.5660703329794587  0.3823847521149807   T   T   T
  0.6596143348153184  0.3422588104089288  0.2344360059022595   T   T   T
  0.8902779438225825  0.4436541477128092  0.0745310250009141   T   T   T
  0.0012300795549343  0.6672182660723073  0.9949403304315126   T   T   T
  0.1111181385436366  0.8871363496672104  0.1496632086448372   T   T   T
  0.2223548389987909  0.7745066695492786  0.3027376139865190   T   T   T
  0.1171617392466074  0.8896784050357652  0.3836425696215281   T   T   T
  0.9990341055252300  0.6663521703006309  0.2299637187248730   T   T   T
  0.2237344178286629  0.7776025802372223  0.0743491672849824   T   T   T
  0.3338208068523147  0.6661090145095137  0.9940428437191060   T   T   T
  0.4429202107809117  0.8865541563260125  0.1513773180112646   T   T   T
  0.5557500540197777  0.7785231355632163  0.3045563257109589   T   T   T
  0.4380940173085754  0.8806873998753415  0.3842442778455219   T   T   T
  0.3311139183903048  0.6587675034142841  0.2311633385385412   T   T   T
  0.5574521739830497  0.7810749390793140  0.0738657947523206   T   T   T
  0.6691541072092634  0.6686462889911250  0.9943726321526127   T   T   T
  0.7744935070070422  0.8836320986849535  0.1530351336586587   T   T   T
  0.8938487818873411  0.7838230229441017  0.3041789390618311   T   T   T
  0.7739107084344931  0.8882714825141377  0.3868583181062173   T   T   T
  0.6602628102483808  0.6487985574106336  0.2351407742384091   T   T   T
  0.8902793525991791  0.7803175271902566  0.0747874267233814   T   T   T
  0.3326617848801724  0.3389095422619873  0.3405217959952797   T   T   T
  0.0051201149996182  0.0088496068979058  0.3460850566645024   T   T   T
  0.2245317072719774  0.1145338573228458  0.1913314043637462   T   T   T
  0.1119217463993308  0.2219997324398267  0.0351906835744686   T   T   T
  0.3268427993075110 -0.0062475114756328  0.3419230722189252   T   T   T
  0.5543397680235700  0.1114518005353704  0.1914916483006968   T   T   T
  0.4444803473847929  0.2195022258470747  0.0325528029945541   T   T   T
  0.6633960254377790  0.9984980232734570  0.3458031856678091   T   T   T
  0.8884321087038347  0.1107230545395597  0.1909578505154794   T   T   T
  0.7780995117198696  0.2217093754871993  0.0351637167322453   T   T   T
  0.0026107778444997  0.3260169741375414  0.3472124233138210   T   T   T
  0.2241071494219167  0.4402301640178082  0.1904531558197213   T   T   T
  0.1113408907307072  0.5541775899546499  0.0357000189674861   T   T   T
  0.5561146400329149  0.4436906176569114  0.1803553758885985   T   T   T
  0.4444359567907465  0.5567965022920078  0.0326898440864125   T   T   T
  0.6767199636255803  0.3329801547908318  0.3499035304886487   T   T   T
  0.8890506604842749  0.4438545813630095  0.1916968349394396   T   T   T
  0.7814589223196928  0.5570226057801297  0.0333506481341372   T   T   T
  0.0028098908792175  0.6665127254941592  0.3432950204887312   T   T   T
  0.2211418486175169  0.7754684128399658  0.1887789053605102   T   T   T
  0.1115364605706232  0.8895089692030850  0.0355860468545116   T   T   T
  0.3330340188834967  0.6556506932436265  0.3425547781842884   T   T   T
  0.5546205406013318  0.7758844082011018  0.1907219890336533   T   T   T
  0.4458698977094257  0.8889765334524653  0.0346014436112437   T   T   T
  0.6760250759195123  0.6782380065892610  0.3463326659116930   T   T   T
  0.8901367655297588  0.7781074324683508  0.1907699151546335   T   T   T
  0.7782713214911294  0.8894139242567329  0.0349917988770499   T   T   T
  0.4208759481112347  0.2692173314518153  0.4315635481528647   T   T   T
 
  0.00000000E+00  0.00000000E+00  0.00000000E+00
  0.00000000E+00  0.00000000E+00  0.00000000E+00
  0.00000000E+00  0.00000000E+00  0.00000000E+00
  0.00000000E+00  0.00000000E+00  0.00000000E+00
  0.00000000E+00  0.00000000E+00  0.00000000E+00
  0.00000000E+00  0.00000000E+00  0.00000000E+00
  0.00000000E+00  0.00000000E+00  0.00000000E+00
  0.00000000E+00  0.00000000E+00  0.00000000E+00
  0.00000000E+00  0.00000000E+00  0.00000000E+00
  0.00000000E+00  0.00000000E+00  0.00000000E+00
  0.00000000E+00  0.00000000E+00  0.00000000E+00
  0.00000000E+00  0.00000000E+00  0.00000000E+00
  0.00000000E+00  0.00000000E+00  0.00000000E+00
  0.00000000E+00  0.00000000E+00  0.00000000E+00
  0.00000000E+00  0.00000000E+00  0.00000000E+00
  0.00000000E+00  0.00000000E+00  0.00000000E+00
  0.00000000E+00  0.00000000E+00  0.00000000E+00
  0.00000000E+00  0.00000000E+00  0.00000000E+00
  0.00000000E+00  0.00000000E+00  0.00000000E+00
  0.00000000E+00  0.00000000E+00  0.00000000E+00
  0.00000000E+00  0.00000000E+00  0.00000000E+00
  0.00000000E+00  0.00000000E+00  0.00000000E+00
  0.00000000E+00  0.00000000E+00  0.00000000E+00
  0.00000000E+00  0.00000000E+00  0.00000000E+00
  0.00000000E+00  0.00000000E+00  0.00000000E+00
  0.00000000E+00  0.00000000E+00  0.00000000E+00
  0.00000000E+00  0.00000000E+00  0.00000000E+00
  0.00000000E+00  0.00000000E+00  0.00000000E+00
  0.00000000E+00  0.00000000E+00  0.00000000E+00
  0.00000000E+00  0.00000000E+00  0.00000000E+00
  0.00000000E+00  0.00000000E+00  0.00000000E+00
  0.00000000E+00  0.00000000E+00  0.00000000E+00
  0.00000000E+00  0.00000000E+00  0.00000000E+00
  0.00000000E+00  0.00000000E+00  0.00000000E+00
  0.00000000E+00  0.00000000E+00  0.00000000E+00
  0.00000000E+00  0.00000000E+00  0.00000000E+00
  0.00000000E+00  0.00000000E+00  0.00000000E+00
  0.00000000E+00  0.00000000E+00  0.00000000E+00
  0.00000000E+00  0.00000000E+00  0.00000000E+00
  0.00000000E+00  0.00000000E+00  0.00000000E+00
  0.00000000E+00  0.00000000E+00  0.00000000E+00
  0.00000000E+00  0.00000000E+00  0.00000000E+00
  0.00000000E+00  0.00000000E+00  0.00000000E+00
  0.00000000E+00  0.00000000E+00  0.00000000E+00
  0.00000000E+00  0.00000000E+00  0.00000000E+00
  0.00000000E+00  0.00000000E+00  0.00000000E+00
  0.00000000E+00  0.00000000E+00  0.00000000E+00
  0.00000000E+00  0.00000000E+00  0.00000000E+00
  0.00000000E+00  0.00000000E+00  0.00000000E+00
  0.00000000E+00  0.00000000E+00  0.00000000E+00
  0.00000000E+00  0.00000000E+00  0.00000000E+00
  0.00000000E+00  0.00000000E+00  0.00000000E+00
  0.00000000E+00  0.00000000E+00  0.00000000E+00
  0.00000000E+00  0.00000000E+00  0.00000000E+00
  0.00000000E+00  0.00000000E+00  0.00000000E+00
  0.00000000E+00  0.00000000E+00  0.00000000E+00
  0.00000000E+00  0.00000000E+00  0.00000000E+00
  0.00000000E+00  0.00000000E+00  0.00000000E+00
  0.00000000E+00  0.00000000E+00  0.00000000E+00
  0.00000000E+00  0.00000000E+00  0.00000000E+00
  0.00000000E+00  0.00000000E+00  0.00000000E+00
  0.00000000E+00  0.00000000E+00  0.00000000E+00
  0.00000000E+00  0.00000000E+00  0.00000000E+00
  0.00000000E+00  0.00000000E+00  0.00000000E+00
  0.00000000E+00  0.00000000E+00  0.00000000E+00
  0.00000000E+00  0.00000000E+00  0.00000000E+00
  0.00000000E+00  0.00000000E+00  0.00000000E+00
  0.00000000E+00  0.00000000E+00  0.00000000E+00
  0.00000000E+00  0.00000000E+00  0.00000000E+00
  0.00000000E+00  0.00000000E+00  0.00000000E+00
  0.00000000E+00  0.00000000E+00  0.00000000E+00
  0.00000000E+00  0.00000000E+00  0.00000000E+00
  0.00000000E+00  0.00000000E+00  0.00000000E+00
  0.00000000E+00  0.00000000E+00  0.00000000E+00
  0.00000000E+00  0.00000000E+00  0.00000000E+00
  0.00000000E+00  0.00000000E+00  0.00000000E+00
  0.00000000E+00  0.00000000E+00  0.00000000E+00
  0.00000000E+00  0.00000000E+00  0.00000000E+00
  0.00000000E+00  0.00000000E+00  0.00000000E+00
  0.00000000E+00  0.00000000E+00  0.00000000E+00
  0.00000000E+00  0.00000000E+00  0.00000000E+00
