CeO2-you-111-you-Zn                     
   1.00000000000000     
     9.8083368638347039   -5.6792005016529927   -0.0067205390384302
     0.0000000042726599   11.3583990118570366    0.0000000007857476
    -0.0144011992128946    0.0000000014671951   20.8331942983347069
   O    Zn   Ce   H 
    53     1    26     1
Selective dynamics
Direct
  0.9988084920694478 -0.0000991863852345  0.9944169079859490   T   T   T
  0.1134775362495637  0.2225935131834713  0.1501660420494721   T   T   T
  0.2307456256573459  0.1311476504149695  0.3093184188628015   T   T   T
  0.1010220862928048  0.2215234829633321  0.3888698673278974   T   T   T
  0.0026774009759487  0.0012051532284060  0.2304214634290384   T   T   T
  0.2226370992723610  0.1102707461764595  0.0737578064106916   T   T   T
  0.3316008913741051  0.9981575597422370  0.9917439946150949   T   T   T
  0.4461690032692859  0.2210453317025562  0.1473607911553123   T   T   T
  0.5643836508749683  0.1156361028031235  0.3076083653487335   T   T   T
  0.4770520703481710  0.2281279893986768  0.4058003622521075   T   T   T
  0.3336692694696134  0.0019240749994205  0.2306349775612035   T   T   T
  0.5540699688683776  0.1095759722560428  0.0728557165532709   T   T   T
  0.6666321046677992  0.0000044497514871  0.9924621511241632   T   T   T
  0.7720908399510771  0.2242129367804106  0.1519707620818292   T   T   T
  0.8874370736388613  0.1092329987645582  0.3052779150933430   T   T   T
  0.7835134235678924  0.2230342382930717  0.3906832602385117   T   T   T
  0.6649904995481808 -0.0021882730903199  0.2300138598498151   T   T   T
  0.8856324075083090  0.1098919582006031  0.0760415458355675   T   T   T
  0.9973879121171514  0.3305497917261879  0.9933242497790669   T   T   T
  0.1093859469957648  0.5552100288722734  0.1497634936183869   T   T   T
  0.2171389506653579  0.4472325862434336  0.3025646881372174   T   T   T
  0.1157945763298084  0.5593444918732403  0.3878237016690499   T   T   T
 -0.0021592291204626  0.3303677421099224  0.2282727883692872   T   T   T
  0.2206977714594617  0.4439511084915072  0.0724516481911299   T   T   T
  0.3292229447829953  0.3300919702451212  0.9917996501677265   T   T   T
  0.4445137139098457  0.5590111563639103  0.1451498337538360   T   T   T
  0.4577134236479397  0.5159831963586013  0.3653789807088798   T   T   T
  0.3465788595854011  0.3439716351700273  0.2282600452396565   T   T   T
  0.5537113165396848  0.4434989274724633  0.0701075188073448   T   T   T
  0.6660869897628529  0.3318760933034005  0.9917315237073626   T   T   T
  0.7783023071538663  0.5547628448195475  0.1465554439844329   T   T   T
  0.8946426511447875  0.4433230516243817  0.3060927298308337   T   T   T
  0.7659647326915575  0.5461484377269844  0.3796172040672714   T   T   T
  0.6579871167496907  0.3454780793433399  0.2376405460384530   T   T   T
  0.8879485340320795  0.4430439027259819  0.0731569851940591   T   T   T
  0.9991971759479981  0.6652417047299515  0.9921995603531519   T   T   T
  0.1103199577122975  0.8882364816822750  0.1503048921487216   T   T   T
  0.2210705743925403  0.7724369567056820  0.3051115361077574   T   T   T
  0.0992886242234366  0.8819816498074838  0.3878223357045726   T   T   T
  0.9975438283192311  0.6651982750941650  0.2304186851402871   T   T   T
  0.2218888312551842  0.7770825057812105  0.0735253478948169   T   T   T
  0.3320435500663746  0.6660938187419885  0.9917281006436158   T   T   T
  0.4448198988283497  0.8902097465398867  0.1498119411169063   T   T   T
  0.5574714273741691  0.7764084731522146  0.3049803081890314   T   T   T
  0.4510430877782607  0.8761836391032785  0.3878256473049107   T   T   T
  0.3350900921647440  0.6677983166377569  0.2289602202806379   T   T   T
  0.5553750401287578  0.7788815510688462  0.0724929767508026   T   T   T
  0.6657236116559241  0.6670538093610994  0.9915773398763031   T   T   T
  0.7755487526443803  0.8831002752394841  0.1511874281116086   T   T   T
  0.8885777879741951  0.7795397242222869  0.3045572669785251   T   T   T
  0.7774368910553147  0.8884478994666501  0.3882208666085841   T   T   T
  0.6582459032931164  0.6491126252558388  0.2338868892667448   T   T   T
  0.8879663128659322  0.7765877139682352  0.0729018055952352   T   T   T
  0.3010780446247314  0.3319049945471953  0.3345735416279748   T   T   T
  0.0052756368009802  0.0064549432553882  0.3470627713263387   T   T   T
  0.2253748142235036  0.1149428841233087  0.1931597640970938   T   T   T
  0.1101197247955957  0.2210165029928041  0.0342549239324024   T   T   T
  0.3326961889410674  0.0012832204013031  0.3512836916016451   T   T   T
  0.5535091716797789  0.1109649571515334  0.1919214331528722   T   T   T
  0.4419950727784395  0.2189875787515896  0.0313739161967930   T   T   T
  0.6666325729079799 -0.0041732779124982  0.3474411931278025   T   T   T
  0.8883144992115782  0.1106770483147491  0.1909473158485472   T   T   T
  0.7759127380582456  0.2211451185943198  0.0335830409046088   T   T   T
  0.0057630917294033  0.3324822400261924  0.3480030094181768   T   T   T
  0.2223554374491299  0.4443416302317375  0.1892845840571259   T   T   T
  0.1094200112374540  0.5540579823823049  0.0332791039175473   T   T   T
  0.5530655569476264  0.4439151026332316  0.1810867351793351   T   T   T
  0.4423381457631985  0.5559233562329792  0.0305095954266472   T   T   T
  0.6818170569070368  0.3278554787827848  0.3494626408730814   T   T   T
  0.8880578658270238  0.4443691909107644  0.1904064068697568   T   T   T
  0.7784564480604899  0.5553169763347306  0.0311917501052021   T   T   T
  0.0031338103214925  0.6690732311271131  0.3452591107280607   T   T   T
  0.2224527752231718  0.7790295491489275  0.1898978574193264   T   T   T
  0.1105478647131950  0.8886257783810836  0.0344379812353457   T   T   T
  0.3316535763709624  0.6636244060014632  0.3433080963241897   T   T   T
  0.5546453970990534  0.7766029017214343  0.1895644968022507   T   T   T
  0.4441439677827639  0.8889782565531479  0.0331615459101975   T   T   T
  0.6692989448926163  0.6718786285630785  0.3465822085850569   T   T   T
  0.8887731287246247  0.7765580992122698  0.1905378358732720   T   T   T
  0.7766051102815146  0.8880627203294862  0.0335461860965896   T   T   T
  0.4514260369152560  0.2789395909956330  0.4346048762518517   T   T   T
 
  0.00000000E+00  0.00000000E+00  0.00000000E+00
  0.00000000E+00  0.00000000E+00  0.00000000E+00
  0.00000000E+00  0.00000000E+00  0.00000000E+00
  0.00000000E+00  0.00000000E+00  0.00000000E+00
  0.00000000E+00  0.00000000E+00  0.00000000E+00
  0.00000000E+00  0.00000000E+00  0.00000000E+00
  0.00000000E+00  0.00000000E+00  0.00000000E+00
  0.00000000E+00  0.00000000E+00  0.00000000E+00
  0.00000000E+00  0.00000000E+00  0.00000000E+00
  0.00000000E+00  0.00000000E+00  0.00000000E+00
  0.00000000E+00  0.00000000E+00  0.00000000E+00
  0.00000000E+00  0.00000000E+00  0.00000000E+00
  0.00000000E+00  0.00000000E+00  0.00000000E+00
  0.00000000E+00  0.00000000E+00  0.00000000E+00
  0.00000000E+00  0.00000000E+00  0.00000000E+00
  0.00000000E+00  0.00000000E+00  0.00000000E+00
  0.00000000E+00  0.00000000E+00  0.00000000E+00
  0.00000000E+00  0.00000000E+00  0.00000000E+00
  0.00000000E+00  0.00000000E+00  0.00000000E+00
  0.00000000E+00  0.00000000E+00  0.00000000E+00
  0.00000000E+00  0.00000000E+00  0.00000000E+00
  0.00000000E+00  0.00000000E+00  0.00000000E+00
  0.00000000E+00  0.00000000E+00  0.00000000E+00
  0.00000000E+00  0.00000000E+00  0.00000000E+00
  0.00000000E+00  0.00000000E+00  0.00000000E+00
  0.00000000E+00  0.00000000E+00  0.00000000E+00
  0.00000000E+00  0.00000000E+00  0.00000000E+00
  0.00000000E+00  0.00000000E+00  0.00000000E+00
  0.00000000E+00  0.00000000E+00  0.00000000E+00
  0.00000000E+00  0.00000000E+00  0.00000000E+00
  0.00000000E+00  0.00000000E+00  0.00000000E+00
  0.00000000E+00  0.00000000E+00  0.00000000E+00
  0.00000000E+00  0.00000000E+00  0.00000000E+00
  0.00000000E+00  0.00000000E+00  0.00000000E+00
  0.00000000E+00  0.00000000E+00  0.00000000E+00
  0.00000000E+00  0.00000000E+00  0.00000000E+00
  0.00000000E+00  0.00000000E+00  0.00000000E+00
  0.00000000E+00  0.00000000E+00  0.00000000E+00
  0.00000000E+00  0.00000000E+00  0.00000000E+00
  0.00000000E+00  0.00000000E+00  0.00000000E+00
  0.00000000E+00  0.00000000E+00  0.00000000E+00
  0.00000000E+00  0.00000000E+00  0.00000000E+00
  0.00000000E+00  0.00000000E+00  0.00000000E+00
  0.00000000E+00  0.00000000E+00  0.00000000E+00
  0.00000000E+00  0.00000000E+00  0.00000000E+00
  0.00000000E+00  0.00000000E+00  0.00000000E+00
  0.00000000E+00  0.00000000E+00  0.00000000E+00
  0.00000000E+00  0.00000000E+00  0.00000000E+00
  0.00000000E+00  0.00000000E+00  0.00000000E+00
  0.00000000E+00  0.00000000E+00  0.00000000E+00
  0.00000000E+00  0.00000000E+00  0.00000000E+00
  0.00000000E+00  0.00000000E+00  0.00000000E+00
  0.00000000E+00  0.00000000E+00  0.00000000E+00
  0.00000000E+00  0.00000000E+00  0.00000000E+00
  0.00000000E+00  0.00000000E+00  0.00000000E+00
  0.00000000E+00  0.00000000E+00  0.00000000E+00
  0.00000000E+00  0.00000000E+00  0.00000000E+00
  0.00000000E+00  0.00000000E+00  0.00000000E+00
  0.00000000E+00  0.00000000E+00  0.00000000E+00
  0.00000000E+00  0.00000000E+00  0.00000000E+00
  0.00000000E+00  0.00000000E+00  0.00000000E+00
  0.00000000E+00  0.00000000E+00  0.00000000E+00
  0.00000000E+00  0.00000000E+00  0.00000000E+00
  0.00000000E+00  0.00000000E+00  0.00000000E+00
  0.00000000E+00  0.00000000E+00  0.00000000E+00
  0.00000000E+00  0.00000000E+00  0.00000000E+00
  0.00000000E+00  0.00000000E+00  0.00000000E+00
  0.00000000E+00  0.00000000E+00  0.00000000E+00
  0.00000000E+00  0.00000000E+00  0.00000000E+00
  0.00000000E+00  0.00000000E+00  0.00000000E+00
  0.00000000E+00  0.00000000E+00  0.00000000E+00
  0.00000000E+00  0.00000000E+00  0.00000000E+00
  0.00000000E+00  0.00000000E+00  0.00000000E+00
  0.00000000E+00  0.00000000E+00  0.00000000E+00
  0.00000000E+00  0.00000000E+00  0.00000000E+00
  0.00000000E+00  0.00000000E+00  0.00000000E+00
  0.00000000E+00  0.00000000E+00  0.00000000E+00
  0.00000000E+00  0.00000000E+00  0.00000000E+00
  0.00000000E+00  0.00000000E+00  0.00000000E+00
  0.00000000E+00  0.00000000E+00  0.00000000E+00
  0.00000000E+00  0.00000000E+00  0.00000000E+00
