CeO2-you-111-you-Ti                     
   1.00000000000000     
     9.8463412018558891   -5.6799124418674989   -0.0173834297372638
     0.0042224552524361   11.3671363910652463    0.0173834268144598
    -0.0191930819557883    0.0332433912961013   21.0634462957510351
   O    Ti   Ce   H 
    53     1    26     2
Selective dynamics
Direct
 -0.0002713264923959 -0.0001053734475756  0.9954764972796699   T   T   T
  0.1135146322427971  0.2225223464081978  0.1490714935221433   F   F   F
  0.2341616731124455  0.1096744715324862  0.3002400644129090   T   T   T
  0.1585755965761952  0.2554876538267727  0.3647316723458728   T   T   T
  0.0030569660476619  0.0011855007944463  0.2292041296198452   T   T   T
  0.2218430864171310  0.1102696859110566  0.0745687082519595   F   F   F
  0.3348027840837270  0.0007077102908842  0.9962145385435646   T   T   T
  0.4402919748836354  0.2263740251171527  0.1518027608570236   F   F   F
  0.5468921608944868  0.1093025182109211  0.3051473820095572   T   T   T
  0.4186356980514520  0.2387827039367350  0.3937533581797487   T   T   T
  0.3349564320429556  0.9967669658442481  0.2263143687056926   T   T   T
  0.5549115745931701  0.1117554254068267  0.0781320649731185   F   F   F
  0.6660623336107804  0.0007129041664305  0.9970751490798514   T   T   T
  0.7844825484940898  0.2237034446316599  0.1517346758434570   F   F   F
  0.8902018526026408  0.1051644184473249  0.3047092337753583   T   T   T
  0.7720700114749911  0.2055813598632850  0.3895733147588393   T   T   T
  0.6662190504074443 -0.0000316021446001  0.2305277587276388   T   T   T
  0.8902318327492225  0.1108367487078254  0.0758458100285111   F   F   F
  0.9979753830302788  0.3322864863637599  0.9955937355407473   T   T   T
  0.1111318632359755  0.5555351367619394  0.1476127287858802   F   F   F
  0.1058431871651965  0.5614233264968286  0.3870871922677362   T   T   T
  0.0161233377290194  0.3423282022715118  0.2335903253581943   T   T   T
  0.2222064490818596  0.4444595509186442  0.0730825141632607   F   F   F
  0.3332898309955844  0.3326294720320745  0.9954249512728999   T   T   T
  0.4441436535969956  0.5531523677583294  0.1490714935224204   F   F   F
  0.5500104667572918  0.4378409392016402  0.3017747340981572   T   T   T
  0.4000265809735047  0.5042231283672043  0.3687218677791864   T   T   T
  0.3200427176832186  0.3438478483240954  0.2419095859788645   T   T   T
  0.5563973140887839  0.4448229135822075  0.0745687082518600   F   F   F
  0.6655696151897107  0.3315174120261136  0.9962893173207612   T   T   T
  0.7777499284531899  0.5549107892640350  0.1504459425770150   F   F   F
  0.8884595137059661  0.4495031837628436  0.3039389366365222   T   T   T
  0.7805656755602758  0.5714534397938977  0.3867601755215366   T   T   T
  0.6672940753303912  0.3310251690679171  0.2260332870993818   T   T   T
  0.8881924085703119  0.4443256301557383  0.0752348813154882   F   F   F
  0.9994767303610435  0.6671694883003076  0.9955757731152968   T   T   T
  0.1117562107349030  0.8889170715452579  0.1504459425771500   F   F   F
  0.2209510524037109  0.7824823151964139  0.3036936184314666   T   T   T
  0.1118092914710368  0.8947904199909102  0.3842260942090006   T   T   T
  0.0011543073847806  0.6675530125731675  0.2287860069434438   T   T   T
  0.2223403698438275  0.7784745914289672  0.0752348813156161   F   F   F
  0.3344150224510944  0.6686395312308373  0.9955882606911640   T   T   T
  0.4429625553678207  0.8821844515044646  0.1517346758430165   F   F   F
  0.5609144963071828  0.7766764995007959  0.3070863775048266   T   T   T
  0.4483602013155181  0.8989630143260606  0.3883548502175691   T   T   T
  0.3252847902051653  0.6505211039016222  0.2343148143425492   T   T   T
  0.5558302512928890  0.7764351672509449  0.0758458100285466   F   F   F
  0.6671498111554338  0.6675993802841579  0.9955269403219511   T   T   T
  0.7767117350278383  0.8899552649730751  0.1511517442881143   F   F   F
  0.8905719079563302  0.7808009354408845  0.3023367951247778   T   T   T
  0.7838379563530203  0.8870674685557117  0.3848169320210995   T   T   T
  0.6674436969706898  0.6663220301036593  0.2293493666706580   T   T   T
  0.8887180652834346  0.7779489347163988  0.0757926245787388   F   F   F
  0.3384846832063330  0.3334079857050898  0.3347421368935842   T   T   T
  0.0055561898772326  0.0012398982437046  0.3409315356038614   T   T   T
  0.2219629874182445  0.1101473642946189  0.1906968468950581   F   F   F
  0.1101441475967064  0.2206027440003950  0.0345679904610066   F   F   F
  0.3309353710866734 -0.0049530524870464  0.3415699545541661   T   T   T
  0.5560907146641583  0.1105762853384746  0.1906905386532216   F   F   F
  0.4440549940433982  0.2226110059569351  0.0361571671597858   F   F   F
  0.6685566295722795 -0.0005428226543083  0.3464931272900890   T   T   T
  0.8906040253922356  0.1120629259323209  0.1921688064520666   F   F   F
  0.7781950283321208  0.2225433939601160  0.0368246137178332   F   F   F
  0.9927732536196376  0.3316634181132611  0.3511898287158245   T   T   T
  0.2223902687387920  0.4442757312558285  0.1838623152486960   F   F   F
  0.1101196937720346  0.5565473062275856  0.0345927605863920   F   F   F
  0.5565196357002975  0.4447030125799571  0.1906968468946388   F   F   F
  0.4460632559993840  0.5565228524033543  0.0345679904607863   F   F   F
  0.6688689436970553  0.3361767347252415  0.3468899046075827   T   T   T
  0.8907571160231527  0.4444877489228389  0.1912141575387594   F   F   F
  0.7772205667070651  0.5549268991728695  0.0359455948642591   F   F   F
 -0.0005856342193558  0.6662194580938882  0.3447810418232468   T   T   T
  0.2221782510817150  0.7759098839854559  0.1912141575389654   F   F   F
  0.1117401008279302  0.8894464332932941  0.0359455948643586   F   F   F
  0.3339113365948885  0.6745120481572396  0.3519657159529322   T   T   T
  0.5546040740609754  0.7760629746092178  0.1921688064517397   F   F   F
  0.4441226060396346  0.8884719716684302  0.0368246137176982   F   F   F
  0.6705782389298164  0.6655668273504223  0.3416344038656589   T   T   T
  0.8893987611758050  0.7772682388250587  0.1887675520633678   F   F   F
  0.7773105366072315  0.8893564633921898  0.0367931306335407   F   F   F
  0.3058979652976700  0.3601383365110858  0.4772708475918449   T   T   T
  0.3984531683299387  0.2456868322482592  0.4380932770841903   T   T   T
 
  0.00000000E+00  0.00000000E+00  0.00000000E+00
  0.00000000E+00  0.00000000E+00  0.00000000E+00
  0.00000000E+00  0.00000000E+00  0.00000000E+00
  0.00000000E+00  0.00000000E+00  0.00000000E+00
  0.00000000E+00  0.00000000E+00  0.00000000E+00
  0.00000000E+00  0.00000000E+00  0.00000000E+00
  0.00000000E+00  0.00000000E+00  0.00000000E+00
  0.00000000E+00  0.00000000E+00  0.00000000E+00
  0.00000000E+00  0.00000000E+00  0.00000000E+00
  0.00000000E+00  0.00000000E+00  0.00000000E+00
  0.00000000E+00  0.00000000E+00  0.00000000E+00
  0.00000000E+00  0.00000000E+00  0.00000000E+00
  0.00000000E+00  0.00000000E+00  0.00000000E+00
  0.00000000E+00  0.00000000E+00  0.00000000E+00
  0.00000000E+00  0.00000000E+00  0.00000000E+00
  0.00000000E+00  0.00000000E+00  0.00000000E+00
  0.00000000E+00  0.00000000E+00  0.00000000E+00
  0.00000000E+00  0.00000000E+00  0.00000000E+00
  0.00000000E+00  0.00000000E+00  0.00000000E+00
  0.00000000E+00  0.00000000E+00  0.00000000E+00
  0.00000000E+00  0.00000000E+00  0.00000000E+00
  0.00000000E+00  0.00000000E+00  0.00000000E+00
  0.00000000E+00  0.00000000E+00  0.00000000E+00
  0.00000000E+00  0.00000000E+00  0.00000000E+00
  0.00000000E+00  0.00000000E+00  0.00000000E+00
  0.00000000E+00  0.00000000E+00  0.00000000E+00
  0.00000000E+00  0.00000000E+00  0.00000000E+00
  0.00000000E+00  0.00000000E+00  0.00000000E+00
  0.00000000E+00  0.00000000E+00  0.00000000E+00
  0.00000000E+00  0.00000000E+00  0.00000000E+00
  0.00000000E+00  0.00000000E+00  0.00000000E+00
  0.00000000E+00  0.00000000E+00  0.00000000E+00
  0.00000000E+00  0.00000000E+00  0.00000000E+00
  0.00000000E+00  0.00000000E+00  0.00000000E+00
  0.00000000E+00  0.00000000E+00  0.00000000E+00
  0.00000000E+00  0.00000000E+00  0.00000000E+00
  0.00000000E+00  0.00000000E+00  0.00000000E+00
  0.00000000E+00  0.00000000E+00  0.00000000E+00
  0.00000000E+00  0.00000000E+00  0.00000000E+00
  0.00000000E+00  0.00000000E+00  0.00000000E+00
  0.00000000E+00  0.00000000E+00  0.00000000E+00
  0.00000000E+00  0.00000000E+00  0.00000000E+00
  0.00000000E+00  0.00000000E+00  0.00000000E+00
  0.00000000E+00  0.00000000E+00  0.00000000E+00
  0.00000000E+00  0.00000000E+00  0.00000000E+00
  0.00000000E+00  0.00000000E+00  0.00000000E+00
  0.00000000E+00  0.00000000E+00  0.00000000E+00
  0.00000000E+00  0.00000000E+00  0.00000000E+00
  0.00000000E+00  0.00000000E+00  0.00000000E+00
  0.00000000E+00  0.00000000E+00  0.00000000E+00
  0.00000000E+00  0.00000000E+00  0.00000000E+00
  0.00000000E+00  0.00000000E+00  0.00000000E+00
  0.00000000E+00  0.00000000E+00  0.00000000E+00
  0.00000000E+00  0.00000000E+00  0.00000000E+00
  0.00000000E+00  0.00000000E+00  0.00000000E+00
  0.00000000E+00  0.00000000E+00  0.00000000E+00
  0.00000000E+00  0.00000000E+00  0.00000000E+00
  0.00000000E+00  0.00000000E+00  0.00000000E+00
  0.00000000E+00  0.00000000E+00  0.00000000E+00
  0.00000000E+00  0.00000000E+00  0.00000000E+00
  0.00000000E+00  0.00000000E+00  0.00000000E+00
  0.00000000E+00  0.00000000E+00  0.00000000E+00
  0.00000000E+00  0.00000000E+00  0.00000000E+00
  0.00000000E+00  0.00000000E+00  0.00000000E+00
  0.00000000E+00  0.00000000E+00  0.00000000E+00
  0.00000000E+00  0.00000000E+00  0.00000000E+00
  0.00000000E+00  0.00000000E+00  0.00000000E+00
  0.00000000E+00  0.00000000E+00  0.00000000E+00
  0.00000000E+00  0.00000000E+00  0.00000000E+00
  0.00000000E+00  0.00000000E+00  0.00000000E+00
  0.00000000E+00  0.00000000E+00  0.00000000E+00
  0.00000000E+00  0.00000000E+00  0.00000000E+00
  0.00000000E+00  0.00000000E+00  0.00000000E+00
  0.00000000E+00  0.00000000E+00  0.00000000E+00
  0.00000000E+00  0.00000000E+00  0.00000000E+00
  0.00000000E+00  0.00000000E+00  0.00000000E+00
  0.00000000E+00  0.00000000E+00  0.00000000E+00
  0.00000000E+00  0.00000000E+00  0.00000000E+00
  0.00000000E+00  0.00000000E+00  0.00000000E+00
  0.00000000E+00  0.00000000E+00  0.00000000E+00
  0.00000000E+00  0.00000000E+00  0.00000000E+00
  0.00000000E+00  0.00000000E+00  0.00000000E+00
