CeO2-you-111-you-Sb                     
   1.00000000000000     
     9.9073984811053251   -5.7200395526849528   -0.0000000003237202
    -0.0260647985777335   11.3949315396582396   -0.0061565696862372
    -0.0070662036398796   -0.0122390216405651   20.3066452120837333
   O    Sb   Ce   H 
    53     1    26     2
Selective dynamics
Direct
  0.0000557832699661  0.0002930171913304  0.9892613653378750   T   T   T
  0.1128116051583135  0.2235210211979037  0.1480752515985131   F   F   F
  0.2390264580805685  0.1256250023555935  0.3120980176044560   T   T   T
  0.1152872727967534  0.2261263889497114  0.3870521577265688   T   T   T
  0.0056035287203222  0.0025147386998657  0.2317055784548710   T   T   T
  0.2224116771341613  0.1114903542685965  0.0703673654633761   F   F   F
  0.3336231843443349  0.0006740671404309  0.9885565686049522   T   T   T
  0.4440424160392453  0.2235210211976053  0.1480752515984847   F   F   F
  0.5537822773610299  0.1147019617948351  0.3074677147788634   T   T   T
  0.4652680921365050  0.2039994518210496  0.4134916614327669   T   T   T
  0.3308590755754128  0.0003632231875002  0.2301846495553432   T   T   T
  0.5556049186750940  0.1118804484717160  0.0710898884169922   F   F   F
  0.6673614600342260  0.9998643770786055  0.9898099668834877   T   T   T
  0.7768089416164941  0.2202838832326108  0.1503077109864250   F   F   F
  0.8888544771304782  0.1110496923164975  0.3067512870246579   T   T   T
  0.7795881988374873  0.2229026259961155  0.3896593849157703   T   T   T
  0.6650585258205360  0.9976931669266107  0.2310925508113361   T   T   T
  0.8896095297965161  0.1118804484718652  0.0710898884170206   F   F   F
  0.0002570595393897  0.3329907278817555  0.9891790927058326   T   T   T
  0.1105229073517577  0.5556956177924164  0.1481338964516326   F   F   F
  0.2301613977145051  0.4414176198225526  0.3079577462731961   T   T   T
  0.0961619549629452  0.5470904050968047  0.3911487501859028   T   T   T
  0.0025014371391338  0.3347037714889797  0.2314565378612304   T   T   T
  0.2221554243352770  0.4451645291495723  0.0715232103288841   F   F   F
  0.3341675362564485  0.3349746728864640  0.9892377240895674   T   T   T
  0.4431882293014482  0.5530444586026917  0.1495133423598602   F   F   F
  0.5335339994492221  0.4251503427981832  0.3139385329439853   T   T   T
  0.3294732599801216  0.3318924183931942  0.2327174248313401   T   T   T
  0.5563431048142036  0.4451645291497712  0.0715232103289054   F   F   F
  0.6667866358951892  0.3334876422097675  0.9891027404714073   T   T   T
  0.7785057104406050  0.5556956177924164  0.1481338964516397   F   F   F
  0.8879042506337880  0.4430589087872946  0.3058098294996536   T   T   T
  0.7823714238744267  0.5467714499647184  0.3911990626594468   T   T   T
  0.6665850619314154  0.3363491034698149  0.2310854068603063   T   T   T
  0.8881955809651103  0.4430571619299855  0.0716186756758432   F   F   F
  0.9997132562435735  0.6660108429143402  0.9889772806528160   T   T   T
  0.1113764407098401  0.8894198814197978  0.1463602784363189   F   F   F
  0.2190444884786034  0.7802987107828107  0.3081224090082872   T   T   T
  0.1132714059554038  0.8923949903658716  0.3907979721321366   T   T   T
  0.0003476142303289  0.6678078052333994  0.2295122038375539   T   T   T
  0.2222113284379859  0.7783576208712830  0.0703605262100453   F   F   F
  0.3342116605256613  0.6675156943434867  0.9893995512545261   T   T   T
  0.4435411383826136  0.8891153231896496  0.1480737432700465   F   F   F
  0.5553879591072213  0.7762903636437700  0.3112102074785051   T   T   T
  0.4488330995813556  0.9013426227529905  0.3928227248839991   T   T   T
  0.3315385216120880  0.6678047247939087  0.2288009189227756   T   T   T
  0.5552089259788175  0.7770838519572436  0.0723539305132164   F   F   F
  0.6668768302192088  0.6675917733206032  0.9893540271888455   T   T   T
  0.7789071848073661  0.8891153231900262  0.1480737432701389   F   F   F
  0.8945039170534834  0.7804676568798377  0.3080697772981656   T   T   T
  0.7881317305197978  0.9027416900990189  0.3931106090705068   T   T   T
  0.6674221567670942  0.6632491935041147  0.2300459487511157   T   T   T
  0.8894792924336059  0.7783576208716028  0.0703605262101306   F   F   F
  0.3181714233385191  0.3323786888062636  0.3393241198124592   T   T   T
  0.0010528882599891  0.0014313564661369  0.3503613585503541   T   T   T
  0.2221280981463138  0.1109231962925890  0.1881316141695351   F   F   F
  0.1112729586431840  0.2228136952927073  0.0300589632858888   F   F   F
  0.3330948069774254 -0.0040332927227979  0.3504780765216707   T   T   T
  0.5543689244135024  0.1100731615996011  0.1899815709213470   F   F   F
  0.4448737366493916  0.2228136952927144  0.0300589632858888   F   F   F
  0.6670081682797250  0.9988400991515455  0.3495979253504260   T   T   T
  0.8890382371861776  0.1100731615996011  0.1899815709213541   F   F   F
  0.7776667209032482  0.2219994418065312  0.0308685975970278   F   F   F
  0.9973725313143409  0.3327616501705079  0.3491451398836400   T   T   T
  0.2215642785809209  0.4450886332130750  0.1903767560707763   F   F   F
  0.1107712060478221  0.5551527882784910  0.0303341748073862   F   F   F
  0.5568583546319132  0.4450886332128405  0.1903767560707763   F   F   F
  0.4444374310949968  0.5555428621900091  0.0306291216896994   F   F   F
  0.6717132474935673  0.3347840876475711  0.3494140361728358   T   T   T
  0.8888834003518582  0.4444328007036873  0.1904684888670616   F   F   F
  0.7777145822307574  0.5551527882785479  0.0303341748074288   F   F   F
 -0.0004687808920638  0.6657247042299224  0.3489241300071610   T   T   T
  0.2215304014272164  0.7790840080949053  0.1880478662365732   F   F   F
  0.1113553038387849  0.8893776076776234  0.0286272624103105   F   F   F
  0.3288764186253579  0.6717931723427286  0.3507529937111037   T   T   T
  0.5544254696481588  0.7755169392958905  0.1900261957264959   F   F   F
  0.4443730282283695  0.8887906765957041  0.0302889278653780   F   F   F
  0.6755474642457453  0.6697665326225976  0.3506022368176994   T   T   T
  0.8908866066675785  0.7790840080947206  0.1880478662365661   F   F   F
  0.7777506483674301  0.8887906765956117  0.0302889278653851   F   F   F
  0.4084671864245394  0.4985708159156840  0.3991167856360423   T   T   T
  0.4475809390505093  0.2226995323172071  0.4579334337424895   T   T   T
 
  0.00000000E+00  0.00000000E+00  0.00000000E+00
  0.00000000E+00  0.00000000E+00  0.00000000E+00
  0.00000000E+00  0.00000000E+00  0.00000000E+00
  0.00000000E+00  0.00000000E+00  0.00000000E+00
  0.00000000E+00  0.00000000E+00  0.00000000E+00
  0.00000000E+00  0.00000000E+00  0.00000000E+00
  0.00000000E+00  0.00000000E+00  0.00000000E+00
  0.00000000E+00  0.00000000E+00  0.00000000E+00
  0.00000000E+00  0.00000000E+00  0.00000000E+00
  0.00000000E+00  0.00000000E+00  0.00000000E+00
  0.00000000E+00  0.00000000E+00  0.00000000E+00
  0.00000000E+00  0.00000000E+00  0.00000000E+00
  0.00000000E+00  0.00000000E+00  0.00000000E+00
  0.00000000E+00  0.00000000E+00  0.00000000E+00
  0.00000000E+00  0.00000000E+00  0.00000000E+00
  0.00000000E+00  0.00000000E+00  0.00000000E+00
  0.00000000E+00  0.00000000E+00  0.00000000E+00
  0.00000000E+00  0.00000000E+00  0.00000000E+00
  0.00000000E+00  0.00000000E+00  0.00000000E+00
  0.00000000E+00  0.00000000E+00  0.00000000E+00
  0.00000000E+00  0.00000000E+00  0.00000000E+00
  0.00000000E+00  0.00000000E+00  0.00000000E+00
  0.00000000E+00  0.00000000E+00  0.00000000E+00
  0.00000000E+00  0.00000000E+00  0.00000000E+00
  0.00000000E+00  0.00000000E+00  0.00000000E+00
  0.00000000E+00  0.00000000E+00  0.00000000E+00
  0.00000000E+00  0.00000000E+00  0.00000000E+00
  0.00000000E+00  0.00000000E+00  0.00000000E+00
  0.00000000E+00  0.00000000E+00  0.00000000E+00
  0.00000000E+00  0.00000000E+00  0.00000000E+00
  0.00000000E+00  0.00000000E+00  0.00000000E+00
  0.00000000E+00  0.00000000E+00  0.00000000E+00
  0.00000000E+00  0.00000000E+00  0.00000000E+00
  0.00000000E+00  0.00000000E+00  0.00000000E+00
  0.00000000E+00  0.00000000E+00  0.00000000E+00
  0.00000000E+00  0.00000000E+00  0.00000000E+00
  0.00000000E+00  0.00000000E+00  0.00000000E+00
  0.00000000E+00  0.00000000E+00  0.00000000E+00
  0.00000000E+00  0.00000000E+00  0.00000000E+00
  0.00000000E+00  0.00000000E+00  0.00000000E+00
  0.00000000E+00  0.00000000E+00  0.00000000E+00
  0.00000000E+00  0.00000000E+00  0.00000000E+00
  0.00000000E+00  0.00000000E+00  0.00000000E+00
  0.00000000E+00  0.00000000E+00  0.00000000E+00
  0.00000000E+00  0.00000000E+00  0.00000000E+00
  0.00000000E+00  0.00000000E+00  0.00000000E+00
  0.00000000E+00  0.00000000E+00  0.00000000E+00
  0.00000000E+00  0.00000000E+00  0.00000000E+00
  0.00000000E+00  0.00000000E+00  0.00000000E+00
  0.00000000E+00  0.00000000E+00  0.00000000E+00
  0.00000000E+00  0.00000000E+00  0.00000000E+00
  0.00000000E+00  0.00000000E+00  0.00000000E+00
  0.00000000E+00  0.00000000E+00  0.00000000E+00
  0.00000000E+00  0.00000000E+00  0.00000000E+00
  0.00000000E+00  0.00000000E+00  0.00000000E+00
  0.00000000E+00  0.00000000E+00  0.00000000E+00
  0.00000000E+00  0.00000000E+00  0.00000000E+00
  0.00000000E+00  0.00000000E+00  0.00000000E+00
  0.00000000E+00  0.00000000E+00  0.00000000E+00
  0.00000000E+00  0.00000000E+00  0.00000000E+00
  0.00000000E+00  0.00000000E+00  0.00000000E+00
  0.00000000E+00  0.00000000E+00  0.00000000E+00
  0.00000000E+00  0.00000000E+00  0.00000000E+00
  0.00000000E+00  0.00000000E+00  0.00000000E+00
  0.00000000E+00  0.00000000E+00  0.00000000E+00
  0.00000000E+00  0.00000000E+00  0.00000000E+00
  0.00000000E+00  0.00000000E+00  0.00000000E+00
  0.00000000E+00  0.00000000E+00  0.00000000E+00
  0.00000000E+00  0.00000000E+00  0.00000000E+00
  0.00000000E+00  0.00000000E+00  0.00000000E+00
  0.00000000E+00  0.00000000E+00  0.00000000E+00
  0.00000000E+00  0.00000000E+00  0.00000000E+00
  0.00000000E+00  0.00000000E+00  0.00000000E+00
  0.00000000E+00  0.00000000E+00  0.00000000E+00
  0.00000000E+00  0.00000000E+00  0.00000000E+00
  0.00000000E+00  0.00000000E+00  0.00000000E+00
  0.00000000E+00  0.00000000E+00  0.00000000E+00
  0.00000000E+00  0.00000000E+00  0.00000000E+00
  0.00000000E+00  0.00000000E+00  0.00000000E+00
  0.00000000E+00  0.00000000E+00  0.00000000E+00
  0.00000000E+00  0.00000000E+00  0.00000000E+00
  0.00000000E+00  0.00000000E+00  0.00000000E+00
