CeO2-you-111-you-Ca                     
   1.00000000000000     
     9.8910193092532470   -5.7105830328077083   -0.0000000006558130
    -0.0187166544351973   11.3887458614058747   -0.0125729081577887
    -0.0133531437879638   -0.0231283195685642   21.2000506380323905
   O    Ca   Ce   H 
    53     1    26     2
Selective dynamics
Direct
 -0.0000088561799410 -0.0000722298455015  0.9975386958634044   T   T   T
  0.1090735198072892  0.2224636961475923  0.1498078498754722   F   F   F
  0.2249172959973266  0.1066947892389165  0.3034739007538711   T   T   T
  0.0957332190295818  0.2156344955536697  0.3823189260035038   T   T   T
  0.0008610791255873  0.0006174001474234  0.2284566040271268   T   T   T
  0.2225354268937068  0.1117378537873321  0.0758386379103584   F   F   F
  0.3331923092270566 -0.0000203499688132  0.9969549678339192   T   T   T
  0.4467231763400790  0.2224636961473223  0.1498078498754793   F   F   F
  0.5509774589841895  0.1166172329646696  0.3043863035496374   T   T   T
  0.4486798008089539  0.2211528806767506  0.3978724970209951   T   T   T
  0.3331245729796639 -0.0018575690869794  0.2275365416415244   T   T   T
  0.5570427979757184  0.1113545060657657  0.0758161019484689   F   F   F
  0.6667078104665226  0.9995785254377816  0.9967172731325064   T   T   T
  0.7774919056235561  0.2216498112471754  0.1530860716181763   F   F   F
  0.8861444152391775  0.1100780164285781  0.3016727152426329   T   T   T
  0.7761674371370921  0.2228704198685522  0.3805872161057184   T   T   T
  0.6619627635607773  0.9964702382142852  0.2308325945431995   T   T   T
  0.8876457080901261  0.1113545060658936  0.0758161019484760   F   F   F
  0.0007547503000521  0.3331064659809588  0.9978263763762090   T   T   T
  0.1100502386711000  0.5540702207878638  0.1499857556700519   F   F   F
  0.2284178725250609  0.4532262129976353  0.3050625130867693   T   T   T
  0.1121727403787975  0.5599694003067036  0.3825373727417557   T   T   T
  0.0026670602368924  0.3344424919207349  0.2303575336184916   T   T   T
  0.2232798335473092  0.4446040910411995  0.0767745131849509   F   F   F
  0.3334633259713621  0.3331051904906289  0.9972546343847601   T   T   T
  0.4454926577762706  0.5576533155529120  0.1510135798114618   F   F   F
  0.5586712479083453  0.4486906037893347  0.3067242504908324   T   T   T
  0.3331559780785489  0.3328323778559930  0.2256221029936670   T   T   T
  0.5546582574937418  0.4446040910410716  0.0767745131849509   F   F   F
  0.6663058052163804  0.3333337152870072  0.9977400181425259   T   T   T
  0.7773529821165113  0.5540702207876507  0.1499857556700377   F   F   F
  0.8911452499079680  0.4473916972236613  0.3036224550157808   T   T   T
  0.7820888041313006  0.5583078590769686  0.3831970421684490   T   T   T
  0.6673597155021609  0.3354943410032317  0.2301530329834644   T   T   T
  0.8880748320421219  0.4428156640842786  0.0766017828646497   F   F   F
  0.9993792527501798  0.6659126787267685  0.9976994336876317   T   T   T
  0.1112677628920054  0.8892025257836309  0.1483868541517097   F   F   F
  0.2196357414584339  0.7782960518203490  0.3020291667968514   T   T   T
  0.1128704694521792  0.8888364430782203  0.3834591856347146   T   T   T
  0.0003870908190988  0.6688995806657194  0.2281514376657911   T   T   T
  0.2222321462248757  0.7776056054245899  0.0753858736648922   F   F   F
  0.3330832048475141  0.6660829250302300  0.9975794515256029   T   T   T
  0.4455248664892864  0.8895570420948999  0.1487795062626702   F   F   F
  0.5507636899357370  0.7681445690199925  0.3053119841180907   T   T   T
  0.4429244195511671  0.8903596897212882  0.3797670393420273   T   T   T
  0.3334183724962583  0.6709132189822025  0.2280762352280651   T   T   T
  0.5554143527458990  0.7774947054917831  0.0759864675245439   F   F   F
  0.6665634504890339  0.6661563458487304  0.9973198090901673   T   T   T
  0.7773651756058797  0.8895570420951060  0.1487795062626702   F   F   F
  0.8916320515109089  0.7797705377196221  0.3031251292955093   T   T   T
  0.7771127430307377  0.8898069062941258  0.3804226449752507   T   T   T
  0.6702119983503867  0.6695574233969843  0.2284290875126804   T   T   T
  0.8887064591998026  0.7776056054245899  0.0753858736648922   F   F   F
  0.3273356930379461  0.3293376888009314  0.3400263212411644   T   T   T
  0.0031384820489805  0.0051766425155270  0.3424046960677934   T   T   T
  0.2227570005201329  0.1121810010410726  0.1892995543315550   F   F   F
  0.1112045139211588  0.2223904954628537  0.0373037141853700   F   F   F
  0.3279114127554799 -0.0041012421535828  0.3407230725277300   T   T   T
  0.5548017566529637  0.1106009921897950  0.1900438557947908   F   F   F
  0.4445189815417478  0.2223904954629674  0.0373037141853629   F   F   F
  0.6658697235095740  0.0003906995642130  0.3419225257972992   T   T   T
  0.8891332355360788  0.1106009921889779  0.1900438557947766   F   F   F
  0.7776293427150947  0.2219246854301247  0.0372565953888468   F   F   F
  0.0038809290307268  0.3334078710094011  0.3429254309639936   T   T   T
  0.2238013107396029  0.4443645643676462  0.1910732534039283   F   F   F
  0.1106971586039975  0.5544245083080170  0.0373118579885343   F   F   F
  0.5538972536294366  0.4443645643681577  0.1910732534038786   F   F   F
  0.4441082108541252  0.5548844217081523  0.0368700239171389   F   F   F
  0.6736943168304724  0.3401518838684127  0.3415119394738276   T   T   T
  0.8892084711132995  0.4450829422262856  0.1911552142553248   F   F   F
  0.7770603497040511  0.5544245083081023  0.0373118579885272   F   F   F
  0.0014474483393134  0.6690668225109937  0.3431016784940353   T   T   T
  0.2214492137796995  0.7790279931402679  0.1870486367370106   F   F   F
  0.1112530414044386  0.8891730828090445  0.0354902677588100   F   F   F
  0.3281128352987973  0.6690653218320824  0.3398480531865714   T   T   T
  0.5551559139042368  0.7769778278084800  0.1886349572429467   F   F   F
  0.4448408513358544  0.8889460800739855  0.0362507380571984   F   F   F
  0.6752454878144072  0.6709111394731668  0.3399739260787843   T   T   T
  0.8909117793599108  0.7790279931399482  0.1870486367370106   F   F   F
  0.7774382287380632  0.8889460800739641  0.0362507380571984   F   F   F
  0.4523330018777585  0.5707345653293963  0.3885167819633620   T   T   T
  0.4460617268078608  0.2238403276504160  0.4437086279600407   T   T   T
 
  0.00000000E+00  0.00000000E+00  0.00000000E+00
  0.00000000E+00  0.00000000E+00  0.00000000E+00
  0.00000000E+00  0.00000000E+00  0.00000000E+00
  0.00000000E+00  0.00000000E+00  0.00000000E+00
  0.00000000E+00  0.00000000E+00  0.00000000E+00
  0.00000000E+00  0.00000000E+00  0.00000000E+00
  0.00000000E+00  0.00000000E+00  0.00000000E+00
  0.00000000E+00  0.00000000E+00  0.00000000E+00
  0.00000000E+00  0.00000000E+00  0.00000000E+00
  0.00000000E+00  0.00000000E+00  0.00000000E+00
  0.00000000E+00  0.00000000E+00  0.00000000E+00
  0.00000000E+00  0.00000000E+00  0.00000000E+00
  0.00000000E+00  0.00000000E+00  0.00000000E+00
  0.00000000E+00  0.00000000E+00  0.00000000E+00
  0.00000000E+00  0.00000000E+00  0.00000000E+00
  0.00000000E+00  0.00000000E+00  0.00000000E+00
  0.00000000E+00  0.00000000E+00  0.00000000E+00
  0.00000000E+00  0.00000000E+00  0.00000000E+00
  0.00000000E+00  0.00000000E+00  0.00000000E+00
  0.00000000E+00  0.00000000E+00  0.00000000E+00
  0.00000000E+00  0.00000000E+00  0.00000000E+00
  0.00000000E+00  0.00000000E+00  0.00000000E+00
  0.00000000E+00  0.00000000E+00  0.00000000E+00
  0.00000000E+00  0.00000000E+00  0.00000000E+00
  0.00000000E+00  0.00000000E+00  0.00000000E+00
  0.00000000E+00  0.00000000E+00  0.00000000E+00
  0.00000000E+00  0.00000000E+00  0.00000000E+00
  0.00000000E+00  0.00000000E+00  0.00000000E+00
  0.00000000E+00  0.00000000E+00  0.00000000E+00
  0.00000000E+00  0.00000000E+00  0.00000000E+00
  0.00000000E+00  0.00000000E+00  0.00000000E+00
  0.00000000E+00  0.00000000E+00  0.00000000E+00
  0.00000000E+00  0.00000000E+00  0.00000000E+00
  0.00000000E+00  0.00000000E+00  0.00000000E+00
  0.00000000E+00  0.00000000E+00  0.00000000E+00
  0.00000000E+00  0.00000000E+00  0.00000000E+00
  0.00000000E+00  0.00000000E+00  0.00000000E+00
  0.00000000E+00  0.00000000E+00  0.00000000E+00
  0.00000000E+00  0.00000000E+00  0.00000000E+00
  0.00000000E+00  0.00000000E+00  0.00000000E+00
  0.00000000E+00  0.00000000E+00  0.00000000E+00
  0.00000000E+00  0.00000000E+00  0.00000000E+00
  0.00000000E+00  0.00000000E+00  0.00000000E+00
  0.00000000E+00  0.00000000E+00  0.00000000E+00
  0.00000000E+00  0.00000000E+00  0.00000000E+00
  0.00000000E+00  0.00000000E+00  0.00000000E+00
  0.00000000E+00  0.00000000E+00  0.00000000E+00
  0.00000000E+00  0.00000000E+00  0.00000000E+00
  0.00000000E+00  0.00000000E+00  0.00000000E+00
  0.00000000E+00  0.00000000E+00  0.00000000E+00
  0.00000000E+00  0.00000000E+00  0.00000000E+00
  0.00000000E+00  0.00000000E+00  0.00000000E+00
  0.00000000E+00  0.00000000E+00  0.00000000E+00
  0.00000000E+00  0.00000000E+00  0.00000000E+00
  0.00000000E+00  0.00000000E+00  0.00000000E+00
  0.00000000E+00  0.00000000E+00  0.00000000E+00
  0.00000000E+00  0.00000000E+00  0.00000000E+00
  0.00000000E+00  0.00000000E+00  0.00000000E+00
  0.00000000E+00  0.00000000E+00  0.00000000E+00
  0.00000000E+00  0.00000000E+00  0.00000000E+00
  0.00000000E+00  0.00000000E+00  0.00000000E+00
  0.00000000E+00  0.00000000E+00  0.00000000E+00
  0.00000000E+00  0.00000000E+00  0.00000000E+00
  0.00000000E+00  0.00000000E+00  0.00000000E+00
  0.00000000E+00  0.00000000E+00  0.00000000E+00
  0.00000000E+00  0.00000000E+00  0.00000000E+00
  0.00000000E+00  0.00000000E+00  0.00000000E+00
  0.00000000E+00  0.00000000E+00  0.00000000E+00
  0.00000000E+00  0.00000000E+00  0.00000000E+00
  0.00000000E+00  0.00000000E+00  0.00000000E+00
  0.00000000E+00  0.00000000E+00  0.00000000E+00
  0.00000000E+00  0.00000000E+00  0.00000000E+00
  0.00000000E+00  0.00000000E+00  0.00000000E+00
  0.00000000E+00  0.00000000E+00  0.00000000E+00
  0.00000000E+00  0.00000000E+00  0.00000000E+00
  0.00000000E+00  0.00000000E+00  0.00000000E+00
  0.00000000E+00  0.00000000E+00  0.00000000E+00
  0.00000000E+00  0.00000000E+00  0.00000000E+00
  0.00000000E+00  0.00000000E+00  0.00000000E+00
  0.00000000E+00  0.00000000E+00  0.00000000E+00
  0.00000000E+00  0.00000000E+00  0.00000000E+00
  0.00000000E+00  0.00000000E+00  0.00000000E+00
