CeO2-you-111-you-Sn                     
   1.00000000000000     
     9.8342780670139245   -5.6778234603652953    0.0000000000000000
     0.0000000011951773   11.3556449244480486    0.0000000000000000
     0.0000000000000000    0.0000000000000000   20.8735578591270787
   O    Sn   Ce   H 
    54     1    26     2
Selective dynamics
Direct
 -0.0000632720660329  0.0002197242407876  0.9939124757772120   T   T   T
  0.1103163982468729  0.2215557711380396  0.1475712463351043   T   T   T
  0.2403935194864378  0.1315967783127741  0.3120369317202679   T   T   T
  0.0789450249802887  0.2058759013011894  0.3884173766896247   T   T   T
  0.0073508696091420  0.0041005852262332  0.2315769875378451   T   T   T
  0.2231966597795061  0.1112498283337912  0.0735033869039932   T   T   T
  0.3336813992679902  0.0001533762024499  0.9930394455668561   T   T   T
  0.4448872783277189  0.2225457925877966  0.1487091245644873   T   T   T
  0.5523237281690647  0.1127447725268483  0.3050986117573088   T   T   T
  0.4743323726213481  0.1919701017622939  0.4101066863532575   T   T   T
  0.3298803655086806  0.0001641541643690  0.2299730454995858   T   T   T
  0.5556898612481984  0.1110603559800014  0.0738696258499519   T   T   T
  0.6665782006283969  0.0001240793850783  0.9929257529017320   T   T   T
  0.7787952016692307  0.2243619941547710  0.1494775936365962   T   T   T
  0.8825410033603890  0.1077835695488107  0.3019171074797357   T   T   T
  0.7777262844220149  0.2224431860779637  0.3851998148798222   T   T   T
  0.6647304246971468  0.0026139869053901  0.2279910417253323   T   T   T
  0.8872711077624339  0.1101923227206399  0.0737594083068546   T   T   T
  0.9997024403730221  0.3329083044512242  0.9931367136552451   T   T   T
  0.1107095660331169  0.5566062724717997  0.1482406029899362   T   T   T
  0.2299913206797841  0.4357247476918124  0.3083627136498122   T   T   T
  0.1106238108215186  0.5545656124979946  0.3834467765733707   T   T   T
  0.0043608782777235  0.3364784372810146  0.2301015949498983   T   T   T
  0.2222184477513909  0.4448026829371864  0.0730292748819510   T   T   T
  0.3334251067238907  0.3333229779149215  0.9929814254892231   T   T   T
  0.4451379179930406  0.5565801801847112  0.1481418576301685   T   T   T
  0.5342031148930663  0.4253871449772701  0.3119382587266478   T   T   T
  0.4598728501937673  0.5868329608233486  0.3881740521168688   T   T   T
  0.3321158515455121  0.3339070798916836  0.2278511554338091   T   T   T
  0.5559562786828375  0.4445917897621000  0.0736106210732807   T   T   T
  0.6664470523161217  0.3329031157118071  0.9932499627773517   T   T   T
  0.7785872843860953  0.5566933475051470  0.1491948438691902   T   T   T
  0.8881601065276142  0.4438977053303283  0.3046516753215127   T   T   T
  0.7767301810928329  0.5535511454739854  0.3844528211675526   T   T   T
  0.6668431791339673  0.3364614452674169  0.2303787623277525   T   T   T
  0.8886941199504399  0.4448065090648676  0.0731421418054897   T   T   T
  0.0000380363569958  0.6668700577705744  0.9929667951715843   T   T   T
  0.1100174356162334  0.8881063197859854  0.1488930901131102   T   T   T
  0.2226483218157682  0.7781039778363555  0.3049130063342670   T   T   T
  0.1133944541919522  0.8897987579060816  0.3845267760408507   T   T   T
  0.0001432776781290  0.6672351753279756  0.2300486380616323   T   T   T
  0.2224534350784735  0.7780454806190601  0.0731131203070870   T   T   T
  0.3340023666299524  0.6671551082463401  0.9932125405572746   T   T   T
  0.4427880331453998  0.8878801081535611  0.1494827002061744   T   T   T
  0.5583376368494686  0.7838107366742625  0.3019265274448731   T   T   T
  0.4443078258228746  0.8878980237599129  0.3853694041981775   T   T   T
  0.3301704153718331  0.6621791076337296  0.2302941709321928   T   T   T
  0.5567863512783169  0.7789473296249637  0.0736514540460162   T   T   T
  0.6666921069781455  0.6668350638880263  0.9929957601665058   T   T   T
  0.7785638463591373  0.8881052262034903  0.1515957863109253   T   T   T
  0.8887207363163795  0.7789128732225705  0.3052752698812013   T   T   T
  0.7761246176790382  0.8898030169141100  0.3860471702486210   T   T   T
  0.6630933706769054  0.6596340727241188  0.2318140060182849   T   T   T
  0.8883110157454805  0.7778617352471990  0.0736216402718679   T   T   T
  0.3291531910808569  0.3368488002110416  0.3375932536067368   T   T   T
 -0.0015465305047426  0.0026933869111742  0.3469155296980168   T   T   T
  0.2230274283575140  0.1119924854124051  0.1890057638221427   T   T   T
  0.1109472646913794  0.2220884740035808  0.0331599738510340   T   T   T
  0.3316714126244911  0.9948739026079697  0.3461945166961569   T   T   T
  0.5550524226426251  0.1117901313072307  0.1895829919109681   T   T   T
  0.4447253680267120  0.2222583727612049  0.0329127448757867   T   T   T
  0.6658142243128615  0.0002964920329834  0.3450080210421508   T   T   T
  0.8890105018115163  0.1119591501372317  0.1896305156196800   T   T   T
  0.7776284489191324  0.2221859773388245  0.0334331313928003   T   T   T
 -0.0016965596604632  0.3298084224676707  0.3463526717992740   T   T   T
  0.2222268991452252  0.4445694594119229  0.1878439053056372   T   T   T
  0.1109407178736591  0.5558802653565711  0.0329391126346536   T   T   T
  0.5548381159593152  0.4437762995514208  0.1892001481180156   T   T   T
  0.4449719062445761  0.5560055226433496  0.0330317332674242   T   T   T
  0.6714026880221055  0.3346907598354798  0.3460928327359880   T   T   T
  0.8892628258631423  0.4451194541748442  0.1894150180575449   T   T   T
  0.7780188777875844  0.5559241093720642  0.0335580122901389   T   T   T
  0.0001142479893488  0.6662844781922646  0.3448053097544659   T   T   T
  0.2218691184373205  0.7776318131451948  0.1893539201685273   T   T   T
  0.1110798996986948  0.8887441362321135  0.0336367725929029   T   T   T
  0.3364645013916748  0.6678542933676113  0.3463704703140867   T   T   T
  0.5548301421592372  0.7776858900785518  0.1896905996470240   T   T   T
  0.4446797270252219  0.8891478756536884  0.0333203780063397   T   T   T
  0.6637684866071855  0.6681922910409918  0.3469372325026320   T   T   T
  0.8889775389629585  0.7779005815868903  0.1908125609961129   T   T   T
  0.7777526769761349  0.8888085626228813  0.0337928363904683   T   T   T
  0.3421888265240648  0.3237309566370673  0.4192602159166831   T   T   T
  0.4338074123456037  0.2326507445596152  0.4370460527514547   T   T   T
 
  0.00000000E+00  0.00000000E+00  0.00000000E+00
  0.00000000E+00  0.00000000E+00  0.00000000E+00
  0.00000000E+00  0.00000000E+00  0.00000000E+00
  0.00000000E+00  0.00000000E+00  0.00000000E+00
  0.00000000E+00  0.00000000E+00  0.00000000E+00
  0.00000000E+00  0.00000000E+00  0.00000000E+00
  0.00000000E+00  0.00000000E+00  0.00000000E+00
  0.00000000E+00  0.00000000E+00  0.00000000E+00
  0.00000000E+00  0.00000000E+00  0.00000000E+00
  0.00000000E+00  0.00000000E+00  0.00000000E+00
  0.00000000E+00  0.00000000E+00  0.00000000E+00
  0.00000000E+00  0.00000000E+00  0.00000000E+00
  0.00000000E+00  0.00000000E+00  0.00000000E+00
  0.00000000E+00  0.00000000E+00  0.00000000E+00
  0.00000000E+00  0.00000000E+00  0.00000000E+00
  0.00000000E+00  0.00000000E+00  0.00000000E+00
  0.00000000E+00  0.00000000E+00  0.00000000E+00
  0.00000000E+00  0.00000000E+00  0.00000000E+00
  0.00000000E+00  0.00000000E+00  0.00000000E+00
  0.00000000E+00  0.00000000E+00  0.00000000E+00
  0.00000000E+00  0.00000000E+00  0.00000000E+00
  0.00000000E+00  0.00000000E+00  0.00000000E+00
  0.00000000E+00  0.00000000E+00  0.00000000E+00
  0.00000000E+00  0.00000000E+00  0.00000000E+00
  0.00000000E+00  0.00000000E+00  0.00000000E+00
  0.00000000E+00  0.00000000E+00  0.00000000E+00
  0.00000000E+00  0.00000000E+00  0.00000000E+00
  0.00000000E+00  0.00000000E+00  0.00000000E+00
  0.00000000E+00  0.00000000E+00  0.00000000E+00
  0.00000000E+00  0.00000000E+00  0.00000000E+00
  0.00000000E+00  0.00000000E+00  0.00000000E+00
  0.00000000E+00  0.00000000E+00  0.00000000E+00
  0.00000000E+00  0.00000000E+00  0.00000000E+00
  0.00000000E+00  0.00000000E+00  0.00000000E+00
  0.00000000E+00  0.00000000E+00  0.00000000E+00
  0.00000000E+00  0.00000000E+00  0.00000000E+00
  0.00000000E+00  0.00000000E+00  0.00000000E+00
  0.00000000E+00  0.00000000E+00  0.00000000E+00
  0.00000000E+00  0.00000000E+00  0.00000000E+00
  0.00000000E+00  0.00000000E+00  0.00000000E+00
  0.00000000E+00  0.00000000E+00  0.00000000E+00
  0.00000000E+00  0.00000000E+00  0.00000000E+00
  0.00000000E+00  0.00000000E+00  0.00000000E+00
  0.00000000E+00  0.00000000E+00  0.00000000E+00
  0.00000000E+00  0.00000000E+00  0.00000000E+00
  0.00000000E+00  0.00000000E+00  0.00000000E+00
  0.00000000E+00  0.00000000E+00  0.00000000E+00
  0.00000000E+00  0.00000000E+00  0.00000000E+00
  0.00000000E+00  0.00000000E+00  0.00000000E+00
  0.00000000E+00  0.00000000E+00  0.00000000E+00
  0.00000000E+00  0.00000000E+00  0.00000000E+00
  0.00000000E+00  0.00000000E+00  0.00000000E+00
  0.00000000E+00  0.00000000E+00  0.00000000E+00
  0.00000000E+00  0.00000000E+00  0.00000000E+00
  0.00000000E+00  0.00000000E+00  0.00000000E+00
  0.00000000E+00  0.00000000E+00  0.00000000E+00
  0.00000000E+00  0.00000000E+00  0.00000000E+00
  0.00000000E+00  0.00000000E+00  0.00000000E+00
  0.00000000E+00  0.00000000E+00  0.00000000E+00
  0.00000000E+00  0.00000000E+00  0.00000000E+00
  0.00000000E+00  0.00000000E+00  0.00000000E+00
  0.00000000E+00  0.00000000E+00  0.00000000E+00
  0.00000000E+00  0.00000000E+00  0.00000000E+00
  0.00000000E+00  0.00000000E+00  0.00000000E+00
  0.00000000E+00  0.00000000E+00  0.00000000E+00
  0.00000000E+00  0.00000000E+00  0.00000000E+00
  0.00000000E+00  0.00000000E+00  0.00000000E+00
  0.00000000E+00  0.00000000E+00  0.00000000E+00
  0.00000000E+00  0.00000000E+00  0.00000000E+00
  0.00000000E+00  0.00000000E+00  0.00000000E+00
  0.00000000E+00  0.00000000E+00  0.00000000E+00
  0.00000000E+00  0.00000000E+00  0.00000000E+00
  0.00000000E+00  0.00000000E+00  0.00000000E+00
  0.00000000E+00  0.00000000E+00  0.00000000E+00
  0.00000000E+00  0.00000000E+00  0.00000000E+00
  0.00000000E+00  0.00000000E+00  0.00000000E+00
  0.00000000E+00  0.00000000E+00  0.00000000E+00
  0.00000000E+00  0.00000000E+00  0.00000000E+00
  0.00000000E+00  0.00000000E+00  0.00000000E+00
  0.00000000E+00  0.00000000E+00  0.00000000E+00
  0.00000000E+00  0.00000000E+00  0.00000000E+00
  0.00000000E+00  0.00000000E+00  0.00000000E+00
  0.00000000E+00  0.00000000E+00  0.00000000E+00
