CeO2-you-111-you-Os                     
   1.00000000000000     
     9.9078975902706254   -5.7045105352930641    0.0025264086139170
    -0.0000000070273173   11.4090190507288263   -0.0000000002411347
     0.0082006571320754   -0.0000000007714027   20.3609244280082713
   O    Os   Ce   H 
    53     1    26     2
Selective dynamics
Direct
  0.9981263570544485  0.0009434366757648  0.9901618947371157   T   T   T
  0.1226085131604435  0.2279707565814775  0.1521428226109478   F   F   F
  0.2299785646111493  0.1344847324514035  0.3091080869455042   T   T   T
  0.1320361218130748  0.2317920111614350  0.3947713153648424   T   T   T
  0.0020092313039264  0.0003597123530936  0.2284619607795311   T   T   T
  0.2200611717291920  0.1097258911943371  0.0702508912814892   F   F   F
  0.3335345730925443  0.0002640453413127  0.9893294060507694   T   T   T
  0.4403025551915718  0.2230505809940411  0.1469931205971164   F   F   F
  0.5435200501759373  0.1033393445211018  0.3091844467568165   T   T   T
  0.4311674845152711  0.2385457866151753  0.3911607707634693   T   T   T
  0.3270165857105014 -0.0006570550306419  0.2306319491525288   T   T   T
  0.5528713282822366  0.1106523920989559  0.0726448335692353   F   F   F
  0.6683010271290570  0.0005006391044860  0.9926930803504828   T   T   T
  0.7714170852616320  0.2227282687331211  0.1514777660208964   F   F   F
  0.8833020874047123  0.1081999082236195  0.3072360726371959   T   T   T
  0.7646031740246404  0.2073498543245117  0.3965406793017331   T   T   T
  0.6628907616949166  0.9991116389019983  0.2305323047014536   T   T   T
  0.8908801161111128  0.1121065580553946  0.0763699880764932   F   F   F
  0.9978140647696457  0.3297347788180911  0.9901250354916563   T   T   T
  0.1110875898376591  0.5555064914178303  0.1472686199623681   F   F   F
  0.2160325632749793  0.4206007235926467  0.3070086990838514   T   T   T
  0.1256594834209374  0.5673817627470180  0.3898329336824667   T   T   T
 -0.0000715038813895  0.3342506639250206  0.2271549009981449   T   T   T
  0.2200611717294834  0.4436682805337711  0.0702508912813755   F   F   F
  0.3314364326977490  0.3322205780404286  0.9894970620025518   T   T   T
  0.4403025551883601  0.5505859741979009  0.1469931205974433   F   F   F
  0.4383515769288419  0.5127989950802179  0.3644284808864462   T   T   T
  0.3737287880821573  0.3537067762590772  0.2481454842958176   T   T   T
  0.5565722514610414  0.4449521257307367  0.0684220911045514   F   F   F
  0.6672050824042920  0.3316501924067925  0.9900226947537941   T   T   T
  0.7793845359745788  0.5563592679877019  0.1453121893751259   F   F   F
  0.8931234063849152  0.4472172553984457  0.3063592577670713   T   T   T
  0.7876117336213815  0.5584584363871640  0.3920145330523828   T   T   T
  0.6593755098957473  0.3401178526684319  0.2339612920123412   T   T   T
  0.8893657307005114  0.4437328392467066  0.0708227690142778   F   F   F
  0.9992497316684473  0.6665450746970272  0.9885477849441684   T   T   T
  0.1110875898372754  0.8889150984189058  0.1472686199621975   F   F   F
  0.2235569731190847  0.7750898285209779  0.3032738196112457   T   T   T
  0.1245216593656043  0.8862010728281260  0.3900521867923575   T   T   T
  0.0000538543627829  0.6662828334691256  0.2282451415164860   T   T   T
  0.2214604066603201  0.7773972033300964  0.0699326256704964   F   F   F
  0.3333682073477047  0.6666971569197676  0.9892031792411494   T   T   T
  0.4431849373815027  0.8882594686906131  0.1498926762718611   F   F   F
  0.5472825569003531  0.7773712860293991  0.3083273327076341   T   T   T
  0.4322485715523051  0.8799923105431547  0.3917856139971554   T   T   T
  0.3278455562374742  0.6586420951455793  0.2309783733899390   T   T   T
  0.5528713282823716  0.7755519361837671  0.0726448335691217   F   F   F
  0.6677303443344415  0.6692458621838039  0.9896571341612074   T   T   T
  0.7714170852592588  0.8820218165266951  0.1514777660207614   F   F   F
  0.8947357622349704  0.7776246889709172  0.3064660922019048   T   T   T
  0.7674616750816464  0.8927596814289064  0.3957005454716216   T   T   T
  0.6611477856662595  0.6535463995076406  0.2330247091400381   T   T   T
  0.8893657307004830  0.7789658914536872  0.0708227690142991   F   F   F
  0.3003249046355618  0.3234653352925852  0.3451532805649999   T   T   T
 -0.0021338332366846 -0.0017260160865034  0.3526074349755459   T   T   T
  0.2196626447509260  0.1080360519568728  0.1894164618475074   F   F   F
  0.1101171457863614  0.2217250728931788  0.0314157925519964   F   F   F
  0.3275983916474999  0.9878628748539910  0.3468901777897880   T   T   T
  0.5535421119744228  0.1119465622520437  0.1921117435216999   F   F   F
  0.4428740661037978  0.2202276789179365  0.0292074533596107   F   F   F
  0.6636646696682411  0.9973699922078589  0.3512316283295356   T   T   T
  0.8873074122775577  0.1103202061398747  0.1935488617783747   F   F   F
  0.7769641697368215  0.2219842915671038  0.0331108342522057   F   F   F
  0.9926475202543781  0.3294819425084448  0.3545523367721164   T   T   T
  0.2196626447516792  0.4449595927930545  0.1894164618474576   F   F   F
  0.1099905574345996  0.5539855360275610  0.0299310699534132   F   F   F
  0.5602681985700002  0.4468000992835357  0.1815795802183757   F   F   F
  0.4428740661044941  0.5559803871857056  0.0292074533594899   F   F   F
  0.6753314080147783  0.3320156987692705  0.3539306997656781   T   T   T
  0.8877438512452756  0.4441091191067628  0.1910973355198280   F   F   F
  0.7796400317516117  0.5564870158758737  0.0284880290742819   F   F   F
 -0.0008259906837316  0.6645994164125882  0.3478212886440653   T   T   T
  0.2198635426070510  0.7765987713040516  0.1869164090281004   F   F   F
  0.1099905574348412  0.8893390214074941  0.0299310699535553   F   F   F
  0.3302107823857417  0.6650965026805470  0.3463557198058215   T   T   T
  0.5535421119793824  0.7749285497225529  0.1921117435214228   F   F   F
  0.4444913246525601  0.8889126623263763  0.0321064152681956   F   F   F
  0.6751028402027850  0.6750450425731672  0.3541278598326540   T   T   T
  0.8877438512492688  0.7769677321448896  0.1910973355200554   F   F   F
  0.7769641697375533  0.8883128781700620  0.0331108342521063   F   F   F
  0.3292743751787648  0.3437906878467647  0.4220160562653224   T   T   T
  0.4222440074269880  0.2501554423455293  0.4379695583732089   T   T   T
 
  0.00000000E+00  0.00000000E+00  0.00000000E+00
  0.00000000E+00  0.00000000E+00  0.00000000E+00
  0.00000000E+00  0.00000000E+00  0.00000000E+00
  0.00000000E+00  0.00000000E+00  0.00000000E+00
  0.00000000E+00  0.00000000E+00  0.00000000E+00
  0.00000000E+00  0.00000000E+00  0.00000000E+00
  0.00000000E+00  0.00000000E+00  0.00000000E+00
  0.00000000E+00  0.00000000E+00  0.00000000E+00
  0.00000000E+00  0.00000000E+00  0.00000000E+00
  0.00000000E+00  0.00000000E+00  0.00000000E+00
  0.00000000E+00  0.00000000E+00  0.00000000E+00
  0.00000000E+00  0.00000000E+00  0.00000000E+00
  0.00000000E+00  0.00000000E+00  0.00000000E+00
  0.00000000E+00  0.00000000E+00  0.00000000E+00
  0.00000000E+00  0.00000000E+00  0.00000000E+00
  0.00000000E+00  0.00000000E+00  0.00000000E+00
  0.00000000E+00  0.00000000E+00  0.00000000E+00
  0.00000000E+00  0.00000000E+00  0.00000000E+00
  0.00000000E+00  0.00000000E+00  0.00000000E+00
  0.00000000E+00  0.00000000E+00  0.00000000E+00
  0.00000000E+00  0.00000000E+00  0.00000000E+00
  0.00000000E+00  0.00000000E+00  0.00000000E+00
  0.00000000E+00  0.00000000E+00  0.00000000E+00
  0.00000000E+00  0.00000000E+00  0.00000000E+00
  0.00000000E+00  0.00000000E+00  0.00000000E+00
  0.00000000E+00  0.00000000E+00  0.00000000E+00
  0.00000000E+00  0.00000000E+00  0.00000000E+00
  0.00000000E+00  0.00000000E+00  0.00000000E+00
  0.00000000E+00  0.00000000E+00  0.00000000E+00
  0.00000000E+00  0.00000000E+00  0.00000000E+00
  0.00000000E+00  0.00000000E+00  0.00000000E+00
  0.00000000E+00  0.00000000E+00  0.00000000E+00
  0.00000000E+00  0.00000000E+00  0.00000000E+00
  0.00000000E+00  0.00000000E+00  0.00000000E+00
  0.00000000E+00  0.00000000E+00  0.00000000E+00
  0.00000000E+00  0.00000000E+00  0.00000000E+00
  0.00000000E+00  0.00000000E+00  0.00000000E+00
  0.00000000E+00  0.00000000E+00  0.00000000E+00
  0.00000000E+00  0.00000000E+00  0.00000000E+00
  0.00000000E+00  0.00000000E+00  0.00000000E+00
  0.00000000E+00  0.00000000E+00  0.00000000E+00
  0.00000000E+00  0.00000000E+00  0.00000000E+00
  0.00000000E+00  0.00000000E+00  0.00000000E+00
  0.00000000E+00  0.00000000E+00  0.00000000E+00
  0.00000000E+00  0.00000000E+00  0.00000000E+00
  0.00000000E+00  0.00000000E+00  0.00000000E+00
  0.00000000E+00  0.00000000E+00  0.00000000E+00
  0.00000000E+00  0.00000000E+00  0.00000000E+00
  0.00000000E+00  0.00000000E+00  0.00000000E+00
  0.00000000E+00  0.00000000E+00  0.00000000E+00
  0.00000000E+00  0.00000000E+00  0.00000000E+00
  0.00000000E+00  0.00000000E+00  0.00000000E+00
  0.00000000E+00  0.00000000E+00  0.00000000E+00
  0.00000000E+00  0.00000000E+00  0.00000000E+00
  0.00000000E+00  0.00000000E+00  0.00000000E+00
  0.00000000E+00  0.00000000E+00  0.00000000E+00
  0.00000000E+00  0.00000000E+00  0.00000000E+00
  0.00000000E+00  0.00000000E+00  0.00000000E+00
  0.00000000E+00  0.00000000E+00  0.00000000E+00
  0.00000000E+00  0.00000000E+00  0.00000000E+00
  0.00000000E+00  0.00000000E+00  0.00000000E+00
  0.00000000E+00  0.00000000E+00  0.00000000E+00
  0.00000000E+00  0.00000000E+00  0.00000000E+00
  0.00000000E+00  0.00000000E+00  0.00000000E+00
  0.00000000E+00  0.00000000E+00  0.00000000E+00
  0.00000000E+00  0.00000000E+00  0.00000000E+00
  0.00000000E+00  0.00000000E+00  0.00000000E+00
  0.00000000E+00  0.00000000E+00  0.00000000E+00
  0.00000000E+00  0.00000000E+00  0.00000000E+00
  0.00000000E+00  0.00000000E+00  0.00000000E+00
  0.00000000E+00  0.00000000E+00  0.00000000E+00
  0.00000000E+00  0.00000000E+00  0.00000000E+00
  0.00000000E+00  0.00000000E+00  0.00000000E+00
  0.00000000E+00  0.00000000E+00  0.00000000E+00
  0.00000000E+00  0.00000000E+00  0.00000000E+00
  0.00000000E+00  0.00000000E+00  0.00000000E+00
  0.00000000E+00  0.00000000E+00  0.00000000E+00
  0.00000000E+00  0.00000000E+00  0.00000000E+00
  0.00000000E+00  0.00000000E+00  0.00000000E+00
  0.00000000E+00  0.00000000E+00  0.00000000E+00
  0.00000000E+00  0.00000000E+00  0.00000000E+00
  0.00000000E+00  0.00000000E+00  0.00000000E+00
