CeO2-you-111-you-Mo                     
   1.00000000000000     
     9.8898060657063613   -5.7098825642105142    0.0000000000000000
    -0.0000000051255109   11.4197631099072900   -0.0000000000000000
     0.0000000000000000   -0.0000000000000000   20.8076767939309271
   O    Mo   Ce
    54     1    26
Selective dynamics
Direct
 -0.0002611841315406  0.0001965769399958  0.9944606892573244   T   T   T
  0.1193479604966191  0.2263404802485317  0.1530014013479891   T   T   T
  0.2140217744519949  0.0947105489037375  0.3010279802084353   T   T   T
  0.1665324547468426  0.2499327273752219  0.3799737688981850   T   T   T
 -0.0050795141728301 -0.0036840935865759  0.2276191969164746   T   T   T
  0.2221413173322806  0.1109496346645619  0.0738856089170186   T   T   T
  0.3337907610715516  0.0001965769400513  0.9944606892573244   T   T   T
  0.4403255197519086  0.2263404802487276  0.1530014013479891   T   T   T
  0.5515191449613900  0.1151478550377798  0.3082129228411397   T   T   T
  0.4167332726283756  0.2499327273768188  0.3799737688981850   T   T   T
  0.3347284205861863 -0.0036840935870713  0.2276191969164746   T   T   T
  0.5534154600817359  0.1132515399192260  0.0752151928258107   T   T   T
  0.6666669999999968  0.0000000000000000  0.9963312548866728   T   T   T
  0.7761341740675848  0.2189343481348044  0.1486185958412328   T   T   T
  0.8969627100766465  0.1151478550380361  0.3082129228411397   T   T   T
  0.7775617633152299  0.2217895266304093  0.3850847753211996   T   T   T
  0.6666669999999968  0.0000000000000000  0.2327394676579847   T   T   T
  0.8931700798371960  0.1132515399189315  0.0752151928258107   T   T   T
 -0.0002611841315133  0.3328752389285919  0.9944606892573244   T   T   T
  0.1118082733101225  0.5548587266899133  0.1481397798217412   T   T   T
  0.2140217744525562  0.4526442255482535  0.3010279802084353   T   T   T
  0.1078229537523222  0.5588440462516563  0.3880430844148507   T   T   T
 -0.0050795141729904  0.3319375794126331  0.2276191969164746   T   T   T
  0.2221413173322717  0.4445246826677148  0.0738856089170186   T   T   T
  0.3333330000000032  0.3333330000000032  0.9949382223671801   T   T   T
  0.4403255197514675  0.5473190395027477  0.1530014013479891   T   T   T
  0.5719564510954561  0.4526442255480044  0.3010279802084353   T   T   T
  0.4167332726247773  0.5001345452479662  0.3799737688981850   T   T   T
  0.3333330000000032  0.3333330000000032  0.2490204807348893   T   T   T
  0.5557173653354548  0.4445246826677187  0.0738856089170186   T   T   T
  0.6664704230600870  0.3328752389286348  0.9944606892573244   T   T   T
  0.7763834533797774  0.5548587266899037  0.1481397798217412   T   T   T
  0.8903885568163481  0.4474431136328270  0.3037154988241347   T   T   T
  0.7843540924981085  0.5588440462504343  0.3880430844148507   T   T   T
  0.6703510935856881  0.3319375794122084  0.2276191969164745   T   T   T
  0.8887986241623895  0.4442632483247819  0.0733102898694777   T   T   T
  0.0000000000000000  0.6666669999999968  0.9940382366741861   T   T   T
  0.1118082733101004  0.8902835466201883  0.1481397798217412   T   T   T
  0.2192228863675988  0.7762784431836487  0.3037154988241347   T   T   T
  0.1078229537495694  0.8823129074979138  0.3880430844148507   T   T   T
  0.0000000000000000  0.6666669999999968  0.2265406388660246   T   T   T
  0.2224027516752305  0.7778683758376073  0.0733102898694777   T   T   T
  0.3337907610714543  0.6669281841313691  0.9944606892573244   T   T   T
  0.4477316518639846  0.8905328259324120  0.1486185958412328   T   T   T
  0.5515191449619677  0.7697042899241845  0.3082129228411397   T   T   T
  0.4448764733694054  0.8891052366847669  0.3850847753211996   T   T   T
  0.3347284205871424  0.6717465141743671  0.2276191969164746   T   T   T
  0.5534154600810725  0.7734969201618427  0.0752151928258107   T   T   T
  0.6664704230599617  0.6669281841313573  0.9944606892573244   T   T   T
  0.7761341740684231  0.8905328259327840  0.1486185958412328   T   T   T
  0.8903885568160534  0.7762784431835171  0.3037154988241347   T   T   T
  0.7775617633153572  0.8891052366848237  0.3850847753211996   T   T   T
  0.6703510935868041  0.6717465141744384  0.2276191969164745   T   T   T
  0.8887986241623803  0.7778683758376043  0.0733102898694777   T   T   T
  0.3333330000000032  0.3333330000000032  0.3422677179622446   T   T   T
 -0.0011626344632752 -0.0077799257878335  0.3434556794254288   T   T   T
  0.2199172534882586  0.1065015069762102  0.1912117892866714   T   T   T
  0.1120946268887954  0.2227138134446248  0.0352788545295581   T   T   T
  0.3267157086770626 -0.0077799257872378  0.3434556794254288   T   T   T
  0.5554085247386873  0.1112584752626843  0.1906662584730023   T   T   T
  0.4439521865558257  0.2227138134448252  0.0352788545295581   T   T   T
  0.6666669999999968  0.0000000000000000  0.3461161404535972   T   T   T
  0.8891839505235771  0.1112584752622637  0.1906662584730023   T   T   T
  0.7778295956695576  0.2223251913390565  0.0348608598644329   T   T   T
 -0.0011626344596304  0.3399502913259037  0.3434556794254288   T   T   T
  0.2199172534889434  0.4467487465120447  0.1912117892866714   T   T   T
  0.1115325941710338  0.5551344058282520  0.0330921629897542   T   T   T
  0.5601654930228050  0.4467487465117407  0.1912117892866714   T   T   T
  0.4439521865553742  0.5545723731105568  0.0352788545295581   T   T   T
  0.6744469257839100  0.3399502913248817  0.3434556794254288   T   T   T
  0.8892609860556691  0.4451879721118995  0.1876021503459619   T   T   T
  0.7769348116574348  0.5551344058284731  0.0330921629897542   T   T   T
  0.0000000000000000  0.6666669999999968  0.3473575229401748   T   T   T
  0.2214780278899282  0.7774060139443277  0.1876021503459619   T   T   T
  0.1115325941715311  0.8897321883432797  0.0330921629897542   T   T   T
  0.3267157086793651  0.6678296344629516  0.3434556794254288   T   T   T
  0.5554085247377399  0.7774830494750521  0.1906662584730023   T   T   T
  0.4443408086607295  0.8888374043304392  0.0348608598644329   T   T   T
  0.6744469257825678  0.6678296344613339  0.3434556794254288   T   T   T
  0.8892609860544025  0.7774060139437657  0.1876021503459619   T   T   T
  0.7778295956697050  0.8888374043305041  0.0348608598644329   T   T   T
 
  0.00000000E+00  0.00000000E+00  0.00000000E+00
  0.00000000E+00  0.00000000E+00  0.00000000E+00
  0.00000000E+00  0.00000000E+00  0.00000000E+00
  0.00000000E+00  0.00000000E+00  0.00000000E+00
  0.00000000E+00  0.00000000E+00  0.00000000E+00
  0.00000000E+00  0.00000000E+00  0.00000000E+00
  0.00000000E+00  0.00000000E+00  0.00000000E+00
  0.00000000E+00  0.00000000E+00  0.00000000E+00
  0.00000000E+00  0.00000000E+00  0.00000000E+00
  0.00000000E+00  0.00000000E+00  0.00000000E+00
  0.00000000E+00  0.00000000E+00  0.00000000E+00
  0.00000000E+00  0.00000000E+00  0.00000000E+00
  0.00000000E+00  0.00000000E+00  0.00000000E+00
  0.00000000E+00  0.00000000E+00  0.00000000E+00
  0.00000000E+00  0.00000000E+00  0.00000000E+00
  0.00000000E+00  0.00000000E+00  0.00000000E+00
  0.00000000E+00  0.00000000E+00  0.00000000E+00
  0.00000000E+00  0.00000000E+00  0.00000000E+00
  0.00000000E+00  0.00000000E+00  0.00000000E+00
  0.00000000E+00  0.00000000E+00  0.00000000E+00
  0.00000000E+00  0.00000000E+00  0.00000000E+00
  0.00000000E+00  0.00000000E+00  0.00000000E+00
  0.00000000E+00  0.00000000E+00  0.00000000E+00
  0.00000000E+00  0.00000000E+00  0.00000000E+00
  0.00000000E+00  0.00000000E+00  0.00000000E+00
  0.00000000E+00  0.00000000E+00  0.00000000E+00
  0.00000000E+00  0.00000000E+00  0.00000000E+00
  0.00000000E+00  0.00000000E+00  0.00000000E+00
  0.00000000E+00  0.00000000E+00  0.00000000E+00
  0.00000000E+00  0.00000000E+00  0.00000000E+00
  0.00000000E+00  0.00000000E+00  0.00000000E+00
  0.00000000E+00  0.00000000E+00  0.00000000E+00
  0.00000000E+00  0.00000000E+00  0.00000000E+00
  0.00000000E+00  0.00000000E+00  0.00000000E+00
  0.00000000E+00  0.00000000E+00  0.00000000E+00
  0.00000000E+00  0.00000000E+00  0.00000000E+00
  0.00000000E+00  0.00000000E+00  0.00000000E+00
  0.00000000E+00  0.00000000E+00  0.00000000E+00
  0.00000000E+00  0.00000000E+00  0.00000000E+00
  0.00000000E+00  0.00000000E+00  0.00000000E+00
  0.00000000E+00  0.00000000E+00  0.00000000E+00
  0.00000000E+00  0.00000000E+00  0.00000000E+00
  0.00000000E+00  0.00000000E+00  0.00000000E+00
  0.00000000E+00  0.00000000E+00  0.00000000E+00
  0.00000000E+00  0.00000000E+00  0.00000000E+00
  0.00000000E+00  0.00000000E+00  0.00000000E+00
  0.00000000E+00  0.00000000E+00  0.00000000E+00
  0.00000000E+00  0.00000000E+00  0.00000000E+00
  0.00000000E+00  0.00000000E+00  0.00000000E+00
  0.00000000E+00  0.00000000E+00  0.00000000E+00
  0.00000000E+00  0.00000000E+00  0.00000000E+00
  0.00000000E+00  0.00000000E+00  0.00000000E+00
  0.00000000E+00  0.00000000E+00  0.00000000E+00
  0.00000000E+00  0.00000000E+00  0.00000000E+00
  0.00000000E+00  0.00000000E+00  0.00000000E+00
  0.00000000E+00  0.00000000E+00  0.00000000E+00
  0.00000000E+00  0.00000000E+00  0.00000000E+00
  0.00000000E+00  0.00000000E+00  0.00000000E+00
  0.00000000E+00  0.00000000E+00  0.00000000E+00
  0.00000000E+00  0.00000000E+00  0.00000000E+00
  0.00000000E+00  0.00000000E+00  0.00000000E+00
  0.00000000E+00  0.00000000E+00  0.00000000E+00
  0.00000000E+00  0.00000000E+00  0.00000000E+00
  0.00000000E+00  0.00000000E+00  0.00000000E+00
  0.00000000E+00  0.00000000E+00  0.00000000E+00
  0.00000000E+00  0.00000000E+00  0.00000000E+00
  0.00000000E+00  0.00000000E+00  0.00000000E+00
  0.00000000E+00  0.00000000E+00  0.00000000E+00
  0.00000000E+00  0.00000000E+00  0.00000000E+00
  0.00000000E+00  0.00000000E+00  0.00000000E+00
  0.00000000E+00  0.00000000E+00  0.00000000E+00
  0.00000000E+00  0.00000000E+00  0.00000000E+00
  0.00000000E+00  0.00000000E+00  0.00000000E+00
  0.00000000E+00  0.00000000E+00  0.00000000E+00
  0.00000000E+00  0.00000000E+00  0.00000000E+00
  0.00000000E+00  0.00000000E+00  0.00000000E+00
  0.00000000E+00  0.00000000E+00  0.00000000E+00
  0.00000000E+00  0.00000000E+00  0.00000000E+00
  0.00000000E+00  0.00000000E+00  0.00000000E+00
  0.00000000E+00  0.00000000E+00  0.00000000E+00
  0.00000000E+00  0.00000000E+00  0.00000000E+00
