CeO2-you-111-you-Ge                     
   1.00000000000000     
     9.8233258828218819   -5.7075249809975750    0.0115347736723436
     0.0000000025714390   11.4150479576102359   -0.0000000013589545
     0.0244457074969504   -0.0000000024876137   21.1104524559867635
   O    Ge   Ce   H 
    53     1    26     2
Selective dynamics
Direct
  0.9994715778768920  0.0008048168687328  0.9967903844987466   T   T   T
  0.1111067573141753  0.2222198786567162  0.1502905317873697   F   F   F
  0.2276916745787841  0.1396494297087938  0.3094067249611319   T   T   T
  0.0995726139551650  0.2165473472265514  0.3935584532728178   T   T   T
  0.0038109952215790  0.0018845553872471  0.2302615899893800   T   T   T
  0.2220028900412601  0.1104196499662677  0.0755515210671263   F   F   F
  0.3325639670602117  0.9995655931902411  0.9956542755454869   T   T   T
  0.4473637477119965  0.2196192633962966  0.1458162109308248   F   F   F
  0.5580170435654901  0.1076217996494273  0.3028474725513576   T   T   T
  0.4646829009361129  0.1965920911737697  0.4132895451734804   T   T   T
  0.3285396035653106  0.0022243561522710  0.2295485046119652   T   T   T
  0.5560497806777818  0.1087703325866514  0.0741750021389933   F   F   F
  0.6689186994270041  0.0010087951374265  0.9953148540782931   T   T   T
  0.7758879747141876  0.2276446204630105  0.1516879108228153   F   F   F
  0.8896269990200421  0.1111774994617198  0.3038893911448448   T   T   T
  0.7846749786663610  0.2197240136092313  0.3872505468443290   T   T   T
  0.6697756373650494  0.0025400497027469  0.2262536042729443   T   T   T
  0.8862572141763891  0.1097951070879049  0.0776755980487494   F   F   F
  0.9993930330165067  0.3312997959333756  0.9967347672726155   T   T   T
  0.1099642697703658  0.5559848670405643  0.1510195200337847   F   F   F
  0.2270251851600240  0.4214755718202938  0.3088246271114328   T   T   T
  0.1097534855013803  0.5503950468809703  0.3825645413511938   T   T   T
  0.0029051400185438  0.3349454221178744  0.2301084631307926   T   T   T
  0.2220028900410398  0.4449162400749316  0.0755515210671760   F   F   F
  0.3305756841314957  0.3319717053861254  0.9956448941207690   T   T   T
  0.4473637477101136  0.5610784843168091  0.1458162109307821   F   F   F
  0.4671350485885598  0.5958169894856722  0.3884616883801383   T   T   T
  0.3447821227011156  0.3395034636855645  0.2226243859375700   T   T   T
  0.5554281104849892  0.4443800552427888  0.0716058655233738   F   F   F
  0.6678525931440796  0.3322326209043156  0.9954746852717140   T   T   T
  0.7790288578999096  0.5561814289494009  0.1475738439855334   F   F   F
  0.8920553350045118  0.4450347164503484  0.3040653012187353   T   T   T
  0.7671636179292558  0.5612498015775295  0.3785490595663224   T   T   T
  0.6560978489924180  0.3423724469340532  0.2333012984291851   T   T   T
  0.8896752685823373  0.4451626642181523  0.0751023343612118   F   F   F
  0.0006771805305662  0.6670443034846891  0.9957187178565374   T   T   T
  0.1099642697693710  0.8873134027282248  0.1510195200338273   F   F   F
  0.2176871635671417  0.7694922988207898  0.3039999823222341   T   T   T
  0.0938383470712740  0.8819545457909391  0.3831987158653003   T   T   T
  0.9965613034106674  0.6664695747231297  0.2298723092885394   T   T   T
  0.2224257764948661  0.7778798882474405  0.0756377541148652   F   F   F
  0.3322168368363050  0.6662224874104209  0.9952761625027811   T   T   T
  0.4439526652528798  0.8886433326265077  0.1508263982350897   F   F   F
  0.5616976522267609  0.7876377637542870  0.2997130391651842   T   T   T
  0.4487420737726356  0.8801199844475901  0.3855145988633237   T   T   T
  0.3306639674053641  0.6582711517951395  0.2310129519205038   T   T   T
  0.5560497806784923  0.7806124480919792  0.0741750021388654   F   F   F
  0.6677103972662083  0.6689037935490669  0.9953349658313756   T   T   T
  0.7758879747124539  0.8815763542502069  0.1516879108230356   F   F   F
  0.8855098789725467  0.7820874609272412  0.3019065587042814   T   T   T
  0.7792766176416543  0.8931663536626074  0.3864355851217852   T   T   T
  0.6531996809998349  0.6448307265771922  0.2354037713144976   T   T   T
  0.8896752685831046  0.7778456043643942  0.0751023343610058   F   F   F
  0.2590612200659753  0.2965683277949704  0.3483663663259383   T   T   T
 -0.0074228723341326 -0.0056699608269075  0.3444720915338815   T   T   T
  0.2246508076072828  0.1143269047644040  0.1904015103789618   F   F   F
  0.1111444065522278  0.2222387032760338  0.0365719169582306   F   F   F
  0.3311609738653591 -0.0055570144016365  0.3484397357957071   T   T   T
  0.5550121869826015  0.1115134598200598  0.1894081122828624   F   F   F
  0.4435727269748355  0.2200206605242059  0.0336907010533452   F   F   F
  0.6641084912615173  0.0015743903257022  0.3433786520967683   T   T   T
  0.8891762368038769  0.1112546184028531  0.1901102464480573   F   F   F
  0.7780035551225666  0.2223632094239107  0.0357928870528923   F   F   F
 -0.0060950063338656  0.3339566654238164  0.3450677799053391   T   T   T
  0.2246508076074747  0.4436569028423420  0.1904015103788481   F   F   F
  0.1109823681443416  0.5553131237428417  0.0368862919126869   F   F   F
  0.5536309315102770  0.4434814657522921  0.1811498487484329   F   F   F
  0.4435727269743168  0.5568860664498061  0.0336907010534802   F   F   F
  0.6691895272717457  0.3272338858735264  0.3506889914499727   T   T   T
  0.8874402526805127  0.4446838897492356  0.1908448996284022   F   F   F
  0.7803813964604416  0.5568576982302460  0.0339875668170464   F   F   F
 -0.0032412328503749  0.6658093391631550  0.3421949875271055   T   T   T
  0.2223781045848341  0.7778560522929894  0.1900715808039450   F   F   F
  0.1109823681443345  0.8890032444021259  0.0368862919126656   F   F   F
  0.3387514767302827  0.6683387420540858  0.3460397429909041   T   T   T
  0.5550121869862465  0.7768317271621896  0.1894081122827345   F   F   F
  0.4452581504989013  0.8892960752492058  0.0354393777867941   F   F   F
  0.6679453248700217  0.6810676433137801  0.3478659791451352   T   T   T
  0.8874402526832981  0.7760893629365739  0.1908448996283241   F   F   F
  0.7780035551231705  0.8889733456990356  0.0357928870528994   F   F   F
  0.3940108038316537  0.3649106043304263  0.3846271136308540   T   T   T
  0.4435460290948539  0.2142706509394507  0.4555395699149997   T   T   T
 
  0.00000000E+00  0.00000000E+00  0.00000000E+00
  0.00000000E+00  0.00000000E+00  0.00000000E+00
  0.00000000E+00  0.00000000E+00  0.00000000E+00
  0.00000000E+00  0.00000000E+00  0.00000000E+00
  0.00000000E+00  0.00000000E+00  0.00000000E+00
  0.00000000E+00  0.00000000E+00  0.00000000E+00
  0.00000000E+00  0.00000000E+00  0.00000000E+00
  0.00000000E+00  0.00000000E+00  0.00000000E+00
  0.00000000E+00  0.00000000E+00  0.00000000E+00
  0.00000000E+00  0.00000000E+00  0.00000000E+00
  0.00000000E+00  0.00000000E+00  0.00000000E+00
  0.00000000E+00  0.00000000E+00  0.00000000E+00
  0.00000000E+00  0.00000000E+00  0.00000000E+00
  0.00000000E+00  0.00000000E+00  0.00000000E+00
  0.00000000E+00  0.00000000E+00  0.00000000E+00
  0.00000000E+00  0.00000000E+00  0.00000000E+00
  0.00000000E+00  0.00000000E+00  0.00000000E+00
  0.00000000E+00  0.00000000E+00  0.00000000E+00
  0.00000000E+00  0.00000000E+00  0.00000000E+00
  0.00000000E+00  0.00000000E+00  0.00000000E+00
  0.00000000E+00  0.00000000E+00  0.00000000E+00
  0.00000000E+00  0.00000000E+00  0.00000000E+00
  0.00000000E+00  0.00000000E+00  0.00000000E+00
  0.00000000E+00  0.00000000E+00  0.00000000E+00
  0.00000000E+00  0.00000000E+00  0.00000000E+00
  0.00000000E+00  0.00000000E+00  0.00000000E+00
  0.00000000E+00  0.00000000E+00  0.00000000E+00
  0.00000000E+00  0.00000000E+00  0.00000000E+00
  0.00000000E+00  0.00000000E+00  0.00000000E+00
  0.00000000E+00  0.00000000E+00  0.00000000E+00
  0.00000000E+00  0.00000000E+00  0.00000000E+00
  0.00000000E+00  0.00000000E+00  0.00000000E+00
  0.00000000E+00  0.00000000E+00  0.00000000E+00
  0.00000000E+00  0.00000000E+00  0.00000000E+00
  0.00000000E+00  0.00000000E+00  0.00000000E+00
  0.00000000E+00  0.00000000E+00  0.00000000E+00
  0.00000000E+00  0.00000000E+00  0.00000000E+00
  0.00000000E+00  0.00000000E+00  0.00000000E+00
  0.00000000E+00  0.00000000E+00  0.00000000E+00
  0.00000000E+00  0.00000000E+00  0.00000000E+00
  0.00000000E+00  0.00000000E+00  0.00000000E+00
  0.00000000E+00  0.00000000E+00  0.00000000E+00
  0.00000000E+00  0.00000000E+00  0.00000000E+00
  0.00000000E+00  0.00000000E+00  0.00000000E+00
  0.00000000E+00  0.00000000E+00  0.00000000E+00
  0.00000000E+00  0.00000000E+00  0.00000000E+00
  0.00000000E+00  0.00000000E+00  0.00000000E+00
  0.00000000E+00  0.00000000E+00  0.00000000E+00
  0.00000000E+00  0.00000000E+00  0.00000000E+00
  0.00000000E+00  0.00000000E+00  0.00000000E+00
  0.00000000E+00  0.00000000E+00  0.00000000E+00
  0.00000000E+00  0.00000000E+00  0.00000000E+00
  0.00000000E+00  0.00000000E+00  0.00000000E+00
  0.00000000E+00  0.00000000E+00  0.00000000E+00
  0.00000000E+00  0.00000000E+00  0.00000000E+00
  0.00000000E+00  0.00000000E+00  0.00000000E+00
  0.00000000E+00  0.00000000E+00  0.00000000E+00
  0.00000000E+00  0.00000000E+00  0.00000000E+00
  0.00000000E+00  0.00000000E+00  0.00000000E+00
  0.00000000E+00  0.00000000E+00  0.00000000E+00
  0.00000000E+00  0.00000000E+00  0.00000000E+00
  0.00000000E+00  0.00000000E+00  0.00000000E+00
  0.00000000E+00  0.00000000E+00  0.00000000E+00
  0.00000000E+00  0.00000000E+00  0.00000000E+00
  0.00000000E+00  0.00000000E+00  0.00000000E+00
  0.00000000E+00  0.00000000E+00  0.00000000E+00
  0.00000000E+00  0.00000000E+00  0.00000000E+00
  0.00000000E+00  0.00000000E+00  0.00000000E+00
  0.00000000E+00  0.00000000E+00  0.00000000E+00
  0.00000000E+00  0.00000000E+00  0.00000000E+00
  0.00000000E+00  0.00000000E+00  0.00000000E+00
  0.00000000E+00  0.00000000E+00  0.00000000E+00
  0.00000000E+00  0.00000000E+00  0.00000000E+00
  0.00000000E+00  0.00000000E+00  0.00000000E+00
  0.00000000E+00  0.00000000E+00  0.00000000E+00
  0.00000000E+00  0.00000000E+00  0.00000000E+00
  0.00000000E+00  0.00000000E+00  0.00000000E+00
  0.00000000E+00  0.00000000E+00  0.00000000E+00
  0.00000000E+00  0.00000000E+00  0.00000000E+00
  0.00000000E+00  0.00000000E+00  0.00000000E+00
  0.00000000E+00  0.00000000E+00  0.00000000E+00
  0.00000000E+00  0.00000000E+00  0.00000000E+00
