CeO2-you-111-you-V                      
   1.00000000000000     
     9.8603410570148711   -5.6928709342280950    0.0000000000000000
    -0.0000000015599667   11.3857398621055275    0.0000000000000000
     0.0000000000000000    0.0000000000000000   20.7699082431055615
   O    V    Ce
    54     1    26
Selective dynamics
Direct
 -0.0007828766235128  0.0005157683659815  0.9917715522476468   T   T   T
  0.1085620652920669  0.2209475326450503  0.1457571896444657   T   T   T
  0.2460661000726232  0.1587992001469447  0.3176890163918343   T   T   T
  0.0535622156567496  0.1934476078147263  0.3982141546252572   T   T   T
  0.0089231325586480  0.0031996594452667  0.2326603445923216   T   T   T
  0.2203129781430268  0.1072929562862309  0.0710816467313731   T   T   T
  0.3346316449894723  0.0005157683664218  0.9917715522476468   T   T   T
  0.4457184673529797  0.2209475326441763  0.1457571896444657   T   T   T
  0.5584712762140045  0.1081957237789406  0.3013536595256361   T   T   T
  0.4732183921579727  0.1934476078026097  0.3982141546252572   T   T   T
  0.3276095268859567  0.0031996594463842  0.2326603445923216   T   T   T
  0.5569821930224206  0.1096848069755418  0.0731220685830834   T   T   T
  0.6666669999999968  0.0000000000000000  0.9920919569199553   T   T   T
  0.7801753661449845  0.2270167322914257  0.1511961872162320   T   T   T
  0.8830584475671066  0.1081957237811104  0.3013536595256361   T   T   T
  0.7755958613703916  0.2178577227404761  0.3873619227001949   T   T   T
  0.6666669999999968  0.0000000000000000  0.2255704225322464   T   T   T
  0.8860366139537493  0.1096848069761693  0.0731220685830834   T   T   T
 -0.0007828766235693  0.3320343550115007  0.9917715522476468   T   T   T
  0.1075781928055773  0.5590888071979827  0.1480068432458049   T   T   T
  0.2460661000687898  0.4205998999256748  0.3176890163918343   T   T   T
  0.1147205629223059  0.5519464370733771  0.3830286035436671   T   T   T
  0.0089231325571495  0.3390564731159025  0.2326603445923216   T   T   T
  0.2203129781426196  0.4463530218567922  0.0710816467313731   T   T   T
  0.3333330000000032  0.3333330000000032  0.9936157317507778   T   T   T
  0.4457184673549488  0.5581049347107804  0.1457571896444657   T   T   T
  0.5078677998585943  0.4205998999273762  0.3176890163918343   T   T   T
  0.4732183921852729  0.6131047843826714  0.3982141546252572   T   T   T
  0.3333330000000032  0.3333330000000032  0.2223330892411883   T   T   T
  0.5593740437143604  0.4463530218569726  0.0710816467313731   T   T   T
  0.6661512316350887  0.3320343550119663  0.9917715522476468   T   T   T
  0.7848436143913088  0.5590888071968898  0.1480068432458049   T   T   T
  0.8872642807456155  0.4411945614917392  0.3079321610409037   T   T   T
  0.7705588741523957  0.5519464370747056  0.3830286035436671   T   T   T
  0.6634673405594118  0.3390564731176852  0.2326603445923216   T   T   T
  0.8888674167058982  0.4444008334119494  0.0715957632638688   T   T   T
  0.0000000000000000  0.6666669999999968  0.9901384195396781   T   T   T
  0.1075781928031139  0.8818233856051314  0.1480068432458049   T   T   T
  0.2254714385099136  0.7794027192543813  0.3079321610409037   T   T   T
  0.1147205629252986  0.8961081258519222  0.3830286035436671   T   T   T
  0.0000000000000000  0.6666669999999968  0.2337283239293953   T   T   T
  0.2222651665885498  0.7777995832940986  0.0715957632638688   T   T   T
  0.3346316449884238  0.6674498766220522  0.9917715522476468   T   T   T
  0.4396492677132905  0.8864916338550123  0.1511961872162320   T   T   T
  0.5584712762188933  0.7836085524399488  0.3013536595256361   T   T   T
  0.4488082772585048  0.8910711386296052  0.3873619227001949   T   T   T
  0.3276095268819404  0.6577438674370483  0.2326603445923216   T   T   T
  0.5569821930238348  0.7806303860482890  0.0731220685830834   T   T   T
  0.6661512316340966  0.6674498766220778  0.9917715522476468   T   T   T
  0.7801753661417177  0.8864916338535619  0.1511961872162320   T   T   T
  0.8872642807444707  0.7794027192538724  0.3079321610409037   T   T   T
  0.7755958613710969  0.8910711386299180  0.3873619227001949   T   T   T
  0.6634673405568938  0.6577438674377133  0.2326603445923216   T   T   T
  0.8888674167055522  0.7777995832939454  0.0715957632638688   T   T   T
  0.3333330000000032  0.3333330000000032  0.3071283518739263   T   T   T
 -0.0054395426967987  0.0026100099013913  0.3504977632850794   T   T   T
  0.2183085492478221  0.1032840984944045  0.1828533258835709   T   T   T
  0.1091255609799284  0.2212292804902013  0.0315130311661199   T   T   T
  0.3413825525988080  0.0026100099000434  0.3504977632850794   T   T   T
  0.5549171898973091  0.1117498101051194  0.1896212937648825   T   T   T
  0.4454367195102690  0.2212292804904104  0.0315130311661199   T   T   T
  0.6666669999999968  0.0000000000000000  0.3444933276417211   T   T   T
  0.8901666202070658  0.1117498101043742  0.1896212937648825   T   T   T
  0.7778289800885038  0.2223239601770012  0.0327490502286958   T   T   T
 -0.0054395426954141  0.3252834473987760  0.3504977632850794   T   T   T
  0.2183085492506081  0.4483574507534137  0.1828533258835709   T   T   T
  0.1100187333743666  0.5566482666257024  0.0313619703921166   T   T   T
  0.5633829015015770  0.4483574507521773  0.1828533258835709   T   T   T
  0.4454367195097979  0.5575414390193957  0.0315130311661199   T   T   T
  0.6640569900935694  0.3252834473968136  0.3504977632850794   T   T   T
  0.8886524561361457  0.4439709122719157  0.1924979880385567   T   T   T
  0.7799625332513118  0.5566482666256825  0.0313619703921166   T   T   T
  0.0000000000000000  0.6666669999999968  0.3459007878621436   T   T   T
  0.2226950877268638  0.7780145438638510  0.1924979880385567   T   T   T
  0.1100187333743217  0.8867044667486197  0.0313619703921166   T   T   T
  0.3413825526032296  0.6721065427017953  0.3504977632850794   T   T   T
  0.5549171898956295  0.7765003797905065  0.1896212937648825   T   T   T
  0.4443420398229591  0.8888380199114930  0.0327490502286958   T   T   T
  0.6640569900966066  0.6721065427011806  0.3504977632850794   T   T   T
  0.8886524561369904  0.7780145438642263  0.1924979880385567   T   T   T
  0.7778289800885302  0.8888380199115059  0.0327490502286958   T   T   T
 
  0.00000000E+00  0.00000000E+00  0.00000000E+00
  0.00000000E+00  0.00000000E+00  0.00000000E+00
  0.00000000E+00  0.00000000E+00  0.00000000E+00
  0.00000000E+00  0.00000000E+00  0.00000000E+00
  0.00000000E+00  0.00000000E+00  0.00000000E+00
  0.00000000E+00  0.00000000E+00  0.00000000E+00
  0.00000000E+00  0.00000000E+00  0.00000000E+00
  0.00000000E+00  0.00000000E+00  0.00000000E+00
  0.00000000E+00  0.00000000E+00  0.00000000E+00
  0.00000000E+00  0.00000000E+00  0.00000000E+00
  0.00000000E+00  0.00000000E+00  0.00000000E+00
  0.00000000E+00  0.00000000E+00  0.00000000E+00
  0.00000000E+00  0.00000000E+00  0.00000000E+00
  0.00000000E+00  0.00000000E+00  0.00000000E+00
  0.00000000E+00  0.00000000E+00  0.00000000E+00
  0.00000000E+00  0.00000000E+00  0.00000000E+00
  0.00000000E+00  0.00000000E+00  0.00000000E+00
  0.00000000E+00  0.00000000E+00  0.00000000E+00
  0.00000000E+00  0.00000000E+00  0.00000000E+00
  0.00000000E+00  0.00000000E+00  0.00000000E+00
  0.00000000E+00  0.00000000E+00  0.00000000E+00
  0.00000000E+00  0.00000000E+00  0.00000000E+00
  0.00000000E+00  0.00000000E+00  0.00000000E+00
  0.00000000E+00  0.00000000E+00  0.00000000E+00
  0.00000000E+00  0.00000000E+00  0.00000000E+00
  0.00000000E+00  0.00000000E+00  0.00000000E+00
  0.00000000E+00  0.00000000E+00  0.00000000E+00
  0.00000000E+00  0.00000000E+00  0.00000000E+00
  0.00000000E+00  0.00000000E+00  0.00000000E+00
  0.00000000E+00  0.00000000E+00  0.00000000E+00
  0.00000000E+00  0.00000000E+00  0.00000000E+00
  0.00000000E+00  0.00000000E+00  0.00000000E+00
  0.00000000E+00  0.00000000E+00  0.00000000E+00
  0.00000000E+00  0.00000000E+00  0.00000000E+00
  0.00000000E+00  0.00000000E+00  0.00000000E+00
  0.00000000E+00  0.00000000E+00  0.00000000E+00
  0.00000000E+00  0.00000000E+00  0.00000000E+00
  0.00000000E+00  0.00000000E+00  0.00000000E+00
  0.00000000E+00  0.00000000E+00  0.00000000E+00
  0.00000000E+00  0.00000000E+00  0.00000000E+00
  0.00000000E+00  0.00000000E+00  0.00000000E+00
  0.00000000E+00  0.00000000E+00  0.00000000E+00
  0.00000000E+00  0.00000000E+00  0.00000000E+00
  0.00000000E+00  0.00000000E+00  0.00000000E+00
  0.00000000E+00  0.00000000E+00  0.00000000E+00
  0.00000000E+00  0.00000000E+00  0.00000000E+00
  0.00000000E+00  0.00000000E+00  0.00000000E+00
  0.00000000E+00  0.00000000E+00  0.00000000E+00
  0.00000000E+00  0.00000000E+00  0.00000000E+00
  0.00000000E+00  0.00000000E+00  0.00000000E+00
  0.00000000E+00  0.00000000E+00  0.00000000E+00
  0.00000000E+00  0.00000000E+00  0.00000000E+00
  0.00000000E+00  0.00000000E+00  0.00000000E+00
  0.00000000E+00  0.00000000E+00  0.00000000E+00
  0.00000000E+00  0.00000000E+00  0.00000000E+00
  0.00000000E+00  0.00000000E+00  0.00000000E+00
  0.00000000E+00  0.00000000E+00  0.00000000E+00
  0.00000000E+00  0.00000000E+00  0.00000000E+00
  0.00000000E+00  0.00000000E+00  0.00000000E+00
  0.00000000E+00  0.00000000E+00  0.00000000E+00
  0.00000000E+00  0.00000000E+00  0.00000000E+00
  0.00000000E+00  0.00000000E+00  0.00000000E+00
  0.00000000E+00  0.00000000E+00  0.00000000E+00
  0.00000000E+00  0.00000000E+00  0.00000000E+00
  0.00000000E+00  0.00000000E+00  0.00000000E+00
  0.00000000E+00  0.00000000E+00  0.00000000E+00
  0.00000000E+00  0.00000000E+00  0.00000000E+00
  0.00000000E+00  0.00000000E+00  0.00000000E+00
  0.00000000E+00  0.00000000E+00  0.00000000E+00
  0.00000000E+00  0.00000000E+00  0.00000000E+00
  0.00000000E+00  0.00000000E+00  0.00000000E+00
  0.00000000E+00  0.00000000E+00  0.00000000E+00
  0.00000000E+00  0.00000000E+00  0.00000000E+00
  0.00000000E+00  0.00000000E+00  0.00000000E+00
  0.00000000E+00  0.00000000E+00  0.00000000E+00
  0.00000000E+00  0.00000000E+00  0.00000000E+00
  0.00000000E+00  0.00000000E+00  0.00000000E+00
  0.00000000E+00  0.00000000E+00  0.00000000E+00
  0.00000000E+00  0.00000000E+00  0.00000000E+00
  0.00000000E+00  0.00000000E+00  0.00000000E+00
  0.00000000E+00  0.00000000E+00  0.00000000E+00
