CeO2-you-111-you-Tc                     
   1.00000000000000     
     9.8083651651070269   -5.6628626365728527   -0.0000000005876470
     0.0318403375018915   11.3808723587683538   -0.0120479011159015
    -0.0132122329179355   -0.0228842549102817   20.5233113862758856
   O    Tc   Ce H
    53     1    26 2
Selective dynamics
Direct
 -0.0012525619244674 -0.0008109211184674  0.9896672568350702   T   T   T
  0.1057534737188253  0.2195847411628053  0.1459552818899859   F   F   F
  0.2293033005590545  0.1252736011178495  0.3045718359699522   T   T   T
  0.1269549993183044  0.2173052273400146  0.3889715377581685   T   T   T
  0.0029177735816565  0.0012312621174623  0.2299940908190354   T   T   T
  0.2216685775858245  0.1100041551716824  0.0703430799179095   F   F   F
  0.3337746408058721 -0.0008109211186002  0.9896672568350386   T   T   T
  0.4471642674437147  0.2195847411624748  0.1459552818899910   F   F   F
  0.5563745893767459  0.1178363920614396  0.3077483263543569   T   T   T
  0.4236832280249951  0.2173052273384246  0.3889715377591748   T   T   T
  0.3316464885349518  0.0012312621171114  0.2299940908189856   T   T   T
  0.5579420179922613  0.1097834538744540  0.0720410172693256   F   F   F
  0.6658523095881177 -0.0016293808237863  0.9893383574298809   T   T   T
  0.7795445001718818  0.2257550003438210  0.1526843199940013   F   F   F
  0.8947958026854338  0.1178363920624412  0.3077483263544601   T   T   T
  0.7804011310291694  0.2274682620583690  0.3893592513548550   T   T   T
  0.6676697473088711  0.0020054946176169  0.2320725728347537   T   T   T
  0.8851754358822029  0.1097834538746817  0.0720410172693225   F   F   F
 -0.0006938674090510  0.3314052893470795  0.9893287210512243   T   T   T
  0.1096380653247980  0.5554256313238662  0.1474157617063861   F   F   F
  0.2592989419150240  0.4368224862754542  0.3237549301735636   T   T   T
  0.0991000945770376  0.5469004124921711  0.3886661309242965   T   T   T
  0.0152333927782225  0.3417515017499221  0.2346830317296947   T   T   T
  0.2219002744044724  0.4430482507079462  0.0713731982037426   F   F   F
  0.3324882109789374  0.3316434219578824  0.9891858510902223   T   T   T
  0.4473122327684009  0.5612924655368358  0.1463593343836553   F   F   F
  0.5108575443556108  0.4368224862737611  0.3237549301747174   T   T   T
  0.3327112756769715  0.3320895513542330  0.2186514805403839   T   T   T
  0.5544819763032314  0.4430482507076337  0.0713731982037459   F   F   F
  0.6654331567558283  0.3314052893468756  0.9893287210512529   T   T   T
  0.7791205659992333  0.5554256313237440  0.1474157617064174   F   F   F
  0.8870061839643638  0.4406783679280138  0.3050354442903652   T   T   T
  0.7811333179158912  0.5469004124939524  0.3886661309241892   T   T   T
  0.6598521089712757  0.3417515017495576  0.2346830317295664   T   T   T
  0.8872664340452047  0.4411988680905409  0.0714804035102904   F   F   F
 -0.0011685811117575  0.6643298377762552  0.9905609385162877   T   T   T
  0.1105524836685569  0.8877719673366080  0.1467984381463149   F   F   F
  0.2199387606888109  0.7798681230034122  0.3062585770341141   T   T   T
  0.1125962715961042  0.8918595431932093  0.3878795835672483   T   T   T
 -0.0000993146276334  0.6664683707437274  0.2297255993423489   T   T   T
  0.2229747817566845  0.7777600769607566  0.0712303048063313   F   F   F
  0.3327270149792008  0.6650931283712582  0.9898199457482473   T   T   T
  0.4451201323208564  0.8896306305189750  0.1502669403966203   F   F   F
  0.5567154643355281  0.7800969286757468  0.3095075764082747   T   T   T
  0.4510816505830156  0.9048219020949265  0.3913594058165901   T   T   T
  0.3289185854702076  0.6608118847439479  0.2299349470416791   T   T   T
  0.5562839389919070  0.7792338779838569  0.0719441778796470   F   F   F
  0.6656991133922551  0.6650931283712640  0.9898199457482537   T   T   T
  0.7778434981983838  0.8896306305194744  0.1502669403966152   F   F   F
  0.8932623623168099  0.7798681230057468  0.3062585770343036   T   T   T
  0.7870732515140058  0.9048219020955672  0.3913594058166475   T   T   T
  0.6652262992740663  0.6608118847446870  0.2299349470416386   T   T   T
  0.8881182952040767  0.7777600769606533  0.0712303048063075   F   F   F
  0.3174774977613209  0.3016219955307278  0.3455720150119140   T   T   T
  0.0010384318249910  0.0011093444726913  0.3490115310748100   T   T   T
  0.2226935016748849  0.1120540033488834  0.1852518499700755   F   F   F
  0.1094141709048091  0.2208071318405722  0.0296780252904703   F   F   F
  0.3334039126508804  0.0011093444745408  0.3490115310748629   T   T   T
  0.5550137708199598  0.1123009750081010  0.1909889979469876   F   F   F
  0.4447259609355997  0.2208071318405949  0.0296780252905178   F   F   F
  0.6687687892340975  0.0042035784714469  0.3495894460886515   T   T   T
  0.8906212041874544  0.1123009750071286  0.1909889979471275   F   F   F
  0.7770872714344411  0.2208405428688356  0.0310025675113509   F   F   F
  0.0048583671695411  0.3343941801087849  0.3494144249829922   T   T   T
  0.2256542590848586  0.4444437559351377  0.1867609336597144   F   F   F
  0.1102509449378356  0.5541737300202345  0.0311273460050334   F   F   F
  0.5521234968511333  0.4444437559357119  0.1867609336599083   F   F   F
  0.4445457318030356  0.5557594636058317  0.0298083933907493   F   F   F
  0.6628698129386636  0.3343941801067828  0.3494144249833240   T   T   T
  0.8896801005437588  0.4460262010871646  0.1907999907378532   F   F   F
  0.7772557850826357  0.5541737300204136  0.0311273460050318   F   F   F
 -0.0013941751050175  0.6638786497926635  0.3468411411662470   T   T   T
  0.2223730515523168  0.7779039273018576  0.1890464419998632   F   F   F
  0.1103624608040154  0.8873919216077930  0.0303401290890267   F   F   F
  0.3300108921339696  0.6726417300503376  0.3479583419055010   T   T   T
  0.5557635368197241  0.7781930736396515  0.1920814569763267   F   F   F
  0.4452252427451052  0.8884228707273800  0.0314904340161206   F   F   F
  0.6759638379191834  0.6726417300484459  0.3479583419041926   T   T   T
  0.8888638757483991  0.7779039273014993  0.1890464419999381   F   F   F
  0.7765306279824579  0.8884228707274499  0.0314904340160642   F   F   F
0.3174774977613209 0.3016219955307278 0.445572 T T T
0.446598 0.216020 0.433410 T T T 
 
  0.00000000E+00  0.00000000E+00  0.00000000E+00
  0.00000000E+00  0.00000000E+00  0.00000000E+00
  0.00000000E+00  0.00000000E+00  0.00000000E+00
  0.00000000E+00  0.00000000E+00  0.00000000E+00
  0.00000000E+00  0.00000000E+00  0.00000000E+00
  0.00000000E+00  0.00000000E+00  0.00000000E+00
  0.00000000E+00  0.00000000E+00  0.00000000E+00
  0.00000000E+00  0.00000000E+00  0.00000000E+00
  0.00000000E+00  0.00000000E+00  0.00000000E+00
  0.00000000E+00  0.00000000E+00  0.00000000E+00
  0.00000000E+00  0.00000000E+00  0.00000000E+00
  0.00000000E+00  0.00000000E+00  0.00000000E+00
  0.00000000E+00  0.00000000E+00  0.00000000E+00
  0.00000000E+00  0.00000000E+00  0.00000000E+00
  0.00000000E+00  0.00000000E+00  0.00000000E+00
  0.00000000E+00  0.00000000E+00  0.00000000E+00
  0.00000000E+00  0.00000000E+00  0.00000000E+00
  0.00000000E+00  0.00000000E+00  0.00000000E+00
  0.00000000E+00  0.00000000E+00  0.00000000E+00
  0.00000000E+00  0.00000000E+00  0.00000000E+00
  0.00000000E+00  0.00000000E+00  0.00000000E+00
  0.00000000E+00  0.00000000E+00  0.00000000E+00
  0.00000000E+00  0.00000000E+00  0.00000000E+00
  0.00000000E+00  0.00000000E+00  0.00000000E+00
  0.00000000E+00  0.00000000E+00  0.00000000E+00
  0.00000000E+00  0.00000000E+00  0.00000000E+00
  0.00000000E+00  0.00000000E+00  0.00000000E+00
  0.00000000E+00  0.00000000E+00  0.00000000E+00
  0.00000000E+00  0.00000000E+00  0.00000000E+00
  0.00000000E+00  0.00000000E+00  0.00000000E+00
  0.00000000E+00  0.00000000E+00  0.00000000E+00
  0.00000000E+00  0.00000000E+00  0.00000000E+00
  0.00000000E+00  0.00000000E+00  0.00000000E+00
  0.00000000E+00  0.00000000E+00  0.00000000E+00
  0.00000000E+00  0.00000000E+00  0.00000000E+00
  0.00000000E+00  0.00000000E+00  0.00000000E+00
  0.00000000E+00  0.00000000E+00  0.00000000E+00
  0.00000000E+00  0.00000000E+00  0.00000000E+00
  0.00000000E+00  0.00000000E+00  0.00000000E+00
  0.00000000E+00  0.00000000E+00  0.00000000E+00
  0.00000000E+00  0.00000000E+00  0.00000000E+00
  0.00000000E+00  0.00000000E+00  0.00000000E+00
  0.00000000E+00  0.00000000E+00  0.00000000E+00
  0.00000000E+00  0.00000000E+00  0.00000000E+00
  0.00000000E+00  0.00000000E+00  0.00000000E+00
  0.00000000E+00  0.00000000E+00  0.00000000E+00
  0.00000000E+00  0.00000000E+00  0.00000000E+00
  0.00000000E+00  0.00000000E+00  0.00000000E+00
  0.00000000E+00  0.00000000E+00  0.00000000E+00
  0.00000000E+00  0.00000000E+00  0.00000000E+00
  0.00000000E+00  0.00000000E+00  0.00000000E+00
  0.00000000E+00  0.00000000E+00  0.00000000E+00
  0.00000000E+00  0.00000000E+00  0.00000000E+00
  0.00000000E+00  0.00000000E+00  0.00000000E+00
  0.00000000E+00  0.00000000E+00  0.00000000E+00
  0.00000000E+00  0.00000000E+00  0.00000000E+00
  0.00000000E+00  0.00000000E+00  0.00000000E+00
  0.00000000E+00  0.00000000E+00  0.00000000E+00
  0.00000000E+00  0.00000000E+00  0.00000000E+00
  0.00000000E+00  0.00000000E+00  0.00000000E+00
  0.00000000E+00  0.00000000E+00  0.00000000E+00
  0.00000000E+00  0.00000000E+00  0.00000000E+00
  0.00000000E+00  0.00000000E+00  0.00000000E+00
  0.00000000E+00  0.00000000E+00  0.00000000E+00
  0.00000000E+00  0.00000000E+00  0.00000000E+00
  0.00000000E+00  0.00000000E+00  0.00000000E+00
  0.00000000E+00  0.00000000E+00  0.00000000E+00
  0.00000000E+00  0.00000000E+00  0.00000000E+00
  0.00000000E+00  0.00000000E+00  0.00000000E+00
  0.00000000E+00  0.00000000E+00  0.00000000E+00
  0.00000000E+00  0.00000000E+00  0.00000000E+00
  0.00000000E+00  0.00000000E+00  0.00000000E+00
  0.00000000E+00  0.00000000E+00  0.00000000E+00
  0.00000000E+00  0.00000000E+00  0.00000000E+00
  0.00000000E+00  0.00000000E+00  0.00000000E+00
  0.00000000E+00  0.00000000E+00  0.00000000E+00
  0.00000000E+00  0.00000000E+00  0.00000000E+00
  0.00000000E+00  0.00000000E+00  0.00000000E+00
  0.00000000E+00  0.00000000E+00  0.00000000E+00
  0.00000000E+00  0.00000000E+00  0.00000000E+00
