CeO2-you-111-you-Re                     
   1.00000000000000     
     9.8465586595326720   -5.6849136637097528    0.0000000000000000
     0.0000000001908902   11.3698253269020384    0.0000000000000000
     0.0000000000000000    0.0000000000000000   21.0931913324391900
   O    Re   Ce   H 
    54     1    26     2
Selective dynamics
Direct
 -0.0000408996262497  0.0009996836303632  0.9924083360667287   T   T   T
  0.0997161476395153  0.2167139175453818  0.1437805746021339   T   T   T
  0.2625330858095007  0.1671045836428245  0.3074193045583936   T   T   T
  0.1815584333219031  0.2419702984303983  0.4044192600616678   T   T   T
  0.0116899482546703  0.0049541440920774  0.2298794989400593   T   T   T
  0.2217814288614322  0.1113261547879070  0.0716919084432021   T   T   T
  0.3336419069828945  0.0009050181938815  0.9928285429911354   T   T   T
  0.4490093826068035  0.2176922532590214  0.1445881554326483   T   T   T
  0.5496086182970072  0.1175235361519113  0.3037485475575067   T   T   T
  0.4365867127717213  0.2295154225897158  0.4016729254952798   T   T   T
  0.3272005831677428  0.0024248128209941  0.2287795062360059   T   T   T
  0.5580458861772316  0.1084348058938665  0.0725997145702666   T   T   T
  0.6661526690105611  0.0003243885045572  0.9908470261021883   T   T   T
  0.7786351518137591  0.2237094098902729  0.1507796512866622   T   T   T
  0.8905570978422371  0.1135125009974168  0.3045022385843754   T   T   T
  0.7664286646872620  0.2215017623016216  0.3850441924916345   T   T   T
  0.6651411928973756  0.0024859525512037  0.2304568602248158   T   T   T
  0.8824918470742078  0.1074776141644915  0.0724587050153432   T   T   T
 -0.0008316700208113  0.3326524539810163  0.9927164575775802   T   T   T
  0.1090664390207037  0.5577128795176324  0.1447741502483440   T   T   T
  0.2508449162699787  0.4162505669167453  0.3074215401142650   T   T   T
  0.1049324998516375  0.5618517610083410  0.3836875497497214   T   T   T
  0.0119529869109848  0.3420282107281467  0.2287150966821706   T   T   T
  0.2217775354409253  0.4447490670049740  0.0705775461666179   T   T   T
  0.3331075375972163  0.3334007934061017  0.9927003285805035   T   T   T
  0.4495718319764853  0.5669742155246481  0.1436371890276623   T   T   T
  0.4999219228062722  0.4049807471512076  0.3079306668686369   T   T   T
  0.4234949017999039  0.4845359983523902  0.4050079932714404   T   T   T
  0.3315630857357951  0.3352653989666572  0.2047060855436762   T   T   T
  0.5548612904410094  0.4444810463696064  0.0718613623661388   T   T   T
  0.6654471470438159  0.3329379053162783  0.9928759149772822   T   T   T
  0.7794817960507241  0.5577422129297147  0.1463458292810640   T   T   T
  0.8851608778202467  0.4425561902016121  0.3004795034599917   T   T   T
  0.7748942838642267  0.5417650586132138  0.3820933089816660   T   T   T
  0.6639720323490775  0.3399006418670752  0.2290042465974081   T   T   T
  0.8871164013105759  0.4430245991912303  0.0719166241494655   T   T   T
 -0.0009741371699343  0.6669105091558787  0.9929415089016552   T   T   T
  0.1092278129717242  0.8872352871227348  0.1463768587067958   T   T   T
  0.2234447823865159  0.7814614040467406  0.3005623847322810   T   T   T
  0.1248019194114463  0.8917290615513488  0.3821666304482449   T   T   T
 -0.0001251782221914  0.6667069388563949  0.2276859173924070   T   T   T
  0.2230438453172912  0.7789913566485425  0.0717213759375600   T   T   T
  0.3336949542289467  0.6673747906042615  0.9927060054063708   T   T   T
  0.4428368846136873  0.8878861308579020  0.1507389515965644   T   T   T
  0.5531130430589534  0.7766089230445722  0.3046793544387202   T   T   T
  0.4445104704321768  0.9004370076435243  0.3848404193848045   T   T   T
  0.3248625828982416  0.6551172886064192  0.2286112261048938   T   T   T
  0.5586392541112049  0.7838029264275940  0.0723950255158306   T   T   T
  0.6661413462057361  0.6669665657491696  0.9927134340428224   T   T   T
  0.7782060798824683  0.8890224161283944  0.1531110071553900   T   T   T
  0.8896645482230143  0.7765335415378263  0.3046672869683274   T   T   T
  0.7708508970486693  0.8942629114934563  0.3877947699445405   T   T   T
  0.6612565806355665  0.6555619360939003  0.2296965749533717   T   T   T
  0.8876012055211822  0.7795773910928241  0.0725314045382207   T   T   T
  0.3289631683524898  0.3377969593580235  0.3533635736383968   T   T   T
 -0.0006198366146790  0.9983883980495742  0.3467814752100306   T   T   T
  0.2232187133648084  0.1143352548347295  0.1834577548882047   T   T   T
  0.1083896721420709  0.2207954998302460  0.0313373441924089   T   T   T
  0.3317844618303325  0.9968852326346717  0.3416328174444201   T   T   T
  0.5548443570949587  0.1119522666786184  0.1886197802124484   T   T   T
  0.4448340372711989  0.2217878548997772  0.0314197990189384   T   T   T
  0.6671897184962197 -0.0005181929359500  0.3445569328173969   T   T   T
  0.8904706793692779  0.1125501307475801  0.1913709472134112   T   T   T
  0.7767244819361159  0.2206733193543433  0.0329705298315262   T   T   T
  0.9929199775326578  0.3362145122229233  0.3453203284878754   T   T   T
  0.2222353847527881  0.4445654173916264  0.1803953473661147   T   T   T
  0.1098915794483871  0.5565119696607581  0.0317118484665822   T   T   T
  0.5523336028388317  0.4436890578225305  0.1834333210931400   T   T   T
  0.4457190336526763  0.5580793552489079  0.0312569400361492   T   T   T
  0.6699584207626450  0.3346827162835317  0.3417943504274665   T   T   T
  0.8889733789472558  0.4452366929390517  0.1872701419080805   T   T   T
  0.7777957897591345  0.5564783632101106  0.0331094232681070   T   T   T
  0.0002541982457085  0.6662682939001596  0.3416851474178178   T   T   T
  0.2213327112349742  0.7776251379592722  0.1871832242456614   T   T   T
  0.1100788471313086  0.8887713760332753  0.0329876105653613   T   T   T
  0.3301959776337046  0.6739109876226785  0.3452576379442534   T   T   T
  0.5541532690535863  0.7765240726831768  0.1913414802483633   T   T   T
  0.4457026862823990  0.8896895504458578  0.0329059345562413   T   T   T
  0.6677891307594924  0.6668033742372834  0.3466423514129220   T   T   T
  0.8886357028957927  0.7782926480256864  0.1897090678971643   T   T   T
  0.7767381477656289  0.8899637724011786  0.0335670098372322   T   T   T
  0.3483209143678918  0.3208443432196696  0.5194062751117856   T   T   T
  0.4332322282792779  0.2329822420847028  0.4477941267701879   T   T   T
 
  0.00000000E+00  0.00000000E+00  0.00000000E+00
  0.00000000E+00  0.00000000E+00  0.00000000E+00
  0.00000000E+00  0.00000000E+00  0.00000000E+00
  0.00000000E+00  0.00000000E+00  0.00000000E+00
  0.00000000E+00  0.00000000E+00  0.00000000E+00
  0.00000000E+00  0.00000000E+00  0.00000000E+00
  0.00000000E+00  0.00000000E+00  0.00000000E+00
  0.00000000E+00  0.00000000E+00  0.00000000E+00
  0.00000000E+00  0.00000000E+00  0.00000000E+00
  0.00000000E+00  0.00000000E+00  0.00000000E+00
  0.00000000E+00  0.00000000E+00  0.00000000E+00
  0.00000000E+00  0.00000000E+00  0.00000000E+00
  0.00000000E+00  0.00000000E+00  0.00000000E+00
  0.00000000E+00  0.00000000E+00  0.00000000E+00
  0.00000000E+00  0.00000000E+00  0.00000000E+00
  0.00000000E+00  0.00000000E+00  0.00000000E+00
  0.00000000E+00  0.00000000E+00  0.00000000E+00
  0.00000000E+00  0.00000000E+00  0.00000000E+00
  0.00000000E+00  0.00000000E+00  0.00000000E+00
  0.00000000E+00  0.00000000E+00  0.00000000E+00
  0.00000000E+00  0.00000000E+00  0.00000000E+00
  0.00000000E+00  0.00000000E+00  0.00000000E+00
  0.00000000E+00  0.00000000E+00  0.00000000E+00
  0.00000000E+00  0.00000000E+00  0.00000000E+00
  0.00000000E+00  0.00000000E+00  0.00000000E+00
  0.00000000E+00  0.00000000E+00  0.00000000E+00
  0.00000000E+00  0.00000000E+00  0.00000000E+00
  0.00000000E+00  0.00000000E+00  0.00000000E+00
  0.00000000E+00  0.00000000E+00  0.00000000E+00
  0.00000000E+00  0.00000000E+00  0.00000000E+00
  0.00000000E+00  0.00000000E+00  0.00000000E+00
  0.00000000E+00  0.00000000E+00  0.00000000E+00
  0.00000000E+00  0.00000000E+00  0.00000000E+00
  0.00000000E+00  0.00000000E+00  0.00000000E+00
  0.00000000E+00  0.00000000E+00  0.00000000E+00
  0.00000000E+00  0.00000000E+00  0.00000000E+00
  0.00000000E+00  0.00000000E+00  0.00000000E+00
  0.00000000E+00  0.00000000E+00  0.00000000E+00
  0.00000000E+00  0.00000000E+00  0.00000000E+00
  0.00000000E+00  0.00000000E+00  0.00000000E+00
  0.00000000E+00  0.00000000E+00  0.00000000E+00
  0.00000000E+00  0.00000000E+00  0.00000000E+00
  0.00000000E+00  0.00000000E+00  0.00000000E+00
  0.00000000E+00  0.00000000E+00  0.00000000E+00
  0.00000000E+00  0.00000000E+00  0.00000000E+00
  0.00000000E+00  0.00000000E+00  0.00000000E+00
  0.00000000E+00  0.00000000E+00  0.00000000E+00
  0.00000000E+00  0.00000000E+00  0.00000000E+00
  0.00000000E+00  0.00000000E+00  0.00000000E+00
  0.00000000E+00  0.00000000E+00  0.00000000E+00
  0.00000000E+00  0.00000000E+00  0.00000000E+00
  0.00000000E+00  0.00000000E+00  0.00000000E+00
  0.00000000E+00  0.00000000E+00  0.00000000E+00
  0.00000000E+00  0.00000000E+00  0.00000000E+00
  0.00000000E+00  0.00000000E+00  0.00000000E+00
  0.00000000E+00  0.00000000E+00  0.00000000E+00
  0.00000000E+00  0.00000000E+00  0.00000000E+00
  0.00000000E+00  0.00000000E+00  0.00000000E+00
  0.00000000E+00  0.00000000E+00  0.00000000E+00
  0.00000000E+00  0.00000000E+00  0.00000000E+00
  0.00000000E+00  0.00000000E+00  0.00000000E+00
  0.00000000E+00  0.00000000E+00  0.00000000E+00
  0.00000000E+00  0.00000000E+00  0.00000000E+00
  0.00000000E+00  0.00000000E+00  0.00000000E+00
  0.00000000E+00  0.00000000E+00  0.00000000E+00
  0.00000000E+00  0.00000000E+00  0.00000000E+00
  0.00000000E+00  0.00000000E+00  0.00000000E+00
  0.00000000E+00  0.00000000E+00  0.00000000E+00
  0.00000000E+00  0.00000000E+00  0.00000000E+00
  0.00000000E+00  0.00000000E+00  0.00000000E+00
  0.00000000E+00  0.00000000E+00  0.00000000E+00
  0.00000000E+00  0.00000000E+00  0.00000000E+00
  0.00000000E+00  0.00000000E+00  0.00000000E+00
  0.00000000E+00  0.00000000E+00  0.00000000E+00
  0.00000000E+00  0.00000000E+00  0.00000000E+00
  0.00000000E+00  0.00000000E+00  0.00000000E+00
  0.00000000E+00  0.00000000E+00  0.00000000E+00
  0.00000000E+00  0.00000000E+00  0.00000000E+00
  0.00000000E+00  0.00000000E+00  0.00000000E+00
  0.00000000E+00  0.00000000E+00  0.00000000E+00
  0.00000000E+00  0.00000000E+00  0.00000000E+00
  0.00000000E+00  0.00000000E+00  0.00000000E+00
  0.00000000E+00  0.00000000E+00  0.00000000E+00
