CeO2-you-111-you-Sb                     
   1.00000000000000     
     9.9073984811053251   -5.7200395526849528   -0.0000000003237202
    -0.0260647985777335   11.3949315396582396   -0.0061565696862372
    -0.0070662036398796   -0.0122390216405651   20.3066452120837333
   O    Sb   Ce   H 
    53     1    26     1
Selective dynamics
Direct
 -0.0000331465876304  0.0000588352757943  0.9875023422290866   T   T   T
  0.1121496604114122  0.2229035657199750  0.1469433341676807   T   T   T
  0.2304664790754369  0.1274493437522879  0.3112965966256590   T   T   T
  0.0946662851633654  0.2175903126915374  0.3899201726696637   T   T   T
  0.0039863622090200  0.0018481700991444  0.2304879920278402   T   T   T
  0.2218705916267684  0.1109349412463178  0.0698004518987466   T   T   T
  0.3345942181897612  0.0015151980589982  0.9881794190272316   T   T   T
  0.4431601519281900  0.2238857036103877  0.1485033304017262   T   T   T
  0.5594887435076884  0.1157690665532593  0.3082560512815161   T   T   T
  0.4770951811866521  0.2138457718585966  0.4168777329809173   T   T   T
  0.3305547597773562  0.0009219111595395  0.2286501734102798   T   T   T
  0.5560790814779999  0.1128411213557514  0.0714582980914222   T   T   T
  0.6661519998446548  0.0001713759846954  0.9888084909804944   T   T   T
  0.7781601090334316  0.2195624242296016  0.1494136148213438   T   T   T
  0.8847544805666679  0.1097803866522918  0.3042471499451462   T   T   T
  0.7815988673945123  0.2211810299438724  0.3904051950277281   T   T   T
  0.6603021075359075  0.9920541411041665  0.2318255948827127   T   T   T
  0.8893329875181326  0.1103900454094877  0.0700426459423308   T   T   T
 -0.0002882481157001  0.3325000858204048  0.9882225569041060   T   T   T
  0.1106544931852931  0.5561338489876664  0.1458069954584884   T   T   T
  0.2344980058409799  0.4498132847116655  0.3111323688221839   T   T   T
  0.1120702191754262  0.5587468419952683  0.3894255942869321   T   T   T
  0.0061805375101836  0.3363607626797681  0.2302622286282709   T   T   T
  0.2222308788832586  0.4450026180808620  0.0697622448585271   T   T   T
  0.3334747992684279  0.3338004518786621  0.9882239581380358   T   T   T
  0.4424250859137921  0.5530109178364073  0.1481094051987940   T   T   T
  0.5449652063773256  0.4307161586854580  0.3114858618304970   T   T   T
  0.3295809719296616  0.3341795585581327  0.2335975014965971   T   T   T
  0.5557724550387600  0.4450794252867133  0.0705866819375402   T   T   T
  0.6663373706690768  0.3329845189725397  0.9886409011609802   T   T   T
  0.7780284130655977  0.5551713519662576  0.1469723311236922   T   T   T
  0.8914129836073568  0.4428705185324670  0.3059041878225113   T   T   T
  0.7864812817791693  0.5485143332303669  0.3918866683048934   T   T   T
  0.6683085671648895  0.3350444978278911  0.2292998482658679   T   T   T
  0.8881327804401141  0.4428124658590198  0.0700193510991064   T   T   T
  0.9991269831260811  0.6661345390401410  0.9880544512507706   T   T   T
  0.1092716265798307  0.8890806166904868  0.1458598530956148   T   T   T
  0.2181338872866114  0.7771837055496537  0.3061760088010766   T   T   T
  0.0968971218503923  0.8840618015450661  0.3917635085875552   T   T   T
 -0.0004939400681514  0.6663768262645378  0.2284142849512730   T   T   T
  0.2218114635765513  0.7792214769759536  0.0691593307102296   T   T   T
  0.3337781759449890  0.6675884749569709  0.9886114925938054   T   T   T
  0.4435901370660594  0.8883003085732930  0.1475063994572550   T   T   T
  0.5415496919538856  0.7600238725887568  0.3122411841332197   T   T   T
  0.4466595282670291  0.8806048494942632  0.3924635565672929   T   T   T
  0.3289603452852768  0.6674657040891900  0.2285733600083479   T   T   T
  0.5554392843529834  0.7772784072228304  0.0711479810655581   T   T   T
  0.6664254519686406  0.6673898548861327  0.9882131859922408   T   T   T
  0.7776232010586098  0.8889537511257793  0.1485470160456477   T   T   T
  0.8905104894837345  0.7784876016206570  0.3055582684490942   T   T   T
  0.7819419698804171  0.8995540845311688  0.3910159697235307   T   T   T
  0.6661050780703414  0.6642763851770189  0.2285983272937252   T   T   T
  0.8884102033752254  0.7783252868617802  0.0694605615475409   T   T   T
  0.3186680994207569  0.3270862759038377  0.3388897286823360   T   T   T
 -0.0029048879945926  0.0012738396011444  0.3500668123662726   T   T   T
  0.2217535000762371  0.1101630412864535  0.1882198573420490   T   T   T
  0.1109686111008375  0.2219210636806499  0.0288318335275198   T   T   T
  0.3321416859396440  0.0004294709554513  0.3554404429913569   T   T   T
  0.5537198196541618  0.1099807753784845  0.1908474516955571   T   T   T
  0.4447715349265350  0.2227048470687656  0.0296756809419285   T   T   T
  0.6653361749881455  0.9973516501217231  0.3496467701155302   T   T   T
  0.8891225114035930  0.1101846731708041  0.1893552729986723   T   T   T
  0.7773580663472879  0.2214518371452019  0.0300758069094423   T   T   T
  0.9988911160592173  0.3309329323182474  0.3490302643242892   T   T   T
  0.2211856255435330  0.4456680792972413  0.1872263589554254   T   T   T
  0.1107407512954251  0.5554924676660976  0.0285350125557743   T   T   T
  0.5563766692451222  0.4439067296911239  0.1904659838289965   T   T   T
  0.4446416030160060  0.5556144667460866  0.0293937939394233   T   T   T
  0.6750987215446888  0.3346301426688822  0.3490057344829948   T   T   T
  0.8895651421685520  0.4444552927641417  0.1884051795497199   T   T   T
  0.7770747039997192  0.5550053289038247  0.0294419145547262   T   T   T
 -0.0009344081285249  0.6675681105070900  0.3488244888411517   T   T   T
  0.2206317782062689  0.7800585969187561  0.1868598126411666   T   T   T
  0.1106813275114009  0.8893895419483119  0.0279979816861396   T   T   T
  0.3237087285332050  0.6765029634024247  0.3443518095817691   T   T   T
  0.5536698648177831  0.7752201110960433  0.1896955514878541   T   T   T
  0.4445842821355002  0.8895542108845127  0.0298549341438296   T   T   T
  0.6782574696101170  0.6679739233433469  0.3482928610802255   T   T   T
  0.8887537753993463  0.7774507521623458  0.1881061201717054   T   T   T
  0.7773532559229279  0.8884448415598015  0.0295349945426898   T   T   T
  0.4605530566056649  0.2442955010002534  0.4586925340392703   T   T   T
 
  0.00000000E+00  0.00000000E+00  0.00000000E+00
  0.00000000E+00  0.00000000E+00  0.00000000E+00
  0.00000000E+00  0.00000000E+00  0.00000000E+00
  0.00000000E+00  0.00000000E+00  0.00000000E+00
  0.00000000E+00  0.00000000E+00  0.00000000E+00
  0.00000000E+00  0.00000000E+00  0.00000000E+00
  0.00000000E+00  0.00000000E+00  0.00000000E+00
  0.00000000E+00  0.00000000E+00  0.00000000E+00
  0.00000000E+00  0.00000000E+00  0.00000000E+00
  0.00000000E+00  0.00000000E+00  0.00000000E+00
  0.00000000E+00  0.00000000E+00  0.00000000E+00
  0.00000000E+00  0.00000000E+00  0.00000000E+00
  0.00000000E+00  0.00000000E+00  0.00000000E+00
  0.00000000E+00  0.00000000E+00  0.00000000E+00
  0.00000000E+00  0.00000000E+00  0.00000000E+00
  0.00000000E+00  0.00000000E+00  0.00000000E+00
  0.00000000E+00  0.00000000E+00  0.00000000E+00
  0.00000000E+00  0.00000000E+00  0.00000000E+00
  0.00000000E+00  0.00000000E+00  0.00000000E+00
  0.00000000E+00  0.00000000E+00  0.00000000E+00
  0.00000000E+00  0.00000000E+00  0.00000000E+00
  0.00000000E+00  0.00000000E+00  0.00000000E+00
  0.00000000E+00  0.00000000E+00  0.00000000E+00
  0.00000000E+00  0.00000000E+00  0.00000000E+00
  0.00000000E+00  0.00000000E+00  0.00000000E+00
  0.00000000E+00  0.00000000E+00  0.00000000E+00
  0.00000000E+00  0.00000000E+00  0.00000000E+00
  0.00000000E+00  0.00000000E+00  0.00000000E+00
  0.00000000E+00  0.00000000E+00  0.00000000E+00
  0.00000000E+00  0.00000000E+00  0.00000000E+00
  0.00000000E+00  0.00000000E+00  0.00000000E+00
  0.00000000E+00  0.00000000E+00  0.00000000E+00
  0.00000000E+00  0.00000000E+00  0.00000000E+00
  0.00000000E+00  0.00000000E+00  0.00000000E+00
  0.00000000E+00  0.00000000E+00  0.00000000E+00
  0.00000000E+00  0.00000000E+00  0.00000000E+00
  0.00000000E+00  0.00000000E+00  0.00000000E+00
  0.00000000E+00  0.00000000E+00  0.00000000E+00
  0.00000000E+00  0.00000000E+00  0.00000000E+00
  0.00000000E+00  0.00000000E+00  0.00000000E+00
  0.00000000E+00  0.00000000E+00  0.00000000E+00
  0.00000000E+00  0.00000000E+00  0.00000000E+00
  0.00000000E+00  0.00000000E+00  0.00000000E+00
  0.00000000E+00  0.00000000E+00  0.00000000E+00
  0.00000000E+00  0.00000000E+00  0.00000000E+00
  0.00000000E+00  0.00000000E+00  0.00000000E+00
  0.00000000E+00  0.00000000E+00  0.00000000E+00
  0.00000000E+00  0.00000000E+00  0.00000000E+00
  0.00000000E+00  0.00000000E+00  0.00000000E+00
  0.00000000E+00  0.00000000E+00  0.00000000E+00
  0.00000000E+00  0.00000000E+00  0.00000000E+00
  0.00000000E+00  0.00000000E+00  0.00000000E+00
  0.00000000E+00  0.00000000E+00  0.00000000E+00
  0.00000000E+00  0.00000000E+00  0.00000000E+00
  0.00000000E+00  0.00000000E+00  0.00000000E+00
  0.00000000E+00  0.00000000E+00  0.00000000E+00
  0.00000000E+00  0.00000000E+00  0.00000000E+00
  0.00000000E+00  0.00000000E+00  0.00000000E+00
  0.00000000E+00  0.00000000E+00  0.00000000E+00
  0.00000000E+00  0.00000000E+00  0.00000000E+00
  0.00000000E+00  0.00000000E+00  0.00000000E+00
  0.00000000E+00  0.00000000E+00  0.00000000E+00
  0.00000000E+00  0.00000000E+00  0.00000000E+00
  0.00000000E+00  0.00000000E+00  0.00000000E+00
  0.00000000E+00  0.00000000E+00  0.00000000E+00
  0.00000000E+00  0.00000000E+00  0.00000000E+00
  0.00000000E+00  0.00000000E+00  0.00000000E+00
  0.00000000E+00  0.00000000E+00  0.00000000E+00
  0.00000000E+00  0.00000000E+00  0.00000000E+00
  0.00000000E+00  0.00000000E+00  0.00000000E+00
  0.00000000E+00  0.00000000E+00  0.00000000E+00
  0.00000000E+00  0.00000000E+00  0.00000000E+00
  0.00000000E+00  0.00000000E+00  0.00000000E+00
  0.00000000E+00  0.00000000E+00  0.00000000E+00
  0.00000000E+00  0.00000000E+00  0.00000000E+00
  0.00000000E+00  0.00000000E+00  0.00000000E+00
  0.00000000E+00  0.00000000E+00  0.00000000E+00
  0.00000000E+00  0.00000000E+00  0.00000000E+00
  0.00000000E+00  0.00000000E+00  0.00000000E+00
  0.00000000E+00  0.00000000E+00  0.00000000E+00
  0.00000000E+00  0.00000000E+00  0.00000000E+00
