CeO2-you-111-you-Sn                     
   1.00000000000000     
     9.8640250291010698   -5.6847766235709063    0.0155577159224762
    -0.0000000017831777   11.3695512432543602   -0.0000000018048825
     0.0342281142367323   -0.0000000034426834   20.6411019266840370
   O    Sn   Ce H
    53     1    26 2
Selective dynamics
Direct
 -0.0005603502485218  0.0007957731037958  0.9927763239715770   T   T   T
  0.1198686125631975  0.2266008062814266  0.1509593990078980   T   T   T
  0.2155167426957186  0.1105872694042255  0.3033064655938589   T   T   T
  0.1228461738103546  0.2280895869025280  0.3866788195900759   T   T   T
 -0.0016228045041265 -0.0000847336941067  0.2279245048318145   T   T   T
  0.2219108889173235  0.1106824042445605  0.0716067375386967   T   T   T
  0.3348203694906327 -0.0001103799154965  0.9913054690469471   T   T   T
  0.4420368575815689  0.2214338546980233  0.1472194446596780   T   T   T
  0.5510123657072168  0.1042663875876607  0.3076028752533866   T   T   T
  0.4347535381829611  0.2472319911721847  0.3741009817632126   T   T   T
  0.3320062976665238  0.0010028627422314  0.2302152211011185   T   T   T
  0.5549499378927706  0.1109942393588395  0.0734329899162392   T   T   T
  0.6691171510773912  0.0012250755385235  0.9940907823250661   T   T   T
  0.7734460584134283  0.2249716928866757  0.1511780044004034   T   T   T
  0.8919888609688938  0.1126609304844030  0.3056327469776623   T   T   T
  0.7827352123594049  0.2151025625670862  0.3906351979583385   T   T   T
  0.6680392714500443  0.0006861357249357  0.2299294165542734   T   T   T
  0.8901081863343131  0.1117205931670140  0.0762668879783763   T   T   T
 -0.0005603502483879  0.3319768766476018  0.9927763239715931   T   T   T
  0.1110730002320407  0.5555352303512623  0.1489382490140638   T   T   T
  0.2155167426965968  0.4382624732916122  0.3033064655942486   T   T   T
  0.1152233756348142  0.5560271908005032  0.3871263556111442   T   T   T
 -0.0016228045032961  0.3317949291899251  0.2279245048314880   T   T   T
  0.2219108889171923  0.4445614846720037  0.0716067375386355   T   T   T
  0.3336949692715119  0.3335139846353543  0.9909477745888452   T   T   T
  0.4420368575797051  0.5539370028847049  0.1472194446594838   T   T   T
  0.4347535381861124  0.5208555470173938  0.3741009817628747   T   T   T
  0.3538405056678215  0.3435867528322587  0.2399662042236574   T   T   T
  0.5562605999739907  0.4447962999870466  0.0703424086108691   T   T   T
  0.6677399560020485  0.3328210163603683  0.9914824519869708   T   T   T
  0.7792383557583084  0.5562861778780415  0.1469239281541986   T   T   T
  0.8957223653002959  0.4447388667900682  0.3053299079364346   T   T   T
  0.7894679957208346  0.5614009978613100  0.3883760239251537   T   T   T
  0.6582373503666551  0.3420225315011851  0.2346597629421445   T   T   T
  0.8896153141264541  0.4449230775116473  0.0724107851828889   T   T   T
  0.0016247351282314  0.6674793675641293  0.9912727642171358   T   T   T
  0.1110730002319423  0.8888717698802269  0.1489382490139448   T   T   T
  0.2226337425144609  0.7779838712574048  0.3052234352066267   T   T   T
  0.1152233756341716  0.8925301848346709  0.3871263556111977   T   T   T
 -0.0007175807787676  0.6663082096103250  0.2298314560594180   T   T   T
  0.2231788334124900  0.7782564167061560  0.0728854825094158   T   T   T
  0.3348203694906691  0.6682647494062752  0.9913054690470284   T   T   T
  0.4451271412336261  0.8892305706168697  0.1508916800525175   T   T   T
  0.5510123657030482  0.7800789781198511  0.3076028752527101   T   T   T
  0.4376899248974110  0.8855119624484785  0.3890056095058935   T   T   T
  0.3320062976664365  0.6643374349247931  0.2302152211010801   T   T   T
  0.5549499378926723  0.7772886985345916  0.0734329899162406   T   T   T
  0.6677399560023560  0.6682519396423681  0.9914824519872407   T   T   T
  0.7734460584129770  0.8818073655261865  0.1511780044002736   T   T   T
  0.8957223652990091  0.7843164985021067  0.3053299079364144   T   T   T
  0.7827352123550606  0.9009656497875076  0.3906351979580660   T   T   T
  0.6582373503692605  0.6495478188702638  0.2346597629424679   T   T   T
  0.8896153141263146  0.7780252366145354  0.0724107851830038   T   T   T
  0.3131526888693884  0.3232428444405511  0.3426805163015909   T   T   T
 -0.0002402790308814  0.0002298090120344  0.3464435821438503   T   T   T
  0.2221274455501503  0.1104544923878989  0.1901029372744436   T   T   T
  0.1120260120305353  0.2226795060151376  0.0327694376632058   T   T   T
  0.3306159329873012  0.0005023168668512  0.3454637876523515   T   T   T
  0.5547121477768727  0.1124893870973798  0.1919605973143217   T   T   T
  0.4441429522026037  0.2207329547459151  0.0307039322459060   T   T   T
  0.6652174996472029 -0.0007247501748373  0.3482804878324625   T   T   T
  0.8883851291255856  0.1108590645635560  0.1906102249530003   T   T   T
  0.7779165652628875  0.2228934405337405  0.0339341278932901   T   T   T
 -0.0002402790328704  0.3328629119560425  0.3464435821436788   T   T   T
  0.2221274455510658  0.4450059531603631  0.1901029372744383   T   T   T
  0.1115179656767260  0.5553633094977573  0.0325937305268022   T   T   T
  0.5561998310267299  0.4447659155113421  0.1826581559429397   T   T   T
  0.4441429522023005  0.5567439974563787  0.0307039322457260   T   T   T
  0.6719826759973282  0.3308514528901145  0.3546156123960380   T   T   T
  0.8874443366032445  0.4448506223316705  0.1911813358634962   T   T   T
  0.7802361022898106  0.5567850511444150  0.0307604022451156   T   T   T
  0.0002316962883570  0.6667828481467408  0.3468193630842878   T   T   T
  0.2214499732316690  0.7773919866161940  0.1890173011331457   T   T   T
  0.1115179656764875  0.8894886561793712  0.0325937305268697   T   T   T
  0.3306159329888403  0.6634476161183038  0.3454637876527151   T   T   T
  0.5547121477807789  0.7755557606794196  0.1919605973144946   T   T   T
  0.4458651507977253  0.8895995753985979  0.0336005473191997   T   T   T
  0.6719826759975598  0.6744642231038355  0.3546156123957865   T   T   T
  0.8874443366060959  0.7759267142779858  0.1911813358635065   T   T   T
  0.7779165652633382  0.8883561247297033  0.0339341278934549   T   T   T
0.3131526888693884 0.3232428444405511 0.442681 T   T   T
0.446598 0.216020 0.433410 T T T 
 
  0.00000000E+00  0.00000000E+00  0.00000000E+00
  0.00000000E+00  0.00000000E+00  0.00000000E+00
  0.00000000E+00  0.00000000E+00  0.00000000E+00
  0.00000000E+00  0.00000000E+00  0.00000000E+00
  0.00000000E+00  0.00000000E+00  0.00000000E+00
  0.00000000E+00  0.00000000E+00  0.00000000E+00
  0.00000000E+00  0.00000000E+00  0.00000000E+00
  0.00000000E+00  0.00000000E+00  0.00000000E+00
  0.00000000E+00  0.00000000E+00  0.00000000E+00
  0.00000000E+00  0.00000000E+00  0.00000000E+00
  0.00000000E+00  0.00000000E+00  0.00000000E+00
  0.00000000E+00  0.00000000E+00  0.00000000E+00
  0.00000000E+00  0.00000000E+00  0.00000000E+00
  0.00000000E+00  0.00000000E+00  0.00000000E+00
  0.00000000E+00  0.00000000E+00  0.00000000E+00
  0.00000000E+00  0.00000000E+00  0.00000000E+00
  0.00000000E+00  0.00000000E+00  0.00000000E+00
  0.00000000E+00  0.00000000E+00  0.00000000E+00
  0.00000000E+00  0.00000000E+00  0.00000000E+00
  0.00000000E+00  0.00000000E+00  0.00000000E+00
  0.00000000E+00  0.00000000E+00  0.00000000E+00
  0.00000000E+00  0.00000000E+00  0.00000000E+00
  0.00000000E+00  0.00000000E+00  0.00000000E+00
  0.00000000E+00  0.00000000E+00  0.00000000E+00
  0.00000000E+00  0.00000000E+00  0.00000000E+00
  0.00000000E+00  0.00000000E+00  0.00000000E+00
  0.00000000E+00  0.00000000E+00  0.00000000E+00
  0.00000000E+00  0.00000000E+00  0.00000000E+00
  0.00000000E+00  0.00000000E+00  0.00000000E+00
  0.00000000E+00  0.00000000E+00  0.00000000E+00
  0.00000000E+00  0.00000000E+00  0.00000000E+00
  0.00000000E+00  0.00000000E+00  0.00000000E+00
  0.00000000E+00  0.00000000E+00  0.00000000E+00
  0.00000000E+00  0.00000000E+00  0.00000000E+00
  0.00000000E+00  0.00000000E+00  0.00000000E+00
  0.00000000E+00  0.00000000E+00  0.00000000E+00
  0.00000000E+00  0.00000000E+00  0.00000000E+00
  0.00000000E+00  0.00000000E+00  0.00000000E+00
  0.00000000E+00  0.00000000E+00  0.00000000E+00
  0.00000000E+00  0.00000000E+00  0.00000000E+00
  0.00000000E+00  0.00000000E+00  0.00000000E+00
  0.00000000E+00  0.00000000E+00  0.00000000E+00
  0.00000000E+00  0.00000000E+00  0.00000000E+00
  0.00000000E+00  0.00000000E+00  0.00000000E+00
  0.00000000E+00  0.00000000E+00  0.00000000E+00
  0.00000000E+00  0.00000000E+00  0.00000000E+00
  0.00000000E+00  0.00000000E+00  0.00000000E+00
  0.00000000E+00  0.00000000E+00  0.00000000E+00
  0.00000000E+00  0.00000000E+00  0.00000000E+00
  0.00000000E+00  0.00000000E+00  0.00000000E+00
  0.00000000E+00  0.00000000E+00  0.00000000E+00
  0.00000000E+00  0.00000000E+00  0.00000000E+00
  0.00000000E+00  0.00000000E+00  0.00000000E+00
  0.00000000E+00  0.00000000E+00  0.00000000E+00
  0.00000000E+00  0.00000000E+00  0.00000000E+00
  0.00000000E+00  0.00000000E+00  0.00000000E+00
  0.00000000E+00  0.00000000E+00  0.00000000E+00
  0.00000000E+00  0.00000000E+00  0.00000000E+00
  0.00000000E+00  0.00000000E+00  0.00000000E+00
  0.00000000E+00  0.00000000E+00  0.00000000E+00
  0.00000000E+00  0.00000000E+00  0.00000000E+00
  0.00000000E+00  0.00000000E+00  0.00000000E+00
  0.00000000E+00  0.00000000E+00  0.00000000E+00
  0.00000000E+00  0.00000000E+00  0.00000000E+00
  0.00000000E+00  0.00000000E+00  0.00000000E+00
  0.00000000E+00  0.00000000E+00  0.00000000E+00
  0.00000000E+00  0.00000000E+00  0.00000000E+00
  0.00000000E+00  0.00000000E+00  0.00000000E+00
  0.00000000E+00  0.00000000E+00  0.00000000E+00
  0.00000000E+00  0.00000000E+00  0.00000000E+00
  0.00000000E+00  0.00000000E+00  0.00000000E+00
  0.00000000E+00  0.00000000E+00  0.00000000E+00
  0.00000000E+00  0.00000000E+00  0.00000000E+00
  0.00000000E+00  0.00000000E+00  0.00000000E+00
  0.00000000E+00  0.00000000E+00  0.00000000E+00
  0.00000000E+00  0.00000000E+00  0.00000000E+00
  0.00000000E+00  0.00000000E+00  0.00000000E+00
  0.00000000E+00  0.00000000E+00  0.00000000E+00
  0.00000000E+00  0.00000000E+00  0.00000000E+00
  0.00000000E+00  0.00000000E+00  0.00000000E+00
