CeO2-you-111-you-Fe                     
   1.00000000000000     
     9.8263711040876043   -5.6806859574253643    0.0151894043577219
     0.0000000023822585   11.3613699196264193   -0.0000000017699212
     0.0329185190073629   -0.0000000033407485   20.9768263626342488
   O    Fe   Ce   H 
    53     1    26     2
Selective dynamics
Direct
  0.9995414520210817  0.0006220435299363  0.9955189783388049   T   T   T
  0.1175942007569191  0.2254636003777648  0.1515968511824255   F   F   F
  0.2346589314411552  0.1240931973957718  0.3081478105432400   T   T   T
  0.1136227111976955  0.2273402517421217  0.3807313758058320   T   T   T
  0.0026987548343241  0.0021162392682539  0.2300284245449769   T   T   T
  0.2222421519009572  0.1105350245844363  0.0744553818681126   F   F   F
  0.3337667440653883 -0.0001494272589437  0.9944808222295923   T   T   T
  0.4434686604044131  0.2217505324823534  0.1486748629912924   F   F   F
  0.5493630503386254  0.1034022424842786  0.3064402040070576   T   T   T
  0.4562081441853520  0.1854368037240721  0.4145370771954299   T   T   T
  0.3307612820896115  0.9984549615162964  0.2298327492422887   T   T   T
  0.5549925003410650  0.1109132453039763  0.0745699692671664   F   F   F
  0.6695458023768882  0.0011851817123756  0.9955170548089971   T   T   T
  0.7733460246164938  0.2247825105793169  0.1516672788875439   F   F   F
  0.8883936053738450  0.1097198362645383  0.3036561653396197   T   T   T
  0.7832080865387997  0.2143732223281720  0.3886892732797059   T   T   T
  0.6660782552439660 -0.0014518644087296  0.2301923066173572   T   T   T
  0.8887633951963778  0.1110481975980875  0.0779257609785375   F   F   F
  0.9992333787584241  0.3312295643268198  0.9955567268741927   T   T   T
  0.1107001386154138  0.5549841607538610  0.1507800192222248   F   F   F
  0.2177988916385260  0.4465852016770588  0.3039084485174134   T   T   T
  0.1141873219173043  0.5584704651370558  0.3868312673855167   T   T   T
  0.9979181775916169  0.3304203301910672  0.2285903608324670   T   T   T
  0.2222421519005664  0.4450401273160622  0.0744553818681624   F   F   F
  0.3323840405713702  0.3328864024403725  0.9946639636475352   T   T   T
  0.4434686604016207  0.5550521279231120  0.1486748629912711   F   F   F
  0.4488150735514959  0.4807735709380112  0.3588790767744052   T   T   T
  0.3418903225253207  0.3393710119215234  0.2335509009404740   T   T   T
  0.5552179305291105  0.4442749652651230  0.0731146938761498   F   F   F
  0.6680545003881067  0.3333044899777768  0.9945942089711333   T   T   T
  0.7774490795415261  0.5553915397699285  0.1480141888725655   F   F   F
  0.8939732902892779  0.4427989163588701  0.3049057889468957   T   T   T
  0.7882975030654705  0.5586421690436002  0.3872472579815107   T   T   T
  0.6559078486649432  0.3415319594697397  0.2359473553681704   T   T   T
  0.8900183849566545  0.4445173706151451  0.0750660966103567   F   F   F
  0.0010784694077748  0.6672816658406575  0.9949554288671230   T   T   T
  0.1107001386145399  0.8890499778599619  0.1507800192221680   F   F   F
  0.2214030984970645  0.7746734733127670  0.3038506818703415   T   T   T
  0.1144548077837715  0.8907273849384966  0.3849662422492714   T   T   T
  0.9978336299180567  0.6651961319572177  0.2296880933233967   T   T   T
  0.2228099737297455  0.7780719868646173  0.0750252848716144   F   F   F
  0.3337028286235574  0.6673469536226890  0.9943429156882234   T   T   T
  0.4466996377379502  0.8900168188691779  0.1498270507634984   F   F   F
  0.5488833836931938  0.7753272771365136  0.3078622185343899   T   T   T
  0.4358381455082571  0.8781441535255917  0.3870778974014950   T   T   T
  0.3337449196521876  0.6680786850868009  0.2292975885374543   T   T   T
  0.5549925003407878  0.7774122550376177  0.0745699692671877   F   F   F
  0.6686439168164335  0.6685010637718358  0.9948485936559853   T   T   T
  0.7733460246152077  0.8818965140369386  0.1516672788875866   F   F   F
  0.8958380098363289  0.7842234975573822  0.3047241736917612   T   T   T
  0.7847553625233009  0.9019699750030916  0.3884926728064948   T   T   T
  0.6602492804218097  0.6523341800255872  0.2334871433052885   T   T   T
  0.8900183849565408  0.7788340143411219  0.0750660966103354   F   F   F
  0.2970597256283927  0.3259033495319655  0.3348817010866755   T   T   T
  0.0038099441971393  0.0043551269618544  0.3450342992940782   T   T   T
  0.2224083821554999  0.1113141513217997  0.1916798055863538   F   F   F
  0.1117194157235986  0.2225262078618471  0.0360401058512849   F   F   F
  0.3297329574445144 -0.0068965816895279  0.3457629581474169   T   T   T
  0.5552047807179719  0.1116625975431376  0.1912043064288866   F   F   F
  0.4438832533062538  0.2208421816942803  0.0338140003110965   F   F   F
  0.6660031303377670 -0.0025005283662603  0.3467272666596125   T   T   T
  0.8880689396355876  0.1107009698186872  0.1911077705757407   F   F   F
  0.7780656226486968  0.2226946160696386  0.0357857135405908   F   F   F
 -0.0005228256304826  0.3319212676608596  0.3450064912813307   T   T   T
  0.2224083821566012  0.4444272308322255  0.1916798055863751   F   F   F
  0.1112655631286827  0.5549980309750140  0.0354901500943257   F   F   F
  0.5529405243401797  0.4431362621678545  0.1842533084351174   F   F   F
  0.4438832533067014  0.5563750716116900  0.0338140003111107   F   F   F
  0.6723193821675626  0.3278588012381906  0.3545150910467449   T   T   T
  0.8876936129004918  0.4448585106636500  0.1913343299596804   F   F   F
  0.7797985506645446  0.5565662753320453  0.0342149111034686   F   F   F
 -0.0025414172125621  0.6644195872048767  0.3455742373176540   T   T   T
  0.2223253741776077  0.7778296870898131  0.1889778170782890   F   F   F
  0.1112655631278088  0.8896015321551189  0.0354901500943257   F   F   F
  0.3265927231997205  0.6658457715579941  0.3422333304127661   T   T   T
  0.5552047807230238  0.7768751831746243  0.1912043064288440   F   F   F
  0.4456726962989492  0.8895033481489349  0.0351932538559936   F   F   F
  0.6741577236040489  0.6729530474909574  0.3506096472178239   T   T   T
  0.8876936129048332  0.7761681022440143  0.1913343299596022   F   F   F
  0.7780656226499190  0.8887040065792888  0.0357857135406618   F   F   F
  0.3411099534427320  0.2723151003581765  0.3906402472522723   T   T   T
  0.4314034726867006  0.1963755700213455  0.4575830793099276   T   T   T
 
  0.00000000E+00  0.00000000E+00  0.00000000E+00
  0.00000000E+00  0.00000000E+00  0.00000000E+00
  0.00000000E+00  0.00000000E+00  0.00000000E+00
  0.00000000E+00  0.00000000E+00  0.00000000E+00
  0.00000000E+00  0.00000000E+00  0.00000000E+00
  0.00000000E+00  0.00000000E+00  0.00000000E+00
  0.00000000E+00  0.00000000E+00  0.00000000E+00
  0.00000000E+00  0.00000000E+00  0.00000000E+00
  0.00000000E+00  0.00000000E+00  0.00000000E+00
  0.00000000E+00  0.00000000E+00  0.00000000E+00
  0.00000000E+00  0.00000000E+00  0.00000000E+00
  0.00000000E+00  0.00000000E+00  0.00000000E+00
  0.00000000E+00  0.00000000E+00  0.00000000E+00
  0.00000000E+00  0.00000000E+00  0.00000000E+00
  0.00000000E+00  0.00000000E+00  0.00000000E+00
  0.00000000E+00  0.00000000E+00  0.00000000E+00
  0.00000000E+00  0.00000000E+00  0.00000000E+00
  0.00000000E+00  0.00000000E+00  0.00000000E+00
  0.00000000E+00  0.00000000E+00  0.00000000E+00
  0.00000000E+00  0.00000000E+00  0.00000000E+00
  0.00000000E+00  0.00000000E+00  0.00000000E+00
  0.00000000E+00  0.00000000E+00  0.00000000E+00
  0.00000000E+00  0.00000000E+00  0.00000000E+00
  0.00000000E+00  0.00000000E+00  0.00000000E+00
  0.00000000E+00  0.00000000E+00  0.00000000E+00
  0.00000000E+00  0.00000000E+00  0.00000000E+00
  0.00000000E+00  0.00000000E+00  0.00000000E+00
  0.00000000E+00  0.00000000E+00  0.00000000E+00
  0.00000000E+00  0.00000000E+00  0.00000000E+00
  0.00000000E+00  0.00000000E+00  0.00000000E+00
  0.00000000E+00  0.00000000E+00  0.00000000E+00
  0.00000000E+00  0.00000000E+00  0.00000000E+00
  0.00000000E+00  0.00000000E+00  0.00000000E+00
  0.00000000E+00  0.00000000E+00  0.00000000E+00
  0.00000000E+00  0.00000000E+00  0.00000000E+00
  0.00000000E+00  0.00000000E+00  0.00000000E+00
  0.00000000E+00  0.00000000E+00  0.00000000E+00
  0.00000000E+00  0.00000000E+00  0.00000000E+00
  0.00000000E+00  0.00000000E+00  0.00000000E+00
  0.00000000E+00  0.00000000E+00  0.00000000E+00
  0.00000000E+00  0.00000000E+00  0.00000000E+00
  0.00000000E+00  0.00000000E+00  0.00000000E+00
  0.00000000E+00  0.00000000E+00  0.00000000E+00
  0.00000000E+00  0.00000000E+00  0.00000000E+00
  0.00000000E+00  0.00000000E+00  0.00000000E+00
  0.00000000E+00  0.00000000E+00  0.00000000E+00
  0.00000000E+00  0.00000000E+00  0.00000000E+00
  0.00000000E+00  0.00000000E+00  0.00000000E+00
  0.00000000E+00  0.00000000E+00  0.00000000E+00
  0.00000000E+00  0.00000000E+00  0.00000000E+00
  0.00000000E+00  0.00000000E+00  0.00000000E+00
  0.00000000E+00  0.00000000E+00  0.00000000E+00
  0.00000000E+00  0.00000000E+00  0.00000000E+00
  0.00000000E+00  0.00000000E+00  0.00000000E+00
  0.00000000E+00  0.00000000E+00  0.00000000E+00
  0.00000000E+00  0.00000000E+00  0.00000000E+00
  0.00000000E+00  0.00000000E+00  0.00000000E+00
  0.00000000E+00  0.00000000E+00  0.00000000E+00
  0.00000000E+00  0.00000000E+00  0.00000000E+00
  0.00000000E+00  0.00000000E+00  0.00000000E+00
  0.00000000E+00  0.00000000E+00  0.00000000E+00
  0.00000000E+00  0.00000000E+00  0.00000000E+00
  0.00000000E+00  0.00000000E+00  0.00000000E+00
  0.00000000E+00  0.00000000E+00  0.00000000E+00
  0.00000000E+00  0.00000000E+00  0.00000000E+00
  0.00000000E+00  0.00000000E+00  0.00000000E+00
  0.00000000E+00  0.00000000E+00  0.00000000E+00
  0.00000000E+00  0.00000000E+00  0.00000000E+00
  0.00000000E+00  0.00000000E+00  0.00000000E+00
  0.00000000E+00  0.00000000E+00  0.00000000E+00
  0.00000000E+00  0.00000000E+00  0.00000000E+00
  0.00000000E+00  0.00000000E+00  0.00000000E+00
  0.00000000E+00  0.00000000E+00  0.00000000E+00
  0.00000000E+00  0.00000000E+00  0.00000000E+00
  0.00000000E+00  0.00000000E+00  0.00000000E+00
  0.00000000E+00  0.00000000E+00  0.00000000E+00
  0.00000000E+00  0.00000000E+00  0.00000000E+00
  0.00000000E+00  0.00000000E+00  0.00000000E+00
  0.00000000E+00  0.00000000E+00  0.00000000E+00
  0.00000000E+00  0.00000000E+00  0.00000000E+00
  0.00000000E+00  0.00000000E+00  0.00000000E+00
  0.00000000E+00  0.00000000E+00  0.00000000E+00
