CeO2-you-111-you-W                      
   1.00000000000000     
     9.8817992460907984   -5.7052598251521411    0.0000000000000000
    -0.0000000037524835   11.4105176357957063   -0.0000000000000000
     0.0000000000000000   -0.0000000000000000   21.0187239744701095
   O    W    Ce
    54     1    26
Selective dynamics
Direct
 -0.0004539022247672  0.0002708885357348  0.9963642836919001   T   T   T
  0.1184778839546487  0.2259054419765604  0.1525704228493630   T   T   T
  0.2169587965064060  0.1005845930049867  0.3001698119216413   T   T   T
  0.1664838125780121  0.2499084062879872  0.3783673637064838   T   T   T
 -0.0037973626974640 -0.0029729931071653  0.2274448609874229   T   T   T
  0.2219948234596028  0.1106566469192464  0.0748123372726479   T   T   T
  0.3340577907603971  0.0002708885355319  0.9963642836919001   T   T   T
  0.4407605580219077  0.2259054419758809  0.1525704228493630   T   T   T
  0.5510534075453375  0.1156135924574741  0.3066577952905600   T   T   T
  0.4167575937099713  0.2499084062870814  0.3783673637064838   T   T   T
  0.3341573695902607 -0.0029729931085959  0.2274448609874229   T   T   T
  0.5539365139351503  0.1127304860647408  0.0764997761581180   T   T   T
  0.6666669999999968  0.0000000000000000  0.9975655468381994   T   T   T
  0.7761836858853537  0.2190333717705743  0.1496704371644520   T   T   T
  0.8978941849112739  0.1156135924566110  0.3066577952905600   T   T   T
  0.7772492212978809  0.2211644425955939  0.3829869585802348   T   T   T
  0.6666669999999968  0.0000000000000000  0.2329254912166427   T   T   T
  0.8921279721296260  0.1127304860647755  0.0764997761581180   T   T   T
 -0.0004539022250107  0.3326082092390441  0.9963642836919001   T   T   T
  0.1114867119366713  0.5551802880635313  0.1489316934423870   T   T   T
  0.2169587965240307  0.4497072035014155  0.3001698119216413   T   T   T
  0.1083329535209385  0.5583340464814939  0.3852772882649127   T   T   T
 -0.0037973626975568  0.3325086304064812  0.2274448609874229   T   T   T
  0.2219948234595038  0.4446711765403525  0.0748123372726479   T   T   T
  0.3333330000000032  0.3333330000000032  0.9963524149023800   T   T   T
  0.4407605580234389  0.5481891160475657  0.1525704228493630   T   T   T
  0.5660824069695704  0.4497072034935930  0.3001698119216413   T   T   T
  0.4167575937120122  0.5001831874249385  0.3783673637064838   T   T   T
  0.3333330000000032  0.3333330000000032  0.2466191863909980   T   T   T
  0.5560103530809009  0.4446711765403966  0.0748123372726479   T   T   T
  0.6663961114641566  0.3326082092389491  0.9963642836919001   T   T   T
  0.7770265761267949  0.5551802880634702  0.1489316934423870   T   T   T
  0.8897882155966180  0.4462424311933222  0.3027654373845473   T   T   T
  0.7833340929598051  0.5583340464807477  0.3852772882649127   T   T   T
  0.6696399931040727  0.3325086304050916  0.2274448609874229   T   T   T
  0.8887832963187363  0.4442325926373667  0.0747724619892702   T   T   T
  0.0000000000000000  0.6666669999999968  0.9957731425277923   T   T   T
  0.1114867119365337  0.8896404238730030  0.1489316934423870   T   T   T
  0.2204235688069576  0.7768787844033788  0.3027654373845473   T   T   T
  0.1083329535192566  0.8833329070377630  0.3852772882649127   T   T   T
  0.0000000000000000  0.6666669999999968  0.2276011839970546   T   T   T
  0.2224334073622878  0.7778837036812605  0.0747724619892702   T   T   T
  0.3340577907606108  0.6671209022253162  0.9963642836919001   T   T   T
  0.4476326282289724  0.8904833141146431  0.1496704371644520   T   T   T
  0.5510534075433928  0.7687728150859147  0.3066577952905600   T   T   T
  0.4455015574038390  0.8894177787021159  0.3829869585802348   T   T   T
  0.3341573695933914  0.6704643627020735  0.2274448609874229   T   T   T
  0.5539365139352282  0.7745390278704835  0.0764997761581180   T   T   T
  0.6663961114646136  0.6671209022254242  0.9963642836919001   T   T   T
  0.7761836858856670  0.8904833141147823  0.1496704371644520   T   T   T
  0.8897882155964238  0.7768787844032923  0.3027654373845473   T   T   T
  0.7772492212982728  0.8894177787022900  0.3829869585802348   T   T   T
  0.6696399931072963  0.6704643627021148  0.2274448609874229   T   T   T
  0.8887832963189756  0.7778837036813662  0.0747724619892702   T   T   T
  0.3333330000000032  0.3333330000000032  0.3394951505742865   T   T   T
 -0.0003422454612642 -0.0063114029103184  0.3420451377478185   T   T   T
  0.2202051560179147  0.1070773120359997  0.1907306339840821   T   T   T
  0.1117457231723900  0.2225393615858774  0.0363614090120683   T   T   T
  0.3273638425532812 -0.0063114029096165  0.3420451377478185   T   T   T
  0.5553782833609795  0.1112887166379573  0.1909409509691195   T   T   T
  0.4441266384134834  0.2225393615855939  0.0363614090120683   T   T   T
  0.6666669999999968  0.0000000000000000  0.3451423978170278   T   T   T
  0.8892444332773064  0.1112887166382854  0.1909409509691195   T   T   T
  0.7776718512532423  0.2220097025062919  0.0365303095288160   T   T   T
 -0.0003422454560095  0.3393021574506386  0.3420451377478185   T   T   T
  0.2202051560175235  0.4464608439819109  0.1907306339840821   T   T   T
  0.1114243269040393  0.5552426730961521  0.0349779783015277   T   T   T
  0.5595896879645690  0.4464608439820846  0.1907306339840821   T   T   T
  0.4441266384141220  0.5549212768285359  0.0363614090120683   T   T   T
  0.6729784029043095  0.3393021574490085  0.3420451377478185   T   T   T
  0.8891588341927465  0.4449836683855374  0.1881485062232476   T   T   T
  0.7771513461920512  0.5552426730960947  0.0349779783015277   T   T   T
  0.0000000000000000  0.6666669999999968  0.3452710750424386   T   T   T
  0.2216823316146077  0.7775081658072502  0.1881485062232476   T   T   T
  0.1114243269039094  0.8895156538077580  0.0349779783015277   T   T   T
  0.3273638425569546  0.6670092454613100  0.3420451377478185   T   T   T
  0.5553782833617188  0.7774225667237575  0.1909409509691195   T   T   T
  0.4446562974930612  0.8889951487467544  0.0365303095288160   T   T   T
  0.6729784029027281  0.6670092454589777  0.3420451377478185   T   T   T
  0.8891588341926454  0.7775081658072052  0.1881485062232476   T   T   T
  0.7776718512536896  0.8889951487469534  0.0365303095288160   T   T   T
 
  0.00000000E+00  0.00000000E+00  0.00000000E+00
  0.00000000E+00  0.00000000E+00  0.00000000E+00
  0.00000000E+00  0.00000000E+00  0.00000000E+00
  0.00000000E+00  0.00000000E+00  0.00000000E+00
  0.00000000E+00  0.00000000E+00  0.00000000E+00
  0.00000000E+00  0.00000000E+00  0.00000000E+00
  0.00000000E+00  0.00000000E+00  0.00000000E+00
  0.00000000E+00  0.00000000E+00  0.00000000E+00
  0.00000000E+00  0.00000000E+00  0.00000000E+00
  0.00000000E+00  0.00000000E+00  0.00000000E+00
  0.00000000E+00  0.00000000E+00  0.00000000E+00
  0.00000000E+00  0.00000000E+00  0.00000000E+00
  0.00000000E+00  0.00000000E+00  0.00000000E+00
  0.00000000E+00  0.00000000E+00  0.00000000E+00
  0.00000000E+00  0.00000000E+00  0.00000000E+00
  0.00000000E+00  0.00000000E+00  0.00000000E+00
  0.00000000E+00  0.00000000E+00  0.00000000E+00
  0.00000000E+00  0.00000000E+00  0.00000000E+00
  0.00000000E+00  0.00000000E+00  0.00000000E+00
  0.00000000E+00  0.00000000E+00  0.00000000E+00
  0.00000000E+00  0.00000000E+00  0.00000000E+00
  0.00000000E+00  0.00000000E+00  0.00000000E+00
  0.00000000E+00  0.00000000E+00  0.00000000E+00
  0.00000000E+00  0.00000000E+00  0.00000000E+00
  0.00000000E+00  0.00000000E+00  0.00000000E+00
  0.00000000E+00  0.00000000E+00  0.00000000E+00
  0.00000000E+00  0.00000000E+00  0.00000000E+00
  0.00000000E+00  0.00000000E+00  0.00000000E+00
  0.00000000E+00  0.00000000E+00  0.00000000E+00
  0.00000000E+00  0.00000000E+00  0.00000000E+00
  0.00000000E+00  0.00000000E+00  0.00000000E+00
  0.00000000E+00  0.00000000E+00  0.00000000E+00
  0.00000000E+00  0.00000000E+00  0.00000000E+00
  0.00000000E+00  0.00000000E+00  0.00000000E+00
  0.00000000E+00  0.00000000E+00  0.00000000E+00
  0.00000000E+00  0.00000000E+00  0.00000000E+00
  0.00000000E+00  0.00000000E+00  0.00000000E+00
  0.00000000E+00  0.00000000E+00  0.00000000E+00
  0.00000000E+00  0.00000000E+00  0.00000000E+00
  0.00000000E+00  0.00000000E+00  0.00000000E+00
  0.00000000E+00  0.00000000E+00  0.00000000E+00
  0.00000000E+00  0.00000000E+00  0.00000000E+00
  0.00000000E+00  0.00000000E+00  0.00000000E+00
  0.00000000E+00  0.00000000E+00  0.00000000E+00
  0.00000000E+00  0.00000000E+00  0.00000000E+00
  0.00000000E+00  0.00000000E+00  0.00000000E+00
  0.00000000E+00  0.00000000E+00  0.00000000E+00
  0.00000000E+00  0.00000000E+00  0.00000000E+00
  0.00000000E+00  0.00000000E+00  0.00000000E+00
  0.00000000E+00  0.00000000E+00  0.00000000E+00
  0.00000000E+00  0.00000000E+00  0.00000000E+00
  0.00000000E+00  0.00000000E+00  0.00000000E+00
  0.00000000E+00  0.00000000E+00  0.00000000E+00
  0.00000000E+00  0.00000000E+00  0.00000000E+00
  0.00000000E+00  0.00000000E+00  0.00000000E+00
  0.00000000E+00  0.00000000E+00  0.00000000E+00
  0.00000000E+00  0.00000000E+00  0.00000000E+00
  0.00000000E+00  0.00000000E+00  0.00000000E+00
  0.00000000E+00  0.00000000E+00  0.00000000E+00
  0.00000000E+00  0.00000000E+00  0.00000000E+00
  0.00000000E+00  0.00000000E+00  0.00000000E+00
  0.00000000E+00  0.00000000E+00  0.00000000E+00
  0.00000000E+00  0.00000000E+00  0.00000000E+00
  0.00000000E+00  0.00000000E+00  0.00000000E+00
  0.00000000E+00  0.00000000E+00  0.00000000E+00
  0.00000000E+00  0.00000000E+00  0.00000000E+00
  0.00000000E+00  0.00000000E+00  0.00000000E+00
  0.00000000E+00  0.00000000E+00  0.00000000E+00
  0.00000000E+00  0.00000000E+00  0.00000000E+00
  0.00000000E+00  0.00000000E+00  0.00000000E+00
  0.00000000E+00  0.00000000E+00  0.00000000E+00
  0.00000000E+00  0.00000000E+00  0.00000000E+00
  0.00000000E+00  0.00000000E+00  0.00000000E+00
  0.00000000E+00  0.00000000E+00  0.00000000E+00
  0.00000000E+00  0.00000000E+00  0.00000000E+00
  0.00000000E+00  0.00000000E+00  0.00000000E+00
  0.00000000E+00  0.00000000E+00  0.00000000E+00
  0.00000000E+00  0.00000000E+00  0.00000000E+00
  0.00000000E+00  0.00000000E+00  0.00000000E+00
  0.00000000E+00  0.00000000E+00  0.00000000E+00
  0.00000000E+00  0.00000000E+00  0.00000000E+00
