CeO2-you-111-you-Zn                     
   1.00000000000000     
     9.8191369327443248   -5.6690817227401684    0.0000000000000000
     0.0000000029350439   11.3381614552880539    0.0000000000000000
     0.0000000000000000    0.0000000000000000   21.1802314466714883
   O    Zn   Ce   H 
    54     1    26     1
Selective dynamics
Direct
  0.0001289995611506  0.0001058834824273  0.9961624943802069   T   T   T
  0.1043153113984303  0.2188241556991102  0.1486690300276265   F   F   F
  0.2387064844369626  0.1301417808787194  0.3117216021616150   T   T   T
  0.0717922322614939  0.2017244472934224  0.3915636213902535   T   T   T
  0.0073389224159698  0.0030751512120241  0.2310056296601012   T   T   T
  0.2226238974357386  0.1119147948713675  0.0754205831214847   F   F   F
  0.3331524744518879  0.0001543907785513  0.9960136709783103   T   T   T
  0.4478418443006760  0.2188241556990178  0.1486690300276265   F   F   F
  0.5531547717011226  0.1136482094358934  0.3048739396577862   T   T   T
  0.4732925829895335  0.1939924097737393  0.4086203789513905   T   T   T
  0.3302287721475576  0.0005099768474413  0.2302513345647423   T   T   T
  0.5572110866726874  0.1094559133271247  0.0753526871422849   F   F   F
  0.6668635954623264  0.0000062731619121  0.9948130565911544   T   T   T
  0.7779261847499441  0.2225183695000013  0.1515055485334855   F   F   F
  0.8848465806182141  0.1078630321364688  0.3013022206681885   T   T   T
  0.7769710358059633  0.2207764832758433  0.3830836441542690   T   T   T
  0.6636462489009392 -0.0005921064253520  0.2301118740314165   T   T   T
  0.8855788266544948  0.1094559133271815  0.0753526871422849   F   F   F
  0.0002259286710149  0.3331681586563843  0.9960369945724983   T   T   T
  0.1107294346832859  0.5559375653172438  0.1499957942956982   F   F   F
  0.2324025687639981  0.4367630919465759  0.3065388078936085   T   T   T
  0.1154094618616975  0.5554150677992714  0.3820869929758756   T   T   T
  0.0047263968180118  0.3359419549720074  0.2300225707608321   T   T   T
  0.2226238974359589  0.4440421025643602  0.0754205831214847   F   F   F
  0.3331570041907398  0.3329883887502135  0.9958361912368389   T   T   T
  0.4478418443008891  0.5623516886018791  0.1486690300276265   F   F   F
  0.5333325676680654  0.4324994673229681  0.3163983949326716   T   T   T
  0.4581121172799975  0.5655938083857408  0.3893143299571605   T   T   T
  0.3349071139583405  0.3333254282143867  0.2200902196430913   T   T   T
  0.5547522051283096  0.4440421025642607  0.0754205831214847   F   F   F
  0.6660883399615304  0.3336203373306914  0.9964293582966074   T   T   T
  0.7785411306337906  0.5559375653170804  0.1499957942956982   F   F   F
  0.8899778919441315  0.4432675549133116  0.3042545088098142   T   T   T
  0.7812040430155412  0.5545374827635371  0.3830641029744044   T   T   T
  0.6639543372486815  0.3384180758383620  0.2321328114116814   T   T   T
  0.8884530812922193  0.4435721625845375  0.0758246235845945   F   F   F
 -0.0000274834931209  0.6668569360473644  0.9964060900665797   T   T   T
  0.1107294346829235  0.8881258693656733  0.1499957942956982   F   F   F
  0.2228501443093147  0.7759741119252763  0.3033040179453586   T   T   T
  0.1158311028293593  0.8887230365710459  0.3828957981928961   T   T   T
 -0.0004301983473540  0.6661895833893444  0.2297144447090735   T   T   T
  0.2230938374158029  0.7782139187077775  0.0758246235845945   F   F   F
  0.3335769432523718  0.6660999555783200  0.9964412311336769   T   T   T
  0.4441476305003391  0.8887408152500527  0.1515055485334855   F   F   F
  0.5563824386526472  0.7752398424419800  0.3034209120636567   T   T   T
  0.4438436950278034  0.8838789519495350  0.3818007010285703   T   T   T
  0.3318470435680038  0.6631848712678632  0.2300097246987260   T   T   T
  0.5572110866728224  0.7810881733456938  0.0753526871422849   F   F   F
  0.6667013600296496  0.6666523195358354  0.9960542411122716   T   T   T
  0.7779261847497096  0.8887408152499461  0.1515055485334855   F   F   F
  0.8918889483177745  0.7793792947549840  0.3044108539940595   T   T   T
  0.7759840225682328  0.8875198208545200  0.3839651131875497   T   T   T
  0.6654534425212105  0.6594954322182280  0.2314274932556461   T   T   T
  0.8884530812919778  0.7782139187076709  0.0758246235845945   F   F   F
  0.3285513929728358  0.3321640089595849  0.3213721991565806   T   T   T
  0.0043828874577701  0.0065369651911852  0.3457710478754012   T   T   T
  0.2234318035006311  0.1135306070006621  0.1888770450410959   F   F   F
  0.1104599566005930  0.2218964783003088  0.0354919277425765   F   F   F
  0.3314035322492955 -0.0030808606753239  0.3441923826743606   T   T   T
  0.5557226670373865  0.1109443329630011  0.1904918709001393   F   F   F
  0.4447695216997118  0.2218964783003159  0.0354919277425765   F   F   F
  0.6662562989528703 -0.0013093019679748  0.3440953621246400   T   T   T
  0.8885556659255016  0.1109443329628874  0.1904918709001393   F   F   F
  0.7773993933066308  0.2214647866131472  0.0357913019030747   F   F   F
  0.0030360348182755  0.3287199666042637  0.3452087480528541   T   T   T
  0.2234318035019669  0.4432341964999651  0.1888770450410959   F   F   F
  0.1110546027162940  0.5556123972835039  0.0362669598145260   F   F   F
  0.5531363929974162  0.4432341964993682  0.1888770450410959   F   F   F
  0.4447695216996905  0.5562070433993895  0.0354919277425765   F   F   F
  0.6720083596682929  0.3342768579123137  0.3459576677071358   T   T   T
  0.8890073868250497  0.4446807736498428  0.1900804193377610   F   F   F
  0.7778907945672699  0.5556123972835678  0.0362669598145260   F   F   F
  0.0027733339429660  0.6660152112329364  0.3429957881714217   T   T   T
  0.2219852263493181  0.7776596131749471  0.1900804193377610   F   F   F
  0.1110546027164361  0.8887762054329400  0.0362669598145260   F   F   F
  0.3329532852113513  0.6619732450515878  0.3424704405676827   T   T   T
  0.5557226670371165  0.7781113340741115  0.1904918709001393   F   F   F
  0.4452012133864542  0.8892676066933660  0.0357913019030747   F   F   F
  0.6724606001811045  0.6690010036824491  0.3442232799431086   T   T   T
  0.8890073868256323  0.7776596131752029  0.1900804193377610   F   F   F
  0.7773993933069079  0.8892676066934868  0.0357913019030747   F   F   F
  0.4392509725897522  0.2289011059318425  0.4415637326585751   T   T   T
 
  0.00000000E+00  0.00000000E+00  0.00000000E+00
  0.00000000E+00  0.00000000E+00  0.00000000E+00
  0.00000000E+00  0.00000000E+00  0.00000000E+00
  0.00000000E+00  0.00000000E+00  0.00000000E+00
  0.00000000E+00  0.00000000E+00  0.00000000E+00
  0.00000000E+00  0.00000000E+00  0.00000000E+00
  0.00000000E+00  0.00000000E+00  0.00000000E+00
  0.00000000E+00  0.00000000E+00  0.00000000E+00
  0.00000000E+00  0.00000000E+00  0.00000000E+00
  0.00000000E+00  0.00000000E+00  0.00000000E+00
  0.00000000E+00  0.00000000E+00  0.00000000E+00
  0.00000000E+00  0.00000000E+00  0.00000000E+00
  0.00000000E+00  0.00000000E+00  0.00000000E+00
  0.00000000E+00  0.00000000E+00  0.00000000E+00
  0.00000000E+00  0.00000000E+00  0.00000000E+00
  0.00000000E+00  0.00000000E+00  0.00000000E+00
  0.00000000E+00  0.00000000E+00  0.00000000E+00
  0.00000000E+00  0.00000000E+00  0.00000000E+00
  0.00000000E+00  0.00000000E+00  0.00000000E+00
  0.00000000E+00  0.00000000E+00  0.00000000E+00
  0.00000000E+00  0.00000000E+00  0.00000000E+00
  0.00000000E+00  0.00000000E+00  0.00000000E+00
  0.00000000E+00  0.00000000E+00  0.00000000E+00
  0.00000000E+00  0.00000000E+00  0.00000000E+00
  0.00000000E+00  0.00000000E+00  0.00000000E+00
  0.00000000E+00  0.00000000E+00  0.00000000E+00
  0.00000000E+00  0.00000000E+00  0.00000000E+00
  0.00000000E+00  0.00000000E+00  0.00000000E+00
  0.00000000E+00  0.00000000E+00  0.00000000E+00
  0.00000000E+00  0.00000000E+00  0.00000000E+00
  0.00000000E+00  0.00000000E+00  0.00000000E+00
  0.00000000E+00  0.00000000E+00  0.00000000E+00
  0.00000000E+00  0.00000000E+00  0.00000000E+00
  0.00000000E+00  0.00000000E+00  0.00000000E+00
  0.00000000E+00  0.00000000E+00  0.00000000E+00
  0.00000000E+00  0.00000000E+00  0.00000000E+00
  0.00000000E+00  0.00000000E+00  0.00000000E+00
  0.00000000E+00  0.00000000E+00  0.00000000E+00
  0.00000000E+00  0.00000000E+00  0.00000000E+00
  0.00000000E+00  0.00000000E+00  0.00000000E+00
  0.00000000E+00  0.00000000E+00  0.00000000E+00
  0.00000000E+00  0.00000000E+00  0.00000000E+00
  0.00000000E+00  0.00000000E+00  0.00000000E+00
  0.00000000E+00  0.00000000E+00  0.00000000E+00
  0.00000000E+00  0.00000000E+00  0.00000000E+00
  0.00000000E+00  0.00000000E+00  0.00000000E+00
  0.00000000E+00  0.00000000E+00  0.00000000E+00
  0.00000000E+00  0.00000000E+00  0.00000000E+00
  0.00000000E+00  0.00000000E+00  0.00000000E+00
  0.00000000E+00  0.00000000E+00  0.00000000E+00
  0.00000000E+00  0.00000000E+00  0.00000000E+00
  0.00000000E+00  0.00000000E+00  0.00000000E+00
  0.00000000E+00  0.00000000E+00  0.00000000E+00
  0.00000000E+00  0.00000000E+00  0.00000000E+00
  0.00000000E+00  0.00000000E+00  0.00000000E+00
  0.00000000E+00  0.00000000E+00  0.00000000E+00
  0.00000000E+00  0.00000000E+00  0.00000000E+00
  0.00000000E+00  0.00000000E+00  0.00000000E+00
  0.00000000E+00  0.00000000E+00  0.00000000E+00
  0.00000000E+00  0.00000000E+00  0.00000000E+00
  0.00000000E+00  0.00000000E+00  0.00000000E+00
  0.00000000E+00  0.00000000E+00  0.00000000E+00
  0.00000000E+00  0.00000000E+00  0.00000000E+00
  0.00000000E+00  0.00000000E+00  0.00000000E+00
  0.00000000E+00  0.00000000E+00  0.00000000E+00
  0.00000000E+00  0.00000000E+00  0.00000000E+00
  0.00000000E+00  0.00000000E+00  0.00000000E+00
  0.00000000E+00  0.00000000E+00  0.00000000E+00
  0.00000000E+00  0.00000000E+00  0.00000000E+00
  0.00000000E+00  0.00000000E+00  0.00000000E+00
  0.00000000E+00  0.00000000E+00  0.00000000E+00
  0.00000000E+00  0.00000000E+00  0.00000000E+00
  0.00000000E+00  0.00000000E+00  0.00000000E+00
  0.00000000E+00  0.00000000E+00  0.00000000E+00
  0.00000000E+00  0.00000000E+00  0.00000000E+00
  0.00000000E+00  0.00000000E+00  0.00000000E+00
  0.00000000E+00  0.00000000E+00  0.00000000E+00
  0.00000000E+00  0.00000000E+00  0.00000000E+00
  0.00000000E+00  0.00000000E+00  0.00000000E+00
  0.00000000E+00  0.00000000E+00  0.00000000E+00
  0.00000000E+00  0.00000000E+00  0.00000000E+00
  0.00000000E+00  0.00000000E+00  0.00000000E+00
