CeO2-you-111-you-Ni                     
   1.00000000000000     
     9.8537059773642302   -5.6491484633217830   -0.0176746173259791
     0.0345472222366279   11.3581324787239115    0.0176746143438959
    -0.0191320432436546    0.0331376692421987   20.4496032211845140
   O    Ni   Ce H
    53     1    26 2
Selective dynamics
Direct
 -0.0002342148988104  0.0001044027443943  0.9896458253911817   T   T   T
  0.1105600798539770  0.2216056960504547  0.1463946729642319   F   F   F
  0.2231703229411761  0.1187681090890833  0.3075884134924033   T   T   T
  0.0649311920073087  0.2027784233569692  0.3964286582854524   T   T   T
  0.0006041331504397  0.0010376407451306  0.2307488606409196   T   T   T
  0.2212868153831063  0.1096302283448576  0.0716443089531797   F   F   F
  0.3349145869448660  0.0005744915291435  0.9911199680140914   T   T   T
  0.4419547779807769  0.2247112220152300  0.1496606631207365   F   F   F
  0.5570328451141915  0.1096341548838027  0.3063097699898003   T   T   T
  0.4434020541958631  0.2232639457932515  0.3816686659983586   T   T   T
  0.3319158839176987 -0.0006888544330632  0.2307283872317019   T   T   T
  0.5559719030721568  0.1106950969247763  0.0747122298366587   F   F   F
  0.6655400985465143  0.0011269014542046  0.9907528302612789   T   T   T
  0.7844061162860461  0.2276446173860587  0.1511851000914824   F   F   F
  0.8791823258272005  0.1084433849804469  0.3040626478427160   T   T   T
  0.7716270355773955  0.2207347416862282  0.3923867088651138   T   T   T
  0.6657518028204609  0.0009151971821760  0.2269689469416089   T   T   T
  0.8883777193431929  0.1107162790155152  0.0714411810205641   F   F   F
 -0.0015762293735114  0.3328236896891190  0.9896568230946178   T   T   T
  0.1109271635585565  0.5557398364392261  0.1473753001018359   F   F   F
  0.1212234684749182  0.5454435315405075  0.3811719675871622   T   T   T
  0.0199038789309631  0.3426435960120725  0.2371859009891151   T   T   T
  0.2220223897048797  0.4446436102984337  0.0694403054211564   F   F   F
  0.3339980296465169  0.3326679703509820  0.9897525555411711   T   T   T
  0.4450603039541451  0.5561069201502891  0.1463946729634015   F   F   F
  0.5478988909007696  0.4434956770527560  0.3075884134918226   T   T   T
  0.4638875766356316  0.6017358079972852  0.3964286582931756   T   T   T
  0.3271079825392247  0.3395580174508472  0.2358891618402455   T   T   T
  0.5570367716536651  0.4453791846176491  0.0716443089538204   F   F   F
  0.6660925084706237  0.3317514130559754  0.9911199680136471   T   T   T
  0.7798729615085098  0.5564619437816564  0.1499866651254392   F   F   F
  0.8854507127822696  0.4423571381922643  0.3085314421755298   T   T   T
  0.7785559203634048  0.5568875166737732  0.3884113332464729   T   T   T
  0.6673558544311736  0.3347501160807899  0.2307283872315133   T   T   T
  0.8890352869303174  0.4451807468918471  0.0719170890243764   F   F   F
 -0.0002739660261878  0.6669409660271562  0.9897029274843481   T   T   T
  0.1102050562174419  0.8867940384896567  0.1499866651244650   F   F   F
  0.2243088618065505  0.7812162872160894  0.3085314421756393   T   T   T
  0.1097794833260423  0.8881110796377009  0.3884113332460259   T   T   T
  0.0016024956953888  0.6650645043010934  0.2322900463354088   T   T   T
  0.2214852531085408  0.7776317130719337  0.0719170890237609   F   F   F
  0.3338423103116010  0.6682432293760217  0.9896568230948152   T   T   T
  0.4390213826154695  0.8822608837117749  0.1511851000915112   F   F   F
  0.5582236150284557  0.7874846741828029  0.3040626478432504   T   T   T
  0.4459312583150315  0.8950399644240457  0.3923867088629047   T   T   T
  0.3240224039919758  0.6467631210827173  0.2371859009887443   T   T   T
  0.5559507209825816  0.7782892806579983  0.0714411810206123   F   F   F
  0.6665625972555613  0.6669012149003251  0.9896458253912311   T   T   T
  0.7778935036619534  0.8887734963381185  0.1490959039047395   F   F   F
  0.8890738018718140  0.7775931981281602  0.3071212782033582   T   T   T
  0.7770850101529606  0.8895819898475725  0.3886848543146307   T   T   T
  0.6656293592568954  0.6660628668494756  0.2307488606403676   T   T   T
  0.8885985928567109  0.7780684071443195  0.0715022166156056   F   F   F
  0.3812948463370898  0.2853711536427322  0.3120230980655102   T   T   T
 -0.0012863178551300  0.0041664283355545  0.3506061177318292   T   T   T
  0.2206133039704501  0.1105386181101796  0.1901583503735352   F   F   F
  0.1099494774340519  0.2207768372601861  0.0293285238424513   F   F   F
  0.3314407200689538  0.0014062733313451  0.3479498816740496   T   T   T
  0.5550881162640241  0.1115788837369364  0.1910252386419042   F   F   F
  0.4443753710839365  0.2222906289189101  0.0319174873559220   F   F   F
  0.6658479301750458  0.0008190698284909  0.3484557639186583   T   T   T
  0.8896117841889059  0.1114497514970210  0.1901955502403256   F   F   F
  0.7778315558222311  0.2227718805275475  0.0318536183241510   F   F   F
 -0.0138475578686996  0.3213891453314230  0.3546811724521411   T   T   T
  0.2228581164711795  0.4438078835223614  0.1832241629741463   F   F   F
  0.1100078794612345  0.5566591205389264  0.0296829944221826   F   F   F
  0.5561283818852709  0.4460526960270837  0.1901583503736221   F   F   F
  0.4458891627407370  0.5567175225638602  0.0293285238432288   F   F   F
  0.6652607266634882  0.3352252799251011  0.3479498816746083   T   T   T
  0.8912108840727840  0.4450123102032781  0.1917458443810662   F   F   F
  0.7779512388212476  0.5557336910185512  0.0317748945424745   F   F   F
 -0.0009259473525268  0.6675929473621937  0.3476172042912202   T   T   T
  0.2216536898015905  0.7754561159371601  0.1917458443810477   F   F   F
  0.1109333089821017  0.8887157611788807  0.0317748945419566   F   F   F
  0.3452768546711252  0.6805145578638362  0.3546811724534407   T   T   T
  0.5552172484968851  0.7770552158098207  0.1901955502404747   F   F   F
  0.4438941194753506  0.8888354441770174  0.0318536183252312   F   F   F
  0.6625005716651193  0.6679533178604935  0.3506061177318983   T   T   T
  0.8884563782320777  0.7782106217702596  0.1909741043070602   F   F   F
  0.7773554666870620  0.8893115333097532  0.0311884424985734   F   F   F
0.32711   0.33956   0.412023 T T T
0.446598 0.216020 0.433410 T T T 
 
  0.00000000E+00  0.00000000E+00  0.00000000E+00
  0.00000000E+00  0.00000000E+00  0.00000000E+00
  0.00000000E+00  0.00000000E+00  0.00000000E+00
  0.00000000E+00  0.00000000E+00  0.00000000E+00
  0.00000000E+00  0.00000000E+00  0.00000000E+00
  0.00000000E+00  0.00000000E+00  0.00000000E+00
  0.00000000E+00  0.00000000E+00  0.00000000E+00
  0.00000000E+00  0.00000000E+00  0.00000000E+00
  0.00000000E+00  0.00000000E+00  0.00000000E+00
  0.00000000E+00  0.00000000E+00  0.00000000E+00
  0.00000000E+00  0.00000000E+00  0.00000000E+00
  0.00000000E+00  0.00000000E+00  0.00000000E+00
  0.00000000E+00  0.00000000E+00  0.00000000E+00
  0.00000000E+00  0.00000000E+00  0.00000000E+00
  0.00000000E+00  0.00000000E+00  0.00000000E+00
  0.00000000E+00  0.00000000E+00  0.00000000E+00
  0.00000000E+00  0.00000000E+00  0.00000000E+00
  0.00000000E+00  0.00000000E+00  0.00000000E+00
  0.00000000E+00  0.00000000E+00  0.00000000E+00
  0.00000000E+00  0.00000000E+00  0.00000000E+00
  0.00000000E+00  0.00000000E+00  0.00000000E+00
  0.00000000E+00  0.00000000E+00  0.00000000E+00
  0.00000000E+00  0.00000000E+00  0.00000000E+00
  0.00000000E+00  0.00000000E+00  0.00000000E+00
  0.00000000E+00  0.00000000E+00  0.00000000E+00
  0.00000000E+00  0.00000000E+00  0.00000000E+00
  0.00000000E+00  0.00000000E+00  0.00000000E+00
  0.00000000E+00  0.00000000E+00  0.00000000E+00
  0.00000000E+00  0.00000000E+00  0.00000000E+00
  0.00000000E+00  0.00000000E+00  0.00000000E+00
  0.00000000E+00  0.00000000E+00  0.00000000E+00
  0.00000000E+00  0.00000000E+00  0.00000000E+00
  0.00000000E+00  0.00000000E+00  0.00000000E+00
  0.00000000E+00  0.00000000E+00  0.00000000E+00
  0.00000000E+00  0.00000000E+00  0.00000000E+00
  0.00000000E+00  0.00000000E+00  0.00000000E+00
  0.00000000E+00  0.00000000E+00  0.00000000E+00
  0.00000000E+00  0.00000000E+00  0.00000000E+00
  0.00000000E+00  0.00000000E+00  0.00000000E+00
  0.00000000E+00  0.00000000E+00  0.00000000E+00
  0.00000000E+00  0.00000000E+00  0.00000000E+00
  0.00000000E+00  0.00000000E+00  0.00000000E+00
  0.00000000E+00  0.00000000E+00  0.00000000E+00
  0.00000000E+00  0.00000000E+00  0.00000000E+00
  0.00000000E+00  0.00000000E+00  0.00000000E+00
  0.00000000E+00  0.00000000E+00  0.00000000E+00
  0.00000000E+00  0.00000000E+00  0.00000000E+00
  0.00000000E+00  0.00000000E+00  0.00000000E+00
  0.00000000E+00  0.00000000E+00  0.00000000E+00
  0.00000000E+00  0.00000000E+00  0.00000000E+00
  0.00000000E+00  0.00000000E+00  0.00000000E+00
  0.00000000E+00  0.00000000E+00  0.00000000E+00
  0.00000000E+00  0.00000000E+00  0.00000000E+00
  0.00000000E+00  0.00000000E+00  0.00000000E+00
  0.00000000E+00  0.00000000E+00  0.00000000E+00
  0.00000000E+00  0.00000000E+00  0.00000000E+00
  0.00000000E+00  0.00000000E+00  0.00000000E+00
  0.00000000E+00  0.00000000E+00  0.00000000E+00
  0.00000000E+00  0.00000000E+00  0.00000000E+00
  0.00000000E+00  0.00000000E+00  0.00000000E+00
  0.00000000E+00  0.00000000E+00  0.00000000E+00
  0.00000000E+00  0.00000000E+00  0.00000000E+00
  0.00000000E+00  0.00000000E+00  0.00000000E+00
  0.00000000E+00  0.00000000E+00  0.00000000E+00
  0.00000000E+00  0.00000000E+00  0.00000000E+00
  0.00000000E+00  0.00000000E+00  0.00000000E+00
  0.00000000E+00  0.00000000E+00  0.00000000E+00
  0.00000000E+00  0.00000000E+00  0.00000000E+00
  0.00000000E+00  0.00000000E+00  0.00000000E+00
  0.00000000E+00  0.00000000E+00  0.00000000E+00
  0.00000000E+00  0.00000000E+00  0.00000000E+00
  0.00000000E+00  0.00000000E+00  0.00000000E+00
  0.00000000E+00  0.00000000E+00  0.00000000E+00
  0.00000000E+00  0.00000000E+00  0.00000000E+00
  0.00000000E+00  0.00000000E+00  0.00000000E+00
  0.00000000E+00  0.00000000E+00  0.00000000E+00
  0.00000000E+00  0.00000000E+00  0.00000000E+00
  0.00000000E+00  0.00000000E+00  0.00000000E+00
  0.00000000E+00  0.00000000E+00  0.00000000E+00
  0.00000000E+00  0.00000000E+00  0.00000000E+00
