CeO2-you-111-you-W                      
   1.00000000000000     
     9.8995193200815148   -5.7215529037668436   -0.0069812518972450
    -0.0052501885204351   11.4340102010680482    0.0069812506500436
    -0.0081968241093345    0.0141973147682163   20.9131243535194962
   O    W    Ce   H 
    53     1    26     1
Selective dynamics
Direct
  0.9995782660660775 -0.0000381640648655  0.9943178016728139   T   T   T
  0.1120842166624203  0.2147449536306566  0.1467960411362627   T   T   T
  0.2539702741422825  0.1349582165560952  0.3039138833440471   T   T   T
  0.1696628903825033  0.2668055710982433  0.3715212542149198   T   T   T
  0.0094823687361715  0.0005218764707672  0.2313075692051524   T   T   T
  0.2234502976175689  0.1080543403244658  0.0722936591477866   T   T   T
  0.3358938801297001  0.0012006893759075  0.9932808007322642   T   T   T
  0.4378054624522001  0.2289884617272228  0.1532147512096276   T   T   T
  0.5577140546178316  0.1089476981447210  0.3045383500448205   T   T   T
  0.4205675019220292  0.2467512444377518  0.4011049912168836   T   T   T
  0.3321547694332315  0.9979523516315298  0.2255915561020619   T   T   T
  0.5530438673325692  0.1124902726045281  0.0775940364311389   T   T   T
  0.6662613155777721  0.0005938982249384  0.9961272915040592   T   T   T
  0.7817190445199955  0.2205469308253509  0.1505852654458829   T   T   T
  0.8950148059454646  0.1026328524139823  0.3075152213110208   T   T   T
  0.7758400183596696  0.2068591359016093  0.3905026515735879   T   T   T
  0.6693511109824768  0.9978718942232351  0.2303772751884660   T   T   T
  0.8889348669698189  0.1088545579095294  0.0750750043259660   T   T   T
  0.9957144770040594  0.3296993707828805  0.9943528195344264   T   T   T
  0.1051696404580793  0.5612596254909126  0.1447889756994327   T   T   T
  0.1071697460526507  0.5601042133518729  0.3864253064824090   T   T   T
  0.0033538849969099  0.3337955216550276  0.2326363931896778   T   T   T
  0.2216765005003393  0.4453015856666179  0.0672151355428336   T   T   T
  0.3345374663311454  0.3314051119299974  0.9941028339265158   T   T   T
  0.4526699862313375  0.5549480215911802  0.1467537561955468   T   T   T
  0.5322776579466117  0.4126663980389121  0.3040453346160595   T   T   T
  0.4011411744800824  0.4979577239163132  0.3713368156614456   T   T   T
  0.3134912851821737  0.3546942924445800  0.2485756761842990   T   T   T
  0.5582783069346469  0.4429761550517244  0.0724070241489474   T   T   T
  0.6655095757231257  0.3307484280197886  0.9935198125447600   T   T   T
  0.7781543496100171  0.5561366219480934  0.1477903194638287   T   T   T
  0.8882304123390541  0.4486509179514387  0.3044694979002535   T   T   T
  0.7765662555301949  0.5675148890423565  0.3853297664085308   T   T   T
  0.6686018786048609  0.3337678164758265  0.2255071207507539   T   T   T
  0.8859472105295187  0.4427440698819221  0.0725097179714928   T   T   T
 -0.0000016761342713  0.6660967975653046  0.9923606522913589   T   T   T
  0.1105857944650486  0.8886413211841715  0.1475766865075476   T   T   T
  0.2182479186263704  0.7782434111153723  0.3044657021930959   T   T   T
  0.0991632654674463  0.8899796973775258  0.3849875922750983   T   T   T
 -0.0002795621355408  0.6670393080430959  0.2284892210681329   T   T   T
  0.2234754544691072  0.7801940007731328  0.0722145934752256   T   T   T
  0.3370436291615502  0.6706689674854942  0.9941466627024431   T   T   T
  0.4452469967392221  0.8847438332421670  0.1510648118592029   T   T   T
  0.5645464540086965  0.7719901047244179  0.3074199074636932   T   T   T
  0.4603925615237107  0.8912554915604582  0.3905338266820296   T   T   T
  0.3326861517814567  0.6629689371004868  0.2328634370276179   T   T   T
  0.5576295351903735  0.7785050886423248  0.0753217180736638   T   T   T
  0.6662078129551628  0.6673272408802162  0.9940952698894157   T   T   T
  0.7800287853046873  0.8869409736147352  0.1523183871177345   T   T   T
  0.8887378005702397  0.7780316113162096  0.3017183818263233   T   T   T
  0.7847823460147295  0.8811613865537120  0.3866191581091447   T   T   T
  0.6663496438168142  0.6573675340389608  0.2312583746716499   T   T   T
  0.8891497130621284  0.7770141676082740  0.0725550362791041   T   T   T
  0.3396347431037576  0.3274965038826261  0.3336066754918668   T   T   T
  0.9988833599511321  0.9918565261691271  0.3428585220171239   T   T   T
  0.2205869467060661  0.1055714970037981  0.1871335776764208   T   T   T
  0.1098857808814336  0.2196143706181989  0.0329035927111833   T   T   T
  0.3348703589900630  0.9937309396115543  0.3471062633838646   T   T   T
  0.5566205541030608  0.1097389999432068  0.1919868013481359   T   T   T
  0.4446180686252281  0.2216746554814116  0.0332893932056103   T   T   T
  0.6694292813733265  0.9972252362337432  0.3468693765439352   T   T   T
  0.8925140804746612  0.1120715888749392  0.1914150941443762   T   T   T
  0.7775293926688792  0.2213831892427027  0.0355796750925684   T   T   T
  0.9917037302174511  0.3318042257558030  0.3498888264023687   T   T   T
  0.2181482507144081  0.4486981997976704  0.1793717120357695   T   T   T
  0.1097398477228761  0.5565427703011013  0.0315858831466381   T   T   T
  0.5610828690928192  0.4459813980151436  0.1872705984900328   T   T   T
  0.4468817071008549  0.5568271741851957  0.0328867189220190   T   T   T
  0.6728576877077118  0.3316633582708602  0.3475545063646086   T   T   T
  0.8894127087700461  0.4430113491487994  0.1899674588459966   T   T   T
  0.7775229523475463  0.5538093190858181  0.0327544486864924   T   T   T
  0.0012903202863957  0.6653323379215662  0.3437702536831720   T   T   T
  0.2232741091942777  0.7768417088057643  0.1900118129859081   T   T   T
  0.1124937626397860  0.8887698712938615  0.0326325137381344   T   T   T
  0.3350990256890330  0.6750133271553593  0.3500255009678876   T   T   T
  0.5546261869410691  0.7741641370687250  0.1915422264346850   T   T   T
  0.4448480740958545  0.8889024886944888  0.0355541085868994   T   T   T
  0.6745165077520295  0.6673593015004939  0.3429206513567920   T   T   T
  0.8906789628949148  0.7759917833055546  0.1874144103989532   T   T   T
  0.7775987227288791  0.8888562693756940  0.0357729342931336   T   T   T
  0.4030165620348794  0.2603660557556215  0.4452273335050791   T   T   T
 
  0.00000000E+00  0.00000000E+00  0.00000000E+00
  0.00000000E+00  0.00000000E+00  0.00000000E+00
  0.00000000E+00  0.00000000E+00  0.00000000E+00
  0.00000000E+00  0.00000000E+00  0.00000000E+00
  0.00000000E+00  0.00000000E+00  0.00000000E+00
  0.00000000E+00  0.00000000E+00  0.00000000E+00
  0.00000000E+00  0.00000000E+00  0.00000000E+00
  0.00000000E+00  0.00000000E+00  0.00000000E+00
  0.00000000E+00  0.00000000E+00  0.00000000E+00
  0.00000000E+00  0.00000000E+00  0.00000000E+00
  0.00000000E+00  0.00000000E+00  0.00000000E+00
  0.00000000E+00  0.00000000E+00  0.00000000E+00
  0.00000000E+00  0.00000000E+00  0.00000000E+00
  0.00000000E+00  0.00000000E+00  0.00000000E+00
  0.00000000E+00  0.00000000E+00  0.00000000E+00
  0.00000000E+00  0.00000000E+00  0.00000000E+00
  0.00000000E+00  0.00000000E+00  0.00000000E+00
  0.00000000E+00  0.00000000E+00  0.00000000E+00
  0.00000000E+00  0.00000000E+00  0.00000000E+00
  0.00000000E+00  0.00000000E+00  0.00000000E+00
  0.00000000E+00  0.00000000E+00  0.00000000E+00
  0.00000000E+00  0.00000000E+00  0.00000000E+00
  0.00000000E+00  0.00000000E+00  0.00000000E+00
  0.00000000E+00  0.00000000E+00  0.00000000E+00
  0.00000000E+00  0.00000000E+00  0.00000000E+00
  0.00000000E+00  0.00000000E+00  0.00000000E+00
  0.00000000E+00  0.00000000E+00  0.00000000E+00
  0.00000000E+00  0.00000000E+00  0.00000000E+00
  0.00000000E+00  0.00000000E+00  0.00000000E+00
  0.00000000E+00  0.00000000E+00  0.00000000E+00
  0.00000000E+00  0.00000000E+00  0.00000000E+00
  0.00000000E+00  0.00000000E+00  0.00000000E+00
  0.00000000E+00  0.00000000E+00  0.00000000E+00
  0.00000000E+00  0.00000000E+00  0.00000000E+00
  0.00000000E+00  0.00000000E+00  0.00000000E+00
  0.00000000E+00  0.00000000E+00  0.00000000E+00
  0.00000000E+00  0.00000000E+00  0.00000000E+00
  0.00000000E+00  0.00000000E+00  0.00000000E+00
  0.00000000E+00  0.00000000E+00  0.00000000E+00
  0.00000000E+00  0.00000000E+00  0.00000000E+00
  0.00000000E+00  0.00000000E+00  0.00000000E+00
  0.00000000E+00  0.00000000E+00  0.00000000E+00
  0.00000000E+00  0.00000000E+00  0.00000000E+00
  0.00000000E+00  0.00000000E+00  0.00000000E+00
  0.00000000E+00  0.00000000E+00  0.00000000E+00
  0.00000000E+00  0.00000000E+00  0.00000000E+00
  0.00000000E+00  0.00000000E+00  0.00000000E+00
  0.00000000E+00  0.00000000E+00  0.00000000E+00
  0.00000000E+00  0.00000000E+00  0.00000000E+00
  0.00000000E+00  0.00000000E+00  0.00000000E+00
  0.00000000E+00  0.00000000E+00  0.00000000E+00
  0.00000000E+00  0.00000000E+00  0.00000000E+00
  0.00000000E+00  0.00000000E+00  0.00000000E+00
  0.00000000E+00  0.00000000E+00  0.00000000E+00
  0.00000000E+00  0.00000000E+00  0.00000000E+00
  0.00000000E+00  0.00000000E+00  0.00000000E+00
  0.00000000E+00  0.00000000E+00  0.00000000E+00
  0.00000000E+00  0.00000000E+00  0.00000000E+00
  0.00000000E+00  0.00000000E+00  0.00000000E+00
  0.00000000E+00  0.00000000E+00  0.00000000E+00
  0.00000000E+00  0.00000000E+00  0.00000000E+00
  0.00000000E+00  0.00000000E+00  0.00000000E+00
  0.00000000E+00  0.00000000E+00  0.00000000E+00
  0.00000000E+00  0.00000000E+00  0.00000000E+00
  0.00000000E+00  0.00000000E+00  0.00000000E+00
  0.00000000E+00  0.00000000E+00  0.00000000E+00
  0.00000000E+00  0.00000000E+00  0.00000000E+00
  0.00000000E+00  0.00000000E+00  0.00000000E+00
  0.00000000E+00  0.00000000E+00  0.00000000E+00
  0.00000000E+00  0.00000000E+00  0.00000000E+00
  0.00000000E+00  0.00000000E+00  0.00000000E+00
  0.00000000E+00  0.00000000E+00  0.00000000E+00
  0.00000000E+00  0.00000000E+00  0.00000000E+00
  0.00000000E+00  0.00000000E+00  0.00000000E+00
  0.00000000E+00  0.00000000E+00  0.00000000E+00
  0.00000000E+00  0.00000000E+00  0.00000000E+00
  0.00000000E+00  0.00000000E+00  0.00000000E+00
  0.00000000E+00  0.00000000E+00  0.00000000E+00
  0.00000000E+00  0.00000000E+00  0.00000000E+00
  0.00000000E+00  0.00000000E+00  0.00000000E+00
  0.00000000E+00  0.00000000E+00  0.00000000E+00
