CeO2-you-111-you-Ga                     
   1.00000000000000     
     9.8380330969217145   -5.6799914279421699    0.0000000000000000
     0.0000000010143697   11.3599808585255975    0.0000000000000000
     0.0000000000000000    0.0000000000000000   20.8258270750177843
   O    Ga   Ce   H 
    54     1    26     1
Selective dynamics
Direct
  0.9997476263892291  0.9996975105189827  0.9939888773822043   T   T   T
  0.1161935736024589  0.2247632868009575  0.1514601996974392   F   F   F
  0.2093239759933131  0.0807969629159969  0.3008483675955034   T   T   T
  0.1351557876445217  0.2340108178638177  0.3759470956639625   T   T   T
  0.9946040434774523 -0.0006604061607095  0.2290841842082516   T   T   T
  0.2223255363356529  0.1113180726711889  0.0736780813397431   F   F   F
  0.3330215593282009  0.9993942392294577  0.9934503983258844   T   T   T
  0.4419027131985018  0.2247632868007230  0.1514601996974392   F   F   F
  0.5501947994295732  0.1182985130051604  0.3122598504824927   T   T   T
  0.4153430448021035  0.2515607398665839  0.3838924931588387   T   T   T
  0.3389415464760396  0.9971804285983420  0.2290396186201999   T   T   T
  0.5541255904844959  0.1125414095154085  0.0742553349231940   F   F   F
  0.6669160840452285 -0.0000043162659464  0.9945667376760392   T   T   T
  0.7766802270616040  0.2200264541229018  0.1483581689676043   F   F   F
  0.8892609964851785  0.1114396023793336  0.3082175121885884   T   T   T
  0.7800570213078960  0.2250495733369769  0.3868566457307033   T   T   T
  0.6646820420384104  0.0012259306485423  0.2327692557790348   T   T   T
  0.8917498190309345  0.1125414095154369  0.0742553349231940   F   F   F
  0.9994763325062437  0.3334859188317253  0.9934263250878635   T   T   T
  0.1119938287794326  0.5546731712208910  0.1499613357140319   F   F   F
  0.2157861675397667  0.4516170631151309  0.3027924093457319   T   T   T
  0.1121170322828973  0.5561248708798632  0.3878880482298468   T   T   T
  0.9964558585196130  0.3305800962062397  0.2300068896016030   T   T   T
  0.2223255363359016  0.4443404636644601  0.0736780813397431   F   F   F
  0.3332166009156447  0.3332242343233854  0.9930868982791204   T   T   T
  0.4419027131990418  0.5504734263983266  0.1514601996974392   F   F   F
  0.5864647986536586  0.4575090416953563  0.3007794200620469   T   T   T
  0.4327583565479703  0.5314152695445192  0.3760098971685915   T   T   T
  0.3341726752803438  0.3321879506034807  0.2445208821432142   T   T   T
  0.5553489273284598  0.4443404636643464  0.0736780813397431   F   F   F
  0.6673396023830243  0.3336613481871192  0.9934018316894861   T   T   T
  0.7760123424413621  0.5546731712207986  0.1499613357140319   F   F   F
  0.8913603011706489  0.4473110917338032  0.3057976064692920   T   T   T
  0.7822138735303368  0.5569860194339360  0.3901875729650693   T   T   T
  0.6702951532686028  0.3288021842222725  0.2289403174144828   T   T   T
  0.8889743810055890  0.4446147620112839  0.0742329077017914   F   F   F
 -0.0000104149259126  0.6667442371929290  0.9937700895671314   T   T   T
  0.1119938287792053  0.8906546575583150  0.1499613357140319   F   F   F
  0.2203192885128759  0.7765193973307274  0.3055946769795195   T   T   T
  0.1103223280169501  0.8848341199099934  0.3901616981941219   T   T   T
  0.0001877003398560  0.6673529888863409  0.2293987198142077   T   T   T
  0.2220512379890778  0.7776926189944078  0.0742329077017914   F   F   F
  0.3330694041495322  0.6670133526383515  0.9934044118147702   T   T   T
  0.4466395458760886  0.8899867729383928  0.1483581689676043   F   F   F
  0.5553151486367094  0.7772270757323845  0.3084609489570072   T   T   T
  0.4416185301874874  0.8876088245471124  0.3865518630831907   T   T   T
  0.3363109037079757  0.6705083829544890  0.2298217498592149   T   T   T
  0.5541255904845670  0.7749171809691546  0.0742553349231940   F   F   F
  0.6669833658499835  0.6668516955326672  0.9933952348433566   T   T   T
  0.7766802270623003  0.8899867729387054  0.1483581689676043   F   F   F
  0.8894096089493710  0.7770309970377804  0.3060789875958622   T   T   T
  0.7781955208857539  0.8897134383661636  0.3871894116491377   T   T   T
  0.6677619864080748  0.6725117367997399  0.2291700070873439   T   T   T
  0.8889743810053403  0.7776926189943012  0.0742329077017914   F   F   F
  0.3179977225943686  0.3485130439738351  0.3394916629561032   T   T   T
  0.0026420536224230  0.0002969400163659  0.3450771491998771   T   T   T
  0.2220662074317872  0.1107994148634219  0.1915893967512119   F   F   F
  0.1117974702027240  0.2225652351018752  0.0341170728301705   F   F   F
  0.3253439775951877  0.9922813704075963  0.3439161990114024   T   T   T
  0.5558938039955166  0.1107731960062921  0.1900128969928474   F   F   F
  0.4441007648991402  0.2225652351023228  0.0341170728301705   F   F   F
  0.6665063871827731  0.0005611921824135  0.3477546332216250   T   T   T
  0.8882133920102149  0.1107731960057379  0.1900128969928474   F   F   F
  0.7779114666448450  0.2224889332894975  0.0339183737990609   F   F   F
  0.0028446295368091  0.3347093195304600  0.3455255643649027   T   T   T
  0.2220662074321211  0.4445997925683614  0.1915893967512119   F   F   F
  0.1113336131262201  0.5553333868720287  0.0338376708277082   F   F   F
  0.5558675851360988  0.4445997925682121  0.1915893967512119   F   F   F
  0.4441007648981241  0.5548695297958162  0.0341170728301705   F   F   F
  0.6754066289312171  0.3422379182284194  0.3439893860722913   T   T   T
  0.8888927960030557  0.4444515920060326  0.1893603659510106   F   F   F
  0.7773327737463518  0.5553333868725687  0.0338376708277082   F   F   F
  0.0003911014161696  0.6673326155129117  0.3477891619675550   T   T   T
  0.2222144079937181  0.7777742039969411  0.1893603659510106   F   F   F
  0.1113336131274352  0.8893342262554071  0.0338376708277082   F   F   F
  0.3323133474307240  0.6642639296960510  0.3454694993906986   T   T   T
  0.5558938039942660  0.7784536079879700  0.1900128969928474   F   F   F
  0.4441770667098339  0.8887555333551518  0.0339183737990609   F   F   F
  0.6663650656873801  0.6638923804399880  0.3451207251365205   T   T   T
  0.8888927960032262  0.7777742039970192  0.1893603659510106   F   F   F
  0.7779114666453140  0.8887555333553507  0.0339183737990609   F   F   F
  0.4031505515456645  0.2627266885378005  0.4294260360040633   T   T   T
 
  0.00000000E+00  0.00000000E+00  0.00000000E+00
  0.00000000E+00  0.00000000E+00  0.00000000E+00
  0.00000000E+00  0.00000000E+00  0.00000000E+00
  0.00000000E+00  0.00000000E+00  0.00000000E+00
  0.00000000E+00  0.00000000E+00  0.00000000E+00
  0.00000000E+00  0.00000000E+00  0.00000000E+00
  0.00000000E+00  0.00000000E+00  0.00000000E+00
  0.00000000E+00  0.00000000E+00  0.00000000E+00
  0.00000000E+00  0.00000000E+00  0.00000000E+00
  0.00000000E+00  0.00000000E+00  0.00000000E+00
  0.00000000E+00  0.00000000E+00  0.00000000E+00
  0.00000000E+00  0.00000000E+00  0.00000000E+00
  0.00000000E+00  0.00000000E+00  0.00000000E+00
  0.00000000E+00  0.00000000E+00  0.00000000E+00
  0.00000000E+00  0.00000000E+00  0.00000000E+00
  0.00000000E+00  0.00000000E+00  0.00000000E+00
  0.00000000E+00  0.00000000E+00  0.00000000E+00
  0.00000000E+00  0.00000000E+00  0.00000000E+00
  0.00000000E+00  0.00000000E+00  0.00000000E+00
  0.00000000E+00  0.00000000E+00  0.00000000E+00
  0.00000000E+00  0.00000000E+00  0.00000000E+00
  0.00000000E+00  0.00000000E+00  0.00000000E+00
  0.00000000E+00  0.00000000E+00  0.00000000E+00
  0.00000000E+00  0.00000000E+00  0.00000000E+00
  0.00000000E+00  0.00000000E+00  0.00000000E+00
  0.00000000E+00  0.00000000E+00  0.00000000E+00
  0.00000000E+00  0.00000000E+00  0.00000000E+00
  0.00000000E+00  0.00000000E+00  0.00000000E+00
  0.00000000E+00  0.00000000E+00  0.00000000E+00
  0.00000000E+00  0.00000000E+00  0.00000000E+00
  0.00000000E+00  0.00000000E+00  0.00000000E+00
  0.00000000E+00  0.00000000E+00  0.00000000E+00
  0.00000000E+00  0.00000000E+00  0.00000000E+00
  0.00000000E+00  0.00000000E+00  0.00000000E+00
  0.00000000E+00  0.00000000E+00  0.00000000E+00
  0.00000000E+00  0.00000000E+00  0.00000000E+00
  0.00000000E+00  0.00000000E+00  0.00000000E+00
  0.00000000E+00  0.00000000E+00  0.00000000E+00
  0.00000000E+00  0.00000000E+00  0.00000000E+00
  0.00000000E+00  0.00000000E+00  0.00000000E+00
  0.00000000E+00  0.00000000E+00  0.00000000E+00
  0.00000000E+00  0.00000000E+00  0.00000000E+00
  0.00000000E+00  0.00000000E+00  0.00000000E+00
  0.00000000E+00  0.00000000E+00  0.00000000E+00
  0.00000000E+00  0.00000000E+00  0.00000000E+00
  0.00000000E+00  0.00000000E+00  0.00000000E+00
  0.00000000E+00  0.00000000E+00  0.00000000E+00
  0.00000000E+00  0.00000000E+00  0.00000000E+00
  0.00000000E+00  0.00000000E+00  0.00000000E+00
  0.00000000E+00  0.00000000E+00  0.00000000E+00
  0.00000000E+00  0.00000000E+00  0.00000000E+00
  0.00000000E+00  0.00000000E+00  0.00000000E+00
  0.00000000E+00  0.00000000E+00  0.00000000E+00
  0.00000000E+00  0.00000000E+00  0.00000000E+00
  0.00000000E+00  0.00000000E+00  0.00000000E+00
  0.00000000E+00  0.00000000E+00  0.00000000E+00
  0.00000000E+00  0.00000000E+00  0.00000000E+00
  0.00000000E+00  0.00000000E+00  0.00000000E+00
  0.00000000E+00  0.00000000E+00  0.00000000E+00
  0.00000000E+00  0.00000000E+00  0.00000000E+00
  0.00000000E+00  0.00000000E+00  0.00000000E+00
  0.00000000E+00  0.00000000E+00  0.00000000E+00
  0.00000000E+00  0.00000000E+00  0.00000000E+00
  0.00000000E+00  0.00000000E+00  0.00000000E+00
  0.00000000E+00  0.00000000E+00  0.00000000E+00
  0.00000000E+00  0.00000000E+00  0.00000000E+00
  0.00000000E+00  0.00000000E+00  0.00000000E+00
  0.00000000E+00  0.00000000E+00  0.00000000E+00
  0.00000000E+00  0.00000000E+00  0.00000000E+00
  0.00000000E+00  0.00000000E+00  0.00000000E+00
  0.00000000E+00  0.00000000E+00  0.00000000E+00
  0.00000000E+00  0.00000000E+00  0.00000000E+00
  0.00000000E+00  0.00000000E+00  0.00000000E+00
  0.00000000E+00  0.00000000E+00  0.00000000E+00
  0.00000000E+00  0.00000000E+00  0.00000000E+00
  0.00000000E+00  0.00000000E+00  0.00000000E+00
  0.00000000E+00  0.00000000E+00  0.00000000E+00
  0.00000000E+00  0.00000000E+00  0.00000000E+00
  0.00000000E+00  0.00000000E+00  0.00000000E+00
  0.00000000E+00  0.00000000E+00  0.00000000E+00
  0.00000000E+00  0.00000000E+00  0.00000000E+00
  0.00000000E+00  0.00000000E+00  0.00000000E+00
