CeO2-you-111-you-Ca                     
   1.00000000000000     
     9.8534920346294488   -5.6889166493203716    0.0000000000000000
    -0.0000000010366359   11.3778312945882583    0.0000000000000000
     0.0000000000000000    0.0000000000000000   20.4307580790379362
   O    Ca   Ce   H 
    54     1    26     2
Selective dynamics
Direct
  0.0002445028923195 -0.0001157127684198  0.9891848834620430   T   T   T
  0.1099606526035244  0.2204780294006271  0.1476719165359724   T   T   T
  0.2252148624768497  0.1076612276125862  0.3082376075067446   T   T   T
  0.0974300706129212  0.2150293910583821  0.3896876319828088   T   T   T
  0.0003940262363292 -0.0000131299549064  0.2305422767127856   T   T   T
  0.2226711649546302  0.1112605449918889  0.0708073950537536   T   T   T
  0.3328724704014281 -0.0001421468930116  0.9884521245481536   T   T   T
  0.4449043528235014  0.2216065893710204  0.1479012166351571   T   T   T
  0.5512197545613072  0.1155757582750047  0.3086049744565739   T   T   T
  0.4480850653423207  0.2165129819211396  0.4065125954689159   T   T   T
  0.3338858796695219  0.9973549425467200  0.2293329086389482   T   T   T
  0.5555205286854402  0.1108960588968515  0.0701042692835872   T   T   T
  0.6673195657809038  0.0003752505761834  0.9881034050477233   T   T   T
  0.7779123546166563  0.2222671769422860  0.1466373019838552   T   T   T
  0.8871056773119391  0.1093741430513864  0.3052363539560209   T   T   T
  0.7780049575297531  0.2223998965800396  0.3877552383396193   T   T   T
  0.6647578791297307  0.0022263754762543  0.2300746109044217   T   T   T
  0.8888614091444197  0.1106252025049213  0.0701219635350600   T   T   T
  0.0002835423492046  0.3332206079178216  0.9884449100670831   T   T   T
  0.1120648550891633  0.5554884305677884  0.1471087556590606   T   T   T
  0.2210256520316063  0.4465044711560291  0.3066571471151855   T   T   T
  0.1111876302098759  0.5548573897048058  0.3895583820501383   T   T   T
  0.9999300593191716  0.3326935362494829  0.2292808104595586   T   T   T
  0.2226025569529265  0.4434872423543598  0.0703359890537334   T   T   T
  0.3334305240483704  0.3326161217914794  0.9883999711469463   T   T   T
  0.4457034756131876  0.5575336360302482  0.1471446661285930   T   T   T
  0.5587613078427961  0.4409715430153105  0.3086842784207352   T   T   T
  0.4513742918093627  0.5691196709134938  0.3902518158388484   T   T   T
  0.3335030161900047  0.3338598182341184  0.2269743402164894   T   T   T
  0.5553005951650600  0.4442316581279863  0.0706996344855519   T   T   T
  0.6667743639474785  0.3335281707238228  0.9888557226062250   T   T   T
  0.7776312050480666  0.5556855891642244  0.1478354314692594   T   T   T
  0.8908701657515835  0.4455824619889747  0.3061712313075496   T   T   T
  0.7799215599864380  0.5539764985034874  0.3901912366477351   T   T   T
  0.6690442062214618  0.3335508713067658  0.2292591299086846   T   T   T
  0.8894607529485358  0.4451212279370788  0.0702057750067104   T   T   T
  0.0002503156354874  0.6674421756595021  0.9888098561238233   T   T   T
  0.1110785879022697  0.8891183398287924  0.1481481578086710   T   T   T
  0.2207315743353742  0.7755316892894702  0.3065944248041156   T   T   T
  0.1116228482652326  0.8865305882377670  0.3896005674003247   T   T   T
  0.0002797946670489  0.6668057046085750  0.2292720731428208   T   T   T
  0.2222695175230172  0.7778225263012714  0.0704751827538991   T   T   T
  0.3333178843795116  0.6665432772084147  0.9889139903060841   T   T   T
  0.4450535708389562  0.8885121056126266  0.1466439827707747   T   T   T
  0.5572386006316867  0.7797801083624589  0.3053354299899891   T   T   T
  0.4434800125343164  0.8880882138181905  0.3880428673218065   T   T   T
  0.3340831096245633  0.6671974930256852  0.2296016990504726   T   T   T
  0.5568565089766243  0.7784379691512335  0.0697554648144590   T   T   T
  0.6675920087473137  0.6667615531010791  0.9883743390138086   T   T   T
  0.7773647831167956  0.8890256213980566  0.1483736561176938   T   T   T
  0.8887466067394638  0.7762908382988776  0.3074224227919130   T   T   T
  0.7763965229174732  0.8890159716535994  0.3880016995522753   T   T   T
  0.6658134502837731  0.6651747192758108  0.2303849861214510   T   T   T
  0.8889505679911252  0.7782748223938356  0.0708400968575808   T   T   T
  0.3330461809358443  0.3332927417418433  0.3502700413772585   T   T   T
  0.0009169259117431  0.0009028951195056  0.3474175178188093   T   T   T
  0.2230210454100598  0.1119688460312279  0.1903001975280475   T   T   T
  0.1115815046691422  0.2219314554159095  0.0298713654449568   T   T   T
  0.3279868591171312 -0.0072327882472814  0.3464160396221142   T   T   T
  0.5553495161357869  0.1115625470207406  0.1882315169109589   T   T   T
  0.4442127413852334  0.2221628188074932  0.0297334967872091   T   T   T
  0.6662723705785862  0.0001375301284419  0.3466725820890222   T   T   T
  0.8888799146526634  0.1113167592619784  0.1882415845292288   T   T   T
  0.7779837572540339  0.2222187132455608  0.0291720761448355   T   T   T
  0.0021486209670516  0.3321446329792404  0.3474350949571600   T   T   T
  0.2233803392429727  0.4435478258988075  0.1890223250172084   T   T   T
  0.1114470181586324  0.5554582278362213  0.0293833797798501   T   T   T
  0.5545913830049840  0.4436670683029742  0.1901258641095385   T   T   T
  0.4449066248985696  0.5552607589332706  0.0297454264633353   T   T   T
  0.6736425330392742  0.3383350111096614  0.3463975453955169   T   T   T
  0.8897945086082971  0.4447612879492699  0.1877867641148451   T   T   T
  0.7776723959512608  0.5558108329127883  0.0298560392613976   T   T   T
  0.0003628590534003  0.6656660103362232  0.3480977813480308   T   T   T
  0.2221940549028349  0.7769870417863922  0.1879182280884373   T   T   T
  0.1113544917769469  0.8892501185891689  0.0300598346564647   T   T   T
  0.3344292318969969  0.6646224690717896  0.3476874963633342   T   T   T
  0.5554360078468462  0.7779345237609085  0.1882428996184972   T   T   T
  0.4447771075523871  0.8891379578348800  0.0292159187399169   T   T   T
  0.6651142776952442  0.6650423740591624  0.3476512822804097   T   T   T
  0.8889894776267835  0.7774728620125289  0.1890694064569950   T   T   T
  0.7781065155057612  0.8890357541651036  0.0294712672869023   T   T   T
  0.3194591541781666  0.3464887218917226  0.4890027061318841   T   T   T
  0.4465123816355214  0.2187127595430036  0.4541015232957014   T   T   T
 
  0.00000000E+00  0.00000000E+00  0.00000000E+00
  0.00000000E+00  0.00000000E+00  0.00000000E+00
  0.00000000E+00  0.00000000E+00  0.00000000E+00
  0.00000000E+00  0.00000000E+00  0.00000000E+00
  0.00000000E+00  0.00000000E+00  0.00000000E+00
  0.00000000E+00  0.00000000E+00  0.00000000E+00
  0.00000000E+00  0.00000000E+00  0.00000000E+00
  0.00000000E+00  0.00000000E+00  0.00000000E+00
  0.00000000E+00  0.00000000E+00  0.00000000E+00
  0.00000000E+00  0.00000000E+00  0.00000000E+00
  0.00000000E+00  0.00000000E+00  0.00000000E+00
  0.00000000E+00  0.00000000E+00  0.00000000E+00
  0.00000000E+00  0.00000000E+00  0.00000000E+00
  0.00000000E+00  0.00000000E+00  0.00000000E+00
  0.00000000E+00  0.00000000E+00  0.00000000E+00
  0.00000000E+00  0.00000000E+00  0.00000000E+00
  0.00000000E+00  0.00000000E+00  0.00000000E+00
  0.00000000E+00  0.00000000E+00  0.00000000E+00
  0.00000000E+00  0.00000000E+00  0.00000000E+00
  0.00000000E+00  0.00000000E+00  0.00000000E+00
  0.00000000E+00  0.00000000E+00  0.00000000E+00
  0.00000000E+00  0.00000000E+00  0.00000000E+00
  0.00000000E+00  0.00000000E+00  0.00000000E+00
  0.00000000E+00  0.00000000E+00  0.00000000E+00
  0.00000000E+00  0.00000000E+00  0.00000000E+00
  0.00000000E+00  0.00000000E+00  0.00000000E+00
  0.00000000E+00  0.00000000E+00  0.00000000E+00
  0.00000000E+00  0.00000000E+00  0.00000000E+00
  0.00000000E+00  0.00000000E+00  0.00000000E+00
  0.00000000E+00  0.00000000E+00  0.00000000E+00
  0.00000000E+00  0.00000000E+00  0.00000000E+00
  0.00000000E+00  0.00000000E+00  0.00000000E+00
  0.00000000E+00  0.00000000E+00  0.00000000E+00
  0.00000000E+00  0.00000000E+00  0.00000000E+00
  0.00000000E+00  0.00000000E+00  0.00000000E+00
  0.00000000E+00  0.00000000E+00  0.00000000E+00
  0.00000000E+00  0.00000000E+00  0.00000000E+00
  0.00000000E+00  0.00000000E+00  0.00000000E+00
  0.00000000E+00  0.00000000E+00  0.00000000E+00
  0.00000000E+00  0.00000000E+00  0.00000000E+00
  0.00000000E+00  0.00000000E+00  0.00000000E+00
  0.00000000E+00  0.00000000E+00  0.00000000E+00
  0.00000000E+00  0.00000000E+00  0.00000000E+00
  0.00000000E+00  0.00000000E+00  0.00000000E+00
  0.00000000E+00  0.00000000E+00  0.00000000E+00
  0.00000000E+00  0.00000000E+00  0.00000000E+00
  0.00000000E+00  0.00000000E+00  0.00000000E+00
  0.00000000E+00  0.00000000E+00  0.00000000E+00
  0.00000000E+00  0.00000000E+00  0.00000000E+00
  0.00000000E+00  0.00000000E+00  0.00000000E+00
  0.00000000E+00  0.00000000E+00  0.00000000E+00
  0.00000000E+00  0.00000000E+00  0.00000000E+00
  0.00000000E+00  0.00000000E+00  0.00000000E+00
  0.00000000E+00  0.00000000E+00  0.00000000E+00
  0.00000000E+00  0.00000000E+00  0.00000000E+00
  0.00000000E+00  0.00000000E+00  0.00000000E+00
  0.00000000E+00  0.00000000E+00  0.00000000E+00
  0.00000000E+00  0.00000000E+00  0.00000000E+00
  0.00000000E+00  0.00000000E+00  0.00000000E+00
  0.00000000E+00  0.00000000E+00  0.00000000E+00
  0.00000000E+00  0.00000000E+00  0.00000000E+00
  0.00000000E+00  0.00000000E+00  0.00000000E+00
  0.00000000E+00  0.00000000E+00  0.00000000E+00
  0.00000000E+00  0.00000000E+00  0.00000000E+00
  0.00000000E+00  0.00000000E+00  0.00000000E+00
  0.00000000E+00  0.00000000E+00  0.00000000E+00
  0.00000000E+00  0.00000000E+00  0.00000000E+00
  0.00000000E+00  0.00000000E+00  0.00000000E+00
  0.00000000E+00  0.00000000E+00  0.00000000E+00
  0.00000000E+00  0.00000000E+00  0.00000000E+00
  0.00000000E+00  0.00000000E+00  0.00000000E+00
  0.00000000E+00  0.00000000E+00  0.00000000E+00
  0.00000000E+00  0.00000000E+00  0.00000000E+00
  0.00000000E+00  0.00000000E+00  0.00000000E+00
  0.00000000E+00  0.00000000E+00  0.00000000E+00
  0.00000000E+00  0.00000000E+00  0.00000000E+00
  0.00000000E+00  0.00000000E+00  0.00000000E+00
  0.00000000E+00  0.00000000E+00  0.00000000E+00
  0.00000000E+00  0.00000000E+00  0.00000000E+00
  0.00000000E+00  0.00000000E+00  0.00000000E+00
  0.00000000E+00  0.00000000E+00  0.00000000E+00
  0.00000000E+00  0.00000000E+00  0.00000000E+00
  0.00000000E+00  0.00000000E+00  0.00000000E+00
