CeO2-you-111-you-Zr                     
   1.00000000000000     
     9.8343272895089822   -5.6778518748011262    0.0000000007797193
     0.0358503602915950   11.4177963927247941    0.0149206925471127
     0.0161792043387333    0.0280231992128634   20.7576393233337235
   O    Zr   Ce   H 
    53     1    26     2
Selective dynamics
Direct
  0.9989978039964373  0.9997205845928639  0.9937760361405223   T   T   T
  0.1111836433040310  0.2224447423159290  0.1479715033386242   F   F   F
  0.2334303476079155  0.1185241773971221  0.3046874562631412   T   T   T
  0.1233767803306640  0.2248614381258081  0.3814635365448190   T   T   T
  0.0023244105212115  0.0002928430415349  0.2291985329935673   T   T   T
  0.2214770089804503  0.1096210179610821  0.0716661334264330   F   F   F
  0.3342104762823415  0.9995880150624905  0.9933832758693493   T   T   T
  0.4445940990118586  0.2224447423160285  0.1479715033387023   F   F   F
  0.5505798143583491  0.1188034019001389  0.3074786978445754   T   T   T
  0.4283175948406369  0.2285974610880568  0.3984313012136661   T   T   T
  0.3311903620509455  0.9977001093443342  0.2283090666356780   T   T   T
  0.5571820572542592  0.1114950117798799  0.0742265817689542   F   F   F
  0.6663879154793408 -0.0008043378570953  0.9937952538280685   T   T   T
  0.7794036631091430  0.2254733262182640  0.1521018060421184   F   F   F
  0.8915541259785061  0.1126139393892958  0.3050071937372765   T   T   T
  0.7791315154362638  0.2235837908565473  0.3853459587056283   T   T   T
  0.6655589356229312  0.0020021332644313  0.2319210287595125   T   T   T
  0.8876469545256143  0.1114950117799580  0.0742265817689400   F   F   F
  0.0004005722836856  0.3327344059340894  0.9936200338546349   T   T   T
  0.1102651462220052  0.5542397301940269  0.1488282094851812   F   F   F
  0.2350856014954756  0.4404191225232550  0.3062085274060385   T   T   T
  0.0971765941837974  0.5445790595960202  0.3863202865586435   T   T   T
  0.0051836688089534  0.3350982137613713  0.2312943491385586   T   T   T
  0.2231658061141815  0.4451630203264330  0.0743603035860616   F   F   F
  0.3333932436471329  0.3332903336571885  0.9936792824383758   T   T   T
  0.4442818991342889  0.5552317982686290  0.1508219486987983   F   F   F
  0.5352036067000070  0.4296860416802563  0.3086075097938046   T   T   T
  0.3286266605980361  0.3276216972701525  0.2292517000646687   T   T   T
  0.5553312142122024  0.4451630203264472  0.0743603035860616   F   F   F
  0.6660430421900456  0.3331175840500276  0.9934815421296741   T   T   T
  0.7773075839723376  0.5542397301941193  0.1488282094851812   F   F   F
  0.8883582715587944  0.4422503455202664  0.3032673307699666   T   T   T
  0.7821405394513515  0.5451402083654268  0.3872439529276238   T   T   T
  0.6659689235813737  0.3362387012459324  0.2306098763068545   T   T   T
  0.8884635991113967  0.4435931982227928  0.0732941429289937   F   F   F
  0.0002127964019447  0.6671024754666341  0.9932619061331669   T   T   T
  0.1105015996533112  0.8876701993063278  0.1468042924541137   F   F   F
  0.2187881885992647  0.7792814623657697  0.3053640850032075   T   T   T
  0.1133139499990237  0.8912040994908785  0.3872323720029113   T   T   T
 -0.0003592988356766  0.6670752325556482  0.2288746230376558   T   T   T
  0.2228298089419241  0.7769151166437354  0.0732557701025058   F   F   F
  0.3338898956200445  0.6665948208400900  0.9933851968207809   T   T   T
  0.4462706661303102  0.8901607913542335  0.1496451079478049   F   F   F
  0.5570976603357637  0.7795432114532779  0.3086032330963568   T   T   T
  0.4481596093312880  0.9032449569903089  0.3886475918482664   T   T   T
  0.3320417178493687  0.6667232139028609  0.2288235097268002   T   T   T
  0.5549852398103141  0.7766364796204996  0.0744861405341268   F   F   F
  0.6659640735287731  0.6665653211990231  0.9934392745771163   T   T   T
  0.7772231252239479  0.8901607913544041  0.1496451079477765   F   F   F
  0.8946345413310414  0.7801354734105929  0.3058414805327540   T   T   T
  0.7883223952855626  0.9037482969583234  0.3889166816538402   T   T   T
  0.6675423351984414  0.6644522778306995  0.2293327540376363   T   T   T
  0.8874183077018785  0.7769151166438206  0.0732557701024632   F   F   F
  0.3201067488618803  0.3232588952981387  0.3322114170108605   T   T   T
  0.0019332901364969  0.0011708525280073  0.3461631654592194   T   T   T
  0.2198575027083791  0.1063820054160374  0.1852817759569874   F   F   F
  0.1107280530565475  0.2225816634336510  0.0333006348491196   F   F   F
  0.3286162132903557  0.9931907651368620  0.3452040736008985   T   T   T
  0.5548514769346653  0.1116554556092595  0.1903903908688491   F   F   F
  0.4451866103770996  0.2225816634337008  0.0333006348491338   F   F   F
  0.6677663252767025  0.0005862010077230  0.3473712703126577   T   T   T
  0.8901379786748933  0.1116554556092169  0.1903903908688847   F   F   F
  0.7779880052320038  0.2226420104639146  0.0344998242775674   F   F   F
  0.0025972948760826  0.3321680576522665  0.3456819415600418   T   T   T
  0.2243161508719496  0.4457123346240337  0.1902005297370337   F   F   F
  0.1116341800766349  0.5553772836539750  0.0339021433880546   F   F   F
  0.5547301837516940  0.4457123346236429  0.1902005297370195   F   F   F
  0.4447454090541001  0.5561588181081802  0.0338112514737858   F   F   F
  0.6722855165675473  0.3373210321736525  0.3443210243946827   T   T   T
  0.8895949159792735  0.4458558319589443  0.1904641370120359   F   F   F
  0.7770761035773006  0.5553772836540247  0.0339021433880475   F   F   F
  0.9991122173368175  0.6642623290472331  0.3453329516272244   T   T   T
  0.2223766209217146  0.7776042693107001  0.1886367865544969   F   F   F
  0.1105636044744926  0.8877942089489750  0.0319581113971665   F   F   F
  0.3302759431733708  0.6677043268868420  0.3486211032053099   T   T   T
  0.5560030947241899  0.7786721894485140  0.1920042697485016   F   F   F
  0.4452777824736600  0.8888632139344352  0.0341499444097551   F   F   F
  0.6713447238193466  0.6669452716551010  0.3481372848506997   T   T   T
  0.8885606483887543  0.7776042693105154  0.1886367865545253   F   F   F
  0.7769184314608495  0.8888632139344281  0.0341499444097622   F   F   F
  0.4195218179405643  0.5089302254239010  0.3939911048373227   T   T   T
  0.4249310880926693  0.2395654808500920  0.4447297932737155   T   T   T
 
  0.00000000E+00  0.00000000E+00  0.00000000E+00
  0.00000000E+00  0.00000000E+00  0.00000000E+00
  0.00000000E+00  0.00000000E+00  0.00000000E+00
  0.00000000E+00  0.00000000E+00  0.00000000E+00
  0.00000000E+00  0.00000000E+00  0.00000000E+00
  0.00000000E+00  0.00000000E+00  0.00000000E+00
  0.00000000E+00  0.00000000E+00  0.00000000E+00
  0.00000000E+00  0.00000000E+00  0.00000000E+00
  0.00000000E+00  0.00000000E+00  0.00000000E+00
  0.00000000E+00  0.00000000E+00  0.00000000E+00
  0.00000000E+00  0.00000000E+00  0.00000000E+00
  0.00000000E+00  0.00000000E+00  0.00000000E+00
  0.00000000E+00  0.00000000E+00  0.00000000E+00
  0.00000000E+00  0.00000000E+00  0.00000000E+00
  0.00000000E+00  0.00000000E+00  0.00000000E+00
  0.00000000E+00  0.00000000E+00  0.00000000E+00
  0.00000000E+00  0.00000000E+00  0.00000000E+00
  0.00000000E+00  0.00000000E+00  0.00000000E+00
  0.00000000E+00  0.00000000E+00  0.00000000E+00
  0.00000000E+00  0.00000000E+00  0.00000000E+00
  0.00000000E+00  0.00000000E+00  0.00000000E+00
  0.00000000E+00  0.00000000E+00  0.00000000E+00
  0.00000000E+00  0.00000000E+00  0.00000000E+00
  0.00000000E+00  0.00000000E+00  0.00000000E+00
  0.00000000E+00  0.00000000E+00  0.00000000E+00
  0.00000000E+00  0.00000000E+00  0.00000000E+00
  0.00000000E+00  0.00000000E+00  0.00000000E+00
  0.00000000E+00  0.00000000E+00  0.00000000E+00
  0.00000000E+00  0.00000000E+00  0.00000000E+00
  0.00000000E+00  0.00000000E+00  0.00000000E+00
  0.00000000E+00  0.00000000E+00  0.00000000E+00
  0.00000000E+00  0.00000000E+00  0.00000000E+00
  0.00000000E+00  0.00000000E+00  0.00000000E+00
  0.00000000E+00  0.00000000E+00  0.00000000E+00
  0.00000000E+00  0.00000000E+00  0.00000000E+00
  0.00000000E+00  0.00000000E+00  0.00000000E+00
  0.00000000E+00  0.00000000E+00  0.00000000E+00
  0.00000000E+00  0.00000000E+00  0.00000000E+00
  0.00000000E+00  0.00000000E+00  0.00000000E+00
  0.00000000E+00  0.00000000E+00  0.00000000E+00
  0.00000000E+00  0.00000000E+00  0.00000000E+00
  0.00000000E+00  0.00000000E+00  0.00000000E+00
  0.00000000E+00  0.00000000E+00  0.00000000E+00
  0.00000000E+00  0.00000000E+00  0.00000000E+00
  0.00000000E+00  0.00000000E+00  0.00000000E+00
  0.00000000E+00  0.00000000E+00  0.00000000E+00
  0.00000000E+00  0.00000000E+00  0.00000000E+00
  0.00000000E+00  0.00000000E+00  0.00000000E+00
  0.00000000E+00  0.00000000E+00  0.00000000E+00
  0.00000000E+00  0.00000000E+00  0.00000000E+00
  0.00000000E+00  0.00000000E+00  0.00000000E+00
  0.00000000E+00  0.00000000E+00  0.00000000E+00
  0.00000000E+00  0.00000000E+00  0.00000000E+00
  0.00000000E+00  0.00000000E+00  0.00000000E+00
  0.00000000E+00  0.00000000E+00  0.00000000E+00
  0.00000000E+00  0.00000000E+00  0.00000000E+00
  0.00000000E+00  0.00000000E+00  0.00000000E+00
  0.00000000E+00  0.00000000E+00  0.00000000E+00
  0.00000000E+00  0.00000000E+00  0.00000000E+00
  0.00000000E+00  0.00000000E+00  0.00000000E+00
  0.00000000E+00  0.00000000E+00  0.00000000E+00
  0.00000000E+00  0.00000000E+00  0.00000000E+00
  0.00000000E+00  0.00000000E+00  0.00000000E+00
  0.00000000E+00  0.00000000E+00  0.00000000E+00
  0.00000000E+00  0.00000000E+00  0.00000000E+00
  0.00000000E+00  0.00000000E+00  0.00000000E+00
  0.00000000E+00  0.00000000E+00  0.00000000E+00
  0.00000000E+00  0.00000000E+00  0.00000000E+00
  0.00000000E+00  0.00000000E+00  0.00000000E+00
  0.00000000E+00  0.00000000E+00  0.00000000E+00
  0.00000000E+00  0.00000000E+00  0.00000000E+00
  0.00000000E+00  0.00000000E+00  0.00000000E+00
  0.00000000E+00  0.00000000E+00  0.00000000E+00
  0.00000000E+00  0.00000000E+00  0.00000000E+00
  0.00000000E+00  0.00000000E+00  0.00000000E+00
  0.00000000E+00  0.00000000E+00  0.00000000E+00
  0.00000000E+00  0.00000000E+00  0.00000000E+00
  0.00000000E+00  0.00000000E+00  0.00000000E+00
  0.00000000E+00  0.00000000E+00  0.00000000E+00
  0.00000000E+00  0.00000000E+00  0.00000000E+00
  0.00000000E+00  0.00000000E+00  0.00000000E+00
  0.00000000E+00  0.00000000E+00  0.00000000E+00
