CeO2-you-111-you-Mn                     
   1.00000000000000     
     9.7786396418024477   -5.6457006019096942    0.0000000000000000
     0.0000000078559077   11.2913992303794508    0.0000000000000000
     0.0000000000000000    0.0000000000000000   21.3088512900609395
   O    Mn   Ce   H 
    54     1    26     2
Selective dynamics
Direct
  0.0004804694031090  0.0007788477879511  0.9957688587549893   T   T   T
  0.1056859662862784  0.2192929115483035  0.1482846105663578   T   T   T
  0.2546199643102252  0.1439218218368789  0.3097674859810063   T   T   T
  0.1361434987430803  0.2420305361841393  0.3765482872586012   T   T   T
  0.0096331997909469  0.0041567416167483  0.2328831183312125   T   T   T
  0.2237841476540945  0.1130337514309012  0.0756364246250049   T   T   T
  0.3323202562479958  0.0003118521738243  0.9952777961769150   T   T   T
  0.4467264228882576  0.2202605050084195  0.1491264614987619   T   T   T
  0.5539501860338408  0.1127602075724986  0.3039465497929423   T   T   T
  0.4725966414184598  0.1944521408506133  0.4085320808794697   T   T   T
  0.3305214869277279 -0.0002088790055025  0.2299349901516949   T   T   T
  0.5556178617590488  0.1106474659321004  0.0742130683930185   T   T   T
  0.6666255288898481 -0.0001540303424684  0.9942729114994882   T   T   T
  0.7750733543083532  0.2201410469745931  0.1495143648200462   T   T   T
  0.8937738181538512  0.1115266780685102  0.3046656459654926   T   T   T
  0.7805717812226529  0.2217486932845863  0.3811350696987388   T   T   T
  0.6668018067779578 -0.0006383042023294  0.2314131405075029   T   T   T
  0.8854837142302264  0.1084889027018726  0.0753287018852497   T   T   T
 -0.0005747322417014  0.3324476269729014  0.9955275424362670   T   T   T
  0.1095420632714253  0.5569778155193763  0.1487442113878078   T   T   T
  0.2177512900301166  0.4486154296170065  0.2964643088724827   T   T   T
  0.1099777146619720  0.5557605627383286  0.3829517288149997   T   T   T
 -0.0048458631370586  0.3314216095470079  0.2277175620130752   T   T   T
  0.2220375014200917  0.4449060522170829  0.0744260264911795   T   T   T
  0.3329202142196363  0.3336222308065775  0.9953966760345397   T   T   T
  0.4474120411516073  0.5606942041485062  0.1481691825622059   T   T   T
  0.5233142856018366  0.4129769552802773  0.3092463528361824   T   T   T
  0.4239065905512625  0.5299775384946367  0.3766720264511024   T   T   T
  0.3313763113314562  0.3360063356153820  0.2204578476736964   T   T   T
  0.5546432440618931  0.4439506366726300  0.0752888137500157   T   T   T
  0.6664272101219670  0.3341949327268453  0.9950392936269630   T   T   T
  0.7775277771372583  0.5563415850383644  0.1493984276574560   T   T   T
  0.8903256046550246  0.4467460493570766  0.3033947301681716   T   T   T
  0.7709841352986527  0.5517423036733258  0.3807274074786208   T   T   T
  0.6670871695981321  0.3354707668132408  0.2299775859985741   T   T   T
  0.8880461279489481  0.4435285987827056  0.0748276786307183   T   T   T
  0.0000717203911272  0.6674975871709925  0.9958262659870036   T   T   T
  0.1098478467557072  0.8896682729617330  0.1495165575557091   T   T   T
  0.2199655517142400  0.7765350078879448  0.3035302599538148   T   T   T
  0.1149442544636221  0.8956879618562075  0.3810841818992550   T   T   T
 -0.0004049493451320  0.6672995731379305  0.2292527294581793   T   T   T
  0.2232755620041346  0.7787025092943283  0.0749942431861818   T   T   T
  0.3340908222109529  0.6672221529498440  0.9950060991257071   T   T   T
  0.4459571018478031  0.8911414304276555  0.1497447042591031   T   T   T
  0.5540349929274239  0.7720727499045255  0.3046387228207931   T   T   T
  0.4445749153565475  0.8857285343047273  0.3813678277044363   T   T   T
  0.3348940984955118  0.6709437972941816  0.2277375983282863   T   T   T
  0.5573684171451532  0.7806426314134902  0.0752132257772920   T   T   T
  0.6668703791450284  0.6669804031804721  0.9955499911484604   T   T   T
  0.7788951395540454  0.8875441651774908  0.1525460296627679   T   T   T
  0.8885815344717184  0.7787155051484397  0.3042565419894409   T   T   T
  0.7772787940441905  0.8873983375925251  0.3824989742318877   T   T   T
  0.6629508546256957  0.6572106735860832  0.2327319594084566   T   T   T
  0.8887132575627114  0.7787892468821598  0.0755666192103841   T   T   T
  0.3259680366635421  0.3408767677675195  0.3357295494229357   T   T   T
  0.0092864936248109  0.0088634530198829  0.3429687558763320   T   T   T
  0.2254339175699666  0.1154481707798004  0.1894630683676314   T   T   T
  0.1104688029175328  0.2218330693147362  0.0354757468402461   T   T   T
  0.3349512637881950 -0.0016343292091661  0.3433495446593546   T   T   T
  0.5555447436957421  0.1108562618518069  0.1898136870838083   T   T   T
  0.4445193270915971  0.2224540623115607  0.0347771942826671   T   T   T
  0.6683703905521590 -0.0023401349077089  0.3443845132680178   T   T   T
  0.8889796025576107  0.1111315993912168  0.1899384751433866   T   T   T
  0.7767947070204759  0.2213288907088307  0.0349589299587526   T   T   T
  0.0055801772437692  0.3369535462201997  0.3410660026978032   T   T   T
  0.2211303317870037  0.4454273592767790  0.1874285729945969   T   T   T
  0.1108118829554652  0.5559076426579173  0.0349685320960936   T   T   T
  0.5515915566753653  0.4413321635533545  0.1893607748200363   T   T   T
  0.4448176913447469  0.5562393147583736  0.0352411756746526   T   T   T
  0.6682173270998120  0.3316229067369516  0.3431924986405369   T   T   T
  0.8872796296034942  0.4440871582846586  0.1886676284185152   T   T   T
  0.7775019871419764  0.5559042354161945  0.0359120211840630   T   T   T
 -0.0008648457431959  0.6673547743087823  0.3417576005976122   T   T   T
  0.2223160631055306  0.7793268569101260  0.1887178565082849   T   T   T
  0.1111783500991212  0.8896594795592512  0.0360753298083952   T   T   T
  0.3292343519350053  0.6606304694239211  0.3411159799660263   T   T   T
  0.5550970340688459  0.7772442046181783  0.1898705341109659   T   T   T
  0.4451188759134685  0.8896072794044709  0.0348824560053748   T   T   T
  0.6575605162009761  0.6573361975608389  0.3428826424489011   T   T   T
  0.8894161905166976  0.7773463325694547  0.1910040693341508   T   T   T
  0.7777242009280407  0.8889633259843046  0.0354681448762231   T   T   T
  0.3296431822639961  0.3373362059622087  0.4639947792264621   T   T   T
  0.4360801272793190  0.2305430721519138  0.4399314343104805   T   T   T
 
  0.00000000E+00  0.00000000E+00  0.00000000E+00
  0.00000000E+00  0.00000000E+00  0.00000000E+00
  0.00000000E+00  0.00000000E+00  0.00000000E+00
  0.00000000E+00  0.00000000E+00  0.00000000E+00
  0.00000000E+00  0.00000000E+00  0.00000000E+00
  0.00000000E+00  0.00000000E+00  0.00000000E+00
  0.00000000E+00  0.00000000E+00  0.00000000E+00
  0.00000000E+00  0.00000000E+00  0.00000000E+00
  0.00000000E+00  0.00000000E+00  0.00000000E+00
  0.00000000E+00  0.00000000E+00  0.00000000E+00
  0.00000000E+00  0.00000000E+00  0.00000000E+00
  0.00000000E+00  0.00000000E+00  0.00000000E+00
  0.00000000E+00  0.00000000E+00  0.00000000E+00
  0.00000000E+00  0.00000000E+00  0.00000000E+00
  0.00000000E+00  0.00000000E+00  0.00000000E+00
  0.00000000E+00  0.00000000E+00  0.00000000E+00
  0.00000000E+00  0.00000000E+00  0.00000000E+00
  0.00000000E+00  0.00000000E+00  0.00000000E+00
  0.00000000E+00  0.00000000E+00  0.00000000E+00
  0.00000000E+00  0.00000000E+00  0.00000000E+00
  0.00000000E+00  0.00000000E+00  0.00000000E+00
  0.00000000E+00  0.00000000E+00  0.00000000E+00
  0.00000000E+00  0.00000000E+00  0.00000000E+00
  0.00000000E+00  0.00000000E+00  0.00000000E+00
  0.00000000E+00  0.00000000E+00  0.00000000E+00
  0.00000000E+00  0.00000000E+00  0.00000000E+00
  0.00000000E+00  0.00000000E+00  0.00000000E+00
  0.00000000E+00  0.00000000E+00  0.00000000E+00
  0.00000000E+00  0.00000000E+00  0.00000000E+00
  0.00000000E+00  0.00000000E+00  0.00000000E+00
  0.00000000E+00  0.00000000E+00  0.00000000E+00
  0.00000000E+00  0.00000000E+00  0.00000000E+00
  0.00000000E+00  0.00000000E+00  0.00000000E+00
  0.00000000E+00  0.00000000E+00  0.00000000E+00
  0.00000000E+00  0.00000000E+00  0.00000000E+00
  0.00000000E+00  0.00000000E+00  0.00000000E+00
  0.00000000E+00  0.00000000E+00  0.00000000E+00
  0.00000000E+00  0.00000000E+00  0.00000000E+00
  0.00000000E+00  0.00000000E+00  0.00000000E+00
  0.00000000E+00  0.00000000E+00  0.00000000E+00
  0.00000000E+00  0.00000000E+00  0.00000000E+00
  0.00000000E+00  0.00000000E+00  0.00000000E+00
  0.00000000E+00  0.00000000E+00  0.00000000E+00
  0.00000000E+00  0.00000000E+00  0.00000000E+00
  0.00000000E+00  0.00000000E+00  0.00000000E+00
  0.00000000E+00  0.00000000E+00  0.00000000E+00
  0.00000000E+00  0.00000000E+00  0.00000000E+00
  0.00000000E+00  0.00000000E+00  0.00000000E+00
  0.00000000E+00  0.00000000E+00  0.00000000E+00
  0.00000000E+00  0.00000000E+00  0.00000000E+00
  0.00000000E+00  0.00000000E+00  0.00000000E+00
  0.00000000E+00  0.00000000E+00  0.00000000E+00
  0.00000000E+00  0.00000000E+00  0.00000000E+00
  0.00000000E+00  0.00000000E+00  0.00000000E+00
  0.00000000E+00  0.00000000E+00  0.00000000E+00
  0.00000000E+00  0.00000000E+00  0.00000000E+00
  0.00000000E+00  0.00000000E+00  0.00000000E+00
  0.00000000E+00  0.00000000E+00  0.00000000E+00
  0.00000000E+00  0.00000000E+00  0.00000000E+00
  0.00000000E+00  0.00000000E+00  0.00000000E+00
  0.00000000E+00  0.00000000E+00  0.00000000E+00
  0.00000000E+00  0.00000000E+00  0.00000000E+00
  0.00000000E+00  0.00000000E+00  0.00000000E+00
  0.00000000E+00  0.00000000E+00  0.00000000E+00
  0.00000000E+00  0.00000000E+00  0.00000000E+00
  0.00000000E+00  0.00000000E+00  0.00000000E+00
  0.00000000E+00  0.00000000E+00  0.00000000E+00
  0.00000000E+00  0.00000000E+00  0.00000000E+00
  0.00000000E+00  0.00000000E+00  0.00000000E+00
  0.00000000E+00  0.00000000E+00  0.00000000E+00
  0.00000000E+00  0.00000000E+00  0.00000000E+00
  0.00000000E+00  0.00000000E+00  0.00000000E+00
  0.00000000E+00  0.00000000E+00  0.00000000E+00
  0.00000000E+00  0.00000000E+00  0.00000000E+00
  0.00000000E+00  0.00000000E+00  0.00000000E+00
  0.00000000E+00  0.00000000E+00  0.00000000E+00
  0.00000000E+00  0.00000000E+00  0.00000000E+00
  0.00000000E+00  0.00000000E+00  0.00000000E+00
  0.00000000E+00  0.00000000E+00  0.00000000E+00
  0.00000000E+00  0.00000000E+00  0.00000000E+00
  0.00000000E+00  0.00000000E+00  0.00000000E+00
  0.00000000E+00  0.00000000E+00  0.00000000E+00
  0.00000000E+00  0.00000000E+00  0.00000000E+00
