CeO2-you-111-you-Sn                     
   1.00000000000000     
     9.8640250291010698   -5.6847766235709063    0.0155577159224762
    -0.0000000017831777   11.3695512432543602   -0.0000000018048825
     0.0342281142367323   -0.0000000034426834   20.6411019266840370
   O    Sn   Ce   H 
    53     1    26     2
Selective dynamics
Direct
  0.0020364690255523  0.0014014140863562  0.9906624516621524   T   T   T
  0.1235525534389358  0.2263658250281018  0.1511669363383836   T   T   T
  0.2191265472719603  0.1297632844622985  0.3087438606394487   T   T   T
  0.1391756935822403  0.2350024746194769  0.4052930468670479   T   T   T
  0.0032457087706138 -0.0015467197465760  0.2282739868722072   T   T   T
  0.2237751484498684  0.1102365928786606  0.0708717092592943   T   T   T
  0.3374653010601905  0.0003425621357088  0.9900337707136777   T   T   T
  0.4451916769939485  0.2215118826729258  0.1452446741547037   T   T   T
  0.5544944396762704  0.1070272330547582  0.3063436000560408   T   T   T
  0.4374377732151725  0.2643463711233518  0.3919064637795635   T   T   T
  0.3301394458241953  0.0020605114786715  0.2294574939947050   T   T   T
  0.5574362773640751  0.1096666332004773  0.0720148209416895   T   T   T
  0.6722325987054819  0.0011592735132633  0.9920089344910398   T   T   T
  0.7743917256843540  0.2231134178387586  0.1509334955556503   T   T   T
  0.8965142392733648  0.1083235653640532  0.3078723354352829   T   T   T
  0.7677913705758804  0.2049944484488516  0.3951887004294479   T   T   T
  0.6711343247484017 -0.0000419657390878  0.2302186007570925   T   T   T
  0.8932518697722006  0.1117214684128683  0.0756914028499227   T   T   T
  0.0013664706783881  0.3298956058956443  0.9906753626343852   T   T   T
  0.1142722779738247  0.5565115818058665  0.1478979465024627   T   T   T
  0.2157661256575293  0.4300237010706166  0.3039727229846557   T   T   T
  0.1231193912446508  0.5690719878280435  0.3902693923743353   T   T   T
 -0.0003103789595314  0.3318806830011193  0.2253856356718280   T   T   T
  0.2226061591121047  0.4435085487274046  0.0706052701869007   T   T   T
  0.3352290226952541  0.3327875155782141  0.9896166238581883   T   T   T
  0.4433848208279222  0.5542200445297555  0.1451580758889322   T   T   T
  0.4368091946595730  0.5164073851521812  0.3789648994522762   T   T   T
  0.3659375910830651  0.3480661582618756  0.2391518881538310   T   T   T
  0.5588937160136369  0.4449559527541848  0.0676532188498006   T   T   T
  0.6713963438216897  0.3327302437512222  0.9900531750583004   T   T   T
  0.7831411953946659  0.5570234962450453  0.1438505485364600   T   T   T
  0.8954359608954201  0.4467498875977778  0.3047517795147491   T   T   T
  0.7868688075871278  0.5576402682538654  0.3893880245327856   T   T   T
  0.6608457952538634  0.3431552428135900  0.2328003735258055   T   T   T
  0.8932760322089617  0.4440960360026472  0.0711833606067102   T   T   T
  0.0041339593212039  0.6671553043114421  0.9898466520264181   T   T   T
  0.1129161516869401  0.8891681103721816  0.1474429629622979   T   T   T
  0.2219159712769284  0.7750028557167189  0.3041473523694059   T   T   T
  0.0982566313400324  0.8838869844199898  0.3890113247460218   T   T   T
  0.0004122492312963  0.6668647650207776  0.2281314826666701   T   T   T
  0.2257053519025579  0.7782240783263905  0.0716179128793741   T   T   T
  0.3371850861868189  0.6674157113906642  0.9899077134139705   T   T   T
  0.4469319142334139  0.8890936737665734  0.1511506379134712   T   T   T
  0.5522411823561446  0.7768065403148970  0.3063280617338310   T   T   T
  0.4443017707058849  0.8763746212924617  0.3911450658298233   T   T   T
  0.3319892127229430  0.6617523107532211  0.2303243760101402   T   T   T
  0.5576690398825299  0.7782145440742340  0.0721312466164960   T   T   T
  0.6705686982157658  0.6693221366585541  0.9893291985743360   T   T   T
  0.7762966702684999  0.8828303636639506  0.1507299250592842   T   T   T
  0.8915956627438156  0.7800068710278679  0.3037738784222392   T   T   T
  0.7827094164656629  0.8954499480079182  0.3921210889687599   T   T   T
  0.6598454055363563  0.6487627906901878  0.2323377051568890   T   T   T
  0.8920217713958524  0.7793496825343844  0.0705250676713572   T   T   T
  0.3144364085476932  0.3316381664250841  0.3384015471636518   T   T   T
 -0.0063107511195575 -0.0105256504116726  0.3453776578168143   T   T   T
  0.2257491853337185  0.1112576109798642  0.1892919272049129   T   T   T
  0.1139344737963351  0.2219847509113260  0.0313462598521383   T   T   T
  0.3287568926304757 -0.0071559798313358  0.3492832626292845   T   T   T
  0.5562390631873065  0.1116504657615600  0.1922824418066884   T   T   T
  0.4467302382995220  0.2201243698993469  0.0293959082401242   T   T   T
  0.6649404201354085 -0.0030076371387218  0.3490120079086192   T   T   T
  0.8912102951475749  0.1113148192147669  0.1914675337713458   T   T   T
  0.7806948659023933  0.2219399124020627  0.0330057013470860   T   T   T
 -0.0031008289831826  0.3347986290372992  0.3521302937542213   T   T   T
  0.2230403160341562  0.4452790518235902  0.1887660980090391   T   T   T
  0.1138924267664993  0.5549902663531678  0.0312916916281113   T   T   T
  0.5609379708346427  0.4464335582020967  0.1792849928093432   T   T   T
  0.4464378373215075  0.5570590467732361  0.0291435567296625   T   T   T
  0.6794592563212164  0.3305459387148736  0.3511430039810429   T   T   T
  0.8905298767238780  0.4444354036188639  0.1897496691054049   T   T   T
  0.7831977702613961  0.5569276854850178  0.0286023386098670   T   T   T
 -0.0005049594225503  0.6656959964044242  0.3469234449888771   T   T   T
  0.2229938110060852  0.7779107429877763  0.1888749693904244   T   T   T
  0.1141345499630427  0.8897834549340926  0.0314053609126912   T   T   T
  0.3314304655545380  0.6656799735445376  0.3460581686297690   T   T   T
  0.5565729122323351  0.7751974761400416  0.1915922088816935   T   T   T
  0.4484612754812738  0.8895973266281766  0.0328019250238005   T   T   T
  0.6717038548244807  0.6717268351359739  0.3538907494676923   T   T   T
  0.8896409596647039  0.7758135350307385  0.1890022764668523   T   T   T
  0.7805272386108599  0.8890956393828607  0.0324550903832840   T   T   T
  0.1615112099972771  0.2410504095531333  0.4510940827962878   T   T   T
  0.4538198187628789  0.3137231420339647  0.4326345945408340   T   T   T
 
  0.00000000E+00  0.00000000E+00  0.00000000E+00
  0.00000000E+00  0.00000000E+00  0.00000000E+00
  0.00000000E+00  0.00000000E+00  0.00000000E+00
  0.00000000E+00  0.00000000E+00  0.00000000E+00
  0.00000000E+00  0.00000000E+00  0.00000000E+00
  0.00000000E+00  0.00000000E+00  0.00000000E+00
  0.00000000E+00  0.00000000E+00  0.00000000E+00
  0.00000000E+00  0.00000000E+00  0.00000000E+00
  0.00000000E+00  0.00000000E+00  0.00000000E+00
  0.00000000E+00  0.00000000E+00  0.00000000E+00
  0.00000000E+00  0.00000000E+00  0.00000000E+00
  0.00000000E+00  0.00000000E+00  0.00000000E+00
  0.00000000E+00  0.00000000E+00  0.00000000E+00
  0.00000000E+00  0.00000000E+00  0.00000000E+00
  0.00000000E+00  0.00000000E+00  0.00000000E+00
  0.00000000E+00  0.00000000E+00  0.00000000E+00
  0.00000000E+00  0.00000000E+00  0.00000000E+00
  0.00000000E+00  0.00000000E+00  0.00000000E+00
  0.00000000E+00  0.00000000E+00  0.00000000E+00
  0.00000000E+00  0.00000000E+00  0.00000000E+00
  0.00000000E+00  0.00000000E+00  0.00000000E+00
  0.00000000E+00  0.00000000E+00  0.00000000E+00
  0.00000000E+00  0.00000000E+00  0.00000000E+00
  0.00000000E+00  0.00000000E+00  0.00000000E+00
  0.00000000E+00  0.00000000E+00  0.00000000E+00
  0.00000000E+00  0.00000000E+00  0.00000000E+00
  0.00000000E+00  0.00000000E+00  0.00000000E+00
  0.00000000E+00  0.00000000E+00  0.00000000E+00
  0.00000000E+00  0.00000000E+00  0.00000000E+00
  0.00000000E+00  0.00000000E+00  0.00000000E+00
  0.00000000E+00  0.00000000E+00  0.00000000E+00
  0.00000000E+00  0.00000000E+00  0.00000000E+00
  0.00000000E+00  0.00000000E+00  0.00000000E+00
  0.00000000E+00  0.00000000E+00  0.00000000E+00
  0.00000000E+00  0.00000000E+00  0.00000000E+00
  0.00000000E+00  0.00000000E+00  0.00000000E+00
  0.00000000E+00  0.00000000E+00  0.00000000E+00
  0.00000000E+00  0.00000000E+00  0.00000000E+00
  0.00000000E+00  0.00000000E+00  0.00000000E+00
  0.00000000E+00  0.00000000E+00  0.00000000E+00
  0.00000000E+00  0.00000000E+00  0.00000000E+00
  0.00000000E+00  0.00000000E+00  0.00000000E+00
  0.00000000E+00  0.00000000E+00  0.00000000E+00
  0.00000000E+00  0.00000000E+00  0.00000000E+00
  0.00000000E+00  0.00000000E+00  0.00000000E+00
  0.00000000E+00  0.00000000E+00  0.00000000E+00
  0.00000000E+00  0.00000000E+00  0.00000000E+00
  0.00000000E+00  0.00000000E+00  0.00000000E+00
  0.00000000E+00  0.00000000E+00  0.00000000E+00
  0.00000000E+00  0.00000000E+00  0.00000000E+00
  0.00000000E+00  0.00000000E+00  0.00000000E+00
  0.00000000E+00  0.00000000E+00  0.00000000E+00
  0.00000000E+00  0.00000000E+00  0.00000000E+00
  0.00000000E+00  0.00000000E+00  0.00000000E+00
  0.00000000E+00  0.00000000E+00  0.00000000E+00
  0.00000000E+00  0.00000000E+00  0.00000000E+00
  0.00000000E+00  0.00000000E+00  0.00000000E+00
  0.00000000E+00  0.00000000E+00  0.00000000E+00
  0.00000000E+00  0.00000000E+00  0.00000000E+00
  0.00000000E+00  0.00000000E+00  0.00000000E+00
  0.00000000E+00  0.00000000E+00  0.00000000E+00
  0.00000000E+00  0.00000000E+00  0.00000000E+00
  0.00000000E+00  0.00000000E+00  0.00000000E+00
  0.00000000E+00  0.00000000E+00  0.00000000E+00
  0.00000000E+00  0.00000000E+00  0.00000000E+00
  0.00000000E+00  0.00000000E+00  0.00000000E+00
  0.00000000E+00  0.00000000E+00  0.00000000E+00
  0.00000000E+00  0.00000000E+00  0.00000000E+00
  0.00000000E+00  0.00000000E+00  0.00000000E+00
  0.00000000E+00  0.00000000E+00  0.00000000E+00
  0.00000000E+00  0.00000000E+00  0.00000000E+00
  0.00000000E+00  0.00000000E+00  0.00000000E+00
  0.00000000E+00  0.00000000E+00  0.00000000E+00
  0.00000000E+00  0.00000000E+00  0.00000000E+00
  0.00000000E+00  0.00000000E+00  0.00000000E+00
  0.00000000E+00  0.00000000E+00  0.00000000E+00
  0.00000000E+00  0.00000000E+00  0.00000000E+00
  0.00000000E+00  0.00000000E+00  0.00000000E+00
  0.00000000E+00  0.00000000E+00  0.00000000E+00
  0.00000000E+00  0.00000000E+00  0.00000000E+00
  0.00000000E+00  0.00000000E+00  0.00000000E+00
  0.00000000E+00  0.00000000E+00  0.00000000E+00
