CeO2-you-111-you-Sc                     
   1.00000000000000     
     9.8456839725210017   -5.6666061947230313    0.0018224271461910
    -0.0000000001112122   11.3332103948777032   -0.0000000002076349
     0.0042224252820378   -0.0000000004354520   21.0403494394251993
   O    Sc   Ce   H 
    53     1    26     1
Selective dynamics
Direct
  0.0000191376948781  0.0004574786351623  0.9951908905719841   T   T   T
  0.1188615690108783  0.2250338505893869  0.1509571363427164   T   T   T
  0.2241041223902905  0.1122681683350555  0.3039512271274462   T   T   T
  0.1176952108173300  0.2259794064904534  0.3820483711859688   T   T   T
  0.0014894480033429  0.0019253008406244  0.2285113780880863   T   T   T
  0.2229840569524873  0.1103059262691477  0.0740121819603610   T   T   T
  0.3332871382385809 -0.0014757185786021  0.9942175224548456   T   T   T
  0.4435710338349783  0.2207290856256520  0.1477874527623683   T   T   T
  0.5477540085287397  0.1053638546554752  0.3071244864544468   T   T   T
  0.4342327772395611  0.2479604725215317  0.3872486000307657   T   T   T
  0.3321761471638375 -0.0020972369389185  0.2296402986716817   T   T   T
  0.5546140697896284  0.1096417494314997  0.0747076095974043   T   T   T
  0.6695313625209047  0.0012894637591953  0.9954966151742702   T   T   T
  0.7725066936994350  0.2237964017786411  0.1512866357637844   T   T   T
  0.8901012999444177  0.1106934164873875  0.3034685855678909   T   T   T
  0.7826925253737370  0.2156827266607670  0.3880184895058261   T   T   T
  0.6670494698745935  0.0015712156588271  0.2297570260254853   T   T   T
  0.8895986986159194  0.1107152494028762  0.0776384100186473   T   T   T
  0.9990752417180599  0.3303637953599699  0.9951436132416293   T   T   T
  0.1111527151750858  0.5547759949620580  0.1494384079292687   T   T   T
  0.2128776412750067  0.4360720935154772  0.3002833428493133   T   T   T
  0.1162794368169161  0.5540517747175673  0.3848501791336055   T   T   T
  0.9974946653247432  0.3305891449577961  0.2263874746686448   T   T   T
  0.2223017693360045  0.4446798096729591  0.0730479018026904   T   T   T
  0.3327014840068219  0.3323482629832751  0.9936771944059765   T   T   T
  0.4436008258981991  0.5556557562715647  0.1466355912139437   T   T   T
  0.4325980763008572  0.5239926913114484  0.3706726780244649   T   T   T
  0.3521551676254775  0.3427443422542443  0.2365354624281744   T   T   T
  0.5559230655156507  0.4438122318787572  0.0715339951680314   T   T   T
  0.6679985316704505  0.3323048626140607  0.9941927574761154   T   T   T
  0.7791110681402401  0.5560545244970966  0.1468971846948108   T   T   T
  0.8965206916759245  0.4435907328391452  0.3036560306989854   T   T   T
  0.7893474253750719  0.5597548320101284  0.3856787791858286   T   T   T
  0.6581797514044284  0.3418397455378981  0.2343313454584156   T   T   T
  0.8901478598117768  0.4443998372789963  0.0741883877270267   T   T   T
  0.0011081775304311  0.6672166924229661  0.9945627861847790   T   T   T
  0.1117367802922772  0.8886364825287884  0.1504894265323467   T   T   T
  0.2225906145169183  0.7741979716093432  0.3031673294803276   T   T   T
  0.1173301594129687  0.8890747581400740  0.3855670242350306   T   T   T
  0.9988875411347816  0.6648362600994049  0.2291601219721240   T   T   T
  0.2231772100772398  0.7771849361854001  0.0744445024308337   T   T   T
  0.3344291922049599  0.6671210544015865  0.9938191581619109   T   T   T
  0.4450039462235938  0.8883823401810874  0.1509038090761051   T   T   T
  0.5535688830947998  0.7811172366422546  0.3047766770051898   T   T   T
  0.4394705981459139  0.8829570031962387  0.3859769328536652   T   T   T
  0.3337254735788184  0.6633361498709801  0.2292410805813784   T   T   T
  0.5563665143409947  0.7783480679025511  0.0744996492891360   T   T   T
  0.6689505517055018  0.6686999742556314  0.9944195233798273   T   T   T
  0.7747612820211670  0.8828756937927740  0.1523159802354891   T   T   T
  0.8986389372252407  0.7850582600310527  0.3040462659128106   T   T   T
  0.7845854269706882  0.9011417485651307  0.3876732824313610   T   T   T
  0.6594981749284904  0.6492951329675050  0.2337316025951586   T   T   T
  0.8903292635801471  0.7795316823830891  0.0747400309047000   T   T   T
  0.3032818887393028  0.3284243469769739  0.3363318814692915   T   T   T
  0.0043057279708881  0.0031431778554409  0.3439869529925604   T   T   T
  0.2243406662244344  0.1118420105529052  0.1916659453953644   T   T   T
  0.1120337088581089  0.2216893340538535  0.0349701524319379   T   T   T
  0.3280736307849624 -0.0095538316179290  0.3428765133507888   T   T   T
  0.5544176212157317  0.1114619480159247  0.1917509965866292   T   T   T
  0.4438013466729363  0.2197485344915743  0.0329986462991095   T   T   T
  0.6659320287991439  0.9982780868114521  0.3457452766604261   T   T   T
  0.8886841411322798  0.1108243508227955  0.1904371015925694   T   T   T
  0.7775642051370351  0.2218610350461779  0.0356257623934198   T   T   T
  0.0008218514415118  0.3308131568489524  0.3445082610319815   T   T   T
  0.2227862568846751  0.4436782412773911  0.1891202090429961   T   T   T
  0.1111006824476106  0.5545762319316423  0.0346003306761220   T   T   T
  0.5556827253967185  0.4447204563180916  0.1819720424020446   T   T   T
  0.4444147277700461  0.5566787281650991  0.0326662832389409   T   T   T
  0.6777216613148730  0.3318836006887637  0.3506753675609623   T   T   T
  0.8876087089730048  0.4439912760755528  0.1905658209398472   T   T   T
  0.7803489572251787  0.5566808959400558  0.0334001809007683   T   T   T
  0.0009803543776655  0.6648930523168676  0.3447114273588953   T   T   T
  0.2217644307948512  0.7759016246622691  0.1887848767233594   T   T   T
  0.1115387336232278  0.8893001167330397  0.0355243728922430   T   T   T
  0.3330567658365397  0.6576538480643022  0.3431225297426010   T   T   T
  0.5554397015449126  0.7759493285209531  0.1916240642372043   T   T   T
  0.4457060825437824  0.8889850620169233  0.0354392057482671   T   T   T
  0.6727132561302585  0.6749519752754046  0.3516367500301782   T   T   T
  0.8888577630539785  0.7764323290893579  0.1916301360382433   T   T   T
  0.7784212385170245  0.8887003164742678  0.0358797142872174   T   T   T
  0.4257502228401201  0.2621840771294415  0.4323347713030524   T   T   T
 
  0.00000000E+00  0.00000000E+00  0.00000000E+00
  0.00000000E+00  0.00000000E+00  0.00000000E+00
  0.00000000E+00  0.00000000E+00  0.00000000E+00
  0.00000000E+00  0.00000000E+00  0.00000000E+00
  0.00000000E+00  0.00000000E+00  0.00000000E+00
  0.00000000E+00  0.00000000E+00  0.00000000E+00
  0.00000000E+00  0.00000000E+00  0.00000000E+00
  0.00000000E+00  0.00000000E+00  0.00000000E+00
  0.00000000E+00  0.00000000E+00  0.00000000E+00
  0.00000000E+00  0.00000000E+00  0.00000000E+00
  0.00000000E+00  0.00000000E+00  0.00000000E+00
  0.00000000E+00  0.00000000E+00  0.00000000E+00
  0.00000000E+00  0.00000000E+00  0.00000000E+00
  0.00000000E+00  0.00000000E+00  0.00000000E+00
  0.00000000E+00  0.00000000E+00  0.00000000E+00
  0.00000000E+00  0.00000000E+00  0.00000000E+00
  0.00000000E+00  0.00000000E+00  0.00000000E+00
  0.00000000E+00  0.00000000E+00  0.00000000E+00
  0.00000000E+00  0.00000000E+00  0.00000000E+00
  0.00000000E+00  0.00000000E+00  0.00000000E+00
  0.00000000E+00  0.00000000E+00  0.00000000E+00
  0.00000000E+00  0.00000000E+00  0.00000000E+00
  0.00000000E+00  0.00000000E+00  0.00000000E+00
  0.00000000E+00  0.00000000E+00  0.00000000E+00
  0.00000000E+00  0.00000000E+00  0.00000000E+00
  0.00000000E+00  0.00000000E+00  0.00000000E+00
  0.00000000E+00  0.00000000E+00  0.00000000E+00
  0.00000000E+00  0.00000000E+00  0.00000000E+00
  0.00000000E+00  0.00000000E+00  0.00000000E+00
  0.00000000E+00  0.00000000E+00  0.00000000E+00
  0.00000000E+00  0.00000000E+00  0.00000000E+00
  0.00000000E+00  0.00000000E+00  0.00000000E+00
  0.00000000E+00  0.00000000E+00  0.00000000E+00
  0.00000000E+00  0.00000000E+00  0.00000000E+00
  0.00000000E+00  0.00000000E+00  0.00000000E+00
  0.00000000E+00  0.00000000E+00  0.00000000E+00
  0.00000000E+00  0.00000000E+00  0.00000000E+00
  0.00000000E+00  0.00000000E+00  0.00000000E+00
  0.00000000E+00  0.00000000E+00  0.00000000E+00
  0.00000000E+00  0.00000000E+00  0.00000000E+00
  0.00000000E+00  0.00000000E+00  0.00000000E+00
  0.00000000E+00  0.00000000E+00  0.00000000E+00
  0.00000000E+00  0.00000000E+00  0.00000000E+00
  0.00000000E+00  0.00000000E+00  0.00000000E+00
  0.00000000E+00  0.00000000E+00  0.00000000E+00
  0.00000000E+00  0.00000000E+00  0.00000000E+00
  0.00000000E+00  0.00000000E+00  0.00000000E+00
  0.00000000E+00  0.00000000E+00  0.00000000E+00
  0.00000000E+00  0.00000000E+00  0.00000000E+00
  0.00000000E+00  0.00000000E+00  0.00000000E+00
  0.00000000E+00  0.00000000E+00  0.00000000E+00
  0.00000000E+00  0.00000000E+00  0.00000000E+00
  0.00000000E+00  0.00000000E+00  0.00000000E+00
  0.00000000E+00  0.00000000E+00  0.00000000E+00
  0.00000000E+00  0.00000000E+00  0.00000000E+00
  0.00000000E+00  0.00000000E+00  0.00000000E+00
  0.00000000E+00  0.00000000E+00  0.00000000E+00
  0.00000000E+00  0.00000000E+00  0.00000000E+00
  0.00000000E+00  0.00000000E+00  0.00000000E+00
  0.00000000E+00  0.00000000E+00  0.00000000E+00
  0.00000000E+00  0.00000000E+00  0.00000000E+00
  0.00000000E+00  0.00000000E+00  0.00000000E+00
  0.00000000E+00  0.00000000E+00  0.00000000E+00
  0.00000000E+00  0.00000000E+00  0.00000000E+00
  0.00000000E+00  0.00000000E+00  0.00000000E+00
  0.00000000E+00  0.00000000E+00  0.00000000E+00
  0.00000000E+00  0.00000000E+00  0.00000000E+00
  0.00000000E+00  0.00000000E+00  0.00000000E+00
  0.00000000E+00  0.00000000E+00  0.00000000E+00
  0.00000000E+00  0.00000000E+00  0.00000000E+00
  0.00000000E+00  0.00000000E+00  0.00000000E+00
  0.00000000E+00  0.00000000E+00  0.00000000E+00
  0.00000000E+00  0.00000000E+00  0.00000000E+00
  0.00000000E+00  0.00000000E+00  0.00000000E+00
  0.00000000E+00  0.00000000E+00  0.00000000E+00
  0.00000000E+00  0.00000000E+00  0.00000000E+00
  0.00000000E+00  0.00000000E+00  0.00000000E+00
  0.00000000E+00  0.00000000E+00  0.00000000E+00
  0.00000000E+00  0.00000000E+00  0.00000000E+00
  0.00000000E+00  0.00000000E+00  0.00000000E+00
  0.00000000E+00  0.00000000E+00  0.00000000E+00
