CeO2-you-111-you-Mg                     
   1.00000000000000     
     9.8251922789720680   -5.6722943789780365   -0.0017360994406230
     0.0000000022307311   11.3445867654002708    0.0000000002024025
    -0.0039627959918697    0.0000000004081289   20.9225493105347766
   O    Mg   Ce H
    53     1    26 2
Selective dynamics
Direct
 -0.0013958822240878  0.0007103145513646  0.9948562598244860   T   T   T
  0.1154566174157854  0.2243948087074524  0.1514206970516591   F   F   F
  0.2194855251124631  0.1093560831129587  0.3034880095828689   T   T   T
  0.1109798542212349  0.2221564271103080  0.3828477379038209   T   T   T
 -0.0017389520996295  0.0006177733825548  0.2294106150003115   T   T   T
  0.2216125776705956  0.1100505686768401  0.0741856478555832   F   F   F
  0.3328110103986289 -0.0008653215067943  0.9936902634255028   T   T   T
  0.4443060279269060  0.2204003888070115  0.1473477605945408   F   F   F
  0.5587746219623381  0.1091130749467062  0.3048615107536580   T   T   T
  0.4546016258525253  0.2462351832596410  0.3693553099932357   T   T   T
  0.3356171086414366  0.0017186290927354  0.2303750268057166   T   T   T
  0.5551826295238257  0.1098198230506071  0.0741645989605953   F   F   F
  0.6686641412144062  0.0009985706072408  0.9945041162602276   T   T   T
  0.7741344274879791  0.2258969769063959  0.1515937271961857   F   F   F
  0.8866262015063234  0.1099796007528263  0.3055964843799104   T   T   T
  0.7769507773376786  0.2204661294611204  0.3887558848126379   T   T   T
  0.6672506116956997  0.0002918058478936  0.2286722343145506   T   T   T
  0.8878029078775328  0.1105679539386288  0.0773859614417700   F   F   F
 -0.0013958822236210  0.3312268032245406  0.9948562598244242   T   T   T
  0.1108907659061097  0.5557268785262507  0.1514377516127162   F   F   F
  0.2194855251127746  0.4434624419999323  0.3034880095828791   T   T   T
  0.1147713197334706  0.5588240070026174  0.3855910677604393   T   T   T
 -0.0017389520985400  0.3309762745172999  0.2294106150003843   T   T   T
  0.2216125776706102  0.4448950089937682  0.0741856478555723   F   F   F
  0.3310470088212453  0.3321900044105975  0.9942579599156079   T   T   T
  0.4443060279249298  0.5572396391206064  0.1473477605944892   F   F   F
  0.4546016258553485  0.5417004425929441  0.3693553099933249   T   T   T
  0.3489452915868818  0.3411391457925682  0.2335119129038488   T   T   T
  0.5548210066924179  0.4440765033465358  0.0718006062835133   F   F   F
  0.6673280317004471  0.3324129780965188  0.9941718135380357   T   T   T
  0.7784353219369819  0.5558846609680064  0.1477182196388779   F   F   F
  0.8916511396460010  0.4430059124196811  0.3056985675831244   T   T   T
  0.7652945910008617  0.5493142955019704  0.3788911197441611   T   T   T
  0.6580439102049568  0.3428780460485599  0.2358038824174880   T   T   T
  0.8899308814298444  0.4449044433322609  0.0746432248238267   F   F   F
 -0.0002656169466156  0.6665341915264451  0.9941375588261232   T   T   T
  0.1108907659057114  0.8884978873787490  0.1514377516126961   F   F   F
  0.2223665831167899  0.7778502915580503  0.3038250425390291   T   T   T
  0.1147713197323841  0.8892813127294767  0.3855910677603317   T   T   T
 -0.0020303083274238  0.6656518458356705  0.2310254501662224   T   T   T
  0.2220684808103675  0.7777012404050210  0.0747841287024663   F   F   F
  0.3328110103984550  0.6670103319053746  0.9936902634254789   T   T   T
  0.4444982753929125  0.8889161376966556  0.1505947891429279   F   F   F
  0.5587746219604504  0.7829945470156978  0.3048615107536576   T   T   T
  0.4428360837597860  0.8880850418798992  0.3850925528600084   T   T   T
  0.3356171086416688  0.6672324795490931  0.2303750268057124   T   T   T
  0.5551826295237949  0.7786958064735656  0.0741645989605950   F   F   F
  0.6673280317005194  0.6682480536041993  0.9941718135380314   T   T   T
  0.7741344274870400  0.8815704505813906  0.1515937271962262   F   F   F
  0.8916511396447296  0.7819782272237229  0.3056985675830824   T   T   T
  0.7769507773361695  0.8898176478752473  0.3887558848124556   T   T   T
  0.6580439102077228  0.6484988641601181  0.2358038824174470   T   T   T
  0.8899308814296620  0.7783594380972110  0.0746432248237721   F   F   F
  0.3143626058591076  0.3238478029316713  0.3382785746783386   T   T   T
  0.0052345916302989  0.0061986136469012  0.3459836129020041   T   T   T
  0.2236171310671878  0.1132818099052470  0.1923888316456543   F   F   F
  0.1107759920926711  0.2220544960462874  0.0355331571069464   F   F   F
  0.3336738352245562  0.0052678865184351  0.3434089926816707   T   T   T
  0.5552037515553156  0.1115585627355836  0.1905668965440261   F   F   F
  0.4428718968209464  0.2200176824800238  0.0328688861608926   F   F   F
  0.6660960160159196 -0.0002854919914313  0.3470006488763073   T   T   T
  0.8882335195093128  0.1107832597554892  0.1910742769291378   F   F   F
  0.7775415155741929  0.2223423637919660  0.0350380086847768   F   F   F
  0.0052345916285278  0.3323689779840456  0.3459836129018692   T   T   T
  0.2236171310677567  0.4436683211610361  0.1923888316456558   F   F   F
  0.1105369202031242  0.5547389405838842  0.0353778940500709   F   F   F
  0.5524720675666002  0.4429020337814216  0.1825838148248274   F   F   F
  0.4428718968210195  0.5561882143407009  0.0328688861609085   F   F   F
  0.6692110263850786  0.3267143199710976  0.3482087433249787   T   T   T
  0.8882649750960036  0.4449238210384658  0.1915325650317164   F   F   F
  0.7795934269051835  0.5564637134524701  0.0333756939941465   F   F   F
  0.0028409599941833  0.6680874799993365  0.3446302037318597   T   T   T
  0.2223014330786004  0.7778177165401586  0.1901048791788141   F   F   F
  0.1105369202028667  0.8891319796198583  0.0353778940500576   F   F   F
  0.3336738352258830  0.6617399487048223  0.3434089926815290   T   T   T
  0.5552037515584816  0.7769781888192657  0.1905668965440524   F   F   F
  0.4447445476624920  0.8890392738310688  0.0346654714717777   F   F   F
  0.6692110263842929  0.6758297064116041  0.3482087433253719   T   T   T
  0.8882649750991846  0.7766741540625307  0.1915325650316995   F   F   F
  0.7775415155747233  0.8885321517823255  0.0350380086847823   F   F   F
0.3743626058591076 0.3538478029316713 0.408279 T T T
0.446598 0.216020 0.433410 T T T 
 
  0.00000000E+00  0.00000000E+00  0.00000000E+00
  0.00000000E+00  0.00000000E+00  0.00000000E+00
  0.00000000E+00  0.00000000E+00  0.00000000E+00
  0.00000000E+00  0.00000000E+00  0.00000000E+00
  0.00000000E+00  0.00000000E+00  0.00000000E+00
  0.00000000E+00  0.00000000E+00  0.00000000E+00
  0.00000000E+00  0.00000000E+00  0.00000000E+00
  0.00000000E+00  0.00000000E+00  0.00000000E+00
  0.00000000E+00  0.00000000E+00  0.00000000E+00
  0.00000000E+00  0.00000000E+00  0.00000000E+00
  0.00000000E+00  0.00000000E+00  0.00000000E+00
  0.00000000E+00  0.00000000E+00  0.00000000E+00
  0.00000000E+00  0.00000000E+00  0.00000000E+00
  0.00000000E+00  0.00000000E+00  0.00000000E+00
  0.00000000E+00  0.00000000E+00  0.00000000E+00
  0.00000000E+00  0.00000000E+00  0.00000000E+00
  0.00000000E+00  0.00000000E+00  0.00000000E+00
  0.00000000E+00  0.00000000E+00  0.00000000E+00
  0.00000000E+00  0.00000000E+00  0.00000000E+00
  0.00000000E+00  0.00000000E+00  0.00000000E+00
  0.00000000E+00  0.00000000E+00  0.00000000E+00
  0.00000000E+00  0.00000000E+00  0.00000000E+00
  0.00000000E+00  0.00000000E+00  0.00000000E+00
  0.00000000E+00  0.00000000E+00  0.00000000E+00
  0.00000000E+00  0.00000000E+00  0.00000000E+00
  0.00000000E+00  0.00000000E+00  0.00000000E+00
  0.00000000E+00  0.00000000E+00  0.00000000E+00
  0.00000000E+00  0.00000000E+00  0.00000000E+00
  0.00000000E+00  0.00000000E+00  0.00000000E+00
  0.00000000E+00  0.00000000E+00  0.00000000E+00
  0.00000000E+00  0.00000000E+00  0.00000000E+00
  0.00000000E+00  0.00000000E+00  0.00000000E+00
  0.00000000E+00  0.00000000E+00  0.00000000E+00
  0.00000000E+00  0.00000000E+00  0.00000000E+00
  0.00000000E+00  0.00000000E+00  0.00000000E+00
  0.00000000E+00  0.00000000E+00  0.00000000E+00
  0.00000000E+00  0.00000000E+00  0.00000000E+00
  0.00000000E+00  0.00000000E+00  0.00000000E+00
  0.00000000E+00  0.00000000E+00  0.00000000E+00
  0.00000000E+00  0.00000000E+00  0.00000000E+00
  0.00000000E+00  0.00000000E+00  0.00000000E+00
  0.00000000E+00  0.00000000E+00  0.00000000E+00
  0.00000000E+00  0.00000000E+00  0.00000000E+00
  0.00000000E+00  0.00000000E+00  0.00000000E+00
  0.00000000E+00  0.00000000E+00  0.00000000E+00
  0.00000000E+00  0.00000000E+00  0.00000000E+00
  0.00000000E+00  0.00000000E+00  0.00000000E+00
  0.00000000E+00  0.00000000E+00  0.00000000E+00
  0.00000000E+00  0.00000000E+00  0.00000000E+00
  0.00000000E+00  0.00000000E+00  0.00000000E+00
  0.00000000E+00  0.00000000E+00  0.00000000E+00
  0.00000000E+00  0.00000000E+00  0.00000000E+00
  0.00000000E+00  0.00000000E+00  0.00000000E+00
  0.00000000E+00  0.00000000E+00  0.00000000E+00
  0.00000000E+00  0.00000000E+00  0.00000000E+00
  0.00000000E+00  0.00000000E+00  0.00000000E+00
  0.00000000E+00  0.00000000E+00  0.00000000E+00
  0.00000000E+00  0.00000000E+00  0.00000000E+00
  0.00000000E+00  0.00000000E+00  0.00000000E+00
  0.00000000E+00  0.00000000E+00  0.00000000E+00
  0.00000000E+00  0.00000000E+00  0.00000000E+00
  0.00000000E+00  0.00000000E+00  0.00000000E+00
  0.00000000E+00  0.00000000E+00  0.00000000E+00
  0.00000000E+00  0.00000000E+00  0.00000000E+00
  0.00000000E+00  0.00000000E+00  0.00000000E+00
  0.00000000E+00  0.00000000E+00  0.00000000E+00
  0.00000000E+00  0.00000000E+00  0.00000000E+00
  0.00000000E+00  0.00000000E+00  0.00000000E+00
  0.00000000E+00  0.00000000E+00  0.00000000E+00
  0.00000000E+00  0.00000000E+00  0.00000000E+00
  0.00000000E+00  0.00000000E+00  0.00000000E+00
  0.00000000E+00  0.00000000E+00  0.00000000E+00
  0.00000000E+00  0.00000000E+00  0.00000000E+00
  0.00000000E+00  0.00000000E+00  0.00000000E+00
  0.00000000E+00  0.00000000E+00  0.00000000E+00
  0.00000000E+00  0.00000000E+00  0.00000000E+00
  0.00000000E+00  0.00000000E+00  0.00000000E+00
  0.00000000E+00  0.00000000E+00  0.00000000E+00
  0.00000000E+00  0.00000000E+00  0.00000000E+00
  0.00000000E+00  0.00000000E+00  0.00000000E+00
