CeO2-you-111-you-Mg                     
   1.00000000000000     
     9.8828738044470139   -5.7058802256271139   -0.0000000010014606
    -0.0350296041297741   11.3510853928573763   -0.0192147653297935
    -0.0214788428026893   -0.0372024407191492   20.4152170502013242
   O    Mg   Ce   H 
    53     1    26     2
Selective dynamics
Direct
 -0.0001209277986676  0.0001446918722637  0.9893321317226894   T   T   T
  0.1081243296647898  0.2211839707816665  0.1477857871320865   F   F   F
  0.2361715617123375  0.1269370790994959  0.3128927119214021   T   T   T
  0.0805196319167192  0.2073550903539877  0.3952623903719066   T   T   T
  0.0052896579646911  0.0022203213705596  0.2311845058593099   T   T   T
  0.2223100716004112  0.1112871432006983  0.0708063441193048   F   F   F
  0.3340452256235493  0.0003202107092672  0.9889175578276712   T   T   T
  0.4463926411167378  0.2211839707814391  0.1477857871320793   F   F   F
  0.5512657332068005  0.1155385349068201  0.3082822522163841   T   T   T
  0.4665911444412740  0.2021675205553644  0.4128947665293923   T   T   T
  0.3301436128848037 -0.0002590698512420  0.2304169498622645   T   T   T
  0.5573343829565189  0.1110500602142679  0.0715900712745992   F   F   F
  0.6669238847789688  0.9991749747404788  0.9887467822971533   T   T   T
  0.7774975355163321  0.2216610710330187  0.1526399396708484   F   F   F
  0.8849503704672833  0.1082185393886511  0.3051281078338565   T   T   T
  0.7766921123968675  0.2216342969262670  0.3880540576458440   T   T   T
  0.6615401837339063  0.9961849169106436  0.2322543671026071   T   T   T
  0.8870496772574867  0.1110500602141897  0.0715900712745778   F   F   F
  0.0001811846335423  0.3329051041905828  0.9896332600557783   T   T   T
  0.1097790377766685  0.5551503848508048  0.1483827698725406   F   F   F
  0.2365959837807437  0.4441569501328237  0.3128999484349654   T   T   T
  0.1129266715843191  0.5584711411002117  0.3890477905588425   T   T   T
  0.0052842372398704  0.3364116324413552  0.2327757973144255   T   T   T
  0.2222702025906571  0.4441701273576086  0.0722812763389484   F   F   F
  0.3331547791020570  0.3333253548444409  0.9895820768309507   T   T   T
  0.4458096282990383  0.5582872565987813  0.1481120649957859   F   F   F
  0.5382692431642748  0.4376326568344971  0.3169557159041723   T   T   T
  0.3335440683435802  0.3338514830241718  0.2235192921325315   T   T   T
  0.5552339247670588  0.4441701273574168  0.0722812763389342   F   F   F
  0.6663495042364808  0.3328490475779288  0.9895587646852606   T   T   T
  0.7787043470738553  0.5551503848504424  0.1483827698725548   F   F   F
  0.8895540833122803  0.4460680539464470  0.3084035814748729   T   T   T
  0.7796348996399086  0.5571086529390522  0.3898418389107769   T   T   T
  0.6659223568396897  0.3378994141009247  0.2326772752755097   T   T   T
  0.8876968063995463  0.4420596127987082  0.0722283329055671   F   F   F
  0.9989383903415294  0.6648100836322974  0.9896328749224517   T   T   T
  0.1110697995233139  0.8888065990457363  0.1464888073435731   F   F   F
  0.2204604840651483  0.7783058439945172  0.3065206199812286   T   T   T
  0.1135907319014293  0.8908203783633392  0.3899252333926481   T   T   T
  0.0004892145709131  0.6688952763934396  0.2301799970521404   T   T   T
  0.2224849179359225  0.7784603632271612  0.0703708013320181   F   F   F
  0.3332419652864205  0.6658738573771106  0.9897497951527692   T   T   T
  0.4437659763857127  0.8883159532236178  0.1483589546741939   F   F   F
  0.5515506225116166  0.7684319501842406  0.3085839434466938   T   T   T
  0.4430710233926072  0.8876561295508740  0.3871180447550016   T   T   T
  0.3313885173774675  0.6664119170643257  0.2299606702085732   T   T   T
  0.5559877436120786  0.7786414872239931  0.0717671404471218   F   F   F
  0.6659880781314150  0.6656302732331258  0.9896821726607804   T   T   T
  0.7778829768379012  0.8883159532233975  0.1483589546742223   F   F   F
  0.8902189287566841  0.7789975257039310  0.3075013381813205   T   T   T
  0.7751615078624088  0.8883596791167082  0.3888286541873220   T   T   T
  0.6676972825515241  0.6641704884911976  0.2309271900159492   T   T   T
  0.8893084452913911  0.7784603632269054  0.0703708013319684   F   F   F
  0.3301821487034350  0.3336358407029222  0.3230346221233198   T   T   T
  0.0034486980766698  0.0068698603324773  0.3501773003311555   T   T   T
  0.2226739923865608  0.1120149847741416  0.1894036118576850   F   F   F
  0.1105185702145235  0.2217607895418823  0.0305419587735756   F   F   F
  0.3293517734854598 -0.0011891710189139  0.3483724928815976   T   T   T
  0.5545532054690341  0.1105437405606438  0.1907916370435032   F   F   F
  0.4445752193274686  0.2217607895418183  0.0305419587735543   F   F   F
  0.6653594798680940 -0.0008101012806573  0.3489043526894390   T   T   T
  0.8893245350910348  0.1105437405596916  0.1907916370434677   F   F   F
  0.7773990611783361  0.2214641223562310  0.0311567000458552   F   F   F
  0.0035994839080650  0.3311297748511107  0.3505496946985499   T   T   T
  0.2227133116582536  0.4442994318670301  0.1893276189924933   F   F   F
  0.1100041877042202  0.5543017155721017  0.0310231225199686   F   F   F
  0.5549201202098502  0.4442994318676767  0.1893276189925643   F   F   F
  0.4442156853835684  0.5550993707674081  0.0304487102906279   F   F   F
  0.6701390135971026  0.3374588217677569  0.3494743793611308   T   T   T
  0.8890041208208288  0.4446742416410601  0.1922536799791459   F   F   F
  0.7776305278678777  0.5543017155722509  0.0310231225200042   F   F   F
  0.0012352891892824  0.6686039036247762  0.3482630666382763   T   T   T
  0.2216566196251861  0.7793063512229352  0.1877464443441426   F   F   F
  0.1111512444254288  0.8889694888509752  0.0292167568554262   F   F   F
  0.3290886010880399  0.6665994164444419  0.3466017969438935   T   T   T
  0.5548357973101758  0.7763375946204434  0.1893335210096510   F   F   F
  0.4446998573282102  0.8886475358890209  0.0302142321151493   F   F   F
  0.6716673397738180  0.6687917697254473  0.3472567993156344   T   T   T
  0.8909827315969778  0.7793063512227576  0.1877464443441852   F   F   F
  0.7772806785608140  0.8886475358890635  0.0302142321151138   F   F   F
  0.4630540879246482  0.5928994125378064  0.4005830311326841   T   T   T
  0.4351597389077060  0.2317669878162078  0.4503518737028255   T   T   T
 
  0.00000000E+00  0.00000000E+00  0.00000000E+00
  0.00000000E+00  0.00000000E+00  0.00000000E+00
  0.00000000E+00  0.00000000E+00  0.00000000E+00
  0.00000000E+00  0.00000000E+00  0.00000000E+00
  0.00000000E+00  0.00000000E+00  0.00000000E+00
  0.00000000E+00  0.00000000E+00  0.00000000E+00
  0.00000000E+00  0.00000000E+00  0.00000000E+00
  0.00000000E+00  0.00000000E+00  0.00000000E+00
  0.00000000E+00  0.00000000E+00  0.00000000E+00
  0.00000000E+00  0.00000000E+00  0.00000000E+00
  0.00000000E+00  0.00000000E+00  0.00000000E+00
  0.00000000E+00  0.00000000E+00  0.00000000E+00
  0.00000000E+00  0.00000000E+00  0.00000000E+00
  0.00000000E+00  0.00000000E+00  0.00000000E+00
  0.00000000E+00  0.00000000E+00  0.00000000E+00
  0.00000000E+00  0.00000000E+00  0.00000000E+00
  0.00000000E+00  0.00000000E+00  0.00000000E+00
  0.00000000E+00  0.00000000E+00  0.00000000E+00
  0.00000000E+00  0.00000000E+00  0.00000000E+00
  0.00000000E+00  0.00000000E+00  0.00000000E+00
  0.00000000E+00  0.00000000E+00  0.00000000E+00
  0.00000000E+00  0.00000000E+00  0.00000000E+00
  0.00000000E+00  0.00000000E+00  0.00000000E+00
  0.00000000E+00  0.00000000E+00  0.00000000E+00
  0.00000000E+00  0.00000000E+00  0.00000000E+00
  0.00000000E+00  0.00000000E+00  0.00000000E+00
  0.00000000E+00  0.00000000E+00  0.00000000E+00
  0.00000000E+00  0.00000000E+00  0.00000000E+00
  0.00000000E+00  0.00000000E+00  0.00000000E+00
  0.00000000E+00  0.00000000E+00  0.00000000E+00
  0.00000000E+00  0.00000000E+00  0.00000000E+00
  0.00000000E+00  0.00000000E+00  0.00000000E+00
  0.00000000E+00  0.00000000E+00  0.00000000E+00
  0.00000000E+00  0.00000000E+00  0.00000000E+00
  0.00000000E+00  0.00000000E+00  0.00000000E+00
  0.00000000E+00  0.00000000E+00  0.00000000E+00
  0.00000000E+00  0.00000000E+00  0.00000000E+00
  0.00000000E+00  0.00000000E+00  0.00000000E+00
  0.00000000E+00  0.00000000E+00  0.00000000E+00
  0.00000000E+00  0.00000000E+00  0.00000000E+00
  0.00000000E+00  0.00000000E+00  0.00000000E+00
  0.00000000E+00  0.00000000E+00  0.00000000E+00
  0.00000000E+00  0.00000000E+00  0.00000000E+00
  0.00000000E+00  0.00000000E+00  0.00000000E+00
  0.00000000E+00  0.00000000E+00  0.00000000E+00
  0.00000000E+00  0.00000000E+00  0.00000000E+00
  0.00000000E+00  0.00000000E+00  0.00000000E+00
  0.00000000E+00  0.00000000E+00  0.00000000E+00
  0.00000000E+00  0.00000000E+00  0.00000000E+00
  0.00000000E+00  0.00000000E+00  0.00000000E+00
  0.00000000E+00  0.00000000E+00  0.00000000E+00
  0.00000000E+00  0.00000000E+00  0.00000000E+00
  0.00000000E+00  0.00000000E+00  0.00000000E+00
  0.00000000E+00  0.00000000E+00  0.00000000E+00
  0.00000000E+00  0.00000000E+00  0.00000000E+00
  0.00000000E+00  0.00000000E+00  0.00000000E+00
  0.00000000E+00  0.00000000E+00  0.00000000E+00
  0.00000000E+00  0.00000000E+00  0.00000000E+00
  0.00000000E+00  0.00000000E+00  0.00000000E+00
  0.00000000E+00  0.00000000E+00  0.00000000E+00
  0.00000000E+00  0.00000000E+00  0.00000000E+00
  0.00000000E+00  0.00000000E+00  0.00000000E+00
  0.00000000E+00  0.00000000E+00  0.00000000E+00
  0.00000000E+00  0.00000000E+00  0.00000000E+00
  0.00000000E+00  0.00000000E+00  0.00000000E+00
  0.00000000E+00  0.00000000E+00  0.00000000E+00
  0.00000000E+00  0.00000000E+00  0.00000000E+00
  0.00000000E+00  0.00000000E+00  0.00000000E+00
  0.00000000E+00  0.00000000E+00  0.00000000E+00
  0.00000000E+00  0.00000000E+00  0.00000000E+00
  0.00000000E+00  0.00000000E+00  0.00000000E+00
  0.00000000E+00  0.00000000E+00  0.00000000E+00
  0.00000000E+00  0.00000000E+00  0.00000000E+00
  0.00000000E+00  0.00000000E+00  0.00000000E+00
  0.00000000E+00  0.00000000E+00  0.00000000E+00
  0.00000000E+00  0.00000000E+00  0.00000000E+00
  0.00000000E+00  0.00000000E+00  0.00000000E+00
  0.00000000E+00  0.00000000E+00  0.00000000E+00
  0.00000000E+00  0.00000000E+00  0.00000000E+00
  0.00000000E+00  0.00000000E+00  0.00000000E+00
  0.00000000E+00  0.00000000E+00  0.00000000E+00
  0.00000000E+00  0.00000000E+00  0.00000000E+00
