CeO2-you-111-you-Bi                     
   1.00000000000000     
     9.8619520769738411   -5.7000233644303515    0.0006575135463113
    -0.0000000019519446   11.4000447192889247   -0.0000000000660575
     0.0010528916055289   -0.0000000000784896   21.2581136600902454
   O    Bi   Ce   H 
    53     1    26     2
Selective dynamics
Direct
  0.9994990328973379  0.0001123952210572  0.9978887835448434   T   T   T
  0.1164155003654486  0.2248742501825376  0.1514553616833396   F   F   F
  0.2227679431205936  0.1029106311832016  0.3052063709261460   T   T   T
  0.0973404042654691  0.2159183543579037  0.3853351592103150   T   T   T
  0.0005327201773143  0.0013884855851879  0.2279052337280664   T   T   T
  0.2211403196786961  0.1103024391257179  0.0759616206489682   F   F   F
  0.3327691223383972  0.9993099380925766  0.9973722032388235   T   T   T
  0.4439129040663303  0.2204074364254822  0.1473869156578616   F   F   F
  0.5497883903504948  0.1058500510370193  0.3037420966365706   T   T   T
  0.4476258948188059  0.2002243753514563  0.4042682607137501   T   T   T
  0.3329488460370519 -0.0022440395525258  0.2280643946789947   T   T   T
  0.5557037285152759  0.1101865060604581  0.0755820284295368   F   F   F
  0.6685336995446303  0.0007917572179161  0.9979443328913088   T   T   T
  0.7745997980513550  0.2258206577089368  0.1518657053678680   F   F   F
  0.8891009243336109  0.1106030318348727  0.3016391311190818   T   T   T
  0.7835596037800281  0.2169791847222368  0.3843279028653422   T   T   T
  0.6676664195015390  0.0022421789148645  0.2279009412845293   T   T   T
  0.8887419386965973  0.1110374693482754  0.0782439334031650   F   F   F
  0.9990223827849500  0.3317323705085628  0.9981443003801876   T   T   T
  0.1102661772250357  0.5551077975569569  0.1507658092349047   F   F   F
  0.2230112807379927  0.4461679406565673  0.3069707236337196   T   T   T
  0.1099161654289480  0.5590001169431495  0.3831348464739536   T   T   T
  0.0003434849417946  0.3333554790933655  0.2287647899913998   T   T   T
  0.2211403196786108  0.4441708805531235  0.0759616206489682   F   F   F
  0.3313498144536846  0.3323667369171706  0.9972838938732326   T   T   T
  0.4439129040653640  0.5568394676414172  0.1473869156577337   F   F   F
  0.4613842004486339  0.5736211539257617  0.3819760520247470   T   T   T
  0.3448513695616521  0.3397027064817227  0.2230970835223849   T   T   T
  0.5555270600028948  0.4444295300015568  0.0736325623234535   F   F   F
  0.6676138942348590  0.3332019202134313  0.9972676136085449   T   T   T
  0.7794011329545896  0.5563675664767018  0.1478116637833935   F   F   F
  0.8939064630630744  0.4462689341857543  0.3033901729206802   T   T   T
  0.7663717723612222  0.5611422837900421  0.3775674620433200   T   T   T
  0.6581178117784182  0.3416008252705444  0.2332329835816257   T   T   T
  0.8895651874821269  0.4441050688510870  0.0760401388743688   F   F   F
  0.0000027185290858  0.6668377468849274  0.9973796446723516   T   T   T
  0.1102661772249149  0.8884923796676389  0.1507658092348905   F   F   F
  0.2192731981673987  0.7736507684939129  0.3013677223940909   T   T   T
  0.1095119617502441  0.8816730777219156  0.3830489597331796   T   T   T
  0.9974632510919058  0.6666046089399638  0.2291440373890914   T   T   T
  0.2224513724493633  0.7778926862246465  0.0765624723951035   F   F   F
  0.3325188635458063  0.6663490490178008  0.9973932246489783   T   T   T
  0.4453832721386490  0.8893586360694528  0.1505742465456237   F   F   F
  0.5604291659670489  0.7856668940422054  0.3018394438300021   T   T   T
  0.4406000607703909  0.8843000731591830  0.3813874421209316   T   T   T
  0.3352626578116452  0.6665486549804917  0.2292823126364573   T   T   T
  0.5557037285150841  0.7788502224548282  0.0755820284295012   F   F   F
  0.6677691479767986  0.6686185923237502  0.9973193548266477   T   T   T
  0.7745997980512200  0.8821121403424286  0.1518657053679604   F   F   F
  0.8923740502760064  0.7850437086597734  0.3026302911300275   T   T   T
  0.7810586900495222  0.8955920320312207  0.3839410889893393   T   T   T
  0.6581931431657357  0.6489362585290840  0.2356656760747161   T   T   T
  0.8895651874820061  0.7787931186307517  0.0760401388743333   F   F   F
  0.3233602514596127  0.3366920282504483  0.3701389588440282   T   T   T
  0.0052101453852751  0.0040265684622461  0.3412599681193240   T   T   T
  0.2232193496690442  0.1115884964058651  0.1901946834303061   F   F   F
  0.1112612561493123  0.2222971280746862  0.0374988501331828   F   F   F
  0.3265004182434791 -0.0110740894152111  0.3410050766243886   T   T   T
  0.5549862302460440  0.1115320944614808  0.1902967064273824   F   F   F
  0.4433316257292859  0.2200836071898493  0.0355572528496495   F   F   F
  0.6673927758415060  0.0028056993764034  0.3420329243631162   T   T   T
  0.8890397397959120  0.1111863698983129  0.1900224467501630   F   F   F
  0.7777603675181908  0.2224639373503550  0.0374533520989573   F   F   F
  0.0017596855418567  0.3348496145381219  0.3422011042227586   T   T   T
  0.2232193496694919  0.4449638532624149  0.1901946834303416   F   F   F
  0.1106288911468880  0.5548130121720050  0.0375869929847212   F   F   F
  0.5553642221334911  0.4443481110656933  0.1820175457151763   F   F   F
  0.4433316257293214  0.5565820185391956  0.0355572528496566   F   F   F
  0.6733777462803404  0.3280229280293788  0.3484377555001967   T   T   T
  0.8882014697513227  0.4449264107460635  0.1906423795138181   F   F   F
  0.7799030590213079  0.5566185295106933  0.0356378929648500   F   F   F
 -0.0016945927909148  0.6655321920514755  0.3422599070047008   T   T   T
  0.2225472523698500  0.7779406261851989  0.1893628193069503   F   F   F
  0.1106288911466962  0.8891498789751253  0.0375869929847141   F   F   F
  0.3332610454953789  0.6655970783242350  0.3424475651823298   T   T   T
  0.5549862302480690  0.7767871357843390  0.1902967064274534   F   F   F
  0.4450763945953113  0.8892051972974571  0.0374168030103803   F   F   F
  0.6751971176152196  0.6854931900762413  0.3462517017711286   T   T   T
  0.8882014697525804  0.7766080590084385  0.1906423795138323   F   F   F
  0.7777603675183258  0.8886294301679030  0.0374533520989857   F   F   F
  0.3211044171032007  0.3389293647460134  0.4590121450170644   T   T   T
  0.4307744668576211  0.2036182918031105  0.4489851232276776   T   T   T
 
  0.00000000E+00  0.00000000E+00  0.00000000E+00
  0.00000000E+00  0.00000000E+00  0.00000000E+00
  0.00000000E+00  0.00000000E+00  0.00000000E+00
  0.00000000E+00  0.00000000E+00  0.00000000E+00
  0.00000000E+00  0.00000000E+00  0.00000000E+00
  0.00000000E+00  0.00000000E+00  0.00000000E+00
  0.00000000E+00  0.00000000E+00  0.00000000E+00
  0.00000000E+00  0.00000000E+00  0.00000000E+00
  0.00000000E+00  0.00000000E+00  0.00000000E+00
  0.00000000E+00  0.00000000E+00  0.00000000E+00
  0.00000000E+00  0.00000000E+00  0.00000000E+00
  0.00000000E+00  0.00000000E+00  0.00000000E+00
  0.00000000E+00  0.00000000E+00  0.00000000E+00
  0.00000000E+00  0.00000000E+00  0.00000000E+00
  0.00000000E+00  0.00000000E+00  0.00000000E+00
  0.00000000E+00  0.00000000E+00  0.00000000E+00
  0.00000000E+00  0.00000000E+00  0.00000000E+00
  0.00000000E+00  0.00000000E+00  0.00000000E+00
  0.00000000E+00  0.00000000E+00  0.00000000E+00
  0.00000000E+00  0.00000000E+00  0.00000000E+00
  0.00000000E+00  0.00000000E+00  0.00000000E+00
  0.00000000E+00  0.00000000E+00  0.00000000E+00
  0.00000000E+00  0.00000000E+00  0.00000000E+00
  0.00000000E+00  0.00000000E+00  0.00000000E+00
  0.00000000E+00  0.00000000E+00  0.00000000E+00
  0.00000000E+00  0.00000000E+00  0.00000000E+00
  0.00000000E+00  0.00000000E+00  0.00000000E+00
  0.00000000E+00  0.00000000E+00  0.00000000E+00
  0.00000000E+00  0.00000000E+00  0.00000000E+00
  0.00000000E+00  0.00000000E+00  0.00000000E+00
  0.00000000E+00  0.00000000E+00  0.00000000E+00
  0.00000000E+00  0.00000000E+00  0.00000000E+00
  0.00000000E+00  0.00000000E+00  0.00000000E+00
  0.00000000E+00  0.00000000E+00  0.00000000E+00
  0.00000000E+00  0.00000000E+00  0.00000000E+00
  0.00000000E+00  0.00000000E+00  0.00000000E+00
  0.00000000E+00  0.00000000E+00  0.00000000E+00
  0.00000000E+00  0.00000000E+00  0.00000000E+00
  0.00000000E+00  0.00000000E+00  0.00000000E+00
  0.00000000E+00  0.00000000E+00  0.00000000E+00
  0.00000000E+00  0.00000000E+00  0.00000000E+00
  0.00000000E+00  0.00000000E+00  0.00000000E+00
  0.00000000E+00  0.00000000E+00  0.00000000E+00
  0.00000000E+00  0.00000000E+00  0.00000000E+00
  0.00000000E+00  0.00000000E+00  0.00000000E+00
  0.00000000E+00  0.00000000E+00  0.00000000E+00
  0.00000000E+00  0.00000000E+00  0.00000000E+00
  0.00000000E+00  0.00000000E+00  0.00000000E+00
  0.00000000E+00  0.00000000E+00  0.00000000E+00
  0.00000000E+00  0.00000000E+00  0.00000000E+00
  0.00000000E+00  0.00000000E+00  0.00000000E+00
  0.00000000E+00  0.00000000E+00  0.00000000E+00
  0.00000000E+00  0.00000000E+00  0.00000000E+00
  0.00000000E+00  0.00000000E+00  0.00000000E+00
  0.00000000E+00  0.00000000E+00  0.00000000E+00
  0.00000000E+00  0.00000000E+00  0.00000000E+00
  0.00000000E+00  0.00000000E+00  0.00000000E+00
  0.00000000E+00  0.00000000E+00  0.00000000E+00
  0.00000000E+00  0.00000000E+00  0.00000000E+00
  0.00000000E+00  0.00000000E+00  0.00000000E+00
  0.00000000E+00  0.00000000E+00  0.00000000E+00
  0.00000000E+00  0.00000000E+00  0.00000000E+00
  0.00000000E+00  0.00000000E+00  0.00000000E+00
  0.00000000E+00  0.00000000E+00  0.00000000E+00
  0.00000000E+00  0.00000000E+00  0.00000000E+00
  0.00000000E+00  0.00000000E+00  0.00000000E+00
  0.00000000E+00  0.00000000E+00  0.00000000E+00
  0.00000000E+00  0.00000000E+00  0.00000000E+00
  0.00000000E+00  0.00000000E+00  0.00000000E+00
  0.00000000E+00  0.00000000E+00  0.00000000E+00
  0.00000000E+00  0.00000000E+00  0.00000000E+00
  0.00000000E+00  0.00000000E+00  0.00000000E+00
  0.00000000E+00  0.00000000E+00  0.00000000E+00
  0.00000000E+00  0.00000000E+00  0.00000000E+00
  0.00000000E+00  0.00000000E+00  0.00000000E+00
  0.00000000E+00  0.00000000E+00  0.00000000E+00
  0.00000000E+00  0.00000000E+00  0.00000000E+00
  0.00000000E+00  0.00000000E+00  0.00000000E+00
  0.00000000E+00  0.00000000E+00  0.00000000E+00
  0.00000000E+00  0.00000000E+00  0.00000000E+00
  0.00000000E+00  0.00000000E+00  0.00000000E+00
  0.00000000E+00  0.00000000E+00  0.00000000E+00
