CeO2-you-111-you-Ca                     
   1.00000000000000     
     9.8534920346294488   -5.6889166493203716    0.0000000000000000
    -0.0000000010366359   11.3778312945882583    0.0000000000000000
     0.0000000000000000   -0.0000000000000000   20.4307580790379362
   O    Ca   Ce H
    54     1    26 1
Selective dynamics
Direct
 -0.0002482308141333 -0.0002692921794836  0.9895674273063785   T   T   T
  0.1100839427782056  0.2217084713896046  0.1482866120408327   F   F   F
  0.2202192847717180  0.1071055695445369  0.3079827963383135   T   T   T
  0.0978558482896249  0.2155944241461724  0.3907529068909589   T   T   T
 -0.0003876441604001 -0.0003125830964337  0.2303811146556070   T   T   T
  0.2222932743131292  0.1112535486260614  0.0714823388861153   F   F   F
  0.3333119386347471 -0.0002692921793681  0.9895674273063785   T   T   T
  0.4449575286113954  0.2217084713900488  0.1482866120408327   F   F   F
  0.5565290996227367  0.1101379003764924  0.3064104128001265   T   T   T
  0.4510715758565437  0.2155944241473782  0.3907529068909589   T   T   T
  0.3334080610640822 -0.0003125830962253  0.2303811146556069   T   T   T
  0.5556352638822573  0.1110317361181477  0.0712537168158096   F   F   F
  0.6666669999999968 -0.0000000000000000  0.9895098981824612   T   T   T
  0.7776323689277265  0.2219307378554588  0.1481257682190419   F   F   F
  0.8869428007539938  0.1101379003767304  0.3064104128001265   T   T   T
  0.7776726598832310  0.2220113197667533  0.3895918931517055   T   T   T
  0.6666669999999968 -0.0000000000000000  0.2301558876334927   T   T   T
  0.8887304722357676  0.1110317361180244  0.0712537168158096   F   F   F
 -0.0002482308139215  0.3333540613656138  0.9895674273063785   T   T   T
  0.1111295472611147  0.5555374527385533  0.1482963920657575   F   F   F
  0.2202192847692306  0.4464467152271774  0.3079827963383135   T   T   T
  0.1106213164108368  0.5560456835895067  0.3900364133937607   T   T   T
 -0.0003876441601467  0.3332579389365066  0.2303811146556070   T   T   T
  0.2222932743135657  0.4443727256870638  0.0714823388861153   F   F   F
  0.3333330000000032  0.3333330000000032  0.9898151502407971   T   T   T
  0.4449575286103947  0.5565830572203536  0.1482866120408327   F   F   F
  0.5595614304590582  0.4464467152282813  0.3079827963383135   T   T   T
  0.4510715758538269  0.5688111517064567  0.3907529068909589   T   T   T
  0.3333330000000032  0.3333330000000032  0.2279962050611601   T   T   T
  0.5554134513733122  0.4443727256868703  0.0714823388861153   F   F   F
  0.6669362921794345  0.3333540613656353  0.9895674273063785   T   T   T
  0.7777409054775380  0.5555374527386562  0.1482963920657575   F   F   F
  0.8891580703524971  0.4449821407048373  0.3075327962517940   T   T   T
  0.7787573671785614  0.5560456835894027  0.3900364133937607   T   T   T
  0.6669795830965346  0.3332579389366027  0.2303811146556070   T   T   T
  0.8887604970142953  0.4441869940285696  0.0714616618556614   F   F   F
 -0.0000000000000000  0.6666669999999968  0.9898129635380670   T   T   T
  0.1111295472613474  0.8889260945227947  0.1482963920657575   F   F   F
  0.2216838592946522  0.7775089296474997  0.3075327962517940   T   T   T
  0.1106213164106015  0.8879096328210955  0.3900364133937607   T   T   T
 -0.0000000000000000  0.6666669999999968  0.2305057917844856   T   T   T
  0.2224790059713662  0.7779065029857015  0.0714616618556614   F   F   F
  0.3333119386346982  0.6669152308138484  0.9895674273063785   T   T   T
  0.4447352621445375  0.8890346310722703  0.1481257682190419   F   F   F
  0.5565290996232733  0.7797241992467778  0.3064104128001265   T   T   T
  0.4446546802341719  0.8889943401167658  0.3895918931517055   T   T   T
  0.3334080610638656  0.6670546441598310  0.2303811146556070   T   T   T
  0.5556352638819798  0.7779365277638278  0.0712537168158096   F   F   F
  0.6669362921791747  0.6669152308137547  0.9895674273063785   T   T   T
  0.7776323689277287  0.8890346310722711  0.1481257682190419   F   F   F
  0.8891580703528504  0.7775089296476562  0.3075327962517940   T   T   T
  0.7776726598825900  0.8889943401164807  0.3895918931517055   T   T   T
  0.6669795830960646  0.6670546441597185  0.2303811146556070   T   T   T
  0.8887604970143390  0.7779065029857215  0.0714616618556614   F   F   F
  0.3333330000000032  0.3333330000000032  0.3534199206403794   T   T   T
  0.0001685414329630  0.0006087595856349  0.3485289968432783   T   T   T
  0.2228066743730835  0.1122803487461710  0.1903561726539164   F   F   F
  0.1111249094432302  0.2222289547216416  0.0307447607920528   F   F   F
  0.3337732181526781  0.0006087595858910  0.3485289968432783   T   T   T
  0.5557012961135595  0.1109657038861030  0.1892487918428032   F   F   F
  0.4444370452784074  0.2222289547216638  0.0307447607920528   F   F   F
  0.6666669999999968 -0.0000000000000000  0.3479404901995337   T   T   T
  0.8885984077726493  0.1109657038862079  0.1892487918428032   F   F   F
  0.7777463531388040  0.2221587062775043  0.0303531191081929   F   F   F
  0.0001685414329698  0.3328927818479083  0.3485289968432783   T   T   T
  0.2228066743730671  0.4438593256269086  0.1903561726539164   F   F   F
  0.1111786527325061  0.5554883472671508  0.0308283056584556   F   F   F
  0.5543866512538563  0.4438593256269157  0.1903561726539164   F   F   F
  0.4444370452783576  0.5555420905567016  0.0307447607920528   F   F   F
  0.6660582404149289  0.3328927818481615  0.3485289968432783   T   T   T
  0.8889402706614252  0.4445465413230017  0.1894554273753655   F   F   F
  0.7776426945347472  0.5554883472672573  0.0308283056584556   F   F   F
 -0.0000000000000000  0.6666669999999968  0.3487636014661621   T   T   T
  0.2221194586774927  0.7777267293385716  0.1894554273753655   F   F   F
  0.1111786527327466  0.8890243054655966  0.0308283056584556   F   F   F
  0.3337732181521080  0.6664984585662034  0.3485289968432783   T   T   T
  0.5557012961137959  0.7780685922276894  0.1892487918428032   F   F   F
  0.4445072937221370  0.8889206468611928  0.0303531191081929   F   F   F
  0.6660582404143522  0.6664984585662007  0.3485289968432783   T   T   T
  0.8889402706610825  0.7777267293384196  0.1894554273753655   F   F   F
  0.7777463531390518  0.8889206468613030  0.0303531191081929   F   F   F
0.446598 0.216020 0.433410 T T T 
 
  0.00000000E+00  0.00000000E+00  0.00000000E+00
  0.00000000E+00  0.00000000E+00  0.00000000E+00
  0.00000000E+00  0.00000000E+00  0.00000000E+00
  0.00000000E+00  0.00000000E+00  0.00000000E+00
  0.00000000E+00  0.00000000E+00  0.00000000E+00
  0.00000000E+00  0.00000000E+00  0.00000000E+00
  0.00000000E+00  0.00000000E+00  0.00000000E+00
  0.00000000E+00  0.00000000E+00  0.00000000E+00
  0.00000000E+00  0.00000000E+00  0.00000000E+00
  0.00000000E+00  0.00000000E+00  0.00000000E+00
  0.00000000E+00  0.00000000E+00  0.00000000E+00
  0.00000000E+00  0.00000000E+00  0.00000000E+00
  0.00000000E+00  0.00000000E+00  0.00000000E+00
  0.00000000E+00  0.00000000E+00  0.00000000E+00
  0.00000000E+00  0.00000000E+00  0.00000000E+00
  0.00000000E+00  0.00000000E+00  0.00000000E+00
  0.00000000E+00  0.00000000E+00  0.00000000E+00
  0.00000000E+00  0.00000000E+00  0.00000000E+00
  0.00000000E+00  0.00000000E+00  0.00000000E+00
  0.00000000E+00  0.00000000E+00  0.00000000E+00
  0.00000000E+00  0.00000000E+00  0.00000000E+00
  0.00000000E+00  0.00000000E+00  0.00000000E+00
  0.00000000E+00  0.00000000E+00  0.00000000E+00
  0.00000000E+00  0.00000000E+00  0.00000000E+00
  0.00000000E+00  0.00000000E+00  0.00000000E+00
  0.00000000E+00  0.00000000E+00  0.00000000E+00
  0.00000000E+00  0.00000000E+00  0.00000000E+00
  0.00000000E+00  0.00000000E+00  0.00000000E+00
  0.00000000E+00  0.00000000E+00  0.00000000E+00
  0.00000000E+00  0.00000000E+00  0.00000000E+00
  0.00000000E+00  0.00000000E+00  0.00000000E+00
  0.00000000E+00  0.00000000E+00  0.00000000E+00
  0.00000000E+00  0.00000000E+00  0.00000000E+00
  0.00000000E+00  0.00000000E+00  0.00000000E+00
  0.00000000E+00  0.00000000E+00  0.00000000E+00
  0.00000000E+00  0.00000000E+00  0.00000000E+00
  0.00000000E+00  0.00000000E+00  0.00000000E+00
  0.00000000E+00  0.00000000E+00  0.00000000E+00
  0.00000000E+00  0.00000000E+00  0.00000000E+00
  0.00000000E+00  0.00000000E+00  0.00000000E+00
  0.00000000E+00  0.00000000E+00  0.00000000E+00
  0.00000000E+00  0.00000000E+00  0.00000000E+00
  0.00000000E+00  0.00000000E+00  0.00000000E+00
  0.00000000E+00  0.00000000E+00  0.00000000E+00
  0.00000000E+00  0.00000000E+00  0.00000000E+00
  0.00000000E+00  0.00000000E+00  0.00000000E+00
  0.00000000E+00  0.00000000E+00  0.00000000E+00
  0.00000000E+00  0.00000000E+00  0.00000000E+00
  0.00000000E+00  0.00000000E+00  0.00000000E+00
  0.00000000E+00  0.00000000E+00  0.00000000E+00
  0.00000000E+00  0.00000000E+00  0.00000000E+00
  0.00000000E+00  0.00000000E+00  0.00000000E+00
  0.00000000E+00  0.00000000E+00  0.00000000E+00
  0.00000000E+00  0.00000000E+00  0.00000000E+00
  0.00000000E+00  0.00000000E+00  0.00000000E+00
  0.00000000E+00  0.00000000E+00  0.00000000E+00
  0.00000000E+00  0.00000000E+00  0.00000000E+00
  0.00000000E+00  0.00000000E+00  0.00000000E+00
  0.00000000E+00  0.00000000E+00  0.00000000E+00
  0.00000000E+00  0.00000000E+00  0.00000000E+00
  0.00000000E+00  0.00000000E+00  0.00000000E+00
  0.00000000E+00  0.00000000E+00  0.00000000E+00
  0.00000000E+00  0.00000000E+00  0.00000000E+00
  0.00000000E+00  0.00000000E+00  0.00000000E+00
  0.00000000E+00  0.00000000E+00  0.00000000E+00
  0.00000000E+00  0.00000000E+00  0.00000000E+00
  0.00000000E+00  0.00000000E+00  0.00000000E+00
  0.00000000E+00  0.00000000E+00  0.00000000E+00
  0.00000000E+00  0.00000000E+00  0.00000000E+00
  0.00000000E+00  0.00000000E+00  0.00000000E+00
  0.00000000E+00  0.00000000E+00  0.00000000E+00
  0.00000000E+00  0.00000000E+00  0.00000000E+00
  0.00000000E+00  0.00000000E+00  0.00000000E+00
  0.00000000E+00  0.00000000E+00  0.00000000E+00
  0.00000000E+00  0.00000000E+00  0.00000000E+00
  0.00000000E+00  0.00000000E+00  0.00000000E+00
  0.00000000E+00  0.00000000E+00  0.00000000E+00
  0.00000000E+00  0.00000000E+00  0.00000000E+00
  0.00000000E+00  0.00000000E+00  0.00000000E+00
  0.00000000E+00  0.00000000E+00  0.00000000E+00
  0.00000000E+00  0.00000000E+00  0.00000000E+00
