CeO2-you-111-you-In                     
   1.00000000000000     
     9.8503223024340159   -5.6870866018270956    0.0000000005234767
     0.0155238340482827   11.4010592696020741    0.0099744722104691
     0.0107968259562429    0.0187006479432592   20.9204396210637036
   O    In   Ce H
    53     1    26 2
Selective dynamics
Direct
 -0.0001050397172416  0.0002422275221313  0.9947413497588201   T   T   T
  0.1088532893612163  0.2217047417150928  0.1486778195410370   F   F   F
  0.2180336648192458  0.1027343296389616  0.2997987812635769   T   T   T
  0.1134883373220569  0.2190025756480053  0.3829028220694852   T   T   T
 -0.0021332312403873 -0.0011177929353337  0.2281098378544685   T   T   T
  0.2222776770003771  0.1112223540007568  0.0730908756225592   F   F   F
  0.3336802672393356  0.0002422275220321  0.9947413497588196   T   T   T
  0.4461844523534866  0.2217047417146189  0.1486778195410343   F   F   F
  0.5570590978457185  0.1130300997841590  0.3043170588966010   T   T   T
  0.4388472383258955  0.2190025756481520  0.3829028220695378   T   T   T
  0.3343484383050539 -0.0011177929358885  0.2281098378544700   T   T   T
  0.5572342712167875  0.1115600891204965  0.0745852251895354   F   F   F
  0.6667446216256251  0.0001552432512910  0.9947093932680064   T   T   T
  0.7785847813853584  0.2238355627707498  0.1527123547521599   F   F   F
  0.8893050019388041  0.1130300997847132  0.3043170588965970   T   T   T
  0.7779614203292795  0.2225888406583894  0.3853617883717403   T   T   T
  0.6640115716634216 -0.0053108566734386  0.2314064963362782   T   T   T
  0.8876598179038151  0.1115600891207529  0.0745852251895340   F   F   F
  0.0005821856934898  0.3336871845141055  0.9948498890422059   T   T   T
  0.1101652638610615  0.5547189385630428  0.1494163631864392   F   F   F
  0.2457325835487710  0.4501459669413589  0.3129858053411326   T   T   T
  0.1042690982033728  0.5522103879235152  0.3847307137971805   T   T   T
  0.0094327377408239  0.3382471213266509  0.2324352453849413   T   T   T
  0.2229889741813255  0.4447758217904366  0.0750294772584520   F   F   F
  0.3338017317011178  0.3342704634023026  0.9949939032655922   T   T   T
  0.4453917447808738  0.5574514895621143  0.1500421540578127   F   F   F
  0.5377473833920988  0.4501459669423484  0.3129858053413634   T   T   T
  0.3313684342732975  0.3294038685471634  0.2247398368601130   T   T   T
  0.5551208476089436  0.4447758217903260  0.0750294772584509   F   F   F
  0.6664389988205033  0.3336871845139990  0.9948498890422026   T   T   T
  0.7778866747019357  0.5547189385628611  0.1494163631864391   F   F   F
  0.8876377088899011  0.4419414177796646  0.3039290759687581   T   T   T
  0.7812742897201522  0.5522103879244574  0.3847307137971143   T   T   T
  0.6621483835856591  0.3382471213265827  0.2324352453849479   T   T   T
  0.8882287660443897  0.4431235320887706  0.0747199102620169   F   F   F
  0.0001029924652030  0.6668729849302568  0.9949625695060567   T   T   T
  0.1109447496242934  0.8885564992481257  0.1475021734332356   F   F   F
  0.2197168987042552  0.7796097004282652  0.3035637837661450   T   T   T
  0.1107841280372531  0.8882352560742315  0.3849978989157887   T   T   T
 -0.0000989609759702  0.6664690780478346  0.2287468899754695   T   T   T
  0.2226479811887314  0.7772963987326910  0.0738604765606199   F   F   F
  0.3337023448960976  0.6663114922016247  0.9948678781356189   T   T   T
  0.4459962950110800  0.8897037839166968  0.1490333227414781   F   F   F
  0.5499218790027099  0.7665097580054163  0.3115945907294287   T   T   T
  0.4471520446974954  0.8975370768198335  0.3861351888271054   T   T   T
  0.3315012790628214  0.6676379851341330  0.2285998120505104   T   T   T
  0.5556043721519476  0.7778747443038879  0.0747258118839832   F   F   F
  0.6659421473055414  0.6663114922015739  0.9948678781356143   T   T   T
  0.7770404889058674  0.8897037839169927  0.1490333227414794   F   F   F
  0.8932258017257058  0.7796097004297123  0.3035637837661115   T   T   T
  0.7837180321240559  0.8975370768205451  0.3861351888271142   T   T   T
  0.6694697060713468  0.6676379851345202  0.2285998120505122   T   T   T
  0.8879814175441043  0.7772963987327671  0.0738604765606272   F   F   F
  0.3217821871376502  0.3102313742756814  0.3355249237877662   T   T   T
  0.0022780961211794  0.0020197484675966  0.3447737276814765   T   T   T
  0.2213463947613789  0.1093597895232247  0.1873453117227294   F   F   F
  0.1111337857794280  0.2230513359027827  0.0346672413700041   F   F   F
  0.3330746523469961  0.0020197484694776  0.3447737276814725   T   T   T
  0.5548687780701286  0.1110296252754093  0.1902944014220400   F   F   F
  0.4452505501235026  0.2230513359030247  0.0346672413700065   F   F   F
  0.6673306872680911  0.0013273745381189  0.3463735312489137   T   T   T
  0.8894948472047567  0.1110296252745846  0.1902944014220548   F   F   F
  0.7780200907887569  0.2227061815774303  0.0351966539532293   F   F   F
  0.0029947471815733  0.3324014251144498  0.3456515102326134   T   T   T
  0.2244221722330556  0.4445762634088153  0.1903413272881988   F   F   F
  0.1113563185130848  0.5552689416885824  0.0349522298907875   F   F   F
  0.5534880911771154  0.4445762634097750  0.1903413272882329   F   F   F
  0.4445897392049220  0.5558474784096853  0.0346014984339979   F   F   F
  0.6627406779333429  0.3324014251143426  0.3456515102326536   T   T   T
  0.8894679215460968  0.4456018430921591  0.1907499330847839   F   F   F
  0.7772456231755194  0.5552689416887558  0.0349522298907877   F   F   F
 -0.0009242329701671  0.6648185340605127  0.3444111063830934   T   T   T
  0.2219768923218294  0.7780898816331993  0.1877788144751837   F   F   F
  0.1111390121634095  0.8889450243269369  0.0331917275120923   F   F   F
  0.3259126403389062  0.6740145616551997  0.3426451364168052   T   T   T
  0.5554593715355409  0.7775847430710603  0.1901036180155318   F   F   F
  0.4453324226934056  0.8892879634501087  0.0346256375137880   F   F   F
  0.6814349213150617  0.6740145616518201  0.3426451364165705   T   T   T
  0.8894459893106592  0.7780898816327754  0.1877788144751847   F   F   F
  0.7772885407566723  0.8892879634500370  0.0346256375137871   F   F   F
0.443217821871376502 0.563102313742756814 0.40135525 T T T
0.446598 0.216020 0.433410 T T T 
 
  0.00000000E+00  0.00000000E+00  0.00000000E+00
  0.00000000E+00  0.00000000E+00  0.00000000E+00
  0.00000000E+00  0.00000000E+00  0.00000000E+00
  0.00000000E+00  0.00000000E+00  0.00000000E+00
  0.00000000E+00  0.00000000E+00  0.00000000E+00
  0.00000000E+00  0.00000000E+00  0.00000000E+00
  0.00000000E+00  0.00000000E+00  0.00000000E+00
  0.00000000E+00  0.00000000E+00  0.00000000E+00
  0.00000000E+00  0.00000000E+00  0.00000000E+00
  0.00000000E+00  0.00000000E+00  0.00000000E+00
  0.00000000E+00  0.00000000E+00  0.00000000E+00
  0.00000000E+00  0.00000000E+00  0.00000000E+00
  0.00000000E+00  0.00000000E+00  0.00000000E+00
  0.00000000E+00  0.00000000E+00  0.00000000E+00
  0.00000000E+00  0.00000000E+00  0.00000000E+00
  0.00000000E+00  0.00000000E+00  0.00000000E+00
  0.00000000E+00  0.00000000E+00  0.00000000E+00
  0.00000000E+00  0.00000000E+00  0.00000000E+00
  0.00000000E+00  0.00000000E+00  0.00000000E+00
  0.00000000E+00  0.00000000E+00  0.00000000E+00
  0.00000000E+00  0.00000000E+00  0.00000000E+00
  0.00000000E+00  0.00000000E+00  0.00000000E+00
  0.00000000E+00  0.00000000E+00  0.00000000E+00
  0.00000000E+00  0.00000000E+00  0.00000000E+00
  0.00000000E+00  0.00000000E+00  0.00000000E+00
  0.00000000E+00  0.00000000E+00  0.00000000E+00
  0.00000000E+00  0.00000000E+00  0.00000000E+00
  0.00000000E+00  0.00000000E+00  0.00000000E+00
  0.00000000E+00  0.00000000E+00  0.00000000E+00
  0.00000000E+00  0.00000000E+00  0.00000000E+00
  0.00000000E+00  0.00000000E+00  0.00000000E+00
  0.00000000E+00  0.00000000E+00  0.00000000E+00
  0.00000000E+00  0.00000000E+00  0.00000000E+00
  0.00000000E+00  0.00000000E+00  0.00000000E+00
  0.00000000E+00  0.00000000E+00  0.00000000E+00
  0.00000000E+00  0.00000000E+00  0.00000000E+00
  0.00000000E+00  0.00000000E+00  0.00000000E+00
  0.00000000E+00  0.00000000E+00  0.00000000E+00
  0.00000000E+00  0.00000000E+00  0.00000000E+00
  0.00000000E+00  0.00000000E+00  0.00000000E+00
  0.00000000E+00  0.00000000E+00  0.00000000E+00
  0.00000000E+00  0.00000000E+00  0.00000000E+00
  0.00000000E+00  0.00000000E+00  0.00000000E+00
  0.00000000E+00  0.00000000E+00  0.00000000E+00
  0.00000000E+00  0.00000000E+00  0.00000000E+00
  0.00000000E+00  0.00000000E+00  0.00000000E+00
  0.00000000E+00  0.00000000E+00  0.00000000E+00
  0.00000000E+00  0.00000000E+00  0.00000000E+00
  0.00000000E+00  0.00000000E+00  0.00000000E+00
  0.00000000E+00  0.00000000E+00  0.00000000E+00
  0.00000000E+00  0.00000000E+00  0.00000000E+00
  0.00000000E+00  0.00000000E+00  0.00000000E+00
  0.00000000E+00  0.00000000E+00  0.00000000E+00
  0.00000000E+00  0.00000000E+00  0.00000000E+00
  0.00000000E+00  0.00000000E+00  0.00000000E+00
  0.00000000E+00  0.00000000E+00  0.00000000E+00
  0.00000000E+00  0.00000000E+00  0.00000000E+00
  0.00000000E+00  0.00000000E+00  0.00000000E+00
  0.00000000E+00  0.00000000E+00  0.00000000E+00
  0.00000000E+00  0.00000000E+00  0.00000000E+00
  0.00000000E+00  0.00000000E+00  0.00000000E+00
  0.00000000E+00  0.00000000E+00  0.00000000E+00
  0.00000000E+00  0.00000000E+00  0.00000000E+00
  0.00000000E+00  0.00000000E+00  0.00000000E+00
  0.00000000E+00  0.00000000E+00  0.00000000E+00
  0.00000000E+00  0.00000000E+00  0.00000000E+00
  0.00000000E+00  0.00000000E+00  0.00000000E+00
  0.00000000E+00  0.00000000E+00  0.00000000E+00
  0.00000000E+00  0.00000000E+00  0.00000000E+00
  0.00000000E+00  0.00000000E+00  0.00000000E+00
  0.00000000E+00  0.00000000E+00  0.00000000E+00
  0.00000000E+00  0.00000000E+00  0.00000000E+00
  0.00000000E+00  0.00000000E+00  0.00000000E+00
  0.00000000E+00  0.00000000E+00  0.00000000E+00
  0.00000000E+00  0.00000000E+00  0.00000000E+00
  0.00000000E+00  0.00000000E+00  0.00000000E+00
  0.00000000E+00  0.00000000E+00  0.00000000E+00
  0.00000000E+00  0.00000000E+00  0.00000000E+00
  0.00000000E+00  0.00000000E+00  0.00000000E+00
  0.00000000E+00  0.00000000E+00  0.00000000E+00
