CeO2-you-111-you-Bi                     
   1.00000000000000     
     9.8516419767906225   -5.6878485178719771    0.0000000000000000
    -0.0000000010121192   11.3756950321098689   -0.0000000000000000
     0.0000000000000000   -0.0000000000000000   21.2880923991241851
   O    Bi   Ce H
    54     1    26 1
Selective dynamics
Direct
 -0.0000751121599182 -0.0000380351032665  0.9978998322184348   T   T   T
  0.1113500329839043  0.2223415164919440  0.1501839608862884   F   F   F
  0.2220778694989237  0.1108227389978956  0.3023004668841574   T   T   T
  0.1090703130732066  0.2212016565367946  0.3817751694886249   T   T   T
 -0.0002011713802602 -0.0002555242437009  0.2290316700958643   T   T   T
  0.2221730880260305  0.1110131760520647  0.0761882473561725   F   F   F
  0.3333700770566552 -0.0000380351032651  0.9978998322184348   T   T   T
  0.4443244835080358  0.2223415164919353  0.1501839608862884   F   F   F
  0.5554235743752448  0.1112434256246732  0.3031693812316802   T   T   T
  0.4454643434635841  0.2212016565369630  0.3817751694886249   T   T   T
  0.3332786471365430 -0.0002555242437041  0.2290316700958643   T   T   T
  0.5555149110288489  0.1111520889711355  0.0763678180462130   F   F   F
  0.6666669999999968 -0.0000000000000000  0.9980122870997835   T   T   T
  0.7777329466543259  0.2221318933086606  0.1502039760485168   F   F   F
  0.8891538512494556  0.1112434256246996  0.3031693812316802   T   T   T
  0.7778045779458914  0.2222751558917993  0.3811404790645203   T   T   T
  0.6666669999999968 -0.0000000000000000  0.2291326508411920   T   T   T
  0.8889711779422934  0.1111520889711415  0.0763678180462130   F   F   F
 -0.0000751121599176  0.3332959229433544  0.9978998322184348   T   T   T
  0.1109896085255185  0.5556773914744106  0.1501170128628720   F   F   F
  0.2220778694988080  0.4445881305010243  0.3023004668841574   T   T   T
  0.1110950333831734  0.5555719666168023  0.3808425520348252   T   T   T
 -0.0002011713803040  0.3333873528634367  0.2290316700958643   T   T   T
  0.2221730880260150  0.4444929119739620  0.0761882473561725   F   F   F
  0.3333330000000032  0.3333330000000032  0.9979782471360329   T   T   T
  0.4443244835080554  0.5553169670161279  0.1501839608862884   F   F   F
  0.5558442610022754  0.4445881305010755  0.3023004668841574   T   T   T
  0.4454643434632048  0.5575966869262495  0.3817751694886249   T   T   T
  0.3333330000000032  0.3333330000000032  0.2296582780997952   T   T   T
  0.5556538239479617  0.4444929119739688  0.0761882473561725   F   F   F
  0.6667050351032654  0.3332959229433556  0.9978998322184348   T   T   T
  0.7780207829489112  0.5556773914744336  0.1501170128628720   F   F   F
  0.8889997922293288  0.4446655844586358  0.3028191475882772   T   T   T
  0.7778099332336336  0.5555719666168111  0.3808425520348252   T   T   T
  0.6669225242437536  0.3333873528634531  0.2290316700958643   T   T   T
  0.8888045234351086  0.4442750468702304  0.0762896244133810   F   F   F
 -0.0000000000000000  0.6666669999999968  0.9980341716811020   T   T   T
  0.1109896085255703  0.8886462170511603  0.1501170128628720   F   F   F
  0.2220004155412952  0.7776672077706680  0.3028191475882772   T   T   T
  0.1110950333831929  0.8888570667663914  0.3808425520348252   T   T   T
 -0.0000000000000000  0.6666669999999968  0.2290459852808140   T   T   T
  0.2223909531298137  0.7778624765648882  0.0762896244133810   F   F   F
  0.3333700770566528  0.6667421121599109  0.9978998322184348   T   T   T
  0.4445341066913459  0.8889340533456709  0.1502039760485168   F   F   F
  0.5554235743753042  0.7775131487506272  0.3031693812316802   T   T   T
  0.4443908441082318  0.8888624220541054  0.3811404790645203   T   T   T
  0.3332786471365064  0.6668681713802479  0.2290316700958643   T   T   T
  0.5555149110288624  0.7776958220577230  0.0763678180462130   F   F   F
  0.6667050351032625  0.6667421121599107  0.9978998322184348   T   T   T
  0.7777329466543210  0.8889340533456686  0.1502039760485168   F   F   F
  0.8889997922293760  0.7776672077706890  0.3028191475882772   T   T   T
  0.7778045779458694  0.8888624220540955  0.3811404790645203   T   T   T
  0.6669225242437612  0.6668681713802674  0.2290316700958643   T   T   T
  0.8888045234350778  0.7778624765648743  0.0762896244133810   F   F   F
  0.3333330000000032  0.3333330000000032  0.3414072037882594   T   T   T
 -0.0001788379121903 -0.0003855743087783  0.3419836095523138   T   T   T
  0.2221279567000176  0.1109229134000440  0.1896826526813068   F   F   F
  0.1111545812499103  0.2222437906249481  0.0371240818365099   F   F   F
  0.3331262636033550 -0.0003855743088049  0.3419836095523138   T   T   T
  0.5555051980210872  0.1111618019788792  0.1896208992830793   F   F   F
  0.4444222093750340  0.2222437906249405  0.0371240818365099   F   F   F
  0.6666669999999968 -0.0000000000000000  0.3422212021890716   T   T   T
  0.8889906039578042  0.1111618019788907  0.1896208992830793   F   F   F
  0.7777909318313068  0.2222478636626151  0.0370972738756319   F   F   F
 -0.0001788379123257  0.3335397363965315  0.3419836095523138   T   T   T
  0.2221279566999908  0.4445380432999698  0.1896826526813068   F   F   F
  0.1111430203018222  0.5555239796981948  0.0371125139091404   F   F   F
  0.5557440865999986  0.4445380432999817  0.1896826526813068   F   F   F
  0.4444222093750511  0.5555124187501184  0.0371240818365099   F   F   F
  0.6670525743089109  0.3335397363965650  0.3419836095523138   T   T   T
  0.8889389881710024  0.4445439763419969  0.1894968429740809   F   F   F
  0.7777139593963647  0.5555239796981909  0.0371125139091404   F   F   F
 -0.0000000000000000  0.6666669999999968  0.3418090012885472   T   T   T
  0.2221220236579791  0.7777280118289944  0.1894968429740809   F   F   F
  0.1111430203018131  0.8889530406036188  0.0371125139091404   F   F   F
  0.3331262636032793  0.6668458379122133  0.3419836095523138   T   T   T
  0.5555051980211132  0.7776763960422302  0.1896208992830793   F   F   F
  0.4444181363373685  0.8888760681686900  0.0370972738756319   F   F   F
  0.6670525743089705  0.6668458379122733  0.3419836095523138   T   T   T
  0.8889389881710185  0.7777280118290016  0.1894968429740809   F   F   F
  0.7777909318313176  0.8888760681686950  0.0370972738756319   F   F   F
0.446598 0.216020 0.433410 T T T 
 
  0.00000000E+00  0.00000000E+00  0.00000000E+00
  0.00000000E+00  0.00000000E+00  0.00000000E+00
  0.00000000E+00  0.00000000E+00  0.00000000E+00
  0.00000000E+00  0.00000000E+00  0.00000000E+00
  0.00000000E+00  0.00000000E+00  0.00000000E+00
  0.00000000E+00  0.00000000E+00  0.00000000E+00
  0.00000000E+00  0.00000000E+00  0.00000000E+00
  0.00000000E+00  0.00000000E+00  0.00000000E+00
  0.00000000E+00  0.00000000E+00  0.00000000E+00
  0.00000000E+00  0.00000000E+00  0.00000000E+00
  0.00000000E+00  0.00000000E+00  0.00000000E+00
  0.00000000E+00  0.00000000E+00  0.00000000E+00
  0.00000000E+00  0.00000000E+00  0.00000000E+00
  0.00000000E+00  0.00000000E+00  0.00000000E+00
  0.00000000E+00  0.00000000E+00  0.00000000E+00
  0.00000000E+00  0.00000000E+00  0.00000000E+00
  0.00000000E+00  0.00000000E+00  0.00000000E+00
  0.00000000E+00  0.00000000E+00  0.00000000E+00
  0.00000000E+00  0.00000000E+00  0.00000000E+00
  0.00000000E+00  0.00000000E+00  0.00000000E+00
  0.00000000E+00  0.00000000E+00  0.00000000E+00
  0.00000000E+00  0.00000000E+00  0.00000000E+00
  0.00000000E+00  0.00000000E+00  0.00000000E+00
  0.00000000E+00  0.00000000E+00  0.00000000E+00
  0.00000000E+00  0.00000000E+00  0.00000000E+00
  0.00000000E+00  0.00000000E+00  0.00000000E+00
  0.00000000E+00  0.00000000E+00  0.00000000E+00
  0.00000000E+00  0.00000000E+00  0.00000000E+00
  0.00000000E+00  0.00000000E+00  0.00000000E+00
  0.00000000E+00  0.00000000E+00  0.00000000E+00
  0.00000000E+00  0.00000000E+00  0.00000000E+00
  0.00000000E+00  0.00000000E+00  0.00000000E+00
  0.00000000E+00  0.00000000E+00  0.00000000E+00
  0.00000000E+00  0.00000000E+00  0.00000000E+00
  0.00000000E+00  0.00000000E+00  0.00000000E+00
  0.00000000E+00  0.00000000E+00  0.00000000E+00
  0.00000000E+00  0.00000000E+00  0.00000000E+00
  0.00000000E+00  0.00000000E+00  0.00000000E+00
  0.00000000E+00  0.00000000E+00  0.00000000E+00
  0.00000000E+00  0.00000000E+00  0.00000000E+00
  0.00000000E+00  0.00000000E+00  0.00000000E+00
  0.00000000E+00  0.00000000E+00  0.00000000E+00
  0.00000000E+00  0.00000000E+00  0.00000000E+00
  0.00000000E+00  0.00000000E+00  0.00000000E+00
  0.00000000E+00  0.00000000E+00  0.00000000E+00
  0.00000000E+00  0.00000000E+00  0.00000000E+00
  0.00000000E+00  0.00000000E+00  0.00000000E+00
  0.00000000E+00  0.00000000E+00  0.00000000E+00
  0.00000000E+00  0.00000000E+00  0.00000000E+00
  0.00000000E+00  0.00000000E+00  0.00000000E+00
  0.00000000E+00  0.00000000E+00  0.00000000E+00
  0.00000000E+00  0.00000000E+00  0.00000000E+00
  0.00000000E+00  0.00000000E+00  0.00000000E+00
  0.00000000E+00  0.00000000E+00  0.00000000E+00
  0.00000000E+00  0.00000000E+00  0.00000000E+00
  0.00000000E+00  0.00000000E+00  0.00000000E+00
  0.00000000E+00  0.00000000E+00  0.00000000E+00
  0.00000000E+00  0.00000000E+00  0.00000000E+00
  0.00000000E+00  0.00000000E+00  0.00000000E+00
  0.00000000E+00  0.00000000E+00  0.00000000E+00
  0.00000000E+00  0.00000000E+00  0.00000000E+00
  0.00000000E+00  0.00000000E+00  0.00000000E+00
  0.00000000E+00  0.00000000E+00  0.00000000E+00
  0.00000000E+00  0.00000000E+00  0.00000000E+00
  0.00000000E+00  0.00000000E+00  0.00000000E+00
  0.00000000E+00  0.00000000E+00  0.00000000E+00
  0.00000000E+00  0.00000000E+00  0.00000000E+00
  0.00000000E+00  0.00000000E+00  0.00000000E+00
  0.00000000E+00  0.00000000E+00  0.00000000E+00
  0.00000000E+00  0.00000000E+00  0.00000000E+00
  0.00000000E+00  0.00000000E+00  0.00000000E+00
  0.00000000E+00  0.00000000E+00  0.00000000E+00
  0.00000000E+00  0.00000000E+00  0.00000000E+00
  0.00000000E+00  0.00000000E+00  0.00000000E+00
  0.00000000E+00  0.00000000E+00  0.00000000E+00
  0.00000000E+00  0.00000000E+00  0.00000000E+00
  0.00000000E+00  0.00000000E+00  0.00000000E+00
  0.00000000E+00  0.00000000E+00  0.00000000E+00
  0.00000000E+00  0.00000000E+00  0.00000000E+00
  0.00000000E+00  0.00000000E+00  0.00000000E+00
  0.00000000E+00  0.00000000E+00  0.00000000E+00
