CeO2-you-111-you-Sc                     
   1.00000000000000     
     9.8179485597385323   -5.6683956152533419    0.0000000000000000
     0.0000000029989134   11.3367892406665067    0.0000000000000000
     0.0000000000000000    0.0000000000000000   21.2677635382006294
   O    Sc   Ce
    54     1    26
Selective dynamics
Direct
 -0.0000187136459590  0.0000715060670780  0.9971430591295030   T   T   T
  0.1118827989789920  0.2226078994894039  0.1504589650972390   T   T   T
  0.2253120818834202  0.1172911637666987  0.3030745616191109   T   T   T
  0.1204516152978712  0.2268923076487312  0.3790921844694231   T   T   T
  0.0009848858129911  0.0006115646926944  0.2296554588713180   T   T   T
  0.2223439623548897  0.1113549247097482  0.0763190396438021   T   T   T
  0.3334232197130519  0.0000715060670886  0.9971430591295030   T   T   T
  0.4440581005104081  0.2226078994893208  0.1504589650972390   T   T   T
  0.5547415491709997  0.1119254508286073  0.3035370801134891   T   T   T
  0.4397736923508561  0.2268923076485483  0.3790921844694231   T   T   T
  0.3329596788797501  0.0006115646926027  0.2296554588713180   T   T   T
  0.5554270036918377  0.1112399963081155  0.0764138142298780   T   T   T
  0.6666669999999968  0.0000000000000000  0.9971681905309295   T   T   T
  0.7777519988410364  0.2221699976820965  0.1502950142796807   T   T   T
  0.8905179016577305  0.1119254508287293  0.3035370801134891   T   T   T
  0.7776575381722907  0.2219810763445542  0.3818123858794344   T   T   T
  0.6666669999999968  0.0000000000000000  0.2295983857408243   T   T   T
  0.8891469926162939  0.1112399963081310  0.0764138142298780   T   T   T
 -0.0000187136459326  0.3332427802869900  0.9971430591295030   T   T   T
  0.1112305317889050  0.5554364682113474  0.1503676104769535   T   T   T
  0.2253120818837323  0.4413539181167176  0.3030745616191109   T   T   T
  0.1119738048379031  0.5546931951623582  0.3813744976898431   T   T   T
  0.0009848858130896  0.3337063211200932  0.2296554588713180   T   T   T
  0.2223439623549529  0.4443220376451375  0.0763190396438021   T   T   T
  0.3333330000000032  0.3333330000000032  0.9969818557047848   T   T   T
  0.4440581005105954  0.5547842010212825  0.1504589650972390   T   T   T
  0.5493758362328544  0.4413539181165790  0.3030745616191109   T   T   T
  0.4397736923512682  0.5462153847027276  0.3790921844694231   T   T   T
  0.3333330000000032  0.3333330000000032  0.2313623317693078   T   T   T
  0.5553120752901644  0.4443220376451096  0.0763190396438021   T   T   T
  0.6665954939329044  0.3332427802869887  0.9971430591295030   T   T   T
  0.7775389364223623  0.5554364682112709  0.1503676104769535   T   T   T
  0.8888908201599309  0.4444476403198708  0.3031932565202932   T   T   T
  0.7760523903243719  0.5546931951622788  0.3813744976898431   T   T   T
  0.6660554353069534  0.3337063211199577  0.2296554588713180   T   T   T
  0.8887958459559792  0.4442576919119783  0.0763768594337890   T   T   T
 -0.0000000000000000  0.6666669999999968  0.9973833180786745   T   T   T
  0.1112305317887329  0.8891280635773862  0.1503676104769535   T   T   T
  0.2222183596801600  0.7777761798400659  0.3031932565202932   T   T   T
  0.1119738048377250  0.8906146096753679  0.3813744976898431   T   T   T
 -0.0000000000000000  0.6666669999999968  0.2291460120566834   T   T   T
  0.2224083080880892  0.7778711540440176  0.0763768594337890   T   T   T
  0.3334232197130545  0.6666857136459331  0.9971430591295030   T   T   T
  0.4444960023179604  0.8889150011589604  0.1502950142796807   T   T   T
  0.5547415491712747  0.7761490983426634  0.3035370801134891   T   T   T
  0.4446849236553352  0.8890094618277061  0.3818123858794344   T   T   T
  0.3329596788800555  0.6656821141873477  0.2296554588713180   T   T   T
  0.5554270036918728  0.7775200073837536  0.0764138142298780   T   T   T
  0.6665954939328809  0.6666857136459216  0.9971430591295030   T   T   T
  0.7777519988409963  0.8889150011589430  0.1502950142796807   T   T   T
  0.8888908201599089  0.7777761798400564  0.3031932565202932   T   T   T
  0.7776575381723670  0.8890094618277398  0.3818123858794344   T   T   T
  0.6660554353071602  0.6656821141873042  0.2296554588713180   T   T   T
  0.8887958459559318  0.7778711540439970  0.0763768594337890   T   T   T
  0.3333330000000032  0.3333330000000032  0.3333846054353956   T   T   T
  0.0034721464030870  0.0032016437040175  0.3425820566227800   T   T   T
  0.2227518727819914  0.1121707455641479  0.1905957523796282   T   T   T
  0.1113846671731038  0.2223588335865596  0.0368637993280030   T   T   T
  0.3330624973009338  0.0032016437041119  0.3425820566227800   T   T   T
  0.5552632356216338  0.1114037643787323  0.1897413825094794   T   T   T
  0.4443071664134519  0.2223588335865650  0.0368637993280030   T   T   T
  0.6666669999999968  0.0000000000000000  0.3428771454503762   T   T   T
  0.8894745287569878  0.1114037643786210  0.1897413825094794   T   T   T
  0.7778858967408165  0.2224377934816190  0.0366377042545318   T   T   T
  0.0034721464030874  0.3336035026992855  0.3425820566227800   T   T   T
  0.2227518727816123  0.4439141272178396  0.1905957523796282   T   T   T
  0.1111534458302229  0.5555135541697186  0.0369779174785854   T   T   T
  0.5544962544364034  0.4439141272180079  0.1905957523796282   T   T   T
  0.4443071664134396  0.5552823328268826  0.0368637993280030   T   T   T
  0.6634653562961915  0.3336035026993797  0.3425820566227800   T   T   T
  0.8888696459091918  0.4444052918183055  0.1899823754872073   T   T   T
  0.7776931083395110  0.5555135541697378  0.0369779174785854   T   T   T
 -0.0000000000000000  0.6666669999999968  0.3418581048204161   T   T   T
  0.2222607081814407  0.7777973540908050  0.1899823754872073   T   T   T
  0.1111534458302661  0.8889738916605483  0.0369779174785854   T   T   T
  0.3330624973007216  0.6631948535966027  0.3425820566227800   T   T   T
  0.5552632356213829  0.7771924712426470  0.1897413825094794   T   T   T
  0.4442282065183132  0.8887811032591802  0.0366377042545318   T   T   T
  0.6634653562959786  0.6631948535966027  0.3425820566227800   T   T   T
  0.8888696459093675  0.7777973540908826  0.1899823754872073   T   T   T
  0.7778858967408629  0.8887811032592010  0.0366377042545318   T   T   T
 
  0.00000000E+00  0.00000000E+00  0.00000000E+00
  0.00000000E+00  0.00000000E+00  0.00000000E+00
  0.00000000E+00  0.00000000E+00  0.00000000E+00
  0.00000000E+00  0.00000000E+00  0.00000000E+00
  0.00000000E+00  0.00000000E+00  0.00000000E+00
  0.00000000E+00  0.00000000E+00  0.00000000E+00
  0.00000000E+00  0.00000000E+00  0.00000000E+00
  0.00000000E+00  0.00000000E+00  0.00000000E+00
  0.00000000E+00  0.00000000E+00  0.00000000E+00
  0.00000000E+00  0.00000000E+00  0.00000000E+00
  0.00000000E+00  0.00000000E+00  0.00000000E+00
  0.00000000E+00  0.00000000E+00  0.00000000E+00
  0.00000000E+00  0.00000000E+00  0.00000000E+00
  0.00000000E+00  0.00000000E+00  0.00000000E+00
  0.00000000E+00  0.00000000E+00  0.00000000E+00
  0.00000000E+00  0.00000000E+00  0.00000000E+00
  0.00000000E+00  0.00000000E+00  0.00000000E+00
  0.00000000E+00  0.00000000E+00  0.00000000E+00
  0.00000000E+00  0.00000000E+00  0.00000000E+00
  0.00000000E+00  0.00000000E+00  0.00000000E+00
  0.00000000E+00  0.00000000E+00  0.00000000E+00
  0.00000000E+00  0.00000000E+00  0.00000000E+00
  0.00000000E+00  0.00000000E+00  0.00000000E+00
  0.00000000E+00  0.00000000E+00  0.00000000E+00
  0.00000000E+00  0.00000000E+00  0.00000000E+00
  0.00000000E+00  0.00000000E+00  0.00000000E+00
  0.00000000E+00  0.00000000E+00  0.00000000E+00
  0.00000000E+00  0.00000000E+00  0.00000000E+00
  0.00000000E+00  0.00000000E+00  0.00000000E+00
  0.00000000E+00  0.00000000E+00  0.00000000E+00
  0.00000000E+00  0.00000000E+00  0.00000000E+00
  0.00000000E+00  0.00000000E+00  0.00000000E+00
  0.00000000E+00  0.00000000E+00  0.00000000E+00
  0.00000000E+00  0.00000000E+00  0.00000000E+00
  0.00000000E+00  0.00000000E+00  0.00000000E+00
  0.00000000E+00  0.00000000E+00  0.00000000E+00
  0.00000000E+00  0.00000000E+00  0.00000000E+00
  0.00000000E+00  0.00000000E+00  0.00000000E+00
  0.00000000E+00  0.00000000E+00  0.00000000E+00
  0.00000000E+00  0.00000000E+00  0.00000000E+00
  0.00000000E+00  0.00000000E+00  0.00000000E+00
  0.00000000E+00  0.00000000E+00  0.00000000E+00
  0.00000000E+00  0.00000000E+00  0.00000000E+00
  0.00000000E+00  0.00000000E+00  0.00000000E+00
  0.00000000E+00  0.00000000E+00  0.00000000E+00
  0.00000000E+00  0.00000000E+00  0.00000000E+00
  0.00000000E+00  0.00000000E+00  0.00000000E+00
  0.00000000E+00  0.00000000E+00  0.00000000E+00
  0.00000000E+00  0.00000000E+00  0.00000000E+00
  0.00000000E+00  0.00000000E+00  0.00000000E+00
  0.00000000E+00  0.00000000E+00  0.00000000E+00
  0.00000000E+00  0.00000000E+00  0.00000000E+00
  0.00000000E+00  0.00000000E+00  0.00000000E+00
  0.00000000E+00  0.00000000E+00  0.00000000E+00
  0.00000000E+00  0.00000000E+00  0.00000000E+00
  0.00000000E+00  0.00000000E+00  0.00000000E+00
  0.00000000E+00  0.00000000E+00  0.00000000E+00
  0.00000000E+00  0.00000000E+00  0.00000000E+00
  0.00000000E+00  0.00000000E+00  0.00000000E+00
  0.00000000E+00  0.00000000E+00  0.00000000E+00
  0.00000000E+00  0.00000000E+00  0.00000000E+00
  0.00000000E+00  0.00000000E+00  0.00000000E+00
  0.00000000E+00  0.00000000E+00  0.00000000E+00
  0.00000000E+00  0.00000000E+00  0.00000000E+00
  0.00000000E+00  0.00000000E+00  0.00000000E+00
  0.00000000E+00  0.00000000E+00  0.00000000E+00
  0.00000000E+00  0.00000000E+00  0.00000000E+00
  0.00000000E+00  0.00000000E+00  0.00000000E+00
  0.00000000E+00  0.00000000E+00  0.00000000E+00
  0.00000000E+00  0.00000000E+00  0.00000000E+00
  0.00000000E+00  0.00000000E+00  0.00000000E+00
  0.00000000E+00  0.00000000E+00  0.00000000E+00
  0.00000000E+00  0.00000000E+00  0.00000000E+00
  0.00000000E+00  0.00000000E+00  0.00000000E+00
  0.00000000E+00  0.00000000E+00  0.00000000E+00
  0.00000000E+00  0.00000000E+00  0.00000000E+00
  0.00000000E+00  0.00000000E+00  0.00000000E+00
  0.00000000E+00  0.00000000E+00  0.00000000E+00
  0.00000000E+00  0.00000000E+00  0.00000000E+00
  0.00000000E+00  0.00000000E+00  0.00000000E+00
  0.00000000E+00  0.00000000E+00  0.00000000E+00
