CeO2-you-111-you-Rh                     
   1.00000000000000     
     9.8592337751549231   -5.6510315450753357   -0.0052103695414149
    -0.0000000014603464   11.3020610987174663    0.0000000006536288
    -0.0108483545421253    0.0000000011502282   21.1174367235843938
   O    Rh   Ce H
    53     1    26 2
Selective dynamics
Direct
 -0.0001513659284634  0.0010931373195492  0.9963939998855613   T   T   T
  0.1115147926885489  0.2224238963440092  0.1506196457926630   F   F   F
  0.2277313583188043  0.1328186223952329  0.3063495072268044   T   T   T
  0.0582262442144789  0.1957796221103781  0.3966424287237617   T   T   T
  0.0028253345401290  0.0015860774240719  0.2297466371895490   T   T   T
  0.2223358504108676  0.1107494385241519  0.0755053547858057   F   F   F
  0.3335204314390731 -0.0000427569106424  0.9954211672539065   T   T   T
  0.4460520997245249  0.2193394407099592  0.1469804887071024   F   F   F
  0.5537482217924863  0.1091148561510502  0.3039268255109401   T   T   T
  0.4569328866395289  0.2527869164572084  0.3710490415874803   T   T   T
  0.3307045115967618  0.0026504283763433  0.2308875425406675   T   T   T
  0.5561998841555621  0.1090329668555306  0.0751777710221857   F   F   F
  0.6688896929906286  0.0011113464955027  0.9956515095878176   T   T   T
  0.7747378996964924  0.2244640378429846  0.1528271385760610   F   F   F
  0.8826813096036579  0.1080071548020163  0.3015767820475062   T   T   T
  0.7721896279039058  0.2183436141258080  0.3855406178032263   T   T   T
  0.6630348753447169 -0.0018160623277322  0.2287795563801469   T   T   T
  0.8877603659159858  0.1105466829578686  0.0774971597230655   F   F   F
 -0.0001513659282725  0.3320884967515349  0.9963939998855686   T   T   T
  0.1100612019437728  0.5560704374915707  0.1506993285498540   F   F   F
  0.2277313583205547  0.4282457359195535  0.3063495072274898   T   T   T
  0.1170793186787031  0.5571385765478579  0.3817844176998162   T   T   T
  0.0028253345414762  0.3345722571146867  0.2297466371894628   T   T   T
  0.2223358504106091  0.4449194118854515  0.0755053547857180   F   F   F
  0.3324299874215933  0.3328814937103219  0.9955884433975277   T   T   T
  0.4460520997227013  0.5600466590165053  0.1469804887072425   F   F   F
  0.4569328866421939  0.5374799701874785  0.3710490415881870   T   T   T
  0.3464726404949310  0.3399028202428110  0.2244565926620623   T   T   T
  0.5563733003169581  0.4448526501590822  0.0727472844185250   F   F   F
  0.6678538531362903  0.3324308485304466  0.9956801840978853   T   T   T
  0.7797842120564280  0.5565591060279729  0.1479493326714111   F   F   F
  0.8918171834140138  0.4429587804363017  0.3048388908532572   T   T   T
  0.7714885789833644  0.5524112894975199  0.3784938000472659   T   T   T
  0.6604699322649532  0.3426791238696802  0.2344587615739217   T   T   T
  0.8897265959029630  0.4438402180709774  0.0754307304254653   F   F   F
  0.0003116142475798  0.6668228071235692  0.9958563729777709   T   T   T
  0.1100612019429306  0.8873247644505244  0.1506993285497370   F   F   F
  0.2229640441416346  0.7781490220702116  0.3027797053659072   T   T   T
  0.1170793186780295  0.8932747421300601  0.3817844177000139   T   T   T
 -0.0016585083909169  0.6658377458034416  0.2305626261455036   T   T   T
  0.2225710829402718  0.7779525414696858  0.0753961862416280   F   F   F
  0.3335204314389451  0.6668971883495469  0.9954211672539796   T   T   T
  0.4419216680832839  0.8876278340413636  0.1515680904421485   F   F   F
  0.5537482217900779  0.7779663656408785  0.3039268255107005   T   T   T
  0.4408962684346387  0.8871151342164264  0.3826839992627432   T   T   T
  0.3307045115970490  0.6613880832203016  0.2308875425406443   T   T   T
  0.5561998841556183  0.7804999173013769  0.0751777710223054   F   F   F
  0.6678538531364333  0.6687560046070454  0.9956801840980692   T   T   T
  0.7747378996947341  0.8836068618529777  0.1528271385757301   F   F   F
  0.8918171834125166  0.7821914029747897  0.3048388908531682   T   T   T
  0.7721896279023498  0.8871790137785569  0.3855406178036873   T   T   T
  0.6604699322664351  0.6511238084025971  0.2344587615748761   T   T   T
  0.8897265959027199  0.7792193778314487  0.0754307304256147   F   F   F
  0.3544484681581870  0.3438907340786023  0.3325152275903530   T   T   T
  0.0022807318043357  0.0082581907996512  0.3466123441433439   T   T   T
  0.2227219536686805  0.1138218874195285  0.1910097550157984   F   F   F
  0.1112035389064935  0.2222682694533779  0.0362912049046982   F   F   F
  0.3326596790804541  0.0067183231472732  0.3421589676426777   T   T   T
  0.5540720388983793  0.1110141421444791  0.1906900281615932   F   F   F
  0.4437330442034904  0.2201705577465459  0.0341389562555426   F   F   F
  0.6629236310840578 -0.0018716844568093  0.3450791966889434   T   T   T
  0.8880490079179979  0.1106910039596678  0.1912350700537333   F   F   F
  0.7777587892539954  0.2218996274316984  0.0361986852389251   F   F   F
  0.0022807318035313  0.3273555409985488  0.3466123441436478   T   T   T
  0.2227219536690138  0.4422330662471605  0.1910097550159121   F   F   F
  0.1107859631467657  0.5548592547855109  0.0365102068315443   F   F   F
  0.5551037884234891  0.4442178942104431  0.1820925955217680   F   F   F
  0.4437330442043109  0.5568964864569271  0.0341389562554421   F   F   F
  0.6716545219924834  0.3306006681910094  0.3454802739417419   T   T   T
  0.8890944644449118  0.4443999906781066  0.1913906151997984   F   F   F
  0.7801652603809176  0.5567496301901330  0.0346455326847337   F   F   F
  0.0038815781908423  0.6686077890986338  0.3424853996527181   T   T   T
  0.2210638435417195  0.7771989217719926  0.1900872512912511   F   F   F
  0.1107859631466290  0.8892607083628534  0.0365102068315846   F   F   F
  0.3326596790824265  0.6592753559333419  0.3421589676433969   T   T   T
  0.5540720389032409  0.7763908967538744  0.1906900281617348   F   F   F
  0.4447506896503945  0.8890423448250092  0.0358665302806629   F   F   F
  0.6716545219933462  0.6743868537974711  0.3454802739404887   T   T   T
  0.8890944644492863  0.7780274737744201  0.1913906152000087   F   F   F
  0.7777587892553621  0.8891921618227060  0.0361986852389291   F   F   F
0.3544484681581870 0.3438907340786023 0.432515 T T T
0.446598 0.216020 0.433410 T T T 
 
  0.00000000E+00  0.00000000E+00  0.00000000E+00
  0.00000000E+00  0.00000000E+00  0.00000000E+00
  0.00000000E+00  0.00000000E+00  0.00000000E+00
  0.00000000E+00  0.00000000E+00  0.00000000E+00
  0.00000000E+00  0.00000000E+00  0.00000000E+00
  0.00000000E+00  0.00000000E+00  0.00000000E+00
  0.00000000E+00  0.00000000E+00  0.00000000E+00
  0.00000000E+00  0.00000000E+00  0.00000000E+00
  0.00000000E+00  0.00000000E+00  0.00000000E+00
  0.00000000E+00  0.00000000E+00  0.00000000E+00
  0.00000000E+00  0.00000000E+00  0.00000000E+00
  0.00000000E+00  0.00000000E+00  0.00000000E+00
  0.00000000E+00  0.00000000E+00  0.00000000E+00
  0.00000000E+00  0.00000000E+00  0.00000000E+00
  0.00000000E+00  0.00000000E+00  0.00000000E+00
  0.00000000E+00  0.00000000E+00  0.00000000E+00
  0.00000000E+00  0.00000000E+00  0.00000000E+00
  0.00000000E+00  0.00000000E+00  0.00000000E+00
  0.00000000E+00  0.00000000E+00  0.00000000E+00
  0.00000000E+00  0.00000000E+00  0.00000000E+00
  0.00000000E+00  0.00000000E+00  0.00000000E+00
  0.00000000E+00  0.00000000E+00  0.00000000E+00
  0.00000000E+00  0.00000000E+00  0.00000000E+00
  0.00000000E+00  0.00000000E+00  0.00000000E+00
  0.00000000E+00  0.00000000E+00  0.00000000E+00
  0.00000000E+00  0.00000000E+00  0.00000000E+00
  0.00000000E+00  0.00000000E+00  0.00000000E+00
  0.00000000E+00  0.00000000E+00  0.00000000E+00
  0.00000000E+00  0.00000000E+00  0.00000000E+00
  0.00000000E+00  0.00000000E+00  0.00000000E+00
  0.00000000E+00  0.00000000E+00  0.00000000E+00
  0.00000000E+00  0.00000000E+00  0.00000000E+00
  0.00000000E+00  0.00000000E+00  0.00000000E+00
  0.00000000E+00  0.00000000E+00  0.00000000E+00
  0.00000000E+00  0.00000000E+00  0.00000000E+00
  0.00000000E+00  0.00000000E+00  0.00000000E+00
  0.00000000E+00  0.00000000E+00  0.00000000E+00
  0.00000000E+00  0.00000000E+00  0.00000000E+00
  0.00000000E+00  0.00000000E+00  0.00000000E+00
  0.00000000E+00  0.00000000E+00  0.00000000E+00
  0.00000000E+00  0.00000000E+00  0.00000000E+00
  0.00000000E+00  0.00000000E+00  0.00000000E+00
  0.00000000E+00  0.00000000E+00  0.00000000E+00
  0.00000000E+00  0.00000000E+00  0.00000000E+00
  0.00000000E+00  0.00000000E+00  0.00000000E+00
  0.00000000E+00  0.00000000E+00  0.00000000E+00
  0.00000000E+00  0.00000000E+00  0.00000000E+00
  0.00000000E+00  0.00000000E+00  0.00000000E+00
  0.00000000E+00  0.00000000E+00  0.00000000E+00
  0.00000000E+00  0.00000000E+00  0.00000000E+00
  0.00000000E+00  0.00000000E+00  0.00000000E+00
  0.00000000E+00  0.00000000E+00  0.00000000E+00
  0.00000000E+00  0.00000000E+00  0.00000000E+00
  0.00000000E+00  0.00000000E+00  0.00000000E+00
  0.00000000E+00  0.00000000E+00  0.00000000E+00
  0.00000000E+00  0.00000000E+00  0.00000000E+00
  0.00000000E+00  0.00000000E+00  0.00000000E+00
  0.00000000E+00  0.00000000E+00  0.00000000E+00
  0.00000000E+00  0.00000000E+00  0.00000000E+00
  0.00000000E+00  0.00000000E+00  0.00000000E+00
  0.00000000E+00  0.00000000E+00  0.00000000E+00
  0.00000000E+00  0.00000000E+00  0.00000000E+00
  0.00000000E+00  0.00000000E+00  0.00000000E+00
  0.00000000E+00  0.00000000E+00  0.00000000E+00
  0.00000000E+00  0.00000000E+00  0.00000000E+00
  0.00000000E+00  0.00000000E+00  0.00000000E+00
  0.00000000E+00  0.00000000E+00  0.00000000E+00
  0.00000000E+00  0.00000000E+00  0.00000000E+00
  0.00000000E+00  0.00000000E+00  0.00000000E+00
  0.00000000E+00  0.00000000E+00  0.00000000E+00
  0.00000000E+00  0.00000000E+00  0.00000000E+00
  0.00000000E+00  0.00000000E+00  0.00000000E+00
  0.00000000E+00  0.00000000E+00  0.00000000E+00
  0.00000000E+00  0.00000000E+00  0.00000000E+00
  0.00000000E+00  0.00000000E+00  0.00000000E+00
  0.00000000E+00  0.00000000E+00  0.00000000E+00
  0.00000000E+00  0.00000000E+00  0.00000000E+00
  0.00000000E+00  0.00000000E+00  0.00000000E+00
  0.00000000E+00  0.00000000E+00  0.00000000E+00
  0.00000000E+00  0.00000000E+00  0.00000000E+00
