CeO2-you-111-you-Al                     
   1.00000000000000     
     9.8308429117684941   -5.6758401728020598    0.0000000000000000
     0.0000000019207148   11.3516783512762771    0.0000000000000000
     0.0000000000000000    0.0000000000000000   20.8176568843594829
   O    Al   Ce   H 
    54     1    26     2
Selective dynamics
Direct
  0.0001729886652992  0.9989338303799248  0.9923671436079610   T   T   T
  0.1167757697599383  0.2238303520900394  0.1501422216228744   T   T   T
  0.2204310877219754  0.0921993554627658  0.3041586820621852   T   T   T
  0.1427647989323659  0.2465006237843967  0.3710389960220678   T   T   T
 -0.0002783565791006 -0.0000197540056020  0.2300693554579541   T   T   T
  0.2233574506244828  0.1106948509035452  0.0728553700363827   T   T   T
  0.3341738430863802  0.9993416354843532  0.9924116788517212   T   T   T
  0.4415374264919158  0.2254384625243320  0.1527421277705210   T   T   T
  0.5549117800587287  0.1115076212800956  0.3077873232852004   T   T   T
  0.4620507571888947  0.2060796317413850  0.4046683973015922   T   T   T
  0.3384806569990029  0.9974907761099588  0.2284040370265090   T   T   T
  0.5540155003739704  0.1119924025454840  0.0737548292631506   T   T   T
  0.6670608322930296 -0.0012190921140207  0.9939645920183412   T   T   T
  0.7777943899000216  0.2189893856941256  0.1472095822231874   T   T   T
  0.8912347161170360  0.1104721855555864  0.3078985235033813   T   T   T
  0.7812839698652171  0.2214790794867620  0.3870670665380557   T   T   T
  0.6674408835039780 -0.0018404892249827  0.2310858607043803   T   T   T
  0.8916595254018396  0.1103610319275195  0.0736945175434054   T   T   T
 -0.0003312865944229  0.3323214919188475  0.9925340124498978   T   T   T
  0.1121664363428979  0.5555494989076691  0.1477703332521804   T   T   T
  0.2088159213939824  0.4576056276524114  0.2987696161956697   T   T   T
  0.1096990849183697  0.5575230157605578  0.3880465575860385   T   T   T
  0.9951689394624365  0.3296676132723109  0.2280357684523370   T   T   T
  0.2225034304665401  0.4438433044056920  0.0720281586195582   T   T   T
  0.3342326452602480  0.3330212549200025  0.9921768405364031   T   T   T
  0.4431217488270223  0.5495504907476516  0.1501797445474481   T   T   T
  0.5746651873091883  0.4453846739437384  0.3044152739436367   T   T   T
  0.4193627825401022  0.5220336835123568  0.3710251741850680   T   T   T
  0.3285204923182197  0.3387967800191971  0.2448487441618863   T   T   T
  0.5565867083977076  0.4431194894299796  0.0733869318982179   T   T   T
  0.6673486566852824  0.3322855922277450  0.9925792405177425   T   T   T
  0.7759308446467230  0.5543046561771950  0.1501516229608877   T   T   T
  0.8893263357519066  0.4455933378260586  0.3057793907324225   T   T   T
  0.7802764413033694  0.5573728134617454  0.3889729880921988   T   T   T
  0.6701757329324231  0.3285771008377316  0.2286275570098849   T   T   T
  0.8889467180352651  0.4439725899859558  0.0732850001711270   T   T   T
  0.0002483656575465  0.6652041448206575  0.9921641744074629   T   T   T
  0.1128870905486562  0.8905924406162540  0.1498424226610471   T   T   T
  0.2214997335858839  0.7770874888368994  0.3054739089056438   T   T   T
  0.1103329668918522  0.8869924300407326  0.3888008702465078   T   T   T
  0.0006614425772057  0.6655265708579504  0.2292083906642770   T   T   T
  0.2225074970453707  0.7778628857299174  0.0729220304930149   T   T   T
  0.3342610813164165  0.6664447217137600  0.9926087622262814   T   T   T
  0.4476622674453182  0.8887917645469243  0.1472945978363586   T   T   T
  0.5552262211986722  0.7741191418105453  0.3082428374689127   T   T   T
  0.4440116318324611  0.8851335977656409  0.3871707768010910   T   T   T
  0.3377931844215567  0.6719870328914614  0.2281004328500773   T   T   T
  0.5563550811240272  0.7747423291851767  0.0735231280357950   T   T   T
  0.6680365444118905  0.6659344495702388  0.9927411758167936   T   T   T
  0.7786353942453080  0.8876953713771897  0.1489032376389699   T   T   T
  0.8897876344683338  0.7769731778350653  0.3053943230235024   T   T   T
  0.7795967318498759  0.8874092682990729  0.3863757032213797   T   T   T
  0.6669387240091320  0.6676573258302665  0.2304920074053700   T   T   T
  0.8904961676305672  0.7765134737713896  0.0736903983964727   T   T   T
  0.2961161619097977  0.3695365564300868  0.3285824252973681   T   T   T
  0.0064512298940947  0.0011542763435885  0.3445246309965648   T   T   T
  0.2237216263604696  0.1107245705711130  0.1933525392065051   T   T   T
  0.1121719734661717  0.2208991282617105  0.0330278927111206   T   T   T
  0.3319170998247931  0.9957071846247249  0.3462052694714826   T   T   T
  0.5568134558685890  0.1100449595640241  0.1897334705599045   T   T   T
  0.4445780523495292  0.2221476860933365  0.0335591068073713   T   T   T
  0.6685447240532090 -0.0026566550095174  0.3471010369348522   T   T   T
  0.8895682876441735  0.1103148640067750  0.1893118165755270   T   T   T
  0.7780643043881191  0.2213401665186783  0.0330926961145848   T   T   T
 -0.0026206037049491  0.3345677588364035  0.3448870371874235   T   T   T
  0.2211313500421514  0.4458828972512786  0.1868972033980271   T   T   T
  0.1113641595759364  0.5551429544842432  0.0316931402170711   T   T   T
  0.5561765992450459  0.4430305123343334  0.1936348949353852   T   T   T
  0.4458929890701787  0.5542066899045270  0.0331934925364962   T   T   T
  0.6712000865897950  0.3347377254182548  0.3464137131304931   T   T   T
  0.8886881467962239  0.4436420148528012  0.1884283412574875   T   T   T
  0.7775561894000238  0.5540309037156620  0.0332148152681734   T   T   T
 -0.0000285796198245  0.6670513190846999  0.3472469003286429   T   T   T
  0.2235335927843806  0.7783156846608279  0.1883618860205529   T   T   T
  0.1124578403096312  0.8890718279670432  0.0329546368651964   T   T   T
  0.3315994781463971  0.6686885079217890  0.3450587747161326   T   T   T
  0.5563816985758787  0.7769997686540213  0.1894071303332817   T   T   T
  0.4450514624869147  0.8882666100650151  0.0330196619967654   T   T   T
  0.6649886139325378  0.6593611233781752  0.3447136581831186   T   T   T
  0.8902685873848944  0.7765260582749921  0.1895775341674692   T   T   T
  0.7789134155401140  0.8875277183814325  0.0334732918940872   T   T   T
  0.3218752762121332  0.3470181851496540  0.4590784788425740   T   T   T
  0.4192311808112691  0.2466494821286785  0.4303140857960215   T   T   T
 
  0.00000000E+00  0.00000000E+00  0.00000000E+00
  0.00000000E+00  0.00000000E+00  0.00000000E+00
  0.00000000E+00  0.00000000E+00  0.00000000E+00
  0.00000000E+00  0.00000000E+00  0.00000000E+00
  0.00000000E+00  0.00000000E+00  0.00000000E+00
  0.00000000E+00  0.00000000E+00  0.00000000E+00
  0.00000000E+00  0.00000000E+00  0.00000000E+00
  0.00000000E+00  0.00000000E+00  0.00000000E+00
  0.00000000E+00  0.00000000E+00  0.00000000E+00
  0.00000000E+00  0.00000000E+00  0.00000000E+00
  0.00000000E+00  0.00000000E+00  0.00000000E+00
  0.00000000E+00  0.00000000E+00  0.00000000E+00
  0.00000000E+00  0.00000000E+00  0.00000000E+00
  0.00000000E+00  0.00000000E+00  0.00000000E+00
  0.00000000E+00  0.00000000E+00  0.00000000E+00
  0.00000000E+00  0.00000000E+00  0.00000000E+00
  0.00000000E+00  0.00000000E+00  0.00000000E+00
  0.00000000E+00  0.00000000E+00  0.00000000E+00
  0.00000000E+00  0.00000000E+00  0.00000000E+00
  0.00000000E+00  0.00000000E+00  0.00000000E+00
  0.00000000E+00  0.00000000E+00  0.00000000E+00
  0.00000000E+00  0.00000000E+00  0.00000000E+00
  0.00000000E+00  0.00000000E+00  0.00000000E+00
  0.00000000E+00  0.00000000E+00  0.00000000E+00
  0.00000000E+00  0.00000000E+00  0.00000000E+00
  0.00000000E+00  0.00000000E+00  0.00000000E+00
  0.00000000E+00  0.00000000E+00  0.00000000E+00
  0.00000000E+00  0.00000000E+00  0.00000000E+00
  0.00000000E+00  0.00000000E+00  0.00000000E+00
  0.00000000E+00  0.00000000E+00  0.00000000E+00
  0.00000000E+00  0.00000000E+00  0.00000000E+00
  0.00000000E+00  0.00000000E+00  0.00000000E+00
  0.00000000E+00  0.00000000E+00  0.00000000E+00
  0.00000000E+00  0.00000000E+00  0.00000000E+00
  0.00000000E+00  0.00000000E+00  0.00000000E+00
  0.00000000E+00  0.00000000E+00  0.00000000E+00
  0.00000000E+00  0.00000000E+00  0.00000000E+00
  0.00000000E+00  0.00000000E+00  0.00000000E+00
  0.00000000E+00  0.00000000E+00  0.00000000E+00
  0.00000000E+00  0.00000000E+00  0.00000000E+00
  0.00000000E+00  0.00000000E+00  0.00000000E+00
  0.00000000E+00  0.00000000E+00  0.00000000E+00
  0.00000000E+00  0.00000000E+00  0.00000000E+00
  0.00000000E+00  0.00000000E+00  0.00000000E+00
  0.00000000E+00  0.00000000E+00  0.00000000E+00
  0.00000000E+00  0.00000000E+00  0.00000000E+00
  0.00000000E+00  0.00000000E+00  0.00000000E+00
  0.00000000E+00  0.00000000E+00  0.00000000E+00
  0.00000000E+00  0.00000000E+00  0.00000000E+00
  0.00000000E+00  0.00000000E+00  0.00000000E+00
  0.00000000E+00  0.00000000E+00  0.00000000E+00
  0.00000000E+00  0.00000000E+00  0.00000000E+00
  0.00000000E+00  0.00000000E+00  0.00000000E+00
  0.00000000E+00  0.00000000E+00  0.00000000E+00
  0.00000000E+00  0.00000000E+00  0.00000000E+00
  0.00000000E+00  0.00000000E+00  0.00000000E+00
  0.00000000E+00  0.00000000E+00  0.00000000E+00
  0.00000000E+00  0.00000000E+00  0.00000000E+00
  0.00000000E+00  0.00000000E+00  0.00000000E+00
  0.00000000E+00  0.00000000E+00  0.00000000E+00
  0.00000000E+00  0.00000000E+00  0.00000000E+00
  0.00000000E+00  0.00000000E+00  0.00000000E+00
  0.00000000E+00  0.00000000E+00  0.00000000E+00
  0.00000000E+00  0.00000000E+00  0.00000000E+00
  0.00000000E+00  0.00000000E+00  0.00000000E+00
  0.00000000E+00  0.00000000E+00  0.00000000E+00
  0.00000000E+00  0.00000000E+00  0.00000000E+00
  0.00000000E+00  0.00000000E+00  0.00000000E+00
  0.00000000E+00  0.00000000E+00  0.00000000E+00
  0.00000000E+00  0.00000000E+00  0.00000000E+00
  0.00000000E+00  0.00000000E+00  0.00000000E+00
  0.00000000E+00  0.00000000E+00  0.00000000E+00
  0.00000000E+00  0.00000000E+00  0.00000000E+00
  0.00000000E+00  0.00000000E+00  0.00000000E+00
  0.00000000E+00  0.00000000E+00  0.00000000E+00
  0.00000000E+00  0.00000000E+00  0.00000000E+00
  0.00000000E+00  0.00000000E+00  0.00000000E+00
  0.00000000E+00  0.00000000E+00  0.00000000E+00
  0.00000000E+00  0.00000000E+00  0.00000000E+00
  0.00000000E+00  0.00000000E+00  0.00000000E+00
  0.00000000E+00  0.00000000E+00  0.00000000E+00
  0.00000000E+00  0.00000000E+00  0.00000000E+00
  0.00000000E+00  0.00000000E+00  0.00000000E+00
