CeO2-you-111-you-Ag                     
   1.00000000000000     
     9.8199744406305669   -5.6695652581445382    0.0000000000000000
     0.0000000028750382   11.3391285258226731    0.0000000000000000
     0.0000000000000000    0.0000000000000000   21.1513419558153508
   O    Ag   Ce   H 
    54     1    26     2
Selective dynamics
Direct
 -0.0013961499325511 -0.0020517683834464  0.9943519655706098   T   T   T
  0.1043689155340263  0.2169067155068873  0.1472239164376900   T   T   T
  0.2292270220125378  0.1071313911289831  0.3044699414180635   T   T   T
  0.1083427905468953  0.2184897761094813  0.3831356965334412   T   T   T
  0.0015341716843648 -0.0016213477886128  0.2291347868867778   T   T   T
  0.2212572384316326  0.1091655884076451  0.0737527542113430   T   T   T
  0.3313429903176985 -0.0024044978955862  0.9938714325245785   T   T   T
  0.4454797522384726  0.2168648249088362  0.1479134880871458   T   T   T
  0.5510059649119446  0.1116213633620379  0.3035351155978707   T   T   T
  0.4687390100649160  0.1932570482424373  0.4072910940520256   T   T   T
  0.3313620504074059 -0.0054620146696078  0.2274516075533984   T   T   T
  0.5548858533392045  0.1078263322056335  0.0728725352668167   T   T   T
  0.6653907500284801 -0.0026983057186838  0.9927841335060604   T   T   T
  0.7753538743164452  0.2195799846492651  0.1495556246458457   T   T   T
  0.8892045712112310  0.1084013033988003  0.3029410939847769   T   T   T
  0.7788550058009173  0.2197984880143228  0.3805587961951117   T   T   T
  0.6634290070087266 -0.0037198815221775  0.2301631452842537   T   T   T
  0.8842282240909547  0.1070354069794422  0.0737118619283560   T   T   T
 -0.0018851169058254  0.3303576632130421  0.9944401626706825   T   T   T
  0.1075789652677460  0.5522953239093387  0.1478719848020725   T   T   T
  0.2257250492152976  0.4502584939851608  0.3037692792125653   T   T   T
  0.1093745902929996  0.5546091001287302  0.3835302040987393   T   T   T
 -0.0005579312399519  0.3311084776947928  0.2289255055810820   T   T   T
  0.2210433379780875  0.4423569241637424  0.0738239273875940   T   T   T
  0.3311931492605609  0.3306978665422026  0.9942238840030148   T   T   T
  0.4455110212583045  0.5580985031434816  0.1478663952839957   T   T   T
  0.5376187939083705  0.4324804993908701  0.3117403539805275   T   T   T
  0.4624474507829582  0.5933220925972269  0.4054475345535878   T   T   T
  0.3301498305433904  0.3300473293194365  0.2181398496027789   T   T   T
  0.5527478730175472  0.4409815620010029  0.0743284027816610   T   T   T
  0.6645032004062013  0.3312481973473605  0.9937274073204357   T   T   T
  0.7760140620555018  0.5530168123529122  0.1482139108235421   T   T   T
  0.8880720283811081  0.4429430312651788  0.3031702828147725   T   T   T
  0.7757349187134034  0.5524539882872305  0.3826054439938177   T   T   T
  0.6645375706226399  0.3339941405061091  0.2299229439236744   T   T   T
  0.8861432633062261  0.4410612553220238  0.0734955240415251   T   T   T
 -0.0020852312754809  0.6644333827002384  0.9943322299075441   T   T   T
  0.1081296140660946  0.8856317938747997  0.1476886423392014   T   T   T
  0.2183432387789823  0.7738734557315857  0.3028840822335073   T   T   T
  0.1100673929945914  0.8847488648099311  0.3835656990108562   T   T   T
 -0.0023723143133152  0.6640440154138789  0.2281459609406160   T   T   T
  0.2212572027126636  0.7754093701113275  0.0733927398612564   T   T   T
  0.3313146809903710  0.6637912685958380  0.9938652131510018   T   T   T
  0.4444012269282518  0.8869021888348051  0.1478863318525314   T   T   T
  0.5506984946744455  0.7674265266273651  0.3036350945248589   T   T   T
  0.4428356163345087  0.8849108964296177  0.3809000646029051   T   T   T
  0.3313243986488631  0.6663289932161557  0.2273156197306393   T   T   T
  0.5549872503237280  0.7768202775320627  0.0730310861655172   T   T   T
  0.6647053764799262  0.6629653603789624  0.9941202019495754   T   T   T
  0.7754986207250514  0.8855569973607312  0.1497629523106123   T   T   T
  0.8883370341421041  0.7755261676691866  0.3035015272809555   T   T   T
  0.7770063063408464  0.8865431063632161  0.3813556878511630   T   T   T
  0.6647638707095189  0.6595856412248360  0.2300631331671033   T   T   T
  0.8863639626777114  0.7755597003481848  0.0737526037497491   T   T   T
  0.3147011613876975  0.3215565788726796  0.3437769605810869   T   T   T
  0.0029347445628322 -0.0003817146142130  0.3418988475970718   T   T   T
  0.2222294555637234  0.1099343812838555  0.1879489271341661   T   T   T
  0.1089450523532422  0.2195694860174182  0.0343374092620959   T   T   T
  0.3294598055828952 -0.0074388071976618  0.3424229379583234   T   T   T
  0.5534384135357385  0.1082079741328498  0.1885394979015117   T   T   T
  0.4428307253421219  0.2196650540080375  0.0337937864865715   T   T   T
  0.6662925961644713 -0.0027682473375506  0.3424089682780125   T   T   T
  0.8876495925308657  0.1085718232558493  0.1886195024116522   T   T   T
  0.7754924206393446  0.2191517890065401  0.0337485129831524   T   T   T
  0.0023497453127127  0.3323531263523495  0.3416413678211591   T   T   T
  0.2215257985903446  0.4416169347994873  0.1879922206534154   T   T   T
  0.1090419741865302  0.5527737766255911  0.0339839906633669   T   T   T
  0.5502871007295049  0.4397947135686965  0.1890395660604146   T   T   T
  0.4426785050120396  0.5530337437701044  0.0339969161630469   T   T   T
  0.6673373025752465  0.3326035328074493  0.3425888451550457   T   T   T
  0.8867828292443870  0.4422458922460169  0.1882404644091921   T   T   T
  0.7753689652945353  0.5527249245056937  0.0343578027740597   T   T   T
 -0.0015480574424277  0.6640596180717040  0.3425708802232313   T   T   T
  0.2203472652564456  0.7751407447329199  0.1869555475202259   T   T   T
  0.1092430983328762  0.8865717386241829  0.0339991807359482   T   T   T
  0.3280655679186000  0.6645593783048351  0.3420375703610783   T   T   T
  0.5533055365046047  0.7745512178303288  0.1885758339996690   T   T   T
  0.4434134811318485  0.8865501532762810  0.0333589080209034   T   T   T
  0.6670579111584823  0.6633165691084063  0.3426420838062358   T   T   T
  0.8872698416569937  0.7746228986236364  0.1883236055078318   T   T   T
  0.7757482458927503  0.8863954161540217  0.0338379800823742   T   T   T
  0.4448975541627735  0.5590556661835581  0.4485356536332221   T   T   T
  0.4486445260020989  0.2118049616587080  0.4495394746262478   T   T   T
 
  0.00000000E+00  0.00000000E+00  0.00000000E+00
  0.00000000E+00  0.00000000E+00  0.00000000E+00
  0.00000000E+00  0.00000000E+00  0.00000000E+00
  0.00000000E+00  0.00000000E+00  0.00000000E+00
  0.00000000E+00  0.00000000E+00  0.00000000E+00
  0.00000000E+00  0.00000000E+00  0.00000000E+00
  0.00000000E+00  0.00000000E+00  0.00000000E+00
  0.00000000E+00  0.00000000E+00  0.00000000E+00
  0.00000000E+00  0.00000000E+00  0.00000000E+00
  0.00000000E+00  0.00000000E+00  0.00000000E+00
  0.00000000E+00  0.00000000E+00  0.00000000E+00
  0.00000000E+00  0.00000000E+00  0.00000000E+00
  0.00000000E+00  0.00000000E+00  0.00000000E+00
  0.00000000E+00  0.00000000E+00  0.00000000E+00
  0.00000000E+00  0.00000000E+00  0.00000000E+00
  0.00000000E+00  0.00000000E+00  0.00000000E+00
  0.00000000E+00  0.00000000E+00  0.00000000E+00
  0.00000000E+00  0.00000000E+00  0.00000000E+00
  0.00000000E+00  0.00000000E+00  0.00000000E+00
  0.00000000E+00  0.00000000E+00  0.00000000E+00
  0.00000000E+00  0.00000000E+00  0.00000000E+00
  0.00000000E+00  0.00000000E+00  0.00000000E+00
  0.00000000E+00  0.00000000E+00  0.00000000E+00
  0.00000000E+00  0.00000000E+00  0.00000000E+00
  0.00000000E+00  0.00000000E+00  0.00000000E+00
  0.00000000E+00  0.00000000E+00  0.00000000E+00
  0.00000000E+00  0.00000000E+00  0.00000000E+00
  0.00000000E+00  0.00000000E+00  0.00000000E+00
  0.00000000E+00  0.00000000E+00  0.00000000E+00
  0.00000000E+00  0.00000000E+00  0.00000000E+00
  0.00000000E+00  0.00000000E+00  0.00000000E+00
  0.00000000E+00  0.00000000E+00  0.00000000E+00
  0.00000000E+00  0.00000000E+00  0.00000000E+00
  0.00000000E+00  0.00000000E+00  0.00000000E+00
  0.00000000E+00  0.00000000E+00  0.00000000E+00
  0.00000000E+00  0.00000000E+00  0.00000000E+00
  0.00000000E+00  0.00000000E+00  0.00000000E+00
  0.00000000E+00  0.00000000E+00  0.00000000E+00
  0.00000000E+00  0.00000000E+00  0.00000000E+00
  0.00000000E+00  0.00000000E+00  0.00000000E+00
  0.00000000E+00  0.00000000E+00  0.00000000E+00
  0.00000000E+00  0.00000000E+00  0.00000000E+00
  0.00000000E+00  0.00000000E+00  0.00000000E+00
  0.00000000E+00  0.00000000E+00  0.00000000E+00
  0.00000000E+00  0.00000000E+00  0.00000000E+00
  0.00000000E+00  0.00000000E+00  0.00000000E+00
  0.00000000E+00  0.00000000E+00  0.00000000E+00
  0.00000000E+00  0.00000000E+00  0.00000000E+00
  0.00000000E+00  0.00000000E+00  0.00000000E+00
  0.00000000E+00  0.00000000E+00  0.00000000E+00
  0.00000000E+00  0.00000000E+00  0.00000000E+00
  0.00000000E+00  0.00000000E+00  0.00000000E+00
  0.00000000E+00  0.00000000E+00  0.00000000E+00
  0.00000000E+00  0.00000000E+00  0.00000000E+00
  0.00000000E+00  0.00000000E+00  0.00000000E+00
  0.00000000E+00  0.00000000E+00  0.00000000E+00
  0.00000000E+00  0.00000000E+00  0.00000000E+00
  0.00000000E+00  0.00000000E+00  0.00000000E+00
  0.00000000E+00  0.00000000E+00  0.00000000E+00
  0.00000000E+00  0.00000000E+00  0.00000000E+00
  0.00000000E+00  0.00000000E+00  0.00000000E+00
  0.00000000E+00  0.00000000E+00  0.00000000E+00
  0.00000000E+00  0.00000000E+00  0.00000000E+00
  0.00000000E+00  0.00000000E+00  0.00000000E+00
  0.00000000E+00  0.00000000E+00  0.00000000E+00
  0.00000000E+00  0.00000000E+00  0.00000000E+00
  0.00000000E+00  0.00000000E+00  0.00000000E+00
  0.00000000E+00  0.00000000E+00  0.00000000E+00
  0.00000000E+00  0.00000000E+00  0.00000000E+00
  0.00000000E+00  0.00000000E+00  0.00000000E+00
  0.00000000E+00  0.00000000E+00  0.00000000E+00
  0.00000000E+00  0.00000000E+00  0.00000000E+00
  0.00000000E+00  0.00000000E+00  0.00000000E+00
  0.00000000E+00  0.00000000E+00  0.00000000E+00
  0.00000000E+00  0.00000000E+00  0.00000000E+00
  0.00000000E+00  0.00000000E+00  0.00000000E+00
  0.00000000E+00  0.00000000E+00  0.00000000E+00
  0.00000000E+00  0.00000000E+00  0.00000000E+00
  0.00000000E+00  0.00000000E+00  0.00000000E+00
  0.00000000E+00  0.00000000E+00  0.00000000E+00
  0.00000000E+00  0.00000000E+00  0.00000000E+00
  0.00000000E+00  0.00000000E+00  0.00000000E+00
  0.00000000E+00  0.00000000E+00  0.00000000E+00
