CeO2-you-111-you-Re                     
   1.00000000000000     
     9.9165469040078182   -5.7092775955436030    0.0178086753781414
    -0.0000000080234057   11.4185531679348156   -0.0000000020253978
     0.0402668556878463   -0.0000000040140923   21.0086698896929960
   O    Re   Ce   H 
    53     1    26     2
Selective dynamics
Direct
  0.9994732006557039  0.0012802450059728  0.9966477735484471   T   T   T
  0.1230137434356138  0.2281733717190377  0.1533264625998214   F   F   F
  0.2430770684996724  0.1362815923216408  0.3103739360679078   T   T   T
  0.1394211279254263  0.2404772538236606  0.3839432551568240   T   T   T
  0.0060384037108336  0.0027232890626011  0.2288469691490265   T   T   T
  0.2209012423296457  0.1099447163450193  0.0744201753023361   F   F   F
  0.3343088298169055  0.0008725990806410  0.9958045675523175   T   T   T
  0.4409336367881878  0.2233256137615740  0.1485593015064524   F   F   F
  0.5459646708880336  0.1054664190490163  0.3035049450600927   T   T   T
  0.4603385581587758  0.1789534409411531  0.4155163437504528   T   T   T
  0.3266590767217083  0.0015986723562000  0.2293501221104895   T   T   T
  0.5534064248773731  0.1104987657129470  0.0763780349221648   F   F   F
  0.6691172939760713  0.0011540582617753  0.9989189834777592   T   T   T
  0.7715270930940434  0.2224678644158686  0.1524279481589872   F   F   F
  0.8851739331018166  0.1077434785245114  0.3031711867440656   T   T   T
  0.7681501509253028  0.2081616331371590  0.3889349098723938   T   T   T
  0.6648501001908758 -0.0007486042304021  0.2288460589773789   T   T   T
  0.8917368583181826  0.1125349291585636  0.0794979970046938   F   F   F
  0.9994089702125198  0.3305340828873843  0.9966768623675455   T   T   T
  0.1111948927126178  0.5555251189432511  0.1489188553063698   F   F   F
  0.2339857088344422  0.4393508868999221  0.3109048925551438   T   T   T
  0.1013377216752758  0.5622070572918164  0.3867467405303430   T   T   T
  0.0043301122805562  0.3358377426733475  0.2281266071939591   T   T   T
  0.2209012423298304  0.4442895259837343  0.0744201753023432   F   F   F
  0.3330122473470821  0.3331406068419736  0.9960300217666161   T   T   T
  0.4409336367830363  0.5509420230260531  0.1485593015072553   F   F   F
  0.4639559647221947  0.4522096503774928  0.3477016369557088   T   T   T
  0.3418197463013120  0.3356518477258419  0.2387025517353303   T   T   T
  0.5568905470254464  0.4451112735128291  0.0719403887738395   F   F   F
  0.6686230537798127  0.3317575386959915  0.9963176116767559   T   T   T
  0.7797336604674783  0.5565338302340379  0.1462994225091521   F   F   F
  0.8850893600821744  0.4434833069477919  0.3011498337273149   T   T   T
  0.7849287216018609  0.5590887459841882  0.3868562268584506   T   T   T
  0.6541292921455828  0.3419703888253630  0.2327239455392122   T   T   T
  0.8902025612389579  0.4438272834658719  0.0747823301325283   F   F   F
  0.0000590395544287  0.6666749556045664  0.9954971575563593   T   T   T
  0.1111948927129873  0.8890037737686498  0.1489188553064480   F   F   F
  0.2213999610193431  0.7790704195144023  0.3006914603997208   T   T   T
  0.1217393096228436  0.8874496113059179  0.3853073529786464   T   T   T
 -0.0020205520048542  0.6659524928346245  0.2266514105992402   T   T   T
  0.2226143803006337  0.7779741901504309  0.0740203809782116   F   F   F
  0.3349079122841555  0.6670591961898817  0.9958928166626135   T   T   T
  0.4435716083698509  0.8884528041853201  0.1515187379871747   F   F   F
  0.5529384236134348  0.7757255016035611  0.3046795592235090   T   T   T
  0.4430730198828167  0.8922286703412172  0.3883566333466484   T   T   T
  0.3273653896492539  0.6592982228259436  0.2277638112762047   T   T   T
  0.5534064248770605  0.7762406591651114  0.0763780349223566   F   F   F
  0.6689511778391862  0.6699279384090919  0.9963675440007822   T   T   T
  0.7715270930926152  0.8823922286760748  0.1524279481587172   F   F   F
  0.8909536023777422  0.7795323434483157  0.3029378357393547   T   T   T
  0.7711722458607028  0.8939736405424513  0.3912193950424270   T   T   T
  0.6605561092620295  0.6504344093053143  0.2309860287559223   T   T   T
  0.8902025612383611  0.7797082777722721  0.0747823301326349   F   F   F
  0.2928860040410245  0.3146757467928846  0.3318243500388116   T   T   T
  0.9936166598160481 -0.0059537296431220  0.3500074569537542   T   T   T
  0.2196517110045235  0.1079837658053719  0.1896129110062219   F   F   F
  0.1114050556082518  0.2223690278046035  0.0365024528658608   F   F   F
  0.3326055894202468  0.9880665949717805  0.3477434809429464   T   T   T
  0.5535092018583043  0.1119444786679225  0.1919836021487598   F   F   F
  0.4438348731652653  0.2204568789118753  0.0345646639289185   F   F   F
  0.6649167813374240  0.9981389259832577  0.3455657411121469   T   T   T
  0.8874113497206721  0.1103721748618938  0.1930251839779515   F   F   F
  0.7778651978935471  0.2223303442917768  0.0380022374919307   F   F   F
  0.9887145009276266  0.3337141890666781  0.3481155613788391   T   T   T
  0.2196517110068470  0.4450009451980037  0.1896129110060514   F   F   F
  0.1108000418068187  0.5542909768385300  0.0353125870402167   F   F   F
  0.5607042088633207  0.4470181044304908  0.1815523635015950   F   F   F
  0.4438348731663027  0.5567119942532770  0.0345646639287267   F   F   F
  0.6678779637594545  0.3282889892193745  0.3536281067210644   T   T   T
  0.8876566745333676  0.4441935608445533  0.1908436126303172   F   F   F
  0.7806200602702802  0.5569770301347319  0.0337003953713690   F   F   F
 -0.0034749555868143  0.6631041056597250  0.3445151629371792   T   T   T
  0.2198337204637184  0.7765838602321509  0.1871089348071209   F   F   F
  0.1108000418067192  0.8898430649692273  0.0353125870402948   F   F   F
  0.3257537595134004  0.6736972507320397  0.3452505546123043   T   T   T
  0.5535092018663264  0.7748977231919767  0.1919836021479639   F   F   F
  0.4455582841060917  0.8894461420529112  0.0371687570654586   F   F   F
  0.6790864021705343  0.6774827391862295  0.3485448735680104   T   T   T
  0.8876566745370127  0.7767961136960224  0.1908436126304451   F   F   F
  0.7778651978944353  0.8888678536022141  0.0380022374917885   F   F   F
  0.3388613939749224  0.2689593295869276  0.3977388243866004   T   T   T
  0.4377134485330264  0.1868673849901878  0.4592951369641184   T   T   T
 
  0.00000000E+00  0.00000000E+00  0.00000000E+00
  0.00000000E+00  0.00000000E+00  0.00000000E+00
  0.00000000E+00  0.00000000E+00  0.00000000E+00
  0.00000000E+00  0.00000000E+00  0.00000000E+00
  0.00000000E+00  0.00000000E+00  0.00000000E+00
  0.00000000E+00  0.00000000E+00  0.00000000E+00
  0.00000000E+00  0.00000000E+00  0.00000000E+00
  0.00000000E+00  0.00000000E+00  0.00000000E+00
  0.00000000E+00  0.00000000E+00  0.00000000E+00
  0.00000000E+00  0.00000000E+00  0.00000000E+00
  0.00000000E+00  0.00000000E+00  0.00000000E+00
  0.00000000E+00  0.00000000E+00  0.00000000E+00
  0.00000000E+00  0.00000000E+00  0.00000000E+00
  0.00000000E+00  0.00000000E+00  0.00000000E+00
  0.00000000E+00  0.00000000E+00  0.00000000E+00
  0.00000000E+00  0.00000000E+00  0.00000000E+00
  0.00000000E+00  0.00000000E+00  0.00000000E+00
  0.00000000E+00  0.00000000E+00  0.00000000E+00
  0.00000000E+00  0.00000000E+00  0.00000000E+00
  0.00000000E+00  0.00000000E+00  0.00000000E+00
  0.00000000E+00  0.00000000E+00  0.00000000E+00
  0.00000000E+00  0.00000000E+00  0.00000000E+00
  0.00000000E+00  0.00000000E+00  0.00000000E+00
  0.00000000E+00  0.00000000E+00  0.00000000E+00
  0.00000000E+00  0.00000000E+00  0.00000000E+00
  0.00000000E+00  0.00000000E+00  0.00000000E+00
  0.00000000E+00  0.00000000E+00  0.00000000E+00
  0.00000000E+00  0.00000000E+00  0.00000000E+00
  0.00000000E+00  0.00000000E+00  0.00000000E+00
  0.00000000E+00  0.00000000E+00  0.00000000E+00
  0.00000000E+00  0.00000000E+00  0.00000000E+00
  0.00000000E+00  0.00000000E+00  0.00000000E+00
  0.00000000E+00  0.00000000E+00  0.00000000E+00
  0.00000000E+00  0.00000000E+00  0.00000000E+00
  0.00000000E+00  0.00000000E+00  0.00000000E+00
  0.00000000E+00  0.00000000E+00  0.00000000E+00
  0.00000000E+00  0.00000000E+00  0.00000000E+00
  0.00000000E+00  0.00000000E+00  0.00000000E+00
  0.00000000E+00  0.00000000E+00  0.00000000E+00
  0.00000000E+00  0.00000000E+00  0.00000000E+00
  0.00000000E+00  0.00000000E+00  0.00000000E+00
  0.00000000E+00  0.00000000E+00  0.00000000E+00
  0.00000000E+00  0.00000000E+00  0.00000000E+00
  0.00000000E+00  0.00000000E+00  0.00000000E+00
  0.00000000E+00  0.00000000E+00  0.00000000E+00
  0.00000000E+00  0.00000000E+00  0.00000000E+00
  0.00000000E+00  0.00000000E+00  0.00000000E+00
  0.00000000E+00  0.00000000E+00  0.00000000E+00
  0.00000000E+00  0.00000000E+00  0.00000000E+00
  0.00000000E+00  0.00000000E+00  0.00000000E+00
  0.00000000E+00  0.00000000E+00  0.00000000E+00
  0.00000000E+00  0.00000000E+00  0.00000000E+00
  0.00000000E+00  0.00000000E+00  0.00000000E+00
  0.00000000E+00  0.00000000E+00  0.00000000E+00
  0.00000000E+00  0.00000000E+00  0.00000000E+00
  0.00000000E+00  0.00000000E+00  0.00000000E+00
  0.00000000E+00  0.00000000E+00  0.00000000E+00
  0.00000000E+00  0.00000000E+00  0.00000000E+00
  0.00000000E+00  0.00000000E+00  0.00000000E+00
  0.00000000E+00  0.00000000E+00  0.00000000E+00
  0.00000000E+00  0.00000000E+00  0.00000000E+00
  0.00000000E+00  0.00000000E+00  0.00000000E+00
  0.00000000E+00  0.00000000E+00  0.00000000E+00
  0.00000000E+00  0.00000000E+00  0.00000000E+00
  0.00000000E+00  0.00000000E+00  0.00000000E+00
  0.00000000E+00  0.00000000E+00  0.00000000E+00
  0.00000000E+00  0.00000000E+00  0.00000000E+00
  0.00000000E+00  0.00000000E+00  0.00000000E+00
  0.00000000E+00  0.00000000E+00  0.00000000E+00
  0.00000000E+00  0.00000000E+00  0.00000000E+00
  0.00000000E+00  0.00000000E+00  0.00000000E+00
  0.00000000E+00  0.00000000E+00  0.00000000E+00
  0.00000000E+00  0.00000000E+00  0.00000000E+00
  0.00000000E+00  0.00000000E+00  0.00000000E+00
  0.00000000E+00  0.00000000E+00  0.00000000E+00
  0.00000000E+00  0.00000000E+00  0.00000000E+00
  0.00000000E+00  0.00000000E+00  0.00000000E+00
  0.00000000E+00  0.00000000E+00  0.00000000E+00
  0.00000000E+00  0.00000000E+00  0.00000000E+00
  0.00000000E+00  0.00000000E+00  0.00000000E+00
  0.00000000E+00  0.00000000E+00  0.00000000E+00
  0.00000000E+00  0.00000000E+00  0.00000000E+00
