CeO2-you-111-you-Ru                     
   1.00000000000000     
     9.7931939021342469   -5.6541035076303876   -0.0000000000000000
     0.0000000060060840   11.3082050356593840    0.0000000000000000
    -0.0000000000000000    0.0000000000000000   21.3384357948287331
   O    Ru   Ce
    54     1    26
Selective dynamics
Direct
 -0.0001661985515242 -0.0000899696383017  0.9967349302758738   T   T   T
  0.1045401417380193  0.2189365708687560  0.1490511635909652   T   T   T
  0.2317087264072986  0.1300844528143811  0.3020713799557507   T   T   T
  0.1414184526511160  0.2373757263256112  0.3815069866724571   T   T   T
  0.0013419531556385 -0.0003376519310534  0.2305521257887295   T   T   T
  0.2225121715825374  0.1116913431649797  0.0757781253736622   T   T   T
  0.3334092289132873 -0.0000899696383124  0.9967349302758738   T   T   T
  0.4477294291307329  0.2189365708685295  0.1490511635909652   T   T   T
  0.5523932215308321  0.1142737784692679  0.3058011777976959   T   T   T
  0.4292902736744914  0.2373757263256570  0.3815069866724571   T   T   T
  0.3316533949133373 -0.0003376519311023  0.2305521257887295   T   T   T
  0.5568672850190841  0.1097997149807416  0.0759024517470410   T   T   T
  0.6666669999999968  0.0000000000000000  0.9958365168157322   T   T   T
  0.7775153971478767  0.2216967942957935  0.1514227401481787   T   T   T
  0.8952145569384070  0.1142737784692383  0.3058011777976959   T   T   T
  0.7776987873180902  0.2220635746360888  0.3818992314919031   T   T   T
  0.6666669999999968  0.0000000000000000  0.2325560022581927   T   T   T
  0.8862664299617131  0.1097997149807964  0.0759024517470410   T   T   T
 -0.0001661985513854  0.3332567710867566  0.9967349302758738   T   T   T
  0.1105919751309000  0.5560750248696218  0.1500826223855454   T   T   T
  0.2317087264077785  0.4349572735929138  0.3020713799557507   T   T   T
  0.1135110317073543  0.5531559682917134  0.3803912644071957   T   T   T
  0.0013419531556970  0.3350126050865851  0.2305521257887295   T   T   T
  0.2225121715827447  0.4441538284175538  0.0757781253736622   T   T   T
  0.3333330000000032  0.3333330000000032  0.9963250340671281   T   T   T
  0.4477294291312433  0.5621268582627218  0.1490511635909652   T   T   T
  0.5365825471849298  0.4349572735927005  0.3020713799557507   T   T   T
  0.4292902736743881  0.5252485473487390  0.3815069866724571   T   T   T
  0.3333330000000032  0.3333330000000032  0.2169271053963156   T   T   T
  0.5549756568347249  0.4441538284174618  0.0757781253736622   T   T   T
  0.6667569696380737  0.3332567710866842  0.9967349302758738   T   T   T
  0.7788160497385586  0.5560750248694627  0.1500826223855454   T   T   T
  0.8890426204977867  0.4447512409954286  0.3042623773443406   T   T   T
  0.7729779365846432  0.5531559682920010  0.3803912644071957   T   T   T
  0.6670046519308556  0.3350126050865103  0.2305521257887295   T   T   T
  0.8884870732648538  0.4436401465297423  0.0762252237411153   T   T   T
  0.0000000000000000  0.6666669999999968  0.9970971337526428   T   T   T
  0.1105919751305414  0.8878509502609204  0.1500826223855454   T   T   T
  0.2219147590041015  0.7776243795022101  0.3042623773443406   T   T   T
  0.1135110317080027  0.8936890634162898  0.3803912644071957   T   T   T
  0.0000000000000000  0.6666669999999968  0.2299749352934981   T   T   T
  0.2230258534703728  0.7781799267351430  0.0762252237411153   T   T   T
  0.3334092289134503  0.6668331985516175  0.9967349302758738   T   T   T
  0.4449692057043155  0.8891516028521201  0.1514227401481787   T   T   T
  0.5523932215307656  0.7714524430614937  0.3058011777976959   T   T   T
  0.4446024253635911  0.8889682126819066  0.3818992314919031   T   T   T
  0.3316533949135059  0.6653250468445431  0.2305521257887295   T   T   T
  0.5568672850192077  0.7804005700384620  0.0759024517470410   T   T   T
  0.6667569696380979  0.6668331985515561  0.9967349302758738   T   T   T
  0.7775153971478008  0.8891516028520862  0.1514227401481787   T   T   T
  0.8890426204981118  0.7776243795023543  0.3042623773443406   T   T   T
  0.7776987873183118  0.8889682126820048  0.3818992314919031   T   T   T
  0.6670046519309657  0.6653250468445172  0.2305521257887295   T   T   T
  0.8884870732647737  0.7781799267351075  0.0762252237411153   T   T   T
  0.3333330000000032  0.3333330000000032  0.3449638652800445   T   T   T
  0.0056067980415225  0.0044247111556001  0.3420361708660049   T   T   T
  0.2233496994860910  0.1133663989727056  0.1889578695190846   T   T   T
  0.1104820712934704  0.2219075356469195  0.0361081357497253   T   T   T
  0.3321509131145082  0.0044247111559571  0.3420361708660049   T   T   T
  0.5555367532716018  0.1111302467298327  0.1904301453924709   T   T   T
  0.4447584643534452  0.2219075356470818  0.0361081357497253   T   T   T
  0.6666669999999968  0.0000000000000000  0.3450708690527145   T   T   T
  0.8889274934577920  0.1111302467293930  0.1904301453924709   T   T   T
  0.7775100877418567  0.2216861754836393  0.0364051634888068   T   T   T
  0.0056067980424851  0.3345150868867298  0.3420361708660049   T   T   T
  0.2233496994849041  0.4433163005133815  0.1889578695190846   T   T   T
  0.1110364685820753  0.5556305314171839  0.0367492133542577   T   T   T
  0.5533006010290120  0.4433163005139083  0.1889578695190846   T   T   T
  0.4447584643530799  0.5561849287060061  0.0361081357497253   T   T   T
  0.6622422888438108  0.3345150868866594  0.3420361708660049   T   T   T
  0.8888991901494849  0.4444643802988482  0.1900885408991023   T   T   T
  0.7779270628353333  0.5556305314174125  0.0367492133542577   T   T   T
  0.0000000000000000  0.6666669999999968  0.3412937373222959   T   T   T
  0.2222016197007575  0.7777678098505119  0.1900885408991023   T   T   T
  0.1110364685825913  0.8887399371654081  0.0367492133542577   T   T   T
  0.3321509131146665  0.6610602019577406  0.3420361708660049   T   T   T
  0.5555367532706110  0.7777395065407743  0.1904301453924709   T   T   T
  0.4449798245160992  0.8891569122581401  0.0364051634888068   T   T   T
  0.6622422888430068  0.6610602019573133  0.3420361708660049   T   T   T
  0.8888991901497575  0.7777678098506329  0.1900885408991023   T   T   T
  0.7775100877420372  0.8891569122582205  0.0364051634888068   T   T   T
 
  0.00000000E+00  0.00000000E+00  0.00000000E+00
  0.00000000E+00  0.00000000E+00  0.00000000E+00
  0.00000000E+00  0.00000000E+00  0.00000000E+00
  0.00000000E+00  0.00000000E+00  0.00000000E+00
  0.00000000E+00  0.00000000E+00  0.00000000E+00
  0.00000000E+00  0.00000000E+00  0.00000000E+00
  0.00000000E+00  0.00000000E+00  0.00000000E+00
  0.00000000E+00  0.00000000E+00  0.00000000E+00
  0.00000000E+00  0.00000000E+00  0.00000000E+00
  0.00000000E+00  0.00000000E+00  0.00000000E+00
  0.00000000E+00  0.00000000E+00  0.00000000E+00
  0.00000000E+00  0.00000000E+00  0.00000000E+00
  0.00000000E+00  0.00000000E+00  0.00000000E+00
  0.00000000E+00  0.00000000E+00  0.00000000E+00
  0.00000000E+00  0.00000000E+00  0.00000000E+00
  0.00000000E+00  0.00000000E+00  0.00000000E+00
  0.00000000E+00  0.00000000E+00  0.00000000E+00
  0.00000000E+00  0.00000000E+00  0.00000000E+00
  0.00000000E+00  0.00000000E+00  0.00000000E+00
  0.00000000E+00  0.00000000E+00  0.00000000E+00
  0.00000000E+00  0.00000000E+00  0.00000000E+00
  0.00000000E+00  0.00000000E+00  0.00000000E+00
  0.00000000E+00  0.00000000E+00  0.00000000E+00
  0.00000000E+00  0.00000000E+00  0.00000000E+00
  0.00000000E+00  0.00000000E+00  0.00000000E+00
  0.00000000E+00  0.00000000E+00  0.00000000E+00
  0.00000000E+00  0.00000000E+00  0.00000000E+00
  0.00000000E+00  0.00000000E+00  0.00000000E+00
  0.00000000E+00  0.00000000E+00  0.00000000E+00
  0.00000000E+00  0.00000000E+00  0.00000000E+00
  0.00000000E+00  0.00000000E+00  0.00000000E+00
  0.00000000E+00  0.00000000E+00  0.00000000E+00
  0.00000000E+00  0.00000000E+00  0.00000000E+00
  0.00000000E+00  0.00000000E+00  0.00000000E+00
  0.00000000E+00  0.00000000E+00  0.00000000E+00
  0.00000000E+00  0.00000000E+00  0.00000000E+00
  0.00000000E+00  0.00000000E+00  0.00000000E+00
  0.00000000E+00  0.00000000E+00  0.00000000E+00
  0.00000000E+00  0.00000000E+00  0.00000000E+00
  0.00000000E+00  0.00000000E+00  0.00000000E+00
  0.00000000E+00  0.00000000E+00  0.00000000E+00
  0.00000000E+00  0.00000000E+00  0.00000000E+00
  0.00000000E+00  0.00000000E+00  0.00000000E+00
  0.00000000E+00  0.00000000E+00  0.00000000E+00
  0.00000000E+00  0.00000000E+00  0.00000000E+00
  0.00000000E+00  0.00000000E+00  0.00000000E+00
  0.00000000E+00  0.00000000E+00  0.00000000E+00
  0.00000000E+00  0.00000000E+00  0.00000000E+00
  0.00000000E+00  0.00000000E+00  0.00000000E+00
  0.00000000E+00  0.00000000E+00  0.00000000E+00
  0.00000000E+00  0.00000000E+00  0.00000000E+00
  0.00000000E+00  0.00000000E+00  0.00000000E+00
  0.00000000E+00  0.00000000E+00  0.00000000E+00
  0.00000000E+00  0.00000000E+00  0.00000000E+00
  0.00000000E+00  0.00000000E+00  0.00000000E+00
  0.00000000E+00  0.00000000E+00  0.00000000E+00
  0.00000000E+00  0.00000000E+00  0.00000000E+00
  0.00000000E+00  0.00000000E+00  0.00000000E+00
  0.00000000E+00  0.00000000E+00  0.00000000E+00
  0.00000000E+00  0.00000000E+00  0.00000000E+00
  0.00000000E+00  0.00000000E+00  0.00000000E+00
  0.00000000E+00  0.00000000E+00  0.00000000E+00
  0.00000000E+00  0.00000000E+00  0.00000000E+00
  0.00000000E+00  0.00000000E+00  0.00000000E+00
  0.00000000E+00  0.00000000E+00  0.00000000E+00
  0.00000000E+00  0.00000000E+00  0.00000000E+00
  0.00000000E+00  0.00000000E+00  0.00000000E+00
  0.00000000E+00  0.00000000E+00  0.00000000E+00
  0.00000000E+00  0.00000000E+00  0.00000000E+00
  0.00000000E+00  0.00000000E+00  0.00000000E+00
  0.00000000E+00  0.00000000E+00  0.00000000E+00
  0.00000000E+00  0.00000000E+00  0.00000000E+00
  0.00000000E+00  0.00000000E+00  0.00000000E+00
  0.00000000E+00  0.00000000E+00  0.00000000E+00
  0.00000000E+00  0.00000000E+00  0.00000000E+00
  0.00000000E+00  0.00000000E+00  0.00000000E+00
  0.00000000E+00  0.00000000E+00  0.00000000E+00
  0.00000000E+00  0.00000000E+00  0.00000000E+00
  0.00000000E+00  0.00000000E+00  0.00000000E+00
  0.00000000E+00  0.00000000E+00  0.00000000E+00
  0.00000000E+00  0.00000000E+00  0.00000000E+00
