CeO2-you-111-you-Au                     
   1.00000000000000     
     9.8531005916904313   -5.6667772354808976    0.0067500015763851
    -0.0000000008374350   11.3335524750321106   -0.0000000007878922
     0.0141250959619239   -0.0000000014189260   20.9218330154156398
   O    Au   Ce   H 
    53     1    26     2
Selective dynamics
Direct
  0.0005126262679357  0.0008289674487162  0.9948446086032440   T   T   T
  0.1077397925583128  0.2205363962789875  0.1487507206638128   F   F   F
  0.2418491210745384  0.1301873361268586  0.3126295462063705   T   T   T
  0.0656324965137573  0.1975209288514035  0.3955703905361458   T   T   T
  0.0105537759566504  0.0058878237806046  0.2310341407503926   T   T   T
  0.2228260985199171  0.1113200996885411  0.0741746005687176   F   F   F
  0.3340772616084844  0.0009215415928278  0.9931784155891618   T   T   T
  0.4486845345583674  0.2185589596768409  0.1455278190637586   F   F   F
  0.5458880753695921  0.1013042714911509  0.3051782951048672   T   T   T
  0.4657510937616519  0.1626889840323484  0.4193432836020498   T   T   T
  0.3272354136733739 -0.0001212522339803  0.2300231273034308   T   T   T
  0.5573913309469845  0.1087601092087809  0.0732819009508177   F   F   F
  0.6684861067806313  0.0009248142927806  0.9925443036121860   T   T   T
  0.7751714691285869  0.2258021179527745  0.1523570043800504   F   F   F
  0.8836456601021547  0.1045408618038197  0.3019780305812330   T   T   T
  0.7776879068503063  0.2102470818095861  0.3874422836735265   T   T   T
  0.6642083395444812 -0.0006312937742294  0.2287347810273909   T   T   T
  0.8852101446223060  0.1092715723110729  0.0756728892194403   F   F   F
  0.0007298013762687  0.3319523886070921  0.9946925261507975   T   T   T
  0.1098321843583534  0.5562786988607940  0.1500166308908604   F   F   F
  0.2077120480296818  0.4461198096844171  0.3008577950790289   T   T   T
  0.1110041250169626  0.5568149838124072  0.3876647680618273   T   T   T
 -0.0027452578791566  0.3295592009109269  0.2272522882241829   T   T   T
  0.2228260985199313  0.4448389988307753  0.0741746005687389   F   F   F
  0.3326602260690651  0.3332755287638081  0.9934371848292869   T   T   T
  0.4486845345577137  0.5634595748826996  0.1455278190635170   F   F   F
  0.4547658500935946  0.5301895573656171  0.3626202006595374   T   T   T
  0.3457822308023571  0.3421278297890200  0.2293279226773730   T   T   T
  0.5562795880862197  0.4448057940438019  0.0707900256046088   F   F   F
  0.6678894704904135  0.3330244744038005  0.9933142014427424   T   T   T
  0.7793536113730539  0.5563438056860406  0.1471546771747541   F   F   F
  0.8919664505660567  0.4428553672169172  0.3059148718167385   T   T   T
  0.7706132344815011  0.5594511660374720  0.3812954309786790   T   T   T
  0.6545735572846266  0.3419819027969670  0.2343155046313185   T   T   T
  0.8898105241814989  0.4440412320617924  0.0743057069497013   F   F   F
  0.0014327400178684  0.6673509958481947  0.9939879696549353   T   T   T
  0.1098321843577352  0.8868874854960396  0.1500166308908675   F   F   F
  0.2194306659605322  0.7696503274692940  0.3033339163630929   T   T   T
  0.1132851814853654  0.8849425157829088  0.3845266580858832   T   T   T
  0.9970825327375995  0.6660232561253023  0.2304381382823646   T   T   T
  0.2233930574074421  0.7783635287033590  0.0741097757575702   F   F   F
  0.3338011491655116  0.6665925917990565  0.9933612621872113   T   T   T
  0.4423730499067702  0.8878535249534067  0.1511200917321318   F   F   F
  0.5587645521034099  0.7789541535366035  0.3045194181616919   T   T   T
  0.4366692367241117  0.8715301247535421  0.3844626429169706   T   T   T
  0.3352935948763238  0.6653057098765285  0.2286780152559519   T   T   T
  0.5573913309476737  0.7819642217395497  0.0732819009507040   F   F   F
  0.6681657673222274  0.6685303465054225  0.9933867797254807   T   T   T
  0.7751714691264837  0.8827023511752614  0.1523570043802778   F   F   F
  0.8921738275564914  0.7846945698802448  0.3045660443600940   T   T   T
  0.7764289660951845  0.8887425171884440  0.3883125598939400   T   T   T
  0.6596622462840579  0.6478181132852208  0.2344807424655381   T   T   T
  0.8898105241813425  0.7791022921194752  0.0743057069496516   F   F   F
  0.3528837043428911  0.3311074624373874  0.3363270494443815   T   T   T
  0.0028511547943295  0.0079004021242839  0.3489950631791698   T   T   T
  0.2232209339184763  0.1146498738713930  0.1902108861757910   F   F   F
  0.1110567211645801  0.2221948605824053  0.0345989898372281   F   F   F
  0.3298005328719540 -0.0138352357618756  0.3470955080106088   T   T   T
  0.5541712522587332  0.1110865098529814  0.1902817637667411   F   F   F
  0.4441483638530670  0.2202039935058906  0.0320976650213538   F   F   F
  0.6641461611398648 -0.0031174571327373  0.3454483618776423   T   T   T
  0.8880858562620304  0.1107094281317416  0.1906076061281894   F   F   F
  0.7777877788967587  0.2218844466143963  0.0342011087836767   F   F   F
 -0.0013968300656791  0.3275919024204484  0.3468027900150891   T   T   T
  0.2232209339180571  0.4419040600466531  0.1902108861756844   F   F   F
  0.1113374181857836  0.5552064966262336  0.0351612165858839   F   F   F
  0.5540501777988638  0.4436910888961805  0.1804133423023657   F   F   F
  0.4441483638539481  0.5572783703467579  0.0320976650213183   F   F   F
  0.6673971131574959  0.3225820633514772  0.3530163995622659   T   T   T
  0.8889061293777374  0.4445011715370555  0.1911858414498440   F   F   F
  0.7808648854070839  0.5570994427031479  0.0328516451644134   F   F   F
 -0.0014878260863342  0.6623126933311739  0.3447710794771336   T   T   T
  0.2217378658751912  0.7775359329386973  0.1897090971554363   F   F   F
  0.1113374181861388  0.8894649215613626  0.0351612165858697   F   F   F
  0.3261421596845835  0.6547198640114884  0.3418121390730127   T   T   T
  0.5541712522616891  0.7764177424046608  0.1902817637667837   F   F   F
  0.4458328880855760  0.8895834440426071  0.0338212831397513   F   F   F
  0.6776319837577237  0.6794981912925602  0.3458065133786729   T   T   T
  0.8889061293811835  0.7777379578468029  0.1911858414499008   F   F   F
  0.7777877788979950  0.8892363322825574  0.0342011087836838   F   F   F
  0.3530755726492055  0.3048796305704802  0.4083058068707055   T   T   T
  0.4338325663705660  0.1773335728794173  0.4600296113305012   T   T   T
 
  0.00000000E+00  0.00000000E+00  0.00000000E+00
  0.00000000E+00  0.00000000E+00  0.00000000E+00
  0.00000000E+00  0.00000000E+00  0.00000000E+00
  0.00000000E+00  0.00000000E+00  0.00000000E+00
  0.00000000E+00  0.00000000E+00  0.00000000E+00
  0.00000000E+00  0.00000000E+00  0.00000000E+00
  0.00000000E+00  0.00000000E+00  0.00000000E+00
  0.00000000E+00  0.00000000E+00  0.00000000E+00
  0.00000000E+00  0.00000000E+00  0.00000000E+00
  0.00000000E+00  0.00000000E+00  0.00000000E+00
  0.00000000E+00  0.00000000E+00  0.00000000E+00
  0.00000000E+00  0.00000000E+00  0.00000000E+00
  0.00000000E+00  0.00000000E+00  0.00000000E+00
  0.00000000E+00  0.00000000E+00  0.00000000E+00
  0.00000000E+00  0.00000000E+00  0.00000000E+00
  0.00000000E+00  0.00000000E+00  0.00000000E+00
  0.00000000E+00  0.00000000E+00  0.00000000E+00
  0.00000000E+00  0.00000000E+00  0.00000000E+00
  0.00000000E+00  0.00000000E+00  0.00000000E+00
  0.00000000E+00  0.00000000E+00  0.00000000E+00
  0.00000000E+00  0.00000000E+00  0.00000000E+00
  0.00000000E+00  0.00000000E+00  0.00000000E+00
  0.00000000E+00  0.00000000E+00  0.00000000E+00
  0.00000000E+00  0.00000000E+00  0.00000000E+00
  0.00000000E+00  0.00000000E+00  0.00000000E+00
  0.00000000E+00  0.00000000E+00  0.00000000E+00
  0.00000000E+00  0.00000000E+00  0.00000000E+00
  0.00000000E+00  0.00000000E+00  0.00000000E+00
  0.00000000E+00  0.00000000E+00  0.00000000E+00
  0.00000000E+00  0.00000000E+00  0.00000000E+00
  0.00000000E+00  0.00000000E+00  0.00000000E+00
  0.00000000E+00  0.00000000E+00  0.00000000E+00
  0.00000000E+00  0.00000000E+00  0.00000000E+00
  0.00000000E+00  0.00000000E+00  0.00000000E+00
  0.00000000E+00  0.00000000E+00  0.00000000E+00
  0.00000000E+00  0.00000000E+00  0.00000000E+00
  0.00000000E+00  0.00000000E+00  0.00000000E+00
  0.00000000E+00  0.00000000E+00  0.00000000E+00
  0.00000000E+00  0.00000000E+00  0.00000000E+00
  0.00000000E+00  0.00000000E+00  0.00000000E+00
  0.00000000E+00  0.00000000E+00  0.00000000E+00
  0.00000000E+00  0.00000000E+00  0.00000000E+00
  0.00000000E+00  0.00000000E+00  0.00000000E+00
  0.00000000E+00  0.00000000E+00  0.00000000E+00
  0.00000000E+00  0.00000000E+00  0.00000000E+00
  0.00000000E+00  0.00000000E+00  0.00000000E+00
  0.00000000E+00  0.00000000E+00  0.00000000E+00
  0.00000000E+00  0.00000000E+00  0.00000000E+00
  0.00000000E+00  0.00000000E+00  0.00000000E+00
  0.00000000E+00  0.00000000E+00  0.00000000E+00
  0.00000000E+00  0.00000000E+00  0.00000000E+00
  0.00000000E+00  0.00000000E+00  0.00000000E+00
  0.00000000E+00  0.00000000E+00  0.00000000E+00
  0.00000000E+00  0.00000000E+00  0.00000000E+00
  0.00000000E+00  0.00000000E+00  0.00000000E+00
  0.00000000E+00  0.00000000E+00  0.00000000E+00
  0.00000000E+00  0.00000000E+00  0.00000000E+00
  0.00000000E+00  0.00000000E+00  0.00000000E+00
  0.00000000E+00  0.00000000E+00  0.00000000E+00
  0.00000000E+00  0.00000000E+00  0.00000000E+00
  0.00000000E+00  0.00000000E+00  0.00000000E+00
  0.00000000E+00  0.00000000E+00  0.00000000E+00
  0.00000000E+00  0.00000000E+00  0.00000000E+00
  0.00000000E+00  0.00000000E+00  0.00000000E+00
  0.00000000E+00  0.00000000E+00  0.00000000E+00
  0.00000000E+00  0.00000000E+00  0.00000000E+00
  0.00000000E+00  0.00000000E+00  0.00000000E+00
  0.00000000E+00  0.00000000E+00  0.00000000E+00
  0.00000000E+00  0.00000000E+00  0.00000000E+00
  0.00000000E+00  0.00000000E+00  0.00000000E+00
  0.00000000E+00  0.00000000E+00  0.00000000E+00
  0.00000000E+00  0.00000000E+00  0.00000000E+00
  0.00000000E+00  0.00000000E+00  0.00000000E+00
  0.00000000E+00  0.00000000E+00  0.00000000E+00
  0.00000000E+00  0.00000000E+00  0.00000000E+00
  0.00000000E+00  0.00000000E+00  0.00000000E+00
  0.00000000E+00  0.00000000E+00  0.00000000E+00
  0.00000000E+00  0.00000000E+00  0.00000000E+00
  0.00000000E+00  0.00000000E+00  0.00000000E+00
  0.00000000E+00  0.00000000E+00  0.00000000E+00
  0.00000000E+00  0.00000000E+00  0.00000000E+00
  0.00000000E+00  0.00000000E+00  0.00000000E+00
