CeO2-you-111-you-Ag                     
   1.00000000000000     
     9.8582940952841156   -5.6916891212466432   -0.0000000001264945
    -0.0085402156232054   11.3685841528536091   -0.0024443338986595
    -0.0027083124120834   -0.0046909339072592   21.1747678366137215
   O    Ag   Ce   H 
    53     1    26     2
Selective dynamics
Direct
  0.0000108045394888  0.0001451097686173  0.9961774242390274   T   T   T
  0.1052532485171085  0.2198843066128973  0.1490356331826916   F   F   F
  0.2353228680105365  0.1217566644622436  0.3071125887474879   T   T   T
  0.0967241752103584  0.2183084548341524  0.3857060666968436   T   T   T
  0.0038051338668773  0.0007282181526299  0.2295466251609763   T   T   T
  0.2225804721089233  0.1118279442177581  0.0751495065327816   F   F   F
  0.3338192198047024  0.0006755766806977  0.9963109726039738   T   T   T
  0.4479640580955504  0.2198843066126841  0.1490356331827059   F   F   F
  0.5529670125055474  0.1149664363542314  0.3041873580332538   T   T   T
  0.4714438599540447  0.1977839271778050  0.4076243726810947   T   T   T
  0.3312591216239804  0.9984561214298929  0.2286178274923039   T   T   T
  0.5584148171069572  0.1107534247832760  0.0756232261836374   F   F   F
  0.6666751828360319 -0.0001738462769033  0.9953245270206730   T   T   T
  0.7777747478627219  0.2222154957255071  0.1538870120895197   F   F   F
  0.8882489037891095  0.1095219952982738  0.3029012646116391   T   T   T
  0.7774150891458180  0.2200774612068961  0.3814769602152155   T   T   T
  0.6610466259383054  0.9924310775553933  0.2330637649098950   T   T   T
  0.8856726076764332  0.1107534247835105  0.0756232261836374   F   F   F
  0.0007568987347369  0.3333258360251334  0.9966645371762511   T   T   T
  0.1101946209889135  0.5546623315969370  0.1498127888534384   F   F   F
  0.2192986589836488  0.4578935834610418  0.3010802991401615   T   T   T
  0.1107650190494327  0.5609009333145275  0.3850999755893175   T   T   T
 -0.0004419411353179  0.3317390460139452  0.2296485343913891   T   T   T
  0.2234411531742140  0.4445881942009038  0.0764004692199762   F   F   F
  0.3333506089184339  0.3332789931202801  0.9963821554333173   T   T   T
  0.4472199189541897  0.5611078379086152  0.1496855912103641   F   F   F
  0.5538023864357442  0.4430126155782729  0.3099761797247590   T   T   T
  0.3332764175980202  0.3329805981794391  0.2195946909240165   T   T   T
  0.5544810410264631  0.4445881942006835  0.0764004692199691   F   F   F
  0.6661901747287793  0.3338283716354049  0.9967934224917263   T   T   T
  0.7778007106078135  0.5546623315967238  0.1498127888534526   F   F   F
  0.8906589387808159  0.4467618218176165  0.3045861322519759   T   T   T
  0.7825789884526831  0.5586542235662991  0.3844156439196198   T   T   T
  0.6661891948638878  0.3359550321116628  0.2310470067860605   T   T   T
  0.8876659147526809  0.4419978295054179  0.0766010987790580   F   F   F
  0.9995410641053702  0.6659796944829712  0.9969962576055558   T   T   T
  0.1105390224651970  0.8877450449300213  0.1479151441072517   F   F   F
  0.2192657179304207  0.7781094651209746  0.3026669879685968   T   T   T
  0.1145805985391814  0.8923918740166588  0.3831591813624166   T   T   T
  0.0000874799761513  0.6683266308626473  0.2287507552727265   T   T   T
  0.2232350960197351  0.7781649725244577  0.0748164739807677   F   F   F
  0.3327092144683980  0.6653884432954110  0.9964517848130764   T   T   T
  0.4460123585241291  0.8885825132071972  0.1490406183715152   F   F   F
  0.5472903357347597  0.7573143012341322  0.3116395700803830   T   T   T
  0.4423579997498747  0.8873226989033631  0.3800168610359378   T   T   T
  0.3367019703878793  0.6742914185547350  0.2280705634505162   T   T   T
  0.5559931443340176  0.7786522886680629  0.0747353170192184   F   F   F
  0.6663388487940965  0.6660237376085807  0.9962888906078727   T   T   T
  0.7759031546832773  0.8885825132075027  0.1490406183715081   F   F   F
  0.8918796982361831  0.7793676658977092  0.3036309165409917   T   T   T
  0.7799452589369000  0.8894792084713047  0.3817379552218768   T   T   T
  0.6694926621799621  0.6671015357744451  0.2296698174815797   T   T   T
  0.8882628765048821  0.7781649725244577  0.0748164739807748   F   F   F
  0.3314050973916305  0.3363786814905808  0.3515129952999686   T   T   T
  0.0080974468723737  0.0095350791662949  0.3435283387093731   T   T   T
  0.2225274367339338  0.1117218734688734  0.1890318616756304   F   F   F
  0.1107772653446517  0.2223417026223657  0.0365482199872389   F   F   F
  0.3312049594009681  0.0000349255130207  0.3425784532632947   T   T   T
  0.5549697843787342  0.1103373803090193  0.1904270544491524   F   F   F
  0.4448974372777315  0.2223417026225150  0.0365482199872389   F   F   F
  0.6662671117665498 -0.0021297689226011  0.3440902498147439   T   T   T
  0.8887015959293620  0.1103373803080387  0.1904270544491666   F   F   F
  0.7776456618700607  0.2219573237400354  0.0365806481051862   F   F   F
  0.0031901415462144  0.3334381537640988  0.3430534006486762   T   T   T
  0.2245553174881962  0.4430615803347067  0.1900041496565947   F   F   F
  0.1108555129294189  0.5546897242497053  0.0367521756388740   F   F   F
  0.5518402628480032  0.4430615803354385  0.1900041496566089   F   F   F
  0.4443420954117059  0.5553521908232355  0.0354998511733839   F   F   F
  0.6719356296629487  0.3355536256131107  0.3435706598752672   T   T   T
  0.8892064808001052  0.4450789615998900  0.1915467937525364   F   F   F
  0.7771672113203962  0.5546897242499185  0.0367521756388811   F   F   F
  0.0016909664774608  0.6689706201678292  0.3437785890398714   T   T   T
  0.2217996618792952  0.7781560965902727  0.1871498303147092   F   F   F
  0.1113180458912808  0.8893030917827360  0.0351866533430822   F   F   F
  0.3222884736171721  0.6671420493307673  0.3392346001634467   T   T   T
  0.5551365505641073  0.7769391011280646  0.1887862966522036   F   F   F
  0.4454068263715030  0.8891160206756723  0.0353584749988087   F   F   F
  0.6797215300425514  0.6694070943326161  0.3403025027158578   T   T   T
  0.8896894347103697  0.7781560965900240  0.1871498303147092   F   F   F
  0.7770421943041157  0.8891160206756794  0.0353584749988016   F   F   F
  0.4026728029009695  0.4884587659146159  0.3909931191107218   T   T   T
  0.4444485212919101  0.2220863969218308  0.4468324662700044   T   T   T
 
  0.00000000E+00  0.00000000E+00  0.00000000E+00
  0.00000000E+00  0.00000000E+00  0.00000000E+00
  0.00000000E+00  0.00000000E+00  0.00000000E+00
  0.00000000E+00  0.00000000E+00  0.00000000E+00
  0.00000000E+00  0.00000000E+00  0.00000000E+00
  0.00000000E+00  0.00000000E+00  0.00000000E+00
  0.00000000E+00  0.00000000E+00  0.00000000E+00
  0.00000000E+00  0.00000000E+00  0.00000000E+00
  0.00000000E+00  0.00000000E+00  0.00000000E+00
  0.00000000E+00  0.00000000E+00  0.00000000E+00
  0.00000000E+00  0.00000000E+00  0.00000000E+00
  0.00000000E+00  0.00000000E+00  0.00000000E+00
  0.00000000E+00  0.00000000E+00  0.00000000E+00
  0.00000000E+00  0.00000000E+00  0.00000000E+00
  0.00000000E+00  0.00000000E+00  0.00000000E+00
  0.00000000E+00  0.00000000E+00  0.00000000E+00
  0.00000000E+00  0.00000000E+00  0.00000000E+00
  0.00000000E+00  0.00000000E+00  0.00000000E+00
  0.00000000E+00  0.00000000E+00  0.00000000E+00
  0.00000000E+00  0.00000000E+00  0.00000000E+00
  0.00000000E+00  0.00000000E+00  0.00000000E+00
  0.00000000E+00  0.00000000E+00  0.00000000E+00
  0.00000000E+00  0.00000000E+00  0.00000000E+00
  0.00000000E+00  0.00000000E+00  0.00000000E+00
  0.00000000E+00  0.00000000E+00  0.00000000E+00
  0.00000000E+00  0.00000000E+00  0.00000000E+00
  0.00000000E+00  0.00000000E+00  0.00000000E+00
  0.00000000E+00  0.00000000E+00  0.00000000E+00
  0.00000000E+00  0.00000000E+00  0.00000000E+00
  0.00000000E+00  0.00000000E+00  0.00000000E+00
  0.00000000E+00  0.00000000E+00  0.00000000E+00
  0.00000000E+00  0.00000000E+00  0.00000000E+00
  0.00000000E+00  0.00000000E+00  0.00000000E+00
  0.00000000E+00  0.00000000E+00  0.00000000E+00
  0.00000000E+00  0.00000000E+00  0.00000000E+00
  0.00000000E+00  0.00000000E+00  0.00000000E+00
  0.00000000E+00  0.00000000E+00  0.00000000E+00
  0.00000000E+00  0.00000000E+00  0.00000000E+00
  0.00000000E+00  0.00000000E+00  0.00000000E+00
  0.00000000E+00  0.00000000E+00  0.00000000E+00
  0.00000000E+00  0.00000000E+00  0.00000000E+00
  0.00000000E+00  0.00000000E+00  0.00000000E+00
  0.00000000E+00  0.00000000E+00  0.00000000E+00
  0.00000000E+00  0.00000000E+00  0.00000000E+00
  0.00000000E+00  0.00000000E+00  0.00000000E+00
  0.00000000E+00  0.00000000E+00  0.00000000E+00
  0.00000000E+00  0.00000000E+00  0.00000000E+00
  0.00000000E+00  0.00000000E+00  0.00000000E+00
  0.00000000E+00  0.00000000E+00  0.00000000E+00
  0.00000000E+00  0.00000000E+00  0.00000000E+00
  0.00000000E+00  0.00000000E+00  0.00000000E+00
  0.00000000E+00  0.00000000E+00  0.00000000E+00
  0.00000000E+00  0.00000000E+00  0.00000000E+00
  0.00000000E+00  0.00000000E+00  0.00000000E+00
  0.00000000E+00  0.00000000E+00  0.00000000E+00
  0.00000000E+00  0.00000000E+00  0.00000000E+00
  0.00000000E+00  0.00000000E+00  0.00000000E+00
  0.00000000E+00  0.00000000E+00  0.00000000E+00
  0.00000000E+00  0.00000000E+00  0.00000000E+00
  0.00000000E+00  0.00000000E+00  0.00000000E+00
  0.00000000E+00  0.00000000E+00  0.00000000E+00
  0.00000000E+00  0.00000000E+00  0.00000000E+00
  0.00000000E+00  0.00000000E+00  0.00000000E+00
  0.00000000E+00  0.00000000E+00  0.00000000E+00
  0.00000000E+00  0.00000000E+00  0.00000000E+00
  0.00000000E+00  0.00000000E+00  0.00000000E+00
  0.00000000E+00  0.00000000E+00  0.00000000E+00
  0.00000000E+00  0.00000000E+00  0.00000000E+00
  0.00000000E+00  0.00000000E+00  0.00000000E+00
  0.00000000E+00  0.00000000E+00  0.00000000E+00
  0.00000000E+00  0.00000000E+00  0.00000000E+00
  0.00000000E+00  0.00000000E+00  0.00000000E+00
  0.00000000E+00  0.00000000E+00  0.00000000E+00
  0.00000000E+00  0.00000000E+00  0.00000000E+00
  0.00000000E+00  0.00000000E+00  0.00000000E+00
  0.00000000E+00  0.00000000E+00  0.00000000E+00
  0.00000000E+00  0.00000000E+00  0.00000000E+00
  0.00000000E+00  0.00000000E+00  0.00000000E+00
  0.00000000E+00  0.00000000E+00  0.00000000E+00
  0.00000000E+00  0.00000000E+00  0.00000000E+00
  0.00000000E+00  0.00000000E+00  0.00000000E+00
  0.00000000E+00  0.00000000E+00  0.00000000E+00
