CeO2-you-111-you-Hg                     
   1.00000000000000     
     9.8870981045714288   -5.7083191246888063   -0.0000000010907595
    -0.0212771082965533   11.3797832100701672   -0.0208275181647438
    -0.0229696929559311   -0.0397846684894554   20.5827210216179708
   O    Hg   Ce   H 
    53     1    26     1
Selective dynamics
Direct
 -0.0001690469034742 -0.0002483349527248  0.9889815761559617   T   T   T
  0.1081363607097354  0.2209568275988344  0.1471507039713609   T   T   T
  0.2259580449453966  0.1045198699539783  0.3045014422144782   T   T   T
  0.1143968006957508  0.2275524929716674  0.3890355083952411   T   T   T
  0.0018844899265973  0.0020166911881106  0.2287486265594622   T   T   T
  0.2219054521361940  0.1113358762114908  0.0706269470009220   T   T   T
  0.3329356955872834 -0.0003229811770210  0.9895522945396374   T   T   T
  0.4466983872608278  0.2190553539206760  0.1460786982241312   T   T   T
  0.5515470134817145  0.1092641664786573  0.3064024471120210   T   T   T
  0.4550859003413850  0.1834722212293211  0.4163868786769229   T   T   T
  0.3340545572697166  0.9980192224268095  0.2267155609884464   T   T   T
  0.5577644668397059  0.1113189165878205  0.0698787639173788   T   T   T
  0.6677601587211018  0.9995273991453650  0.9887225724913412   T   T   T
  0.7742440179720225  0.2205410039521121  0.1511020061108319   T   T   T
  0.8927069516732437  0.1122255943647393  0.3055795742821035   T   T   T
  0.7844679596246007  0.2150511515403920  0.3888384085908267   T   T   T
  0.6639505386744750  0.9923818665720923  0.2334969453075894   T   T   T
  0.8873232715056030  0.1102814785673249  0.0714269076370060   T   T   T
 -0.0002895891025006  0.3328651750352197  0.9901235089804642   T   T   T
  0.1107946546804114  0.5552527177178977  0.1478625003757905   T   T   T
  0.2220292134440321  0.4614032581058092  0.3038408690570176   T   T   T
  0.1119638889686056  0.5619486256375903  0.3892536695846511   T   T   T
 -0.0005276400327261  0.3321849711466037  0.2290643020645545   T   T   T
  0.2224769261509831  0.4441081468726320  0.0713110146257196   T   T   T
  0.3330911833626990  0.3330418488215874  0.9896368963584800   T   T   T
  0.4468139040305946  0.5606163078110403  0.1465372162007900   T   T   T
  0.5278400833735075  0.4519176445109722  0.3379508640995337   T   T   T
  0.3368270150430999  0.3366046310998986  0.2208684649873957   T   T   T
  0.5539860484245802  0.4433323252083116  0.0713481346847018   T   T   T
  0.6670147215312336  0.3339415236974139  0.9898672078128874   T   T   T
  0.7777489048271619  0.5559469718488763  0.1462465611937296   T   T   T
  0.8937013844389595  0.4471661192645707  0.3064242400929087   T   T   T
  0.7922583218477428  0.5752280682137821  0.3894581323977140   T   T   T
  0.6608572736164766  0.3419559029997433  0.2326543749707455   T   T   T
  0.8879651950659080  0.4418243337462123  0.0721252187124622   T   T   T
  0.9991759520668119  0.6646771239765475  0.9905795691010642   T   T   T
  0.1105259372662842  0.8893308868310268  0.1460199843618075   T   T   T
  0.2186003806492469  0.7784072241840903  0.3032613537809156   T   T   T
  0.1118719780878897  0.8904376928723516  0.3877688045845071   T   T   T
 -0.0008101877574877  0.6675277618332975  0.2276988652782786   T   T   T
  0.2233577167564151  0.7779823977450232  0.0701787801685512   T   T   T
  0.3336911998392278  0.6656672540283470  0.9899325880312069   T   T   T
  0.4492911575757391  0.8915388423979714  0.1462843815284250   T   T   T
  0.5470641570337094  0.7581779517448565  0.3160426472266297   T   T   T
  0.4393981616896391  0.8853592056210573  0.3857339403919526   T   T   T
  0.3379903104737321  0.6759556113628821  0.2271075627729443   T   T   T
  0.5580648906812241  0.7793413768444500  0.0705739408936823   T   T   T
  0.6664617146489245  0.6650313499789143  0.9897186856565144   T   T   T
  0.7767554769046467  0.8870373033233838  0.1482605170813575   T   T   T
  0.8942917589104072  0.7836020263216396  0.3036801258814032   T   T   T
  0.7836636297595131  0.8932393111654725  0.3872262504912556   T   T   T
  0.6661968457974228  0.6604979074895653  0.2315197438929007   T   T   T
  0.8894525715675057  0.7790499930728517  0.0704881078528203   T   T   T
  0.3224966383046989  0.3340386433321814  0.3617457516485431   T   T   T
  0.0087967297085787  0.0067549199046643  0.3449161274709694   T   T   T
  0.2245474166166619  0.1142587481774825  0.1888736886621836   T   T   T
  0.1108468228879543  0.2217225770636492  0.0309323281100706   T   T   T
  0.3304383079240026 -0.0029124232516290  0.3450033985434643   T   T   T
  0.5551493061597429  0.1117182594810430  0.1906440010124159   T   T   T
  0.4440373158362886  0.2207524885597888  0.0300811406689447   T   T   T
  0.6685205158888305  0.0015378369899867  0.3480257309512232   T   T   T
  0.8894126216923101  0.1109054274418565  0.1892492295507770   T   T   T
  0.7772839182529703  0.2213859733529781  0.0311356871135358   T   T   T
  0.0011274950955848  0.3362157828302527  0.3455573139887080   T   T   T
  0.2233310781593273  0.4444609417861371  0.1889809995511150   T   T   T
  0.1103267791713455  0.5536347494683208  0.0311507903821032   T   T   T
  0.5519584605875529  0.4425850411280654  0.1852453931399226   T   T   T
  0.4439843073174165  0.5553336898177423  0.0297944153062687   T   T   T
  0.6671370642404600  0.3351169744181141  0.3540550440015148   T   T   T
  0.8869897070064541  0.4448157026457383  0.1903254017812858   T   T   T
  0.7779015651518146  0.5544926196877445  0.0305983019227907   T   T   T
  0.0007139673225178  0.6686823557965428  0.3466530326783794   T   T   T
  0.2223677771544344  0.7793466891989379  0.1848316780771396   T   T   T
  0.1110520862994422  0.8892425939145873  0.0298023813499065   T   T   T
  0.3221649465531717  0.6724559852585007  0.3412847760219868   T   T   T
  0.5561221786923332  0.7771405388563802  0.1880784944558921   T   T   T
  0.4464263195754461  0.8893743281900799  0.0301339798283601   T   T   T
  0.6851344737196379  0.6772831046669180  0.3452724689527883   T   T   T
  0.8903691597379652  0.7781717605938293  0.1868773863555942   T   T   T
  0.7777962679236863  0.8885250358919354  0.0298880470997817   T   T   T
  0.4254746109358720  0.1942750456865887  0.4590751240230221   T   T   T
 
  0.00000000E+00  0.00000000E+00  0.00000000E+00
  0.00000000E+00  0.00000000E+00  0.00000000E+00
  0.00000000E+00  0.00000000E+00  0.00000000E+00
  0.00000000E+00  0.00000000E+00  0.00000000E+00
  0.00000000E+00  0.00000000E+00  0.00000000E+00
  0.00000000E+00  0.00000000E+00  0.00000000E+00
  0.00000000E+00  0.00000000E+00  0.00000000E+00
  0.00000000E+00  0.00000000E+00  0.00000000E+00
  0.00000000E+00  0.00000000E+00  0.00000000E+00
  0.00000000E+00  0.00000000E+00  0.00000000E+00
  0.00000000E+00  0.00000000E+00  0.00000000E+00
  0.00000000E+00  0.00000000E+00  0.00000000E+00
  0.00000000E+00  0.00000000E+00  0.00000000E+00
  0.00000000E+00  0.00000000E+00  0.00000000E+00
  0.00000000E+00  0.00000000E+00  0.00000000E+00
  0.00000000E+00  0.00000000E+00  0.00000000E+00
  0.00000000E+00  0.00000000E+00  0.00000000E+00
  0.00000000E+00  0.00000000E+00  0.00000000E+00
  0.00000000E+00  0.00000000E+00  0.00000000E+00
  0.00000000E+00  0.00000000E+00  0.00000000E+00
  0.00000000E+00  0.00000000E+00  0.00000000E+00
  0.00000000E+00  0.00000000E+00  0.00000000E+00
  0.00000000E+00  0.00000000E+00  0.00000000E+00
  0.00000000E+00  0.00000000E+00  0.00000000E+00
  0.00000000E+00  0.00000000E+00  0.00000000E+00
  0.00000000E+00  0.00000000E+00  0.00000000E+00
  0.00000000E+00  0.00000000E+00  0.00000000E+00
  0.00000000E+00  0.00000000E+00  0.00000000E+00
  0.00000000E+00  0.00000000E+00  0.00000000E+00
  0.00000000E+00  0.00000000E+00  0.00000000E+00
  0.00000000E+00  0.00000000E+00  0.00000000E+00
  0.00000000E+00  0.00000000E+00  0.00000000E+00
  0.00000000E+00  0.00000000E+00  0.00000000E+00
  0.00000000E+00  0.00000000E+00  0.00000000E+00
  0.00000000E+00  0.00000000E+00  0.00000000E+00
  0.00000000E+00  0.00000000E+00  0.00000000E+00
  0.00000000E+00  0.00000000E+00  0.00000000E+00
  0.00000000E+00  0.00000000E+00  0.00000000E+00
  0.00000000E+00  0.00000000E+00  0.00000000E+00
  0.00000000E+00  0.00000000E+00  0.00000000E+00
  0.00000000E+00  0.00000000E+00  0.00000000E+00
  0.00000000E+00  0.00000000E+00  0.00000000E+00
  0.00000000E+00  0.00000000E+00  0.00000000E+00
  0.00000000E+00  0.00000000E+00  0.00000000E+00
  0.00000000E+00  0.00000000E+00  0.00000000E+00
  0.00000000E+00  0.00000000E+00  0.00000000E+00
  0.00000000E+00  0.00000000E+00  0.00000000E+00
  0.00000000E+00  0.00000000E+00  0.00000000E+00
  0.00000000E+00  0.00000000E+00  0.00000000E+00
  0.00000000E+00  0.00000000E+00  0.00000000E+00
  0.00000000E+00  0.00000000E+00  0.00000000E+00
  0.00000000E+00  0.00000000E+00  0.00000000E+00
  0.00000000E+00  0.00000000E+00  0.00000000E+00
  0.00000000E+00  0.00000000E+00  0.00000000E+00
  0.00000000E+00  0.00000000E+00  0.00000000E+00
  0.00000000E+00  0.00000000E+00  0.00000000E+00
  0.00000000E+00  0.00000000E+00  0.00000000E+00
  0.00000000E+00  0.00000000E+00  0.00000000E+00
  0.00000000E+00  0.00000000E+00  0.00000000E+00
  0.00000000E+00  0.00000000E+00  0.00000000E+00
  0.00000000E+00  0.00000000E+00  0.00000000E+00
  0.00000000E+00  0.00000000E+00  0.00000000E+00
  0.00000000E+00  0.00000000E+00  0.00000000E+00
  0.00000000E+00  0.00000000E+00  0.00000000E+00
  0.00000000E+00  0.00000000E+00  0.00000000E+00
  0.00000000E+00  0.00000000E+00  0.00000000E+00
  0.00000000E+00  0.00000000E+00  0.00000000E+00
  0.00000000E+00  0.00000000E+00  0.00000000E+00
  0.00000000E+00  0.00000000E+00  0.00000000E+00
  0.00000000E+00  0.00000000E+00  0.00000000E+00
  0.00000000E+00  0.00000000E+00  0.00000000E+00
  0.00000000E+00  0.00000000E+00  0.00000000E+00
  0.00000000E+00  0.00000000E+00  0.00000000E+00
  0.00000000E+00  0.00000000E+00  0.00000000E+00
  0.00000000E+00  0.00000000E+00  0.00000000E+00
  0.00000000E+00  0.00000000E+00  0.00000000E+00
  0.00000000E+00  0.00000000E+00  0.00000000E+00
  0.00000000E+00  0.00000000E+00  0.00000000E+00
  0.00000000E+00  0.00000000E+00  0.00000000E+00
  0.00000000E+00  0.00000000E+00  0.00000000E+00
  0.00000000E+00  0.00000000E+00  0.00000000E+00
