CeO2-you-111-you-Au                     
   1.00000000000000     
     9.8531005916904313   -5.6667772354808976    0.0067500015763851
    -0.0000000008374350   11.3335524750321106   -0.0000000007878922
     0.0141250959619239   -0.0000000014189260   20.9218330154156398
   O    Au   Ce
    53     1    26
Selective dynamics
Direct
  0.0003515772899939  0.0012399911299285  0.9946640246469929   T   T   T
  0.1077397925583105  0.2205363962789910  0.1487507206638112   T   T   T
  0.2268496471034494  0.1292596042516682  0.3088911035171211   T   T   T
  0.0572432299576050  0.1952881149837279  0.3983118791548952   T   T   T
  0.0031794607706740  0.0014191078523802  0.2298526612227722   T   T   T
  0.2228260985199200  0.1113200996885418  0.0741746005687206   T   T   T
  0.3339900553925729  0.0005930197494002  0.9934282035125357   T   T   T
  0.4486845345583659  0.2185589596768403  0.1455278190637599   T   T   T
  0.5558099307551762  0.1092066804377815  0.3044255516447999   T   T   T
  0.4589250182345833  0.2397509651573276  0.3795476834286789   T   T   T
  0.3308841019694103  0.0030648980760972  0.2311103175397894   T   T   T
  0.5573913309469869  0.1087601092087805  0.0732819009508188   T   T   T
  0.6684597474784238  0.0008963737392878  0.9925621602985552   T   T   T
  0.7751714691285895  0.2258021179527710  0.1523570043800533   T   T   T
  0.8834453034276569  0.1083891517140894  0.3021345167015109   T   T   T
  0.7738639185939086  0.2184967444661976  0.3874328437290323   T   T   T
  0.6638540215229711 -0.0014064892382739  0.2284262866386591   T   T   T
  0.8852101446223043  0.1092715723110748  0.0756728892194387   T   T   T
  0.0003515772905119  0.3324445861598859  0.9946640246469766   T   T   T
  0.1098321843583539  0.5562786988607955  0.1500166308908621   T   T   T
  0.2268496471005805  0.4309230428495965  0.3088911035174514   T   T   T
  0.1155963264675875  0.5587509560509808  0.3836538907134091   T   T   T
  0.0031794607717462  0.3350933529174852  0.2298526612228164   T   T   T
  0.2228260985199289  0.4448389988307722  0.0741746005687409   T   T   T
  0.3322582340430111  0.3327956170213267  0.9936831115413169   T   T   T
  0.4486845345577128  0.5634595748826994  0.1455278190635138   T   T   T
  0.4589250182354354  0.5525080530751904  0.3795476834286829   T   T   T
  0.3427696820849545  0.3380513410417565  0.2168329773593044   T   T   T
  0.5562795880862228  0.4448057940438044  0.0707900256046060   T   T   T
  0.6684802042934224  0.3333524004083823  0.9935888160382513   T   T   T
  0.7793536113730565  0.5563438056860411  0.1471546771747507   T   T   T
  0.8912775697630583  0.4423524584549487  0.3058005234813485   T   T   T
  0.7666873554363787  0.5500106777212633  0.3789183059708575   T   T   T
  0.6576158624428127  0.3435859759399281  0.2359964029042667   T   T   T
  0.8898105241814981  0.4440412320617944  0.0743057069497043   T   T   T
  0.0012497733439650  0.6672918866717541  0.9941848532692199   T   T   T
  0.1098321843577365  0.8868874854960410  0.1500166308908656   T   T   T
  0.2222930271910485  0.7778135135948774  0.3035351005883577   T   T   T
  0.1155963264668902  0.8901793704145664  0.3836538907134117   T   T   T
 -0.0021614257999441  0.6655862870992496  0.2306919073818249   T   T   T
  0.2233930574074411  0.7783635287033578  0.0741097757575692   T   T   T
  0.3339900553924887  0.6667310356429621  0.9934282035125167   T   T   T
  0.4423730499067683  0.8878535249534060  0.1511200917321313   T   T   T
  0.5558099307544210  0.7799362503182172  0.3044255516446962   T   T   T
  0.4413373329799927  0.8873356664896543  0.3842034790076870   T   T   T
  0.3308841019697822  0.6611532038931682  0.2311103175397086   T   T   T
  0.5573913309476736  0.7819642217395499  0.0732819009507030   T   T   T
  0.6684802042934361  0.6684608038858523  0.9935888160381504   T   T   T
  0.7751714691264862  0.8827023511752581  0.1523570043802772   T   T   T
  0.8912775697629558  0.7822581113066012  0.3058005234811847   T   T   T
  0.7738639185948476  0.8887001741292821  0.3874328437286827   T   T   T
  0.6576158624433027  0.6473628865073708  0.2359964029042915   T   T   T
  0.8898105241813433  0.7791022921194756  0.0743057069496505   T   T   T
  0.3477073625361979  0.3405201812645114  0.3488938604050950   T   T   T
  0.0030053509546236  0.0083292039286621  0.3478256588386479   T   T   T
  0.2232209339184737  0.1146498738713901  0.1902108861757935   T   T   T
  0.1110567211645804  0.2221948605824048  0.0345989898372286   T   T   T
  0.3324460014252411  0.0038660282867151  0.3441144820321551   T   T   T
  0.5541712522587319  0.1110865098529829  0.1902817637667416   T   T   T
  0.4441483638530688  0.2202039935058906  0.0320976650213567   T   T   T
  0.6643084115982048 -0.0011792942003671  0.3455328854953693   T   T   T
  0.8880858562620330  0.1107094281317437  0.1906076061281922   T   T   T
  0.7777877788967609  0.2218844466143974  0.0342011087836755   T   T   T
  0.0030053509548512  0.3280091470267897  0.3478256588384542   T   T   T
  0.2232209339180559  0.4419040600466547  0.1902108861756871   T   T   T
  0.1113374181857849  0.5552064966262324  0.0351612165858836   T   T   T
  0.5540501777988670  0.4436910888961835  0.1804133423023654   T   T   T
  0.4441483638539506  0.5572783703467570  0.0320976650213190   T   T   T
  0.6724699549992162  0.3279911063680718  0.3477916250783031   T   T   T
  0.8889061293777374  0.4445011715370573  0.1911858414498405   T   T   T
  0.7808648854070859  0.5570994427031477  0.0328516451644145   T   T   T
  0.0029483083679654  0.6681411541872744  0.3435606664775898   T   T   T
  0.2217378658751890  0.7775359329386945  0.1897090971554338   T   T   T
  0.1113374181861421  0.8894649215613611  0.0351612165858702   T   T   T
  0.3324460014257824  0.6619139731386393  0.3441144820319850   T   T   T
  0.5541712522616902  0.7764177424046620  0.1902817637667803   T   T   T
  0.4458328880855769  0.8895834440426068  0.0338212831397524   T   T   T
  0.6724699549971920  0.6778118486242731  0.3477916250788564   T   T   T
  0.8889061293811862  0.7777379578468041  0.1911858414499028   T   T   T
  0.7777877788979970  0.8892363322825559  0.0342011087836828   T   T   T
 
  0.00000000E+00  0.00000000E+00  0.00000000E+00
  0.00000000E+00  0.00000000E+00  0.00000000E+00
  0.00000000E+00  0.00000000E+00  0.00000000E+00
  0.00000000E+00  0.00000000E+00  0.00000000E+00
  0.00000000E+00  0.00000000E+00  0.00000000E+00
  0.00000000E+00  0.00000000E+00  0.00000000E+00
  0.00000000E+00  0.00000000E+00  0.00000000E+00
  0.00000000E+00  0.00000000E+00  0.00000000E+00
  0.00000000E+00  0.00000000E+00  0.00000000E+00
  0.00000000E+00  0.00000000E+00  0.00000000E+00
  0.00000000E+00  0.00000000E+00  0.00000000E+00
  0.00000000E+00  0.00000000E+00  0.00000000E+00
  0.00000000E+00  0.00000000E+00  0.00000000E+00
  0.00000000E+00  0.00000000E+00  0.00000000E+00
  0.00000000E+00  0.00000000E+00  0.00000000E+00
  0.00000000E+00  0.00000000E+00  0.00000000E+00
  0.00000000E+00  0.00000000E+00  0.00000000E+00
  0.00000000E+00  0.00000000E+00  0.00000000E+00
  0.00000000E+00  0.00000000E+00  0.00000000E+00
  0.00000000E+00  0.00000000E+00  0.00000000E+00
  0.00000000E+00  0.00000000E+00  0.00000000E+00
  0.00000000E+00  0.00000000E+00  0.00000000E+00
  0.00000000E+00  0.00000000E+00  0.00000000E+00
  0.00000000E+00  0.00000000E+00  0.00000000E+00
  0.00000000E+00  0.00000000E+00  0.00000000E+00
  0.00000000E+00  0.00000000E+00  0.00000000E+00
  0.00000000E+00  0.00000000E+00  0.00000000E+00
  0.00000000E+00  0.00000000E+00  0.00000000E+00
  0.00000000E+00  0.00000000E+00  0.00000000E+00
  0.00000000E+00  0.00000000E+00  0.00000000E+00
  0.00000000E+00  0.00000000E+00  0.00000000E+00
  0.00000000E+00  0.00000000E+00  0.00000000E+00
  0.00000000E+00  0.00000000E+00  0.00000000E+00
  0.00000000E+00  0.00000000E+00  0.00000000E+00
  0.00000000E+00  0.00000000E+00  0.00000000E+00
  0.00000000E+00  0.00000000E+00  0.00000000E+00
  0.00000000E+00  0.00000000E+00  0.00000000E+00
  0.00000000E+00  0.00000000E+00  0.00000000E+00
  0.00000000E+00  0.00000000E+00  0.00000000E+00
  0.00000000E+00  0.00000000E+00  0.00000000E+00
  0.00000000E+00  0.00000000E+00  0.00000000E+00
  0.00000000E+00  0.00000000E+00  0.00000000E+00
  0.00000000E+00  0.00000000E+00  0.00000000E+00
  0.00000000E+00  0.00000000E+00  0.00000000E+00
  0.00000000E+00  0.00000000E+00  0.00000000E+00
  0.00000000E+00  0.00000000E+00  0.00000000E+00
  0.00000000E+00  0.00000000E+00  0.00000000E+00
  0.00000000E+00  0.00000000E+00  0.00000000E+00
  0.00000000E+00  0.00000000E+00  0.00000000E+00
  0.00000000E+00  0.00000000E+00  0.00000000E+00
  0.00000000E+00  0.00000000E+00  0.00000000E+00
  0.00000000E+00  0.00000000E+00  0.00000000E+00
  0.00000000E+00  0.00000000E+00  0.00000000E+00
  0.00000000E+00  0.00000000E+00  0.00000000E+00
  0.00000000E+00  0.00000000E+00  0.00000000E+00
  0.00000000E+00  0.00000000E+00  0.00000000E+00
  0.00000000E+00  0.00000000E+00  0.00000000E+00
  0.00000000E+00  0.00000000E+00  0.00000000E+00
  0.00000000E+00  0.00000000E+00  0.00000000E+00
  0.00000000E+00  0.00000000E+00  0.00000000E+00
  0.00000000E+00  0.00000000E+00  0.00000000E+00
  0.00000000E+00  0.00000000E+00  0.00000000E+00
  0.00000000E+00  0.00000000E+00  0.00000000E+00
  0.00000000E+00  0.00000000E+00  0.00000000E+00
  0.00000000E+00  0.00000000E+00  0.00000000E+00
  0.00000000E+00  0.00000000E+00  0.00000000E+00
  0.00000000E+00  0.00000000E+00  0.00000000E+00
  0.00000000E+00  0.00000000E+00  0.00000000E+00
  0.00000000E+00  0.00000000E+00  0.00000000E+00
  0.00000000E+00  0.00000000E+00  0.00000000E+00
  0.00000000E+00  0.00000000E+00  0.00000000E+00
  0.00000000E+00  0.00000000E+00  0.00000000E+00
  0.00000000E+00  0.00000000E+00  0.00000000E+00
  0.00000000E+00  0.00000000E+00  0.00000000E+00
  0.00000000E+00  0.00000000E+00  0.00000000E+00
  0.00000000E+00  0.00000000E+00  0.00000000E+00
  0.00000000E+00  0.00000000E+00  0.00000000E+00
  0.00000000E+00  0.00000000E+00  0.00000000E+00
  0.00000000E+00  0.00000000E+00  0.00000000E+00
  0.00000000E+00  0.00000000E+00  0.00000000E+00
