CeO2-you-111-you-Re                     
   1.00000000000000     
     9.8574383390581062   -5.6911950451955384    0.0000000008021707
     0.0349891988231736   11.4429911535160898    0.0152387379200071
     0.0161160208337313    0.0279137622267962   21.1402671599840168
   O    Re   Ce   H 
    53     1    26     1
Selective dynamics
Direct
  0.0001621119413302  0.0001770740336890  0.9960243508218262   T   T   T
  0.1185858698078022  0.2169487354211001  0.1500568654027072   T   T   T
  0.2323399415974483  0.1374708689975511  0.3048224662392130   T   T   T
  0.1508318787788822  0.2437957635283472  0.3872644585588790   T   T   T
  0.0041941358689795 -0.0019957009106081  0.2289995639776271   T   T   T
  0.2239638914575588  0.1069037683551400  0.0732112612467409   T   T   T
  0.3357654331423072 -0.0012703790334572  0.9942821091991135   T   T   T
  0.4435375495966180  0.2226149582959630  0.1469141965230679   T   T   T
  0.5622990955456707  0.1163219598129663  0.3038603271882802   T   T   T
  0.4372920985763120  0.2433107830017940  0.3830760256328830   T   T   T
  0.3324427925190742  0.0006968160388085  0.2282776787025761   T   T   T
  0.5561670296473402  0.1099954087581730  0.0748865174123622   T   T   T
  0.6712971645921998  0.0007493769095534  0.9962633321122739   T   T   T
  0.7748919601260238  0.2234056524861413  0.1513149088977770   T   T   T
  0.8929349279799861  0.1155786828240064  0.3063979558744085   T   T   T
  0.7800784218564870  0.2250903333373940  0.3861587730503724   T   T   T
  0.6685828222152160 -0.0006049612915907  0.2291196652611386   T   T   T
  0.8906013970002135  0.1106031614003809  0.0781926894167160   T   T   T
  0.9995403996062321  0.3281636670717452  0.9954081895206549   T   T   T
  0.1083631625855476  0.5578883249795111  0.1460887276488145   T   T   T
  0.2209536544485624  0.4216103434422061  0.3028531370756905   T   T   T
  0.0990029255632084  0.5405305399327633  0.3811199899036446   T   T   T
 -0.0028475494575389  0.3300646432861381  0.2283476136099030   T   T   T
  0.2233602015016818  0.4439319365635266  0.0696763061001094   T   T   T
  0.3339741359593990  0.3298229253213526  0.9948164043623423   T   T   T
  0.4532930164942392  0.5581771610676118  0.1436324287404483   T   T   T
  0.4373046940889612  0.4700570966308947  0.3720897326136693   T   T   T
  0.3712384605957806  0.3494695452450998  0.2450696907355190   T   T   T
  0.5590297657138626  0.4432894855643042  0.0696425191693933   T   T   T
  0.6688270013636397  0.3304219951782260  0.9938776088771820   T   T   T
  0.7814889108971953  0.5552336695652061  0.1448877102638157   T   T   T
  0.8886369616717962  0.4372978121714614  0.3001463597035841   T   T   T
  0.7659942262521313  0.5317927202797209  0.3787228056949832   T   T   T
  0.6597668315381194  0.3431420956329403  0.2325439100831554   T   T   T
  0.8898316978590187  0.4418502704752731  0.0719892594005688   T   T   T
  0.0023468386070817  0.6663306259559216  0.9940522482771662   T   T   T
  0.1122550575903068  0.8877059245604485  0.1491000051025106   T   T   T
  0.2171016418322191  0.7709139316927642  0.3012337808673640   T   T   T
  0.1037058240227776  0.8680581944424859  0.3869504389942915   T   T   T
  0.9976907543952376  0.6623300698141003  0.2274623559749330   T   T   T
  0.2251112954045748  0.7782204633365828  0.0733510104112143   T   T   T
  0.3375625689872364  0.6687855310732154  0.9945278514128946   T   T   T
  0.4473553257886748  0.8907677088874020  0.1501736136437014   T   T   T
  0.5577776694978416  0.7753955800172466  0.3030179589648156   T   T   T
  0.4542881900378343  0.8902242693092649  0.3858082923927446   T   T   T
  0.3364745940176735  0.6687457951913829  0.2273377218679951   T   T   T
  0.5585057885661263  0.7799711134602378  0.0742416580992725   T   T   T
  0.6701939272703162  0.6689655496313762  0.9947100137283353   T   T   T
  0.7783346035428007  0.8843096746193922  0.1523750366293227   T   T   T
  0.8904374147963017  0.7729994393692201  0.3032991771664495   T   T   T
  0.7703066479025928  0.8900766708024428  0.3885790752952432   T   T   T
  0.6615139350636263  0.6481858248532721  0.2307195106673756   T   T   T
  0.8916281939309658  0.7775463227611528  0.0738494106544786   T   T   T
  0.3040027634076337  0.3233211653170842  0.3331806846270121   T   T   T
 -0.0010029618577804  0.9925500626918266  0.3488445184682359   T   T   T
  0.2226507897631296  0.1059688831118325  0.1874188491428317   T   T   T
  0.1127041189039652  0.2206138363312765  0.0351086092085057   T   T   T
  0.3292636549085758  0.9904654113795226  0.3459326856705650   T   T   T
  0.5551343486301199  0.1102576183074208  0.1898700343072196   T   T   T
  0.4455310444464841  0.2193086784147112  0.0323732066015917   T   T   T
  0.6648547224863786 -0.0069448974877795  0.3444103289970158   T   T   T
  0.8918641729830329  0.1101595608904371  0.1914757524247034   T   T   T
  0.7793744878635710  0.2208550605293331  0.0353881466138398   T   T   T
 -0.0052833840832927  0.3308829755528906  0.3418089278861675   T   T   T
  0.2250112919429861  0.4459487702563940  0.1847961859404895   T   T   T
  0.1131403974322864  0.5547393533807761  0.0338274629520995   T   T   T
  0.5611873770048802  0.4472959916073739  0.1785269912421888   T   T   T
  0.4469515062123262  0.5574844376448792  0.0321592822333490   T   T   T
  0.6779784596969347  0.3266659853096829  0.3419317242470970   T   T   T
  0.8907574219664166  0.4438067557395978  0.1868477852824868   T   T   T
  0.7819428706511977  0.5560659477299631  0.0318615340041483   T   T   T
 -0.0001257891861550  0.6630353231817626  0.3417605305971131   T   T   T
  0.2234951943091048  0.7759731683512207  0.1881661379493560   T   T   T
  0.1129170934383458  0.8880474396092224  0.0347181334079688   T   T   T
  0.3312246958777887  0.6690292374369503  0.3418748073206484   T   T   T
  0.5563575255336675  0.7755073413707989  0.1905175773967010   T   T   T
  0.4475248078018652  0.8893793835952226  0.0355630008830524   T   T   T
  0.6755903145894716  0.6740094116106857  0.3465073216293759   T   T   T
  0.8899791308858551  0.7755873667396603  0.1902632229913057   T   T   T
  0.7802157260344633  0.8891550666343603  0.0367274532649686   T   T   T
  0.4425949281712831  0.2792254406116464  0.4254014055385358   T   T   T
 
  0.00000000E+00  0.00000000E+00  0.00000000E+00
  0.00000000E+00  0.00000000E+00  0.00000000E+00
  0.00000000E+00  0.00000000E+00  0.00000000E+00
  0.00000000E+00  0.00000000E+00  0.00000000E+00
  0.00000000E+00  0.00000000E+00  0.00000000E+00
  0.00000000E+00  0.00000000E+00  0.00000000E+00
  0.00000000E+00  0.00000000E+00  0.00000000E+00
  0.00000000E+00  0.00000000E+00  0.00000000E+00
  0.00000000E+00  0.00000000E+00  0.00000000E+00
  0.00000000E+00  0.00000000E+00  0.00000000E+00
  0.00000000E+00  0.00000000E+00  0.00000000E+00
  0.00000000E+00  0.00000000E+00  0.00000000E+00
  0.00000000E+00  0.00000000E+00  0.00000000E+00
  0.00000000E+00  0.00000000E+00  0.00000000E+00
  0.00000000E+00  0.00000000E+00  0.00000000E+00
  0.00000000E+00  0.00000000E+00  0.00000000E+00
  0.00000000E+00  0.00000000E+00  0.00000000E+00
  0.00000000E+00  0.00000000E+00  0.00000000E+00
  0.00000000E+00  0.00000000E+00  0.00000000E+00
  0.00000000E+00  0.00000000E+00  0.00000000E+00
  0.00000000E+00  0.00000000E+00  0.00000000E+00
  0.00000000E+00  0.00000000E+00  0.00000000E+00
  0.00000000E+00  0.00000000E+00  0.00000000E+00
  0.00000000E+00  0.00000000E+00  0.00000000E+00
  0.00000000E+00  0.00000000E+00  0.00000000E+00
  0.00000000E+00  0.00000000E+00  0.00000000E+00
  0.00000000E+00  0.00000000E+00  0.00000000E+00
  0.00000000E+00  0.00000000E+00  0.00000000E+00
  0.00000000E+00  0.00000000E+00  0.00000000E+00
  0.00000000E+00  0.00000000E+00  0.00000000E+00
  0.00000000E+00  0.00000000E+00  0.00000000E+00
  0.00000000E+00  0.00000000E+00  0.00000000E+00
  0.00000000E+00  0.00000000E+00  0.00000000E+00
  0.00000000E+00  0.00000000E+00  0.00000000E+00
  0.00000000E+00  0.00000000E+00  0.00000000E+00
  0.00000000E+00  0.00000000E+00  0.00000000E+00
  0.00000000E+00  0.00000000E+00  0.00000000E+00
  0.00000000E+00  0.00000000E+00  0.00000000E+00
  0.00000000E+00  0.00000000E+00  0.00000000E+00
  0.00000000E+00  0.00000000E+00  0.00000000E+00
  0.00000000E+00  0.00000000E+00  0.00000000E+00
  0.00000000E+00  0.00000000E+00  0.00000000E+00
  0.00000000E+00  0.00000000E+00  0.00000000E+00
  0.00000000E+00  0.00000000E+00  0.00000000E+00
  0.00000000E+00  0.00000000E+00  0.00000000E+00
  0.00000000E+00  0.00000000E+00  0.00000000E+00
  0.00000000E+00  0.00000000E+00  0.00000000E+00
  0.00000000E+00  0.00000000E+00  0.00000000E+00
  0.00000000E+00  0.00000000E+00  0.00000000E+00
  0.00000000E+00  0.00000000E+00  0.00000000E+00
  0.00000000E+00  0.00000000E+00  0.00000000E+00
  0.00000000E+00  0.00000000E+00  0.00000000E+00
  0.00000000E+00  0.00000000E+00  0.00000000E+00
  0.00000000E+00  0.00000000E+00  0.00000000E+00
  0.00000000E+00  0.00000000E+00  0.00000000E+00
  0.00000000E+00  0.00000000E+00  0.00000000E+00
  0.00000000E+00  0.00000000E+00  0.00000000E+00
  0.00000000E+00  0.00000000E+00  0.00000000E+00
  0.00000000E+00  0.00000000E+00  0.00000000E+00
  0.00000000E+00  0.00000000E+00  0.00000000E+00
  0.00000000E+00  0.00000000E+00  0.00000000E+00
  0.00000000E+00  0.00000000E+00  0.00000000E+00
  0.00000000E+00  0.00000000E+00  0.00000000E+00
  0.00000000E+00  0.00000000E+00  0.00000000E+00
  0.00000000E+00  0.00000000E+00  0.00000000E+00
  0.00000000E+00  0.00000000E+00  0.00000000E+00
  0.00000000E+00  0.00000000E+00  0.00000000E+00
  0.00000000E+00  0.00000000E+00  0.00000000E+00
  0.00000000E+00  0.00000000E+00  0.00000000E+00
  0.00000000E+00  0.00000000E+00  0.00000000E+00
  0.00000000E+00  0.00000000E+00  0.00000000E+00
  0.00000000E+00  0.00000000E+00  0.00000000E+00
  0.00000000E+00  0.00000000E+00  0.00000000E+00
  0.00000000E+00  0.00000000E+00  0.00000000E+00
  0.00000000E+00  0.00000000E+00  0.00000000E+00
  0.00000000E+00  0.00000000E+00  0.00000000E+00
  0.00000000E+00  0.00000000E+00  0.00000000E+00
  0.00000000E+00  0.00000000E+00  0.00000000E+00
  0.00000000E+00  0.00000000E+00  0.00000000E+00
  0.00000000E+00  0.00000000E+00  0.00000000E+00
  0.00000000E+00  0.00000000E+00  0.00000000E+00
