CeO2-you-111-you-Zr                     
   1.00000000000000     
     9.8661272674094604   -5.6879587065200212    0.0098847317255127
    -0.0000000023323471   11.3759154071379758   -0.0000000011759713
     0.0218867404599731   -0.0000000022766209   20.9392899134419928
   O    Zr   Ce
    53     1    26
Selective dynamics
Direct
  0.0000891142056329  0.0006349677133091  0.9946904116488692   T   T   T
  0.1166043514453112  0.2249686757229080  0.1510186049269378   T   T   T
  0.2152130026362677  0.1063435856288654  0.3035045022468152   T   T   T
  0.1253571318936970  0.2293450659478271  0.3828955348759340   T   T   T
 -0.0020724646143175  0.0002965625324047  0.2286657572493167   T   T   T
  0.2199991627626174  0.1093179598197999  0.0742383045013534   T   T   T
  0.3341832505308057  0.0002293284170851  0.9946589207460408   T   T   T
  0.4393720843566046  0.2130954003210809  0.1474119055563034   T   T   T
  0.5521489014588027  0.1048501198399204  0.3075984370534426   T   T   T
  0.4423504964254693  0.2532220989647007  0.3684294669338840   T   T   T
  0.3329133638379604 -0.0006260729980017  0.2308591834752784   T   T   T
  0.5562724621705044  0.1096388333371756  0.0746270019978105   T   T   T
  0.6692630317216617  0.0012980158608716  0.9948950888210283   T   T   T
  0.7747455299264209  0.2232584917609741  0.1510270298398913   T   T   T
  0.8908497988751100  0.1120913994375302  0.3061415236958885   T   T   T
  0.7808380035682631  0.2193081705599327  0.3876213671835960   T   T   T
  0.6678078335679493  0.0005704167838844  0.2306755916234558   T   T   T
  0.8899425251489294  0.1116377625744784  0.0768567877471534   T   T   T
  0.0000891142055636  0.3327871464922022  0.9946904116488492   T   T   T
  0.1109003968243638  0.5556377653130641  0.1503847053161718   T   T   T
  0.2152130026312998  0.4422024170070111  0.3035045022475942   T   T   T
  0.1145742757298746  0.5578367533727967  0.3858514280979680   T   T   T
 -0.0020724646146680  0.3309639728529036  0.2286657572492327   T   T   T
  0.2199991627624575  0.4440142029426660  0.0742383045013768   T   T   T
  0.3308712960392332  0.3321021480195382  0.9948182343648828   T   T   T
  0.4393720843564600  0.5596106840358753  0.1474119055563173   T   T   T
  0.4423504964196389  0.5224623974578702  0.3684294669339456   T   T   T
  0.3389897347552722  0.3361613673778815  0.2386236342070979   T   T   T
  0.5561230028579492  0.4447275014289290  0.0705602801891970   T   T   T
  0.6685177898900362  0.3321008587903048  0.9948058993629129   T   T   T
  0.7863772460740032  0.5598556230366936  0.1472507451790314   T   T   T
  0.8966246739733665  0.4463264861705001  0.3058777161030997   T   T   T
  0.7708824997339819  0.5521082498661591  0.3798783667928730   T   T   T
  0.6651164553602910  0.3358205372953244  0.2354958490026778   T   T   T
  0.8905153955837066  0.4436918161274912  0.0745692261535656   T   T   T
  0.0008262597065043  0.6670801298532407  0.9947089242669003   T   T   T
  0.1109003968246503  0.8885966315116647  0.1503847053161588   T   T   T
  0.2218448591193197  0.7775894295598459  0.3048220966212434   T   T   T
  0.1145742757299201  0.8900715223577372  0.3858514280979381   T   T   T
  0.0000132374330912  0.6666736187163664  0.2305079125150332   T   T   T
  0.2229486583303049  0.7781413291652497  0.0748121781157576   T   T   T
  0.3341832505308594  0.6672879221139040  0.9946589207460660   T   T   T
  0.4449618383023034  0.8891479191513540  0.1510669208566677   T   T   T
  0.5521489014576512  0.7806317816182183  0.3075984370534773   T   T   T
  0.4386125001590689  0.8859732500792036  0.3861968572710781   T   T   T
  0.3329133638374610  0.6668734368362222  0.2308591834752352   T   T   T
  0.5562724621705386  0.7799666288332552  0.0746270019978707   T   T   T
  0.6685177898901349  0.6697499310997727  0.9948058993630093   T   T   T
  0.7747455299268441  0.8848200381652752  0.1510270298398229   T   T   T
  0.8966246739726356  0.7836311878014001  0.3058777161031719   T   T   T
  0.7808380035654400  0.8948628330056683  0.3876213671837733   T   T   T
  0.6651164553590336  0.6626289180636221  0.2354958490027405   T   T   T
  0.8905153955838316  0.7801565794562355  0.0745692261536055   T   T   T
  0.3130759459881599  0.3232044729923739  0.3381566526627159   T   T   T
  0.0014244340503906  0.0008095626879265  0.3445867119206704   T   T   T
  0.2218366156084167  0.1099955705758837  0.1896113367939326   T   T   T
  0.1114051890956039  0.2223690945479317  0.0347354581939211   T   T   T
  0.3304582345815283 -0.0003276412350710  0.3430896548110889   T   T   T
  0.5554477237039953  0.1117300942267107  0.1909965093547313   T   T   T
  0.4440475611313062  0.2204994880730643  0.0339906035372376   T   T   T
  0.6653204170356253 -0.0006732914814351  0.3464754943597515   T   T   T
  0.8882578584103148  0.1107954292050186  0.1902791613892856   T   T   T
  0.7782476469431580  0.2224165289548950  0.0351153007701322   T   T   T
  0.0014244340506766  0.3339478713607675  0.3445867119204869   T   T   T
  0.2218366156109149  0.4451740450327322  0.1896113367938169   T   T   T
  0.1109216898071741  0.5549441078949728  0.0347049890462269   T   T   T
  0.5557495465864069  0.4445407732937354  0.1835467248654931   T   T   T
  0.4440475611304175  0.5568820730581550  0.0339906035373461   T   T   T
  0.6721109918045911  0.3289475161594365  0.3481316374212718   T   T   T
  0.8879454102324504  0.4445807206206095  0.1903823258114972   T   T   T
  0.7797507820218570  0.5565423910108447  0.0339813792144065   T   T   T
  0.0012443126355131  0.6672891563183557  0.3440123827746336   T   T   T
  0.2219265990809585  0.7776302995401819  0.1889537882443019   T   T   T
  0.1109216898067029  0.8893115819118396  0.0347049890462787   T   T   T
  0.3304582345860339  0.6641198758173281  0.3430896548109814   T   T   T
  0.5554477237046556  0.7770506294774415  0.1909965093547527   T   T   T
  0.4459531390078047  0.8896435695037680  0.0352013123532885   T   T   T
  0.6721109918112931  0.6764964756520386  0.3481316374207531   T   T   T
  0.8879454102314109  0.7766976896122656  0.1903823258116022   T   T   T
  0.7782476469425215  0.8891641179880382  0.0351153007701622   T   T   T
 
  0.00000000E+00  0.00000000E+00  0.00000000E+00
  0.00000000E+00  0.00000000E+00  0.00000000E+00
  0.00000000E+00  0.00000000E+00  0.00000000E+00
  0.00000000E+00  0.00000000E+00  0.00000000E+00
  0.00000000E+00  0.00000000E+00  0.00000000E+00
  0.00000000E+00  0.00000000E+00  0.00000000E+00
  0.00000000E+00  0.00000000E+00  0.00000000E+00
  0.00000000E+00  0.00000000E+00  0.00000000E+00
  0.00000000E+00  0.00000000E+00  0.00000000E+00
  0.00000000E+00  0.00000000E+00  0.00000000E+00
  0.00000000E+00  0.00000000E+00  0.00000000E+00
  0.00000000E+00  0.00000000E+00  0.00000000E+00
  0.00000000E+00  0.00000000E+00  0.00000000E+00
  0.00000000E+00  0.00000000E+00  0.00000000E+00
  0.00000000E+00  0.00000000E+00  0.00000000E+00
  0.00000000E+00  0.00000000E+00  0.00000000E+00
  0.00000000E+00  0.00000000E+00  0.00000000E+00
  0.00000000E+00  0.00000000E+00  0.00000000E+00
  0.00000000E+00  0.00000000E+00  0.00000000E+00
  0.00000000E+00  0.00000000E+00  0.00000000E+00
  0.00000000E+00  0.00000000E+00  0.00000000E+00
  0.00000000E+00  0.00000000E+00  0.00000000E+00
  0.00000000E+00  0.00000000E+00  0.00000000E+00
  0.00000000E+00  0.00000000E+00  0.00000000E+00
  0.00000000E+00  0.00000000E+00  0.00000000E+00
  0.00000000E+00  0.00000000E+00  0.00000000E+00
  0.00000000E+00  0.00000000E+00  0.00000000E+00
  0.00000000E+00  0.00000000E+00  0.00000000E+00
  0.00000000E+00  0.00000000E+00  0.00000000E+00
  0.00000000E+00  0.00000000E+00  0.00000000E+00
  0.00000000E+00  0.00000000E+00  0.00000000E+00
  0.00000000E+00  0.00000000E+00  0.00000000E+00
  0.00000000E+00  0.00000000E+00  0.00000000E+00
  0.00000000E+00  0.00000000E+00  0.00000000E+00
  0.00000000E+00  0.00000000E+00  0.00000000E+00
  0.00000000E+00  0.00000000E+00  0.00000000E+00
  0.00000000E+00  0.00000000E+00  0.00000000E+00
  0.00000000E+00  0.00000000E+00  0.00000000E+00
  0.00000000E+00  0.00000000E+00  0.00000000E+00
  0.00000000E+00  0.00000000E+00  0.00000000E+00
  0.00000000E+00  0.00000000E+00  0.00000000E+00
  0.00000000E+00  0.00000000E+00  0.00000000E+00
  0.00000000E+00  0.00000000E+00  0.00000000E+00
  0.00000000E+00  0.00000000E+00  0.00000000E+00
  0.00000000E+00  0.00000000E+00  0.00000000E+00
  0.00000000E+00  0.00000000E+00  0.00000000E+00
  0.00000000E+00  0.00000000E+00  0.00000000E+00
  0.00000000E+00  0.00000000E+00  0.00000000E+00
  0.00000000E+00  0.00000000E+00  0.00000000E+00
  0.00000000E+00  0.00000000E+00  0.00000000E+00
  0.00000000E+00  0.00000000E+00  0.00000000E+00
  0.00000000E+00  0.00000000E+00  0.00000000E+00
  0.00000000E+00  0.00000000E+00  0.00000000E+00
  0.00000000E+00  0.00000000E+00  0.00000000E+00
  0.00000000E+00  0.00000000E+00  0.00000000E+00
  0.00000000E+00  0.00000000E+00  0.00000000E+00
  0.00000000E+00  0.00000000E+00  0.00000000E+00
  0.00000000E+00  0.00000000E+00  0.00000000E+00
  0.00000000E+00  0.00000000E+00  0.00000000E+00
  0.00000000E+00  0.00000000E+00  0.00000000E+00
  0.00000000E+00  0.00000000E+00  0.00000000E+00
  0.00000000E+00  0.00000000E+00  0.00000000E+00
  0.00000000E+00  0.00000000E+00  0.00000000E+00
  0.00000000E+00  0.00000000E+00  0.00000000E+00
  0.00000000E+00  0.00000000E+00  0.00000000E+00
  0.00000000E+00  0.00000000E+00  0.00000000E+00
  0.00000000E+00  0.00000000E+00  0.00000000E+00
  0.00000000E+00  0.00000000E+00  0.00000000E+00
  0.00000000E+00  0.00000000E+00  0.00000000E+00
  0.00000000E+00  0.00000000E+00  0.00000000E+00
  0.00000000E+00  0.00000000E+00  0.00000000E+00
  0.00000000E+00  0.00000000E+00  0.00000000E+00
  0.00000000E+00  0.00000000E+00  0.00000000E+00
  0.00000000E+00  0.00000000E+00  0.00000000E+00
  0.00000000E+00  0.00000000E+00  0.00000000E+00
  0.00000000E+00  0.00000000E+00  0.00000000E+00
  0.00000000E+00  0.00000000E+00  0.00000000E+00
  0.00000000E+00  0.00000000E+00  0.00000000E+00
  0.00000000E+00  0.00000000E+00  0.00000000E+00
  0.00000000E+00  0.00000000E+00  0.00000000E+00
