CeO2-you-111-you-Sr                     
   1.00000000000000     
     9.9169523318763151   -5.7255554712298169   -0.0000000008394493
    -0.0299713307685903   11.3991970630059196   -0.0161423527768271
    -0.0171424659473466   -0.0296916169763733   21.1815644597184658
   O    Sr   Ce   H 
    53     1    26     2
Selective dynamics
Direct
  0.0002311783756846  0.0003320115569175  0.9971905800460287   T   T   T
  0.1093548198940724  0.2224122517810727  0.1499562360007545   F   F   F
  0.2227775891258877  0.1032576448171581  0.3029912117879557   T   T   T
  0.0877431446880601  0.2102776169586834  0.3854030833135132   T   T   T
  0.0014322589354068  0.0017231988169254  0.2277191113510432   T   T   T
  0.2227438216314042  0.1121546432627412  0.0759537442633018   F   F   F
  0.3334202224760721  0.0004470611415564  0.9968869527624084   T   T   T
  0.4463904318868259  0.2224122517808951  0.1499562360007758   F   F   F
  0.5492869578113972  0.1072555148465974  0.3040075991484588   T   T   T
  0.4418725741298637  0.2061539358578529  0.4040973092108899   T   T   T
  0.3327579293211566 -0.0015688512506493  0.2267410369558639   T   T   T
  0.5570631250746629  0.1116822250993508  0.0756117487806804   F   F   F
  0.6666084088483392  0.9995009724127724  0.9966687647178135   T   T   T
  0.7768100765895340  0.2202861531790887  0.1527567747187106   F   F   F
  0.8851711267267151  0.1087780631421467  0.3001615427824900   T   T   T
  0.7809473790916449  0.2105901552168892  0.3839593381884306   T   T   T
  0.6591747407179146  0.9887758285675862  0.2317168495831466   T   T   T
  0.8879531000247880  0.1116822250995071  0.0756117487806875   F   F   F
  0.0008533662870303  0.3336107433573496  0.9975941157141767   T   T   T
  0.1105487640217078  0.5545588155722712  0.1499912045375282   F   F   F
  0.2278178643341638  0.4566983206086534  0.3084100803839629   T   T   T
  0.1121549567050559  0.5629549221052971  0.3857747685203217   T   T   T
  0.0040436904592501  0.3340053581859669  0.2298492038266401   T   T   T
  0.2233183726831669  0.4446515177049832  0.0767316974300272   F   F   F
  0.3334618172826809  0.3334545666662491  0.9971877151956074   T   T   T
  0.4451738370647504  0.5570156741299996  0.1509617398858651   F   F   F
  0.5587557236312777  0.4601738351630504  0.3109697995487927   T   T   T
  0.3332228643501581  0.3336068529776321  0.2256750470848595   T   T   T
  0.5546671450216820  0.4446515177049051  0.0767316974300272   F   F   F
  0.6667249037290527  0.3336402949901713  0.9976568383920050   T   T   T
  0.7773430515502966  0.5545588155720935  0.1499912045375211   F   F   F
  0.8956851516230665  0.4471153811133716  0.3041507212495114   T   T   T
  0.7934347694825936  0.5753520368913878  0.3868473876590192   T   T   T
  0.6653999605003156  0.3356178338586540  0.2292716835209725   T   T   T
  0.8878981491854816  0.4424622983709696  0.0767246964072328   F   F   F
  0.9990128442431345  0.6650929257406758  0.9975260726440629   T   T   T
  0.1114491950605370  0.8895653901206373  0.1481396980291976   F   F   F
  0.2179456744090540  0.7777368026495634  0.3004415865461207   T   T   T
  0.1134465894390122  0.8883254399879700  0.3833881576568031   T   T   T
 -0.0000311210302990  0.6675892835574406  0.2268015530437969   T   T   T
  0.2219756122952248  0.7778744383878617  0.0747969064336615   F   F   F
  0.3329937542243938  0.6660098315926293  0.9975537565703998   T   T   T
  0.4444499817896386  0.8889731228118407  0.1482195371882540   F   F   F
  0.5422331943322916  0.7525244817476212  0.3159822141861661   T   T   T
  0.4369528827560585  0.8871456447083911  0.3819249379076405   T   T   T
  0.3349657634280557  0.6721465203340211  0.2282650815299005   T   T   T
  0.5553955584437062  0.7774571168873905  0.0756393399531916   F   F   F
  0.6661785813560385  0.6660894911975922  0.9972060087539659   T   T   T
  0.7778561410225322  0.8889731228120894  0.1482195371882611   F   F   F
  0.8961637422316883  0.7820205390997446  0.3004563156014205   T   T   T
  0.7825133712928367  0.8918084751306624  0.3806325234444130   T   T   T
  0.6712445889653639  0.6724592627763505  0.2279014016022866   T   T   T
  0.8892318260927325  0.7778744383878902  0.0747969064336544   F   F   F
  0.3255205309433511  0.3237720497482813  0.3465463350063836   T   T   T
  0.0025539523461925  0.0043491695620228  0.3421258640525821   T   T   T
  0.2233364276635470  0.1133398553281424  0.1898381241846039   F   F   F
  0.1113864942348215  0.2225409924313269  0.0373235110466865   F   F   F
  0.3284687737214315 -0.0056661253432396  0.3405528703988030   T   T   T
  0.5545814778339277  0.1101698582754054  0.1895486424964119   F   F   F
  0.4444874981965725  0.2225409924314761  0.0373235110466794   F   F   F
  0.6658675964618165 -0.0006416289790511  0.3432516317863258   T   T   T
  0.8889223804406257  0.1101698582745811  0.1895486424963977   F   F   F
  0.7775704280661273  0.2218068561321900  0.0371285038514273   F   F   F
  0.9986037439108283  0.3299170371396077  0.3436170796479973   T   T   T
  0.2231876862061952  0.4440284400365186  0.1912495509566767   F   F   F
  0.1105699711457717  0.5541693069013292  0.0371595402114053   F   F   F
  0.5541747538320081  0.4440284400371937  0.1912495509566270   F   F   F
  0.4439831684513109  0.5546343369024811  0.0368839891796853   F   F   F
  0.6727782382803486  0.3375560165334721  0.3460036995633491   T   T   T
  0.8892401539279930  0.4451463078555946  0.1906083998510297   F   F   F
  0.7769323357555962  0.5541693069014286  0.0371595402114053   F   F   F
  0.0007526050301365  0.6677578748096352  0.3443805161289010   T   T   T
  0.2211484866733429  0.7793571123141447  0.1865806165809190   F   F   F
  0.1112714028154116  0.8892098056310545  0.0354232388682689   F   F   F
  0.3199897608314233  0.6723204828992835  0.3387657331882498   T   T   T
  0.5547522743889814  0.7761705487779409  0.1877835275893744   F   F   F
  0.4446350079443704  0.8886677549241710  0.0359254787877177   F   F   F
  0.6883742030326346  0.6759761305687253  0.3384994752168159   T   T   T
  0.8915416256400377  0.7793571123137468  0.1865806165809047   F   F   F
  0.7773657469796973  0.8886677549241355  0.0359254787877248   F   F   F
  0.3260248352856162  0.3409808097350115  0.4898631582723227   T   T   T
  0.4392332096088667  0.1929549773796003  0.4495077224835951   T   T   T
 
  0.00000000E+00  0.00000000E+00  0.00000000E+00
  0.00000000E+00  0.00000000E+00  0.00000000E+00
  0.00000000E+00  0.00000000E+00  0.00000000E+00
  0.00000000E+00  0.00000000E+00  0.00000000E+00
  0.00000000E+00  0.00000000E+00  0.00000000E+00
  0.00000000E+00  0.00000000E+00  0.00000000E+00
  0.00000000E+00  0.00000000E+00  0.00000000E+00
  0.00000000E+00  0.00000000E+00  0.00000000E+00
  0.00000000E+00  0.00000000E+00  0.00000000E+00
  0.00000000E+00  0.00000000E+00  0.00000000E+00
  0.00000000E+00  0.00000000E+00  0.00000000E+00
  0.00000000E+00  0.00000000E+00  0.00000000E+00
  0.00000000E+00  0.00000000E+00  0.00000000E+00
  0.00000000E+00  0.00000000E+00  0.00000000E+00
  0.00000000E+00  0.00000000E+00  0.00000000E+00
  0.00000000E+00  0.00000000E+00  0.00000000E+00
  0.00000000E+00  0.00000000E+00  0.00000000E+00
  0.00000000E+00  0.00000000E+00  0.00000000E+00
  0.00000000E+00  0.00000000E+00  0.00000000E+00
  0.00000000E+00  0.00000000E+00  0.00000000E+00
  0.00000000E+00  0.00000000E+00  0.00000000E+00
  0.00000000E+00  0.00000000E+00  0.00000000E+00
  0.00000000E+00  0.00000000E+00  0.00000000E+00
  0.00000000E+00  0.00000000E+00  0.00000000E+00
  0.00000000E+00  0.00000000E+00  0.00000000E+00
  0.00000000E+00  0.00000000E+00  0.00000000E+00
  0.00000000E+00  0.00000000E+00  0.00000000E+00
  0.00000000E+00  0.00000000E+00  0.00000000E+00
  0.00000000E+00  0.00000000E+00  0.00000000E+00
  0.00000000E+00  0.00000000E+00  0.00000000E+00
  0.00000000E+00  0.00000000E+00  0.00000000E+00
  0.00000000E+00  0.00000000E+00  0.00000000E+00
  0.00000000E+00  0.00000000E+00  0.00000000E+00
  0.00000000E+00  0.00000000E+00  0.00000000E+00
  0.00000000E+00  0.00000000E+00  0.00000000E+00
  0.00000000E+00  0.00000000E+00  0.00000000E+00
  0.00000000E+00  0.00000000E+00  0.00000000E+00
  0.00000000E+00  0.00000000E+00  0.00000000E+00
  0.00000000E+00  0.00000000E+00  0.00000000E+00
  0.00000000E+00  0.00000000E+00  0.00000000E+00
  0.00000000E+00  0.00000000E+00  0.00000000E+00
  0.00000000E+00  0.00000000E+00  0.00000000E+00
  0.00000000E+00  0.00000000E+00  0.00000000E+00
  0.00000000E+00  0.00000000E+00  0.00000000E+00
  0.00000000E+00  0.00000000E+00  0.00000000E+00
  0.00000000E+00  0.00000000E+00  0.00000000E+00
  0.00000000E+00  0.00000000E+00  0.00000000E+00
  0.00000000E+00  0.00000000E+00  0.00000000E+00
  0.00000000E+00  0.00000000E+00  0.00000000E+00
  0.00000000E+00  0.00000000E+00  0.00000000E+00
  0.00000000E+00  0.00000000E+00  0.00000000E+00
  0.00000000E+00  0.00000000E+00  0.00000000E+00
  0.00000000E+00  0.00000000E+00  0.00000000E+00
  0.00000000E+00  0.00000000E+00  0.00000000E+00
  0.00000000E+00  0.00000000E+00  0.00000000E+00
  0.00000000E+00  0.00000000E+00  0.00000000E+00
  0.00000000E+00  0.00000000E+00  0.00000000E+00
  0.00000000E+00  0.00000000E+00  0.00000000E+00
  0.00000000E+00  0.00000000E+00  0.00000000E+00
  0.00000000E+00  0.00000000E+00  0.00000000E+00
  0.00000000E+00  0.00000000E+00  0.00000000E+00
  0.00000000E+00  0.00000000E+00  0.00000000E+00
  0.00000000E+00  0.00000000E+00  0.00000000E+00
  0.00000000E+00  0.00000000E+00  0.00000000E+00
  0.00000000E+00  0.00000000E+00  0.00000000E+00
  0.00000000E+00  0.00000000E+00  0.00000000E+00
  0.00000000E+00  0.00000000E+00  0.00000000E+00
  0.00000000E+00  0.00000000E+00  0.00000000E+00
  0.00000000E+00  0.00000000E+00  0.00000000E+00
  0.00000000E+00  0.00000000E+00  0.00000000E+00
  0.00000000E+00  0.00000000E+00  0.00000000E+00
  0.00000000E+00  0.00000000E+00  0.00000000E+00
  0.00000000E+00  0.00000000E+00  0.00000000E+00
  0.00000000E+00  0.00000000E+00  0.00000000E+00
  0.00000000E+00  0.00000000E+00  0.00000000E+00
  0.00000000E+00  0.00000000E+00  0.00000000E+00
  0.00000000E+00  0.00000000E+00  0.00000000E+00
  0.00000000E+00  0.00000000E+00  0.00000000E+00
  0.00000000E+00  0.00000000E+00  0.00000000E+00
  0.00000000E+00  0.00000000E+00  0.00000000E+00
  0.00000000E+00  0.00000000E+00  0.00000000E+00
  0.00000000E+00  0.00000000E+00  0.00000000E+00
