CeO2-you-111-you-Sb                     
   1.00000000000000     
     9.9073984811053251   -5.7200395526849528   -0.0000000003237202
    -0.0260647985777335   11.3949315396582396   -0.0061565696862372
    -0.0070662036398796   -0.0122390216405651   20.3066452120837333
   O    Sb   Ce   H 
    53     1    26     2
Selective dynamics
Direct
 -0.0000204626774565  0.0003408099961909  0.9892329329127895   T   T   T
  0.1128116051583135  0.2235210211979037  0.1480752515985131   F   F   F
  0.2501281895784851  0.1329676228152344  0.3149228977431680   T   T   T
  0.1122240103957642  0.2213259180086522  0.3816274789115063   T   T   T
  0.0096612960852500  0.0050947841512411  0.2320780467433552   T   T   T
  0.2224116771341613  0.1114903542685965  0.0703673654633761   F   F   F
  0.3336505113501112  0.0006688654627960  0.9885192296808488   T   T   T
  0.4440424160392453  0.2235210211976053  0.1480752515984847   F   F   F
  0.5500955214786961  0.1056546338075144  0.3074541121780617   T   T   T
  0.4574545907070159  0.1876011519757565  0.4199487545462174   T   T   T
  0.3287509594125416 -0.0000205996140464  0.2302472550079654   T   T   T
  0.5556049186750940  0.1118804484717160  0.0710898884169922   F   F   F
  0.6673384159804183  0.9998323602455946  0.9897997351136788   T   T   T
  0.7768089416164941  0.2202838832326108  0.1503077109864250   F   F   F
  0.8862443885072260  0.1083128962488600  0.3048092966180565   T   T   T
  0.7855154994779409  0.2157728068502618  0.3924141339775972   T   T   T
  0.6640890969220921  0.9962359726514934  0.2297608730320243   T   T   T
  0.8896095297965161  0.1118804484718652  0.0710898884170206   F   F   F
  0.0001615407115890  0.3330150669580020  0.9891418616635957   T   T   T
  0.1105229073517577  0.5556956177924164  0.1481338964516326   F   F   F
  0.2468011362381066  0.4481170581444566  0.3147774832095451   T   T   T
  0.0970312686660434  0.5459790812873182  0.3912929336211112   T   T   T
  0.0077712463867811  0.3366301724605186  0.2324085731781225   T   T   T
  0.2221554243352770  0.4451645291495723  0.0715232103288841   F   F   F
  0.3341703895877817  0.3350881209349146  0.9892242962655979   T   T   T
  0.4431882293014482  0.5530444586026917  0.1495133423598602   F   F   F
  0.5146741199488671  0.4306256395873456  0.3226958108807964   T   T   T
  0.3263460587916437  0.3290705055008717  0.2328570648188988   T   T   T
  0.5563431048142036  0.4451645291497712  0.0715232103289054   F   F   F
  0.6668407488142859  0.3334905630685848  0.9890814107356032   T   T   T
  0.7785057104406050  0.5556956177924164  0.1481338964516397   F   F   F
  0.8904172008840966  0.4421491895697252  0.3053085756308966   T   T   T
  0.7939804156709309  0.5634382283458230  0.3934706970214021   T   T   T
  0.6617714217055933  0.3379105523319721  0.2317730750691154   T   T   T
  0.8881955809651103  0.4430571619299855  0.0716186756758432   F   F   F
  0.9996312731654012  0.6659971075400416  0.9889392335112182   T   T   T
  0.1113764407098401  0.8894198814197978  0.1463602784363189   F   F   F
  0.2207928500587438  0.7797813459374547  0.3078978042494321   T   T   T
  0.1137156607017103  0.8935371780751228  0.3894252226309531   T   T   T
  0.0001446650297698  0.6675681958315349  0.2291331412611684   T   T   T
  0.2222113284379859  0.7783576208712830  0.0703605262100453   F   F   F
  0.3340582151968823  0.6673501864073763  0.9893757882177057   T   T   T
  0.4435411383826136  0.8891153231896496  0.1480737432700465   F   F   F
  0.5553232197804480  0.7754606808881637  0.3121636116679630   T   T   T
  0.4495979839808834  0.8987301036231830  0.3958396653127016   T   T   T
  0.3307244590483154  0.6659342325565559  0.2289384839922242   T   T   T
  0.5552089259788175  0.7770838519572436  0.0723539305132164   F   F   F
  0.6666637977332474  0.6675548855958490  0.9893687723430392   T   T   T
  0.7789071848073661  0.8891153231900262  0.1480737432701389   F   F   F
  0.8943820004525959  0.7827512453336272  0.3056019203733031   T   T   T
  0.7908400857139046  0.9028025921403636  0.3939507581246292   T   T   T
  0.6669467501861298  0.6619907430575362  0.2299568351719129   T   T   T
  0.8894792924336059  0.7783576208716028  0.0703605262101306   F   F   F
  0.3126104121885875  0.3234761176130105  0.3390702973777824   T   T   T
 -0.0010374594927027 -0.0008556439801126  0.3499114385339513   T   T   T
  0.2221280981463138  0.1109231962925890  0.1881316141695351   F   F   F
  0.1112729586431840  0.2228136952927073  0.0300589632858888   F   F   F
  0.3361781055948669 -0.0054103488658568  0.3522424526427265   T   T   T
  0.5543689244135024  0.1100731615996011  0.1899815709213470   F   F   F
  0.4448737366493916  0.2228136952927144  0.0300589632858888   F   F   F
  0.6671284116060774 -0.0007198302795133  0.3499681561389686   T   T   T
  0.8890382371861776  0.1100731615996011  0.1899815709213541   F   F   F
  0.7776667209032482  0.2219994418065312  0.0308685975970278   F   F   F
  0.9939155713423410  0.3315465039497885  0.3497348957409732   T   T   T
  0.2215642785809209  0.4450886332130750  0.1903767560707763   F   F   F
  0.1107712060478221  0.5551527882784910  0.0303341748073862   F   F   F
  0.5568583546319132  0.4450886332128405  0.1903767560707763   F   F   F
  0.4444374310949968  0.5555428621900091  0.0306291216896994   F   F   F
  0.6678533017188798  0.3331969651632209  0.3555606736802087   T   T   T
  0.8888834003518582  0.4444328007036873  0.1904684888670616   F   F   F
  0.7777145822307574  0.5551527882785479  0.0303341748074288   F   F   F
 -0.0016939454816698  0.6640982570426619  0.3491857684641089   T   T   T
  0.2215304014272164  0.7790840080949053  0.1880478662365732   F   F   F
  0.1113553038387849  0.8893776076776234  0.0286272624103105   F   F   F
  0.3284112343242327  0.6759878108553338  0.3506439360119880   T   T   T
  0.5544254696481588  0.7755169392958905  0.1900261957264959   F   F   F
  0.4443730282283695  0.8887906765957041  0.0302889278653780   F   F   F
  0.6815297311025151  0.6747332899506370  0.3503821341107099   T   T   T
  0.8908866066675785  0.7790840080947206  0.1880478662365661   F   F   F
  0.7777506483674301  0.8887906765956117  0.0302889278653851   F   F   F
  0.3543485506287188  0.3624756765337949  0.4215760844660333   T   T   T
  0.4243203156490006  0.2104299729771398  0.4591280717473607   T   T   T
 
  0.00000000E+00  0.00000000E+00  0.00000000E+00
  0.00000000E+00  0.00000000E+00  0.00000000E+00
  0.00000000E+00  0.00000000E+00  0.00000000E+00
  0.00000000E+00  0.00000000E+00  0.00000000E+00
  0.00000000E+00  0.00000000E+00  0.00000000E+00
  0.00000000E+00  0.00000000E+00  0.00000000E+00
  0.00000000E+00  0.00000000E+00  0.00000000E+00
  0.00000000E+00  0.00000000E+00  0.00000000E+00
  0.00000000E+00  0.00000000E+00  0.00000000E+00
  0.00000000E+00  0.00000000E+00  0.00000000E+00
  0.00000000E+00  0.00000000E+00  0.00000000E+00
  0.00000000E+00  0.00000000E+00  0.00000000E+00
  0.00000000E+00  0.00000000E+00  0.00000000E+00
  0.00000000E+00  0.00000000E+00  0.00000000E+00
  0.00000000E+00  0.00000000E+00  0.00000000E+00
  0.00000000E+00  0.00000000E+00  0.00000000E+00
  0.00000000E+00  0.00000000E+00  0.00000000E+00
  0.00000000E+00  0.00000000E+00  0.00000000E+00
  0.00000000E+00  0.00000000E+00  0.00000000E+00
  0.00000000E+00  0.00000000E+00  0.00000000E+00
  0.00000000E+00  0.00000000E+00  0.00000000E+00
  0.00000000E+00  0.00000000E+00  0.00000000E+00
  0.00000000E+00  0.00000000E+00  0.00000000E+00
  0.00000000E+00  0.00000000E+00  0.00000000E+00
  0.00000000E+00  0.00000000E+00  0.00000000E+00
  0.00000000E+00  0.00000000E+00  0.00000000E+00
  0.00000000E+00  0.00000000E+00  0.00000000E+00
  0.00000000E+00  0.00000000E+00  0.00000000E+00
  0.00000000E+00  0.00000000E+00  0.00000000E+00
  0.00000000E+00  0.00000000E+00  0.00000000E+00
  0.00000000E+00  0.00000000E+00  0.00000000E+00
  0.00000000E+00  0.00000000E+00  0.00000000E+00
  0.00000000E+00  0.00000000E+00  0.00000000E+00
  0.00000000E+00  0.00000000E+00  0.00000000E+00
  0.00000000E+00  0.00000000E+00  0.00000000E+00
  0.00000000E+00  0.00000000E+00  0.00000000E+00
  0.00000000E+00  0.00000000E+00  0.00000000E+00
  0.00000000E+00  0.00000000E+00  0.00000000E+00
  0.00000000E+00  0.00000000E+00  0.00000000E+00
  0.00000000E+00  0.00000000E+00  0.00000000E+00
  0.00000000E+00  0.00000000E+00  0.00000000E+00
  0.00000000E+00  0.00000000E+00  0.00000000E+00
  0.00000000E+00  0.00000000E+00  0.00000000E+00
  0.00000000E+00  0.00000000E+00  0.00000000E+00
  0.00000000E+00  0.00000000E+00  0.00000000E+00
  0.00000000E+00  0.00000000E+00  0.00000000E+00
  0.00000000E+00  0.00000000E+00  0.00000000E+00
  0.00000000E+00  0.00000000E+00  0.00000000E+00
  0.00000000E+00  0.00000000E+00  0.00000000E+00
  0.00000000E+00  0.00000000E+00  0.00000000E+00
  0.00000000E+00  0.00000000E+00  0.00000000E+00
  0.00000000E+00  0.00000000E+00  0.00000000E+00
  0.00000000E+00  0.00000000E+00  0.00000000E+00
  0.00000000E+00  0.00000000E+00  0.00000000E+00
  0.00000000E+00  0.00000000E+00  0.00000000E+00
  0.00000000E+00  0.00000000E+00  0.00000000E+00
  0.00000000E+00  0.00000000E+00  0.00000000E+00
  0.00000000E+00  0.00000000E+00  0.00000000E+00
  0.00000000E+00  0.00000000E+00  0.00000000E+00
  0.00000000E+00  0.00000000E+00  0.00000000E+00
  0.00000000E+00  0.00000000E+00  0.00000000E+00
  0.00000000E+00  0.00000000E+00  0.00000000E+00
  0.00000000E+00  0.00000000E+00  0.00000000E+00
  0.00000000E+00  0.00000000E+00  0.00000000E+00
  0.00000000E+00  0.00000000E+00  0.00000000E+00
  0.00000000E+00  0.00000000E+00  0.00000000E+00
  0.00000000E+00  0.00000000E+00  0.00000000E+00
  0.00000000E+00  0.00000000E+00  0.00000000E+00
  0.00000000E+00  0.00000000E+00  0.00000000E+00
  0.00000000E+00  0.00000000E+00  0.00000000E+00
  0.00000000E+00  0.00000000E+00  0.00000000E+00
  0.00000000E+00  0.00000000E+00  0.00000000E+00
  0.00000000E+00  0.00000000E+00  0.00000000E+00
  0.00000000E+00  0.00000000E+00  0.00000000E+00
  0.00000000E+00  0.00000000E+00  0.00000000E+00
  0.00000000E+00  0.00000000E+00  0.00000000E+00
  0.00000000E+00  0.00000000E+00  0.00000000E+00
  0.00000000E+00  0.00000000E+00  0.00000000E+00
  0.00000000E+00  0.00000000E+00  0.00000000E+00
  0.00000000E+00  0.00000000E+00  0.00000000E+00
  0.00000000E+00  0.00000000E+00  0.00000000E+00
  0.00000000E+00  0.00000000E+00  0.00000000E+00
