CeO2-you-111-you-Tl                     
   1.00000000000000     
     9.8670171573878367   -5.6954562409622760   -0.0018441814574059
    -0.0000000025115781   11.3909104730147295    0.0000000002229343
    -0.0041156216026602    0.0000000004323999   20.7721687515011908
   O    Tl   Ce H
    53     1    26 1
Selective dynamics
Direct
 -0.0010776104245518  0.0006727305463931  0.9942480957773202   T   T   T
  0.1163596394743862  0.2248463197372542  0.1504747897376694   T   T   T
  0.2173874574014251  0.1045825627589300  0.3038429027453659   T   T   T
  0.0987574580783021  0.2160452290392831  0.3905208637855713   T   T   T
 -0.0010428841197245  0.0007940896430965  0.2285556057289977   T   T   T
  0.2218177784907812  0.1103496989592583  0.0729700440888792   T   T   T
  0.3327962940997654 -0.0005838225931566  0.9927992995621283   T   T   T
  0.4442356633514124  0.2200149803408830  0.1466029269181438   T   T   T
  0.5558051769592519  0.1063171438855047  0.3055299702054836   T   T   T
  0.4499722634697698  0.2327374950037530  0.3803837674270578   T   T   T
  0.3344342953209190  0.0008484824386793  0.2296787546019007   T   T   T
  0.5553085432980547  0.1097365212663476  0.0729869535508843   T   T   T
  0.6684364599604092  0.0008847299802545  0.9936205901316812   T   T   T
  0.7742434087514622  0.2253389168244315  0.1511016331792429   T   T   T
  0.8893743768291791  0.1113536884142518  0.3046699918310946   T   T   T
  0.7812222896832657  0.2188567678705686  0.3883846975347013   T   T   T
  0.6681901084532241  0.0007615542266348  0.2287174887081580   T   T   T
  0.8881869632780375  0.1107599816389378  0.0760504559987648   T   T   T
 -0.0010776104244007  0.3315826590291679  0.9942480957773148   T   T   T
  0.1106499346292835  0.5552185765498461  0.1498543315869239   T   T   T
  0.2173874574017367  0.4461378946430294  0.3038429027454047   T   T   T
  0.1131983805981681  0.5593153048390140  0.3864143649011401   T   T   T
 -0.0010428841187088  0.3314960262371656  0.2285556057290233   T   T   T
  0.2218177784907611  0.4448010795314554  0.0729700440888715   T   T   T
  0.3318237210322192  0.3325783605159873  0.9929335209367200   T   T   T
  0.4442356633504690  0.5575546830115238  0.1466029269181015   T   T   T
  0.4499722634700914  0.5505687684684379  0.3803837674270594   T   T   T
  0.3495248947985399  0.3414289473996414  0.2318556205178566   T   T   T
  0.5551032079951591  0.4442176039977898  0.0708915774958382   T   T   T
  0.6671601188300398  0.3325702848008660  0.9930728446173519   T   T   T
  0.7789879326812726  0.5561609663399162  0.1470983276779291   T   T   T
  0.8948865234941779  0.4448311507490091  0.3050439799655204   T   T   T
  0.7694903913012254  0.5514121956503920  0.3801014421914022   T   T   T
  0.6582677502796203  0.3421235441182146  0.2351020798801187   T   T   T
  0.8890653744176471  0.4442061124367612  0.0733419865866848   T   T   T
  0.0001412163151793  0.6667376081574172  0.9930585959973193   T   T   T
  0.1106499346293334  0.8887653580789723  0.1498543315869099   T   T   T
  0.2222239462240821  0.7777789731118382  0.3038226676070205   T   T   T
  0.1131983805976039  0.8872170757585521  0.3864143649011627   T   T   T
 -0.0010230362567309  0.6661554818714573  0.2297016754268369   T   T   T
  0.2223920895592424  0.7778630447794984  0.0735016988217980   T   T   T
  0.3327962940997523  0.6667141166930318  0.9927992995621170   T   T   T
  0.4451371322531888  0.8892355661267133  0.1498244264938828   T   T   T
  0.5558051769577741  0.7828210330739823  0.3055299702054385   T   T   T
  0.4412424282348297  0.8872882141174533  0.3864571115482893   T   T   T
  0.3344342953209444  0.6669198128822896  0.2296787546019107   T   T   T
  0.5553085432979938  0.7789050220319357  0.0729869535508558   T   T   T
  0.6671601188304412  0.6679228340296005  0.9930728446173046   T   T   T
  0.7742434087507305  0.8822374919264627  0.1511016331792540   T   T   T
  0.8948865234934047  0.7833883727421171  0.3050439799654874   T   T   T
  0.7812222896811741  0.8956985218103475  0.3883846975346664   T   T   T
  0.6582677502793387  0.6494772061616392  0.2351020798801195   T   T   T
  0.8890653744176565  0.7781922619807784  0.0733419865866966   T   T   T
  0.3200727068046254  0.3267028534020692  0.3533155232442353   T   T   T
  0.0021689682258048  0.0020544537133350  0.3457809667660359   T   T   T
  0.2238884841396072  0.1129503229624096  0.1910041526117929   T   T   T
  0.1113292436023525  0.2223311218011720  0.0341854877057430   T   T   T
  0.3324148724932066 -0.0004530410252936  0.3447104930241525   T   T   T
  0.5550412195150415  0.1117059667384274  0.1904390195091610   T   T   T
  0.4432180133903883  0.2200258517409639  0.0317344256321741   T   T   T
  0.6671777840924051  0.0002553920466694  0.3459304706643785   T   T   T
  0.8890225191232638  0.1111777595620289  0.1902415670351662   T   T   T
  0.7774054174099089  0.2221251403145259  0.0340355512134440   T   T   T
  0.0021689682232144  0.3334475145131791  0.3457809667659902   T   T   T
  0.2238884841397744  0.4442711611762736  0.1910041526118001   T   T   T
  0.1106310001302779  0.5546705622467442  0.0340448744178614   T   T   T
  0.5543025441167609  0.4438172720569416  0.1820865956621887   T   T   T
  0.4432180133907560  0.5565261616492801  0.0317344256321639   T   T   T
  0.6734093619249424  0.3277932136420823  0.3502032706392395   T   T   T
  0.8883519519109212  0.4448764071443194  0.1905395604112793   T   T   T
  0.7795844113272585  0.5564592056635872  0.0320752571638680   T   T   T
  0.0016196810331891  0.6674768405179401  0.3446680183447949   T   T   T
  0.2222294725915610  0.7777817362961055  0.1886924074407250   T   T   T
  0.1106310001301406  0.8892944378839504  0.0340448744178560   T   T   T
  0.3324148724930368  0.6662019135171843  0.3447104930241660   T   T   T
  0.5550412195170595  0.7766682527763173  0.1904390195091908   T   T   T
  0.4450366117563174  0.8891853058779701  0.0336147216652450   T   T   T
  0.6734093619265570  0.6789491482823857  0.3502032706393320   T   T   T
  0.8883519519125311  0.7768085447701131  0.1905395604113011   T   T   T
  0.7774054174104840  0.8886132770957118  0.0340355512134508   T   T   T
0.446598 0.216020 0.433410 T T T 
 
  0.00000000E+00  0.00000000E+00  0.00000000E+00
  0.00000000E+00  0.00000000E+00  0.00000000E+00
  0.00000000E+00  0.00000000E+00  0.00000000E+00
  0.00000000E+00  0.00000000E+00  0.00000000E+00
  0.00000000E+00  0.00000000E+00  0.00000000E+00
  0.00000000E+00  0.00000000E+00  0.00000000E+00
  0.00000000E+00  0.00000000E+00  0.00000000E+00
  0.00000000E+00  0.00000000E+00  0.00000000E+00
  0.00000000E+00  0.00000000E+00  0.00000000E+00
  0.00000000E+00  0.00000000E+00  0.00000000E+00
  0.00000000E+00  0.00000000E+00  0.00000000E+00
  0.00000000E+00  0.00000000E+00  0.00000000E+00
  0.00000000E+00  0.00000000E+00  0.00000000E+00
  0.00000000E+00  0.00000000E+00  0.00000000E+00
  0.00000000E+00  0.00000000E+00  0.00000000E+00
  0.00000000E+00  0.00000000E+00  0.00000000E+00
  0.00000000E+00  0.00000000E+00  0.00000000E+00
  0.00000000E+00  0.00000000E+00  0.00000000E+00
  0.00000000E+00  0.00000000E+00  0.00000000E+00
  0.00000000E+00  0.00000000E+00  0.00000000E+00
  0.00000000E+00  0.00000000E+00  0.00000000E+00
  0.00000000E+00  0.00000000E+00  0.00000000E+00
  0.00000000E+00  0.00000000E+00  0.00000000E+00
  0.00000000E+00  0.00000000E+00  0.00000000E+00
  0.00000000E+00  0.00000000E+00  0.00000000E+00
  0.00000000E+00  0.00000000E+00  0.00000000E+00
  0.00000000E+00  0.00000000E+00  0.00000000E+00
  0.00000000E+00  0.00000000E+00  0.00000000E+00
  0.00000000E+00  0.00000000E+00  0.00000000E+00
  0.00000000E+00  0.00000000E+00  0.00000000E+00
  0.00000000E+00  0.00000000E+00  0.00000000E+00
  0.00000000E+00  0.00000000E+00  0.00000000E+00
  0.00000000E+00  0.00000000E+00  0.00000000E+00
  0.00000000E+00  0.00000000E+00  0.00000000E+00
  0.00000000E+00  0.00000000E+00  0.00000000E+00
  0.00000000E+00  0.00000000E+00  0.00000000E+00
  0.00000000E+00  0.00000000E+00  0.00000000E+00
  0.00000000E+00  0.00000000E+00  0.00000000E+00
  0.00000000E+00  0.00000000E+00  0.00000000E+00
  0.00000000E+00  0.00000000E+00  0.00000000E+00
  0.00000000E+00  0.00000000E+00  0.00000000E+00
  0.00000000E+00  0.00000000E+00  0.00000000E+00
  0.00000000E+00  0.00000000E+00  0.00000000E+00
  0.00000000E+00  0.00000000E+00  0.00000000E+00
  0.00000000E+00  0.00000000E+00  0.00000000E+00
  0.00000000E+00  0.00000000E+00  0.00000000E+00
  0.00000000E+00  0.00000000E+00  0.00000000E+00
  0.00000000E+00  0.00000000E+00  0.00000000E+00
  0.00000000E+00  0.00000000E+00  0.00000000E+00
  0.00000000E+00  0.00000000E+00  0.00000000E+00
  0.00000000E+00  0.00000000E+00  0.00000000E+00
  0.00000000E+00  0.00000000E+00  0.00000000E+00
  0.00000000E+00  0.00000000E+00  0.00000000E+00
  0.00000000E+00  0.00000000E+00  0.00000000E+00
  0.00000000E+00  0.00000000E+00  0.00000000E+00
  0.00000000E+00  0.00000000E+00  0.00000000E+00
  0.00000000E+00  0.00000000E+00  0.00000000E+00
  0.00000000E+00  0.00000000E+00  0.00000000E+00
  0.00000000E+00  0.00000000E+00  0.00000000E+00
  0.00000000E+00  0.00000000E+00  0.00000000E+00
  0.00000000E+00  0.00000000E+00  0.00000000E+00
  0.00000000E+00  0.00000000E+00  0.00000000E+00
  0.00000000E+00  0.00000000E+00  0.00000000E+00
  0.00000000E+00  0.00000000E+00  0.00000000E+00
  0.00000000E+00  0.00000000E+00  0.00000000E+00
  0.00000000E+00  0.00000000E+00  0.00000000E+00
  0.00000000E+00  0.00000000E+00  0.00000000E+00
  0.00000000E+00  0.00000000E+00  0.00000000E+00
  0.00000000E+00  0.00000000E+00  0.00000000E+00
  0.00000000E+00  0.00000000E+00  0.00000000E+00
  0.00000000E+00  0.00000000E+00  0.00000000E+00
  0.00000000E+00  0.00000000E+00  0.00000000E+00
  0.00000000E+00  0.00000000E+00  0.00000000E+00
  0.00000000E+00  0.00000000E+00  0.00000000E+00
  0.00000000E+00  0.00000000E+00  0.00000000E+00
  0.00000000E+00  0.00000000E+00  0.00000000E+00
  0.00000000E+00  0.00000000E+00  0.00000000E+00
  0.00000000E+00  0.00000000E+00  0.00000000E+00
  0.00000000E+00  0.00000000E+00  0.00000000E+00
  0.00000000E+00  0.00000000E+00  0.00000000E+00
