CeO2-you-111-you-Ce                     
   1.00000000000000     
     9.8730338617399802   -5.7153992135775313   -0.0008467631552613
    -0.0131636601738234   11.4079962887754522    0.0008467630109045
    -0.0010598497435064    0.0018357134735640   20.6301491986248138
   O    Ce   Ce   H 
    53     1    26     1
Selective dynamics
Direct
  0.9999432696406151 -0.0000567594456678  0.9902186017938395   T   T   T
  0.1101350461922443  0.2201115443980792  0.1453216212218250   T   T   T
  0.2355770413902446  0.1144428143977208  0.3059288694137797   T   T   T
  0.1304823833767953  0.2357919087697999  0.3805632321674068   T   T   T
  0.0055868680988364  0.0031133160510159  0.2299324931742237   T   T   T
  0.2219843527367350  0.1107991825897637  0.0709751275543125   T   T   T
  0.3354392224968584  0.0006049528190004  0.9916047155554505   T   T   T
  0.4402745068691359  0.2256880836629205  0.1503108461369710   T   T   T
  0.5471929137781129  0.1075010905669759  0.3053667130311656   T   T   T
  0.4373842749216489  0.2149997521562795  0.4073396190971156   T   T   T
  0.3319209657283063 -0.0017405027824512  0.2264163017899847   T   T   T
  0.5552178131591690  0.1110820119235618  0.0754108952683683   T   T   T
  0.6648228239017291  0.0004013518248894  0.9918307750690614   T   T   T
  0.7849700902782498  0.2244616470726346  0.1505768008293737   T   T   T
  0.8871506048947463  0.1036965337822205  0.3053191107588840   T   T   T
  0.7707938943260315  0.2068111977986264  0.3924467417512509   T   T   T
  0.6660145971804151  0.0010486775707142  0.2295671965828418   T   T   T
  0.8884636439135285  0.1096762592121956  0.0713316155873537   T   T   T
  0.9978639884222438  0.3323037928590199  0.9903737245160060   T   T   T
  0.1102687515247147  0.5569112475392691  0.1449960137659668   T   T   T
  0.1065214191729746  0.5613969470529568  0.3883163566056297   T   T   T
  0.0183210964592092  0.3419679598077379  0.2333100485714800   T   T   T
  0.2219690173041957  0.4444294312452482  0.0684980637001479   T   T   T
  0.3344902537332429  0.3329829598464854  0.9901969552944215   T   T   T
  0.4466398994683611  0.5560705720686738  0.1459124396026783   T   T   T
  0.5487310684094583  0.4362922813373127  0.3059320874507459   T   T   T
  0.4300584132707259  0.5369043299044588  0.3825902383637325   T   T   T
  0.3211124026589018  0.3427109868095700  0.2347947680361377   T   T   T
  0.5562613883487286  0.4441520952050316  0.0715949380600367   T   T   T
  0.6655509197958601  0.3313397495175944  0.9917946069377999   T   T   T
  0.7777041213300452  0.5562916731543898  0.1483013888357959   T   T   T
  0.8892960365160991  0.4501596860609091  0.3040326313644142   T   T   T
  0.7816225909984771  0.5711841287531148  0.3889191148638254   T   T   T
  0.6663983454461383  0.3326707705388455  0.2264380657298805   T   T   T
  0.8878123853633351  0.4442248446412708  0.0714953386902694   T   T   T
  0.9998166403341454  0.6667113521619078  0.9902013020520126   T   T   T
  0.1108367986279579  0.8896122184935052  0.1473052834051016   T   T   T
  0.2206651059101203  0.7822243102112610  0.3041516322989677   T   T   T
  0.1105917750058720  0.8916983639033706  0.3872525859462578   T   T   T
  0.0013032684232665  0.6685260813799911  0.2279081887019513   T   T   T
  0.2219606430201243  0.7789742377855728  0.0713763437773968   T   T   T
  0.3343822526530416  0.6686451071629429  0.9907617774115839   T   T   T
  0.4423017071878274  0.8816883896033566  0.1507326834812444   T   T   T
  0.5625649364482413  0.7813326978174576  0.3071082134057902   T   T   T
  0.4474643709717361  0.8992714684829440  0.3916759736624564   T   T   T
  0.3239463288038912  0.6475203451464664  0.2342631459926895   T   T   T
  0.5572830050653705  0.7784020334591506  0.0720422060609664   T   T   T
  0.6660945804308649  0.6662491226713617  0.9906177100178494   T   T   T
  0.7778530441203579  0.8890124234349953  0.1501675489998446   T   T   T
  0.8905280063261256  0.7812850155225454  0.3034135489908641   T   T   T
  0.7829091545791965  0.8880506383249369  0.3881590235319825   T   T   T
  0.6655855220110286  0.6634306438775665  0.2302801449984748   T   T   T
  0.8888145998160281  0.7784483998342091  0.0712395775168626   T   T   T
  0.3387403196215655  0.3304719104146094  0.3471610227397587   T   T   T
  0.0011926512837979  0.9994928021450586  0.3451374701203318   T   T   T
  0.2221172196975907  0.1117975799945438  0.1886785607411747   T   T   T
  0.1098160586130914  0.2200574096889497  0.0294166684299621   T   T   T
  0.3306511022693954  0.9914879274643279  0.3444115737180609   T   T   T
  0.5558606089788263  0.1111261095486866  0.1905591475747996   T   T   T
  0.4445043959794184  0.2223574876629127  0.0319831081624921   T   T   T
  0.6681410611356657  0.0000958308029514  0.3474950889402108   T   T   T
  0.8912172839864890  0.1125800741518494  0.1910338073483149   T   T   T
  0.7780765987737985  0.2221312254699423  0.0329070776331421   T   T   T
  0.9892261673355996  0.3301113646664333  0.3539154471259004   T   T   T
  0.2213046323914008  0.4451568881915018  0.1800066732043459   T   T   T
  0.1097186105322325  0.5566382277422756  0.0293893831625833   T   T   T
  0.5553194009533907  0.4444987368813467  0.1898551889575503   T   T   T
  0.4468372015734060  0.5567777794822844  0.0299241075811821   T   T   T
  0.6729746541714968  0.3355209482969466  0.3485072561484295   T   T   T
  0.8903065644841189  0.4452962651704166  0.1904754251773587   T   T   T
  0.7773612923587299  0.5547348199571523  0.0320399883141130   T   T   T
 -0.0007013940159637  0.6668551765290515  0.3464207025929803   T   T   T
  0.2212894688358492  0.7758025174210907  0.1890094271823493   T   T   T
  0.1117807405563839  0.8893248775634737  0.0313867563479892   T   T   T
  0.3358431135401819  0.6773001286193256  0.3549253112882237   T   T   T
  0.5544765249430977  0.7757193136773766  0.1916005935410040   T   T   T
  0.4446243255465110  0.8884801521564748  0.0327270193224543   T   T   T
  0.6695637274159705  0.6678140543837681  0.3459135197075030   T   T   T
  0.8897593162079888  0.7779699598336425  0.1880494485401178   T   T   T
  0.7772225558414643  0.8891690896265133  0.0323698115060986   T   T   T
  0.4382736461472088  0.2112979744733806  0.4544194674672249   T   T   T
 
  0.00000000E+00  0.00000000E+00  0.00000000E+00
  0.00000000E+00  0.00000000E+00  0.00000000E+00
  0.00000000E+00  0.00000000E+00  0.00000000E+00
  0.00000000E+00  0.00000000E+00  0.00000000E+00
  0.00000000E+00  0.00000000E+00  0.00000000E+00
  0.00000000E+00  0.00000000E+00  0.00000000E+00
  0.00000000E+00  0.00000000E+00  0.00000000E+00
  0.00000000E+00  0.00000000E+00  0.00000000E+00
  0.00000000E+00  0.00000000E+00  0.00000000E+00
  0.00000000E+00  0.00000000E+00  0.00000000E+00
  0.00000000E+00  0.00000000E+00  0.00000000E+00
  0.00000000E+00  0.00000000E+00  0.00000000E+00
  0.00000000E+00  0.00000000E+00  0.00000000E+00
  0.00000000E+00  0.00000000E+00  0.00000000E+00
  0.00000000E+00  0.00000000E+00  0.00000000E+00
  0.00000000E+00  0.00000000E+00  0.00000000E+00
  0.00000000E+00  0.00000000E+00  0.00000000E+00
  0.00000000E+00  0.00000000E+00  0.00000000E+00
  0.00000000E+00  0.00000000E+00  0.00000000E+00
  0.00000000E+00  0.00000000E+00  0.00000000E+00
  0.00000000E+00  0.00000000E+00  0.00000000E+00
  0.00000000E+00  0.00000000E+00  0.00000000E+00
  0.00000000E+00  0.00000000E+00  0.00000000E+00
  0.00000000E+00  0.00000000E+00  0.00000000E+00
  0.00000000E+00  0.00000000E+00  0.00000000E+00
  0.00000000E+00  0.00000000E+00  0.00000000E+00
  0.00000000E+00  0.00000000E+00  0.00000000E+00
  0.00000000E+00  0.00000000E+00  0.00000000E+00
  0.00000000E+00  0.00000000E+00  0.00000000E+00
  0.00000000E+00  0.00000000E+00  0.00000000E+00
  0.00000000E+00  0.00000000E+00  0.00000000E+00
  0.00000000E+00  0.00000000E+00  0.00000000E+00
  0.00000000E+00  0.00000000E+00  0.00000000E+00
  0.00000000E+00  0.00000000E+00  0.00000000E+00
  0.00000000E+00  0.00000000E+00  0.00000000E+00
  0.00000000E+00  0.00000000E+00  0.00000000E+00
  0.00000000E+00  0.00000000E+00  0.00000000E+00
  0.00000000E+00  0.00000000E+00  0.00000000E+00
  0.00000000E+00  0.00000000E+00  0.00000000E+00
  0.00000000E+00  0.00000000E+00  0.00000000E+00
  0.00000000E+00  0.00000000E+00  0.00000000E+00
  0.00000000E+00  0.00000000E+00  0.00000000E+00
  0.00000000E+00  0.00000000E+00  0.00000000E+00
  0.00000000E+00  0.00000000E+00  0.00000000E+00
  0.00000000E+00  0.00000000E+00  0.00000000E+00
  0.00000000E+00  0.00000000E+00  0.00000000E+00
  0.00000000E+00  0.00000000E+00  0.00000000E+00
  0.00000000E+00  0.00000000E+00  0.00000000E+00
  0.00000000E+00  0.00000000E+00  0.00000000E+00
  0.00000000E+00  0.00000000E+00  0.00000000E+00
  0.00000000E+00  0.00000000E+00  0.00000000E+00
  0.00000000E+00  0.00000000E+00  0.00000000E+00
  0.00000000E+00  0.00000000E+00  0.00000000E+00
  0.00000000E+00  0.00000000E+00  0.00000000E+00
  0.00000000E+00  0.00000000E+00  0.00000000E+00
  0.00000000E+00  0.00000000E+00  0.00000000E+00
  0.00000000E+00  0.00000000E+00  0.00000000E+00
  0.00000000E+00  0.00000000E+00  0.00000000E+00
  0.00000000E+00  0.00000000E+00  0.00000000E+00
  0.00000000E+00  0.00000000E+00  0.00000000E+00
  0.00000000E+00  0.00000000E+00  0.00000000E+00
  0.00000000E+00  0.00000000E+00  0.00000000E+00
  0.00000000E+00  0.00000000E+00  0.00000000E+00
  0.00000000E+00  0.00000000E+00  0.00000000E+00
  0.00000000E+00  0.00000000E+00  0.00000000E+00
  0.00000000E+00  0.00000000E+00  0.00000000E+00
  0.00000000E+00  0.00000000E+00  0.00000000E+00
  0.00000000E+00  0.00000000E+00  0.00000000E+00
  0.00000000E+00  0.00000000E+00  0.00000000E+00
  0.00000000E+00  0.00000000E+00  0.00000000E+00
  0.00000000E+00  0.00000000E+00  0.00000000E+00
  0.00000000E+00  0.00000000E+00  0.00000000E+00
  0.00000000E+00  0.00000000E+00  0.00000000E+00
  0.00000000E+00  0.00000000E+00  0.00000000E+00
  0.00000000E+00  0.00000000E+00  0.00000000E+00
  0.00000000E+00  0.00000000E+00  0.00000000E+00
  0.00000000E+00  0.00000000E+00  0.00000000E+00
  0.00000000E+00  0.00000000E+00  0.00000000E+00
  0.00000000E+00  0.00000000E+00  0.00000000E+00
  0.00000000E+00  0.00000000E+00  0.00000000E+00
  0.00000000E+00  0.00000000E+00  0.00000000E+00
