CeO2-you-111-you-Sn                     
   1.00000000000000     
     9.9160831069937903   -5.7250536254581439   -0.0000000008476533
    -0.0417723931599708   11.3777533333409284   -0.0161704452927646
    -0.0175662126666772   -0.0304255676615943   21.1450815087385777
   O    Sn   Ce   H 
    53     1    26     1
Selective dynamics
Direct
  0.0001119042238128  0.0000181151475892  0.9956363112644192   T   T   T
  0.1108569216202995  0.2224462056857639  0.1487853588638665   T   T   T
  0.2333961301867166  0.1222941200390399  0.3064434077121159   T   T   T
  0.0956766501738693  0.2164554212594861  0.3818421265487801   T   T   T
  0.0055631798952531  0.0031126399808704  0.2287847821656930   T   T   T
  0.2233279666686855  0.1126098572202820  0.0742954647829171   T   T   T
  0.3338360007967222  0.0005305359760667  0.9958405121550120   T   T   T
  0.4444715291320616  0.2229214383589420  0.1504250252970898   T   T   T
  0.5490553199747417  0.1057537507815444  0.3038115160019328   T   T   T
  0.4562327880938230  0.1937030071072759  0.4067334090067769   T   T   T
  0.3294394200440985 -0.0008535478013242  0.2281249208270889   T   T   T
  0.5559329972854951  0.1122497882258953  0.0753154103776887   T   T   T
  0.6665730408890230  0.9999815177515464  0.9959339561139277   T   T   T
  0.7758731231708662  0.2175048682623644  0.1510924383928122   T   T   T
  0.8853213429574824  0.1077700393320466  0.2998467406654930   T   T   T
  0.7823535543648241  0.2103339568793950  0.3834077470746145   T   T   T
  0.6596792483231334  0.9893778932360195  0.2317311388034005   T   T   T
  0.8894555808014901  0.1120950347320483  0.0741419794900914   T   T   T
  0.0002318312880006  0.3339864378932584  0.9958952994445712   T   T   T
  0.1111434629909199  0.5551315847510068  0.1487406618039128   T   T   T
  0.2232829546041349  0.4502156624200614  0.3046055523479911   T   T   T
  0.1123800758319322  0.5609875868705406  0.3842118944420147   T   T   T
  0.0011600430972341  0.3333471175873420  0.2284638108898957   T   T   T
  0.2231076075902373  0.4448565436402379  0.0748948080037133   T   T   T
  0.3338926673597988  0.3340018250089405  0.9958606598956645   T   T   T
  0.4446502416282153  0.5555926397284962  0.1502538335871132   T   T   T
  0.5646534283934926  0.4583468021020853  0.3043514156962804   T   T   T
  0.3317545498709295  0.3353786067528196  0.2294811315166392   T   T   T
  0.5554142393643238  0.4449222665957966  0.0753307495976657   T   T   T
  0.6668395639965031  0.3336949502492270  0.9965304439080016   T   T   T
  0.7772333992977996  0.5556777571437173  0.1497424880081779   T   T   T
  0.8948373221532666  0.4481924735145641  0.3035006557864679   T   T   T
  0.7925447571100586  0.5748263996940745  0.3868189664290254   T   T   T
  0.6666830005577511  0.3325678441849148  0.2279868876398487   T   T   T
  0.8876826970052607  0.4426399749936468  0.0758073169088787   T   T   T
  0.9993314431065289  0.6650853171326672  0.9961109787143273   T   T   T
  0.1112831228057563  0.8903429993589342  0.1470590319839069   T   T   T
  0.2193210524094260  0.7775548267251685  0.3013015053415102   T   T   T
  0.1142917984942213  0.8922451669107175  0.3812662983043013   T   T   T
  0.0008092780963092  0.6678922629543925  0.2265878054817805   T   T   T
  0.2218013933635996  0.7781594979231080  0.0739407941885544   T   T   T
  0.3341916293438199  0.6675253303208940  0.9965475524060807   T   T   T
  0.4439627634118844  0.8892516809829879  0.1486275046454179   T   T   T
  0.5423788501056186  0.7522679206777898  0.3134868109331641   T   T   T
  0.4381131195470867  0.8842195406129204  0.3819009756539620   T   T   T
  0.3332972931649160  0.6708352163541167  0.2280806013372615   T   T   T
  0.5561311155185192  0.7781985511019308  0.0756051240107730   T   T   T
  0.6664934965304327  0.6670163209582155  0.9959283778343971   T   T   T
  0.7796879220211250  0.8909964678711453  0.1482164389882908   T   T   T
  0.8949921765742059  0.7810398551147499  0.3004912092591568   T   T   T
  0.7822473370362647  0.8909106034815814  0.3802863148249055   T   T   T
  0.6723464796170764  0.6747733221133105  0.2274832770892067   T   T   T
  0.8888777083370493  0.7776253654416252  0.0737925885714509   T   T   T
  0.3134387383246994  0.3287984957308193  0.3425379332727396   T   T   T
  0.0029379839361738  0.0049063305769125  0.3415006200399967   T   T   T
  0.2245559254194129  0.1146675136726217  0.1889016599133486   T   T   T
  0.1116699858557077  0.2226768798902847  0.0352804921285864   T   T   T
  0.3315094463322792 -0.0025423670699534  0.3422774829453085   T   T   T
  0.5542419606106157  0.1107761302332881  0.1906579900906382   T   T   T
  0.4449196729701147  0.2229833294132361  0.0362068573538239   T   T   T
  0.6654593395044267  0.9975212260590552  0.3434210603697496   T   T   T
  0.8890995931475124  0.1105013555511974  0.1888602229434983   T   T   T
  0.7772561568796356  0.2216171906965139  0.0362158105434996   T   T   T
  0.9958724449317750  0.3300774321618808  0.3422568258608640   T   T   T
  0.2222403915950928  0.4444411965281043  0.1890857079155444   T   T   T
  0.1105290747899121  0.5545395187206846  0.0353772660642981   T   T   T
  0.5559202617724065  0.4448928560678761  0.1924398856273869   T   T   T
  0.4448326357203626  0.5551501511674354  0.0357858032946228   T   T   T
  0.6705962277581275  0.3363204988658863  0.3470379681500984   T   T   T
  0.8879695225462537  0.4439006895523285  0.1897607845069723   T   T   T
  0.7766975895702859  0.5542488359657542  0.0360517129291270   T   T   T
  0.0008097474228924  0.6679097463229096  0.3433770237208630   T   T   T
  0.2205620779800284  0.7785152288570467  0.1861045139915216   T   T   T
  0.1114301372156914  0.8893776634179658  0.0341853658621906   T   T   T
  0.3209417345251769  0.6710028113732032  0.3388661959493923   T   T   T
  0.5544975326428470  0.7763081811978887  0.1880328155568823   T   T   T
  0.4446951632757840  0.8893751674151701  0.0353617204106597   T   T   T
  0.6858760163843149  0.6727953021619693  0.3383670525413252   T   T   T
  0.8918327276067022  0.7795128908932847  0.1863971586227293   T   T   T
  0.7778196380515234  0.8890069011454911  0.0349027672895554   T   T   T
  0.4297357530041431  0.2125714820893172  0.4474542910868274   T   T   T
 
  0.00000000E+00  0.00000000E+00  0.00000000E+00
  0.00000000E+00  0.00000000E+00  0.00000000E+00
  0.00000000E+00  0.00000000E+00  0.00000000E+00
  0.00000000E+00  0.00000000E+00  0.00000000E+00
  0.00000000E+00  0.00000000E+00  0.00000000E+00
  0.00000000E+00  0.00000000E+00  0.00000000E+00
  0.00000000E+00  0.00000000E+00  0.00000000E+00
  0.00000000E+00  0.00000000E+00  0.00000000E+00
  0.00000000E+00  0.00000000E+00  0.00000000E+00
  0.00000000E+00  0.00000000E+00  0.00000000E+00
  0.00000000E+00  0.00000000E+00  0.00000000E+00
  0.00000000E+00  0.00000000E+00  0.00000000E+00
  0.00000000E+00  0.00000000E+00  0.00000000E+00
  0.00000000E+00  0.00000000E+00  0.00000000E+00
  0.00000000E+00  0.00000000E+00  0.00000000E+00
  0.00000000E+00  0.00000000E+00  0.00000000E+00
  0.00000000E+00  0.00000000E+00  0.00000000E+00
  0.00000000E+00  0.00000000E+00  0.00000000E+00
  0.00000000E+00  0.00000000E+00  0.00000000E+00
  0.00000000E+00  0.00000000E+00  0.00000000E+00
  0.00000000E+00  0.00000000E+00  0.00000000E+00
  0.00000000E+00  0.00000000E+00  0.00000000E+00
  0.00000000E+00  0.00000000E+00  0.00000000E+00
  0.00000000E+00  0.00000000E+00  0.00000000E+00
  0.00000000E+00  0.00000000E+00  0.00000000E+00
  0.00000000E+00  0.00000000E+00  0.00000000E+00
  0.00000000E+00  0.00000000E+00  0.00000000E+00
  0.00000000E+00  0.00000000E+00  0.00000000E+00
  0.00000000E+00  0.00000000E+00  0.00000000E+00
  0.00000000E+00  0.00000000E+00  0.00000000E+00
  0.00000000E+00  0.00000000E+00  0.00000000E+00
  0.00000000E+00  0.00000000E+00  0.00000000E+00
  0.00000000E+00  0.00000000E+00  0.00000000E+00
  0.00000000E+00  0.00000000E+00  0.00000000E+00
  0.00000000E+00  0.00000000E+00  0.00000000E+00
  0.00000000E+00  0.00000000E+00  0.00000000E+00
  0.00000000E+00  0.00000000E+00  0.00000000E+00
  0.00000000E+00  0.00000000E+00  0.00000000E+00
  0.00000000E+00  0.00000000E+00  0.00000000E+00
  0.00000000E+00  0.00000000E+00  0.00000000E+00
  0.00000000E+00  0.00000000E+00  0.00000000E+00
  0.00000000E+00  0.00000000E+00  0.00000000E+00
  0.00000000E+00  0.00000000E+00  0.00000000E+00
  0.00000000E+00  0.00000000E+00  0.00000000E+00
  0.00000000E+00  0.00000000E+00  0.00000000E+00
  0.00000000E+00  0.00000000E+00  0.00000000E+00
  0.00000000E+00  0.00000000E+00  0.00000000E+00
  0.00000000E+00  0.00000000E+00  0.00000000E+00
  0.00000000E+00  0.00000000E+00  0.00000000E+00
  0.00000000E+00  0.00000000E+00  0.00000000E+00
  0.00000000E+00  0.00000000E+00  0.00000000E+00
  0.00000000E+00  0.00000000E+00  0.00000000E+00
  0.00000000E+00  0.00000000E+00  0.00000000E+00
  0.00000000E+00  0.00000000E+00  0.00000000E+00
  0.00000000E+00  0.00000000E+00  0.00000000E+00
  0.00000000E+00  0.00000000E+00  0.00000000E+00
  0.00000000E+00  0.00000000E+00  0.00000000E+00
  0.00000000E+00  0.00000000E+00  0.00000000E+00
  0.00000000E+00  0.00000000E+00  0.00000000E+00
  0.00000000E+00  0.00000000E+00  0.00000000E+00
  0.00000000E+00  0.00000000E+00  0.00000000E+00
  0.00000000E+00  0.00000000E+00  0.00000000E+00
  0.00000000E+00  0.00000000E+00  0.00000000E+00
  0.00000000E+00  0.00000000E+00  0.00000000E+00
  0.00000000E+00  0.00000000E+00  0.00000000E+00
  0.00000000E+00  0.00000000E+00  0.00000000E+00
  0.00000000E+00  0.00000000E+00  0.00000000E+00
  0.00000000E+00  0.00000000E+00  0.00000000E+00
  0.00000000E+00  0.00000000E+00  0.00000000E+00
  0.00000000E+00  0.00000000E+00  0.00000000E+00
  0.00000000E+00  0.00000000E+00  0.00000000E+00
  0.00000000E+00  0.00000000E+00  0.00000000E+00
  0.00000000E+00  0.00000000E+00  0.00000000E+00
  0.00000000E+00  0.00000000E+00  0.00000000E+00
  0.00000000E+00  0.00000000E+00  0.00000000E+00
  0.00000000E+00  0.00000000E+00  0.00000000E+00
  0.00000000E+00  0.00000000E+00  0.00000000E+00
  0.00000000E+00  0.00000000E+00  0.00000000E+00
  0.00000000E+00  0.00000000E+00  0.00000000E+00
  0.00000000E+00  0.00000000E+00  0.00000000E+00
  0.00000000E+00  0.00000000E+00  0.00000000E+00
