CeO2-you-111-you-Os                     
   1.00000000000000     
     9.8402736906427624   -5.6812850295671273    0.0000000005243610
     0.0492327294573756   11.4478416428374423    0.0088661076860054
     0.0089796619856284    0.0155532279995833   21.1807470509145581
   O    Os   Ce   H 
    53     1    26     1
Selective dynamics
Direct
  0.9991921550629500  0.9996141964213408  0.9954575065322230   T   T   T
  0.1098133053542794  0.2156070208820599  0.1476486553900409   T   T   T
  0.2446067530182489  0.1237009595809270  0.3113892809782754   T   T   T
  0.1354340689967370  0.2322499898658668  0.3788629334640024   T   T   T
  0.0090899340828279  0.0023677493750213  0.2320318182529906   T   T   T
  0.2206392893864557  0.1078441415277908  0.0728897522953529   T   T   T
  0.3339437598792830  0.9997922264841167  0.9949059997359434   T   T   T
  0.4398273605127854  0.2144432542827759  0.1462373957550315   T   T   T
  0.5557386935077917  0.1115516418628934  0.3040050803493412   T   T   T
  0.4769696757604506  0.1925080056031895  0.4091665609703808   T   T   T
  0.3311459616438758  0.9990990801448965  0.2289972610563534   T   T   T
  0.5578403368089719  0.1118181852125124  0.0745829973426359   T   T   T
  0.6678947809472604  0.0010646541925650  0.9948589055730495   T   T   T
  0.7775923002916351  0.2245169050233183  0.1519047658359752   T   T   T
  0.8952132286470603  0.1128603391262598  0.3059945469784928   T   T   T
  0.7833041518574863  0.2264732359378903  0.3815825460104151   T   T   T
  0.6698089434779303  0.0011786130673231  0.2304392582835264   T   T   T
  0.8868731878068192  0.1107087812324338  0.0761819336429128   T   T   T
  0.9979496645347097  0.3306245683825308  0.9951453364176286   T   T   T
  0.1050996216896982  0.5595051277961611  0.1466159631090921   T   T   T
  0.2442690979606092  0.4505619167360540  0.3124073896919699   T   T   T
  0.0948954673186744  0.5463330800985251  0.3826834285977793   T   T   T
  0.0001079706337235  0.3328805806713975  0.2318083940220500   T   T   T
  0.2208134909136750  0.4439640248414717  0.0707216589137675   T   T   T
  0.3314799594948482  0.3303723836389948  0.9953695364249602   T   T   T
  0.4491671709082976  0.5666027674942469  0.1449925974022752   T   T   T
  0.4774493702962493  0.4198435879742105  0.3382207324111606   T   T   T
  0.3311470373123206  0.3250693342628933  0.2335806724168452   T   T   T
  0.5563806545109166  0.4436620540296284  0.0700799202907376   T   T   T
  0.6665449799588586  0.3313478668533247  0.9938687736279269   T   T   T
  0.7862344184142878  0.5598304045948586  0.1462621588010379   T   T   T
  0.8883827677865781  0.4426949581393190  0.3014607888951426   T   T   T
  0.7730150194609284  0.5405789410886558  0.3793569768591037   T   T   T
  0.6615862312701735  0.3363755941961710  0.2348520972425389   T   T   T
  0.8866450111580564  0.4411618117578437  0.0728929651181537   T   T   T
  0.0002173566950040  0.6666526320669085  0.9953298974798171   T   T   T
  0.1096559479901260  0.8875156034526483  0.1479141549380673   T   T   T
  0.2175246318308507  0.7809732676260566  0.3048517780592070   T   T   T
  0.1081203909721735  0.8892709691088075  0.3837659486319017   T   T   T
  0.9987266043961109  0.6660736961323224  0.2294194786297863   T   T   T
  0.2242868412031998  0.7799529951880484  0.0741725060767394   T   T   T
  0.3356368392816645  0.6694212534973966  0.9958167439829134   T   T   T
  0.4471942401074973  0.8927153331275570  0.1499725805710656   T   T   T
  0.5567525466719385  0.7800071456665493  0.3077049439310921   T   T   T
  0.4508510353637845  0.9004483221660620  0.3863712520992950   T   T   T
  0.3338264772364234  0.6747427643344638  0.2289127156065131   T   T   T
  0.5600165985407863  0.7842220604007304  0.0748019185863704   T   T   T
  0.6676235448830180  0.6689890473302365  0.9954976862810687   T   T   T
  0.7814441507629788  0.8904638205155876  0.1521707874692382   T   T   T
  0.8929010640603875  0.7793373037827628  0.3041668139199720   T   T   T
  0.7878926924949898  0.8991586828103660  0.3855715483907367   T   T   T
  0.6678782269121489  0.6649709145944436  0.2313120643124682   T   T   T
  0.8891022892418786  0.7791018504754902  0.0741659414312337   T   T   T
  0.2883654651903887  0.3091840902210709  0.3236845375831537   T   T   T
 -0.0014375341608295  0.9925931366739539  0.3433094424584205   T   T   T
  0.2217983100415545  0.1055745138913039  0.1838665971958201   T   T   T
  0.1104849325321633  0.2219243834073870  0.0343555918433060   T   T   T
  0.3361505343767126  0.9951547658705220  0.3461239627970566   T   T   T
  0.5549038515307181  0.1119218034175766  0.1894495660665158   T   T   T
  0.4447907003365768  0.2214186410628759  0.0329807659107398   T   T   T
  0.6693334659737787 -0.0004494686478577  0.3428122713696692   T   T   T
  0.8920341846467245  0.1125370849666104  0.1896011059898002   T   T   T
  0.7775421342627172  0.2220142696076949  0.0346053699991722   T   T   T
 -0.0026661906848494  0.3370428152393530  0.3406486847612474   T   T   T
  0.2233563681638782  0.4491781630169350  0.1851298344953315   T   T   T
  0.1108462487062183  0.5554628073317300  0.0346088441459757   T   T   T
  0.5563262169221446  0.4462427237179864  0.1826834237126116   T   T   T
  0.4455244928147903  0.5582992650458770  0.0342387054762121   T   T   T
  0.6707448126332393  0.3284312593154783  0.3443328750385947   T   T   T
  0.8877545161923602  0.4451554489141524  0.1879248821982263   T   T   T
  0.7782027365895796  0.5556371730294908  0.0336995177311526   T   T   T
  0.9968100099637716  0.6630253585876454  0.3416474280633952   T   T   T
  0.2228190964905239  0.7783939085041152  0.1876739004199164   T   T   T
  0.1108859907455349  0.8881919815591831  0.0338611721870186   T   T   T
  0.3291952453508107  0.6780815237492928  0.3430859205506707   T   T   T
  0.5558477880454634  0.7780187406220004  0.1901468068742085   T   T   T
  0.4467515699233401  0.8908921346455755  0.0353788495849938   T   T   T
  0.6743912458154679  0.6722599736992299  0.3433333187107744   T   T   T
  0.8881034241908031  0.7759630272508526  0.1882900152106987   T   T   T
  0.7783961092587256  0.8903074608139419  0.0356198004373431   T   T   T
  0.4391509748373271  0.2351813698301148  0.4356184601014555   T   T   T
 
  0.00000000E+00  0.00000000E+00  0.00000000E+00
  0.00000000E+00  0.00000000E+00  0.00000000E+00
  0.00000000E+00  0.00000000E+00  0.00000000E+00
  0.00000000E+00  0.00000000E+00  0.00000000E+00
  0.00000000E+00  0.00000000E+00  0.00000000E+00
  0.00000000E+00  0.00000000E+00  0.00000000E+00
  0.00000000E+00  0.00000000E+00  0.00000000E+00
  0.00000000E+00  0.00000000E+00  0.00000000E+00
  0.00000000E+00  0.00000000E+00  0.00000000E+00
  0.00000000E+00  0.00000000E+00  0.00000000E+00
  0.00000000E+00  0.00000000E+00  0.00000000E+00
  0.00000000E+00  0.00000000E+00  0.00000000E+00
  0.00000000E+00  0.00000000E+00  0.00000000E+00
  0.00000000E+00  0.00000000E+00  0.00000000E+00
  0.00000000E+00  0.00000000E+00  0.00000000E+00
  0.00000000E+00  0.00000000E+00  0.00000000E+00
  0.00000000E+00  0.00000000E+00  0.00000000E+00
  0.00000000E+00  0.00000000E+00  0.00000000E+00
  0.00000000E+00  0.00000000E+00  0.00000000E+00
  0.00000000E+00  0.00000000E+00  0.00000000E+00
  0.00000000E+00  0.00000000E+00  0.00000000E+00
  0.00000000E+00  0.00000000E+00  0.00000000E+00
  0.00000000E+00  0.00000000E+00  0.00000000E+00
  0.00000000E+00  0.00000000E+00  0.00000000E+00
  0.00000000E+00  0.00000000E+00  0.00000000E+00
  0.00000000E+00  0.00000000E+00  0.00000000E+00
  0.00000000E+00  0.00000000E+00  0.00000000E+00
  0.00000000E+00  0.00000000E+00  0.00000000E+00
  0.00000000E+00  0.00000000E+00  0.00000000E+00
  0.00000000E+00  0.00000000E+00  0.00000000E+00
  0.00000000E+00  0.00000000E+00  0.00000000E+00
  0.00000000E+00  0.00000000E+00  0.00000000E+00
  0.00000000E+00  0.00000000E+00  0.00000000E+00
  0.00000000E+00  0.00000000E+00  0.00000000E+00
  0.00000000E+00  0.00000000E+00  0.00000000E+00
  0.00000000E+00  0.00000000E+00  0.00000000E+00
  0.00000000E+00  0.00000000E+00  0.00000000E+00
  0.00000000E+00  0.00000000E+00  0.00000000E+00
  0.00000000E+00  0.00000000E+00  0.00000000E+00
  0.00000000E+00  0.00000000E+00  0.00000000E+00
  0.00000000E+00  0.00000000E+00  0.00000000E+00
  0.00000000E+00  0.00000000E+00  0.00000000E+00
  0.00000000E+00  0.00000000E+00  0.00000000E+00
  0.00000000E+00  0.00000000E+00  0.00000000E+00
  0.00000000E+00  0.00000000E+00  0.00000000E+00
  0.00000000E+00  0.00000000E+00  0.00000000E+00
  0.00000000E+00  0.00000000E+00  0.00000000E+00
  0.00000000E+00  0.00000000E+00  0.00000000E+00
  0.00000000E+00  0.00000000E+00  0.00000000E+00
  0.00000000E+00  0.00000000E+00  0.00000000E+00
  0.00000000E+00  0.00000000E+00  0.00000000E+00
  0.00000000E+00  0.00000000E+00  0.00000000E+00
  0.00000000E+00  0.00000000E+00  0.00000000E+00
  0.00000000E+00  0.00000000E+00  0.00000000E+00
  0.00000000E+00  0.00000000E+00  0.00000000E+00
  0.00000000E+00  0.00000000E+00  0.00000000E+00
  0.00000000E+00  0.00000000E+00  0.00000000E+00
  0.00000000E+00  0.00000000E+00  0.00000000E+00
  0.00000000E+00  0.00000000E+00  0.00000000E+00
  0.00000000E+00  0.00000000E+00  0.00000000E+00
  0.00000000E+00  0.00000000E+00  0.00000000E+00
  0.00000000E+00  0.00000000E+00  0.00000000E+00
  0.00000000E+00  0.00000000E+00  0.00000000E+00
  0.00000000E+00  0.00000000E+00  0.00000000E+00
  0.00000000E+00  0.00000000E+00  0.00000000E+00
  0.00000000E+00  0.00000000E+00  0.00000000E+00
  0.00000000E+00  0.00000000E+00  0.00000000E+00
  0.00000000E+00  0.00000000E+00  0.00000000E+00
  0.00000000E+00  0.00000000E+00  0.00000000E+00
  0.00000000E+00  0.00000000E+00  0.00000000E+00
  0.00000000E+00  0.00000000E+00  0.00000000E+00
  0.00000000E+00  0.00000000E+00  0.00000000E+00
  0.00000000E+00  0.00000000E+00  0.00000000E+00
  0.00000000E+00  0.00000000E+00  0.00000000E+00
  0.00000000E+00  0.00000000E+00  0.00000000E+00
  0.00000000E+00  0.00000000E+00  0.00000000E+00
  0.00000000E+00  0.00000000E+00  0.00000000E+00
  0.00000000E+00  0.00000000E+00  0.00000000E+00
  0.00000000E+00  0.00000000E+00  0.00000000E+00
  0.00000000E+00  0.00000000E+00  0.00000000E+00
  0.00000000E+00  0.00000000E+00  0.00000000E+00
