CeO2-you-111-you-Ga                     
   1.00000000000000     
     9.8404143404094793   -5.6680973264900851   -0.0137251564131785
     0.0114912138269834   11.3560960228709593    0.0137251541360635
    -0.0151826219876250    0.0262970713922859   20.9533232829903291
   O    Ga   Ce H
    53     1    26 2
Selective dynamics
Direct
 -0.0004598220444120 -0.0003325473576825  0.9946970969190332   T   T   T
  0.1136103361944557  0.2227584487956803  0.1492814622924722   F   F   F
  0.2080352696475812  0.0843037659305566  0.2989016280911066   T   T   T
  0.1451657827982827  0.2499802348083253  0.3654682431986434   T   T   T
 -0.0056678339988479 -0.0016345314699179  0.2282422483296664   T   T   T
  0.2214184317066403  0.1100418555666014  0.0743060383462792   F   F   F
  0.3351406880509234  0.0009314319989770  0.9956741856660786   T   T   T
  0.4404948213464005  0.2261711786540025  0.1521225980400698   F   F   F
  0.5542385982180725  0.1124284017788911  0.3067949465179960   T   T   T
  0.4292222017293753  0.2374437982698908  0.3716903553998026   T   T   T
  0.3384796327034273 -0.0008856809443040  0.2281947990425583   T   T   T
  0.5553532694259146  0.1113137305735607  0.0775240990693098   F   F   F
  0.6661009634331927  0.0005660365690641  0.9959669317920763   T   T   T
  0.7849533310991922  0.2249533206892695  0.1512229724427109   F   F   F
  0.8854838734829017  0.1071854900134013  0.3061503417660681   T   T   T
  0.7724762618026128  0.2197418674372215  0.3879334474617816   T   T   T
  0.6659684102682287  0.0006985897289990  0.2298209866133217   T   T   T
  0.8906532645695638  0.1119089187080489  0.0746909613324883   F   F   F
 -0.0011450441973949  0.3334734357570908  0.9945896968919348   T   T   T
  0.1113731671636929  0.5552938328328288  0.1485887099613247   F   F   F
  0.1155428144519348  0.5511241855511250  0.3804187491498267   T   T   T
  0.0170121518179146  0.3424715279674319  0.2355476660593067   T   T   T
  0.2223775020225249  0.4442884979782154  0.0732937578140013   F   F   F
  0.3337151387752791  0.3329508612236594  0.9948240037997736   T   T   T
  0.4439075512116416  0.5530566638097829  0.1492814622922798   F   F   F
  0.5823632340623369  0.4586307303466802  0.2989016280940639   T   T   T
  0.4166857651986722  0.5215012172166279  0.3654682431988749   T   T   T
  0.3272527388195145  0.3394132611704128  0.2433108860121809   T   T   T
  0.5566251444333437  0.4452475682930867  0.0743060383463088   F   F   F
  0.6657355679997641  0.3315253119479613  0.9956741856657773   T   T   T
  0.7772995969376266  0.5542621159730964  0.1508725953231599   F   F   F
  0.8840734111400972  0.4457793280519377  0.3050450575139771   T   T   T
  0.7797739615749574  0.5592833197827228  0.3876100900724665   T   T   T
  0.6675526809356969  0.3281863672894025  0.2281947990425247   T   T   T
  0.8889164798182693  0.4451782439545189  0.0747420658784371   F   F   F
 -0.0008974708353227  0.6675644708352565  0.9947937951860331   T   T   T
  0.1124048840267329  0.8893674030611889  0.1508725953231287   F   F   F
  0.2208866719430897  0.7825935888521462  0.3050450575141969   T   T   T
  0.1073836802182455  0.8868930384232609  0.3876100900722041   T   T   T
  0.0004790577664969  0.6661879422308394  0.2296402428478979   T   T   T
  0.2214877560454662  0.7777505201815250  0.0747420658785201   F   F   F
  0.3331925642443345  0.6678120441988725  0.9945896968924328   T   T   T
  0.4417126793086005  0.8817136688991121  0.1512229724421362   F   F   F
  0.5594815099931507  0.7811831265194666  0.3061503417657813   T   T   T
  0.4469241325618507  0.8941907381884784  0.3879334474619167   T   T   T
  0.3241944720357668  0.6496548481860859  0.2355476660597208   T   T   T
  0.5547580812920432  0.7760137354299044  0.0746909613328715   F   F   F
  0.6669995473582206  0.6671268220447154  0.9946970969190055   T   T   T
  0.7759985238033559  0.8906684761984808  0.1491378380468864   F   F   F
  0.8890742046239337  0.7775927953746753  0.3040321358938171   T   T   T
  0.7791980325971944  0.8874689674017198  0.3861566996300667   T   T   T
  0.6683015314737807  0.6723348340041498  0.2282422483298712   T   T   T
  0.8887652749063646  0.7779017250935545  0.0751854334953601   F   F   F
  0.3355287193081503  0.3311372807099475  0.3399995748610827   T   T   T
  0.0022966625048842 -0.0002318153766570  0.3430881835270934   T   T   T
  0.2215431935542426  0.1099469925744445  0.1918224812503922   F   F   F
  0.1106000420081106  0.2209401788938731  0.0338855316264762   F   F   F
  0.3306842660704933  0.0027792413796872  0.3440282235745031   T   T   T
  0.5560521832812946  0.1106148167197932  0.1908226675740066   F   F   F
  0.4441652170785028  0.2225007829208430  0.0360143496877412   F   F   F
  0.6662192751492484  0.0004477248502928  0.3468815636902211   T   T   T
  0.8896960232042663  0.1116394877029672  0.1911520183825028   F   F   F
  0.7784743684341358  0.2228726358766135  0.0357482722418352   F   F   F
 -0.0079672300087141  0.3283988906286729  0.3493086129468715   T   T   T
  0.2235354085325936  0.4431305914629958  0.1848669882059301   F   F   F
  0.1102365437725000  0.5564304562273170  0.0340216123905932   F   F   F
  0.5567200074201926  0.4451228064420078  0.1918224812505632   F   F   F
  0.4457258211082433  0.5560669579932951  0.0338855316265193   F   F   F
  0.6638877586227375  0.3359817339284804  0.3440282235744077   T   T   T
  0.8908606144351571  0.4451194015618730  0.1913588315025915   F   F   F
  0.7772013330500798  0.5551414753856936  0.0352662212694151   F   F   F
 -0.0007221097710757  0.6673891097766074  0.3451472801685589   T   T   T
  0.2215465984427439  0.7758063855723987  0.1913588315026785   F   F   F
  0.1115255246142562  0.8894656669494786  0.0352662212693809   F   F   F
  0.3382671093685690  0.6746342300131607  0.3493086129457940   T   T   T
  0.5550275122926761  0.7769709767962677  0.1911520183824778   F   F   F
  0.4437933641230962  0.8881926315661942  0.0357482722419320   F   F   F
  0.6668988153705747  0.6643703374912612  0.3430881835276912   T   T   T
  0.8886369952125713  0.7780300047889285  0.1889090626477335   F   F   F
  0.7772695068577852  0.8893974931429679  0.0353007856015887   F   F   F
0.3355287193081503 0.3311372807099475 0.44 T T T
0.446598 0.216020 0.433410 T T T 
 
  0.00000000E+00  0.00000000E+00  0.00000000E+00
  0.00000000E+00  0.00000000E+00  0.00000000E+00
  0.00000000E+00  0.00000000E+00  0.00000000E+00
  0.00000000E+00  0.00000000E+00  0.00000000E+00
  0.00000000E+00  0.00000000E+00  0.00000000E+00
  0.00000000E+00  0.00000000E+00  0.00000000E+00
  0.00000000E+00  0.00000000E+00  0.00000000E+00
  0.00000000E+00  0.00000000E+00  0.00000000E+00
  0.00000000E+00  0.00000000E+00  0.00000000E+00
  0.00000000E+00  0.00000000E+00  0.00000000E+00
  0.00000000E+00  0.00000000E+00  0.00000000E+00
  0.00000000E+00  0.00000000E+00  0.00000000E+00
  0.00000000E+00  0.00000000E+00  0.00000000E+00
  0.00000000E+00  0.00000000E+00  0.00000000E+00
  0.00000000E+00  0.00000000E+00  0.00000000E+00
  0.00000000E+00  0.00000000E+00  0.00000000E+00
  0.00000000E+00  0.00000000E+00  0.00000000E+00
  0.00000000E+00  0.00000000E+00  0.00000000E+00
  0.00000000E+00  0.00000000E+00  0.00000000E+00
  0.00000000E+00  0.00000000E+00  0.00000000E+00
  0.00000000E+00  0.00000000E+00  0.00000000E+00
  0.00000000E+00  0.00000000E+00  0.00000000E+00
  0.00000000E+00  0.00000000E+00  0.00000000E+00
  0.00000000E+00  0.00000000E+00  0.00000000E+00
  0.00000000E+00  0.00000000E+00  0.00000000E+00
  0.00000000E+00  0.00000000E+00  0.00000000E+00
  0.00000000E+00  0.00000000E+00  0.00000000E+00
  0.00000000E+00  0.00000000E+00  0.00000000E+00
  0.00000000E+00  0.00000000E+00  0.00000000E+00
  0.00000000E+00  0.00000000E+00  0.00000000E+00
  0.00000000E+00  0.00000000E+00  0.00000000E+00
  0.00000000E+00  0.00000000E+00  0.00000000E+00
  0.00000000E+00  0.00000000E+00  0.00000000E+00
  0.00000000E+00  0.00000000E+00  0.00000000E+00
  0.00000000E+00  0.00000000E+00  0.00000000E+00
  0.00000000E+00  0.00000000E+00  0.00000000E+00
  0.00000000E+00  0.00000000E+00  0.00000000E+00
  0.00000000E+00  0.00000000E+00  0.00000000E+00
  0.00000000E+00  0.00000000E+00  0.00000000E+00
  0.00000000E+00  0.00000000E+00  0.00000000E+00
  0.00000000E+00  0.00000000E+00  0.00000000E+00
  0.00000000E+00  0.00000000E+00  0.00000000E+00
  0.00000000E+00  0.00000000E+00  0.00000000E+00
  0.00000000E+00  0.00000000E+00  0.00000000E+00
  0.00000000E+00  0.00000000E+00  0.00000000E+00
  0.00000000E+00  0.00000000E+00  0.00000000E+00
  0.00000000E+00  0.00000000E+00  0.00000000E+00
  0.00000000E+00  0.00000000E+00  0.00000000E+00
  0.00000000E+00  0.00000000E+00  0.00000000E+00
  0.00000000E+00  0.00000000E+00  0.00000000E+00
  0.00000000E+00  0.00000000E+00  0.00000000E+00
  0.00000000E+00  0.00000000E+00  0.00000000E+00
  0.00000000E+00  0.00000000E+00  0.00000000E+00
  0.00000000E+00  0.00000000E+00  0.00000000E+00
  0.00000000E+00  0.00000000E+00  0.00000000E+00
  0.00000000E+00  0.00000000E+00  0.00000000E+00
  0.00000000E+00  0.00000000E+00  0.00000000E+00
  0.00000000E+00  0.00000000E+00  0.00000000E+00
  0.00000000E+00  0.00000000E+00  0.00000000E+00
  0.00000000E+00  0.00000000E+00  0.00000000E+00
  0.00000000E+00  0.00000000E+00  0.00000000E+00
  0.00000000E+00  0.00000000E+00  0.00000000E+00
  0.00000000E+00  0.00000000E+00  0.00000000E+00
  0.00000000E+00  0.00000000E+00  0.00000000E+00
  0.00000000E+00  0.00000000E+00  0.00000000E+00
  0.00000000E+00  0.00000000E+00  0.00000000E+00
  0.00000000E+00  0.00000000E+00  0.00000000E+00
  0.00000000E+00  0.00000000E+00  0.00000000E+00
  0.00000000E+00  0.00000000E+00  0.00000000E+00
  0.00000000E+00  0.00000000E+00  0.00000000E+00
  0.00000000E+00  0.00000000E+00  0.00000000E+00
  0.00000000E+00  0.00000000E+00  0.00000000E+00
  0.00000000E+00  0.00000000E+00  0.00000000E+00
  0.00000000E+00  0.00000000E+00  0.00000000E+00
  0.00000000E+00  0.00000000E+00  0.00000000E+00
  0.00000000E+00  0.00000000E+00  0.00000000E+00
  0.00000000E+00  0.00000000E+00  0.00000000E+00
  0.00000000E+00  0.00000000E+00  0.00000000E+00
  0.00000000E+00  0.00000000E+00  0.00000000E+00
  0.00000000E+00  0.00000000E+00  0.00000000E+00
