CeO2-you-111-you-Mn                     
   1.00000000000000     
     9.8938887960590822   -5.7122397346258298   -0.0000000012153931
    -0.0421129110995097   11.3515357618549722   -0.0232072284552211
    -0.0253516421245079   -0.0439103247587224   20.5703023012140704
   O    Mn   Ce   H 
    53     1    26     2
Selective dynamics
Direct
 -0.0001089001710418  0.0001991401921719  0.9907400620477606   T   T   T
  0.1081089042789927  0.2212869095299865  0.1477923507663235   F   F   F
  0.2403280107829300  0.1366530437355736  0.3139045150799826   T   T   T
  0.0619119549474064  0.1987956232096485  0.3994693329449038   T   T   T
  0.0086737803585363  0.0042740537203014  0.2307096860825253   T   T   T
  0.2224411900744556  0.1115493801488014  0.0714518757333877   F   F   F
  0.3342281572329324  0.0001919328918107  0.9906746568047821   T   T   T
  0.4465110052505352  0.2212869095291410  0.1477923507662879   F   F   F
  0.5475597567181476  0.1044661888125999  0.3064085180472922   T   T   T
  0.4596958152555046  0.1839021071432882  0.4173462347876548   T   T   T
  0.3281105748934467  0.0004584377350493  0.2296837895247268   T   T   T
  0.5573200772827960  0.1110649620597712  0.0723447781463875   F   F   F
  0.6662143935968283  0.9990407173093521  0.9904612488179384   T   T   T
  0.7773259658131622  0.2213179316263947  0.1526619200202575   F   F   F
  0.8849970965165540  0.1070335149986533  0.3025944546240487   T   T   T
  0.7786610628844612  0.2101821410411103  0.3884483515023696   T   T   T
  0.6600990792959929  0.9905727732362161  0.2324227767976855   T   T   T
  0.8870788847768551  0.1110649620594728  0.0723447781463165   F   F   F
  0.0002490956949502  0.3331629309116604  0.9911780580755244   T   T   T
  0.1095610914561789  0.5557656269349351  0.1482531948753802   F   F   F
  0.2384789670768667  0.4429543394708346  0.3138567418857965   T   T   T
  0.1134894904724222  0.5598874882193808  0.3890004867305883   T   T   T
  0.0073711787339052  0.3368938834814175  0.2318835384069605   T   T   T
  0.2223816007650683  0.4448963892357298  0.0729329173810598   F   F   F
  0.3338813850011823  0.3342159448825976  0.9911656178494085   T   T   T
  0.4460302140027324  0.5587284280065674  0.1481882224511040   F   F   F
  0.5358057993229531  0.4477453470087398  0.3146776400589479   T   T   T
  0.3341404997288334  0.3352742278291766  0.2246155806334170   T   T   T
  0.5558487884706764  0.4448963892359501  0.0729329173811024   F   F   F
  0.6663213267413858  0.3331181046813425  0.9912199290908897   T   T   T
  0.7795375354783545  0.5557656269346367  0.1482531948754300   F   F   F
  0.8943358091318124  0.4472133462464615  0.3077711129322517   T   T   T
  0.7875743884868287  0.5721724158930935  0.3901862928420873   T   T   T
  0.6638579768959405  0.3373504595781520  0.2312548916348819   T   T   T
  0.8875793953465703  0.4418247906929267  0.0728762790873603   F   F   F
  0.9991396173226736  0.6646673395221979  0.9908240133814201   T   T   T
  0.1112733860971105  0.8892137721935498  0.1465024865394042   F   F   F
  0.2200253632667071  0.7776411879740016  0.3048002032057105   T   T   T
  0.1134130629674543  0.8919144189600869  0.3870132033438957   T   T   T
  0.0006326852655639  0.6694454102560567  0.2293074442928428   T   T   T
  0.2222615597485245  0.7783390319251353  0.0713081260625543   F   F   F
  0.3333774417505033  0.6660611159109178  0.9912292067798159   T   T   T
  0.4435389082710941  0.8883485481492670  0.1488626640463337   F   F   F
  0.5440909638753177  0.7548975653669153  0.3142659134254960   T   T   T
  0.4379557291077502  0.8815567609110837  0.3874423771865342   T   T   T
  0.3306665994327827  0.6660918325615385  0.2300897568255650   T   T   T
  0.5561212472910242  0.7789084945822253  0.0725235927161734   F   F   F
  0.6658190961734717  0.6656698626535724  0.9910210922526719   T   T   T
  0.7781426398785314  0.8883485481493025  0.1488626640464545   F   F   F
  0.8925783236975185  0.7818832217929270  0.3043488537308466   T   T   T
  0.7782962482352973  0.8885709065289085  0.3874254099285527   T   T   T
  0.6698305326958239  0.6675982523222594  0.2295936775720408   T   T   T
  0.8894104721768059  0.7783390319249790  0.0713081260625401   F   F   F
  0.3374913388522151  0.3410114856502660  0.3222750577989785   T   T   T
  0.0053151470325082  0.0102477824437610  0.3499419387693622   T   T   T
  0.2227268706964480  0.1121207413938450  0.1888944626107687   F   F   F
  0.1104316010117259  0.2217739513188022  0.0317179258223206   F   F   F
  0.3311058326123077 -0.0006363318749289  0.3483341836861354   T   T   T
  0.5544140025741697  0.1104740793597543  0.1906078932254900   F   F   F
  0.4446753503072358  0.2217739513189301  0.0317179258223135   F   F   F
  0.6645626463591328  0.9974815417622861  0.3485045912515792   T   T   T
  0.8893940767846047  0.1104740793587453  0.1906078932254758   F   F   F
  0.7773685762823419  0.2214031525647044  0.0324905144086216   F   F   F
 -0.0020212674504805  0.3267317537070584  0.3506293294723909   T   T   T
  0.2219439543740265  0.4449193156964597  0.1884568051155782   F   F   F
  0.1099727214162698  0.5543930425587646  0.0318752748994555   F   F   F
  0.5563093613235992  0.4449193156968647  0.1884568051156279   F   F   F
  0.4444558179513933  0.5555796359025607  0.0312991322366756   F   F   F
  0.6666869044319962  0.3335104323833604  0.3527836209705169   T   T   T
  0.8891155230712258  0.4448970461417829  0.1919366629973638   F   F   F
  0.7777533211425549  0.5543930425588215  0.0318752748994910   F   F   F
  0.0001390019035330  0.6676590789563591  0.3473515393999196   T   T   T
  0.2214286561924794  0.7797663841429028  0.1880331067347996   F   F   F
  0.1110458772269212  0.8887587544540239  0.0304363892571260   F   F   F
  0.3212463946694556  0.6677835159505047  0.3442925750620631   T   T   T
  0.5545453294373601  0.7757566588744709  0.1896317572464241   F   F   F
  0.4446191992883257  0.8884484836712616  0.0315728117698413   F   F   F
  0.6838447048196126  0.6739279898834533  0.3440789749463344   T   T   T
  0.8916707279498510  0.7797663841425333  0.1880331067347569   F   F   F
  0.7771622843825980  0.8884484836708353  0.0315728117697986   F   F   F
  0.3506206398522471  0.3599032194069712  0.3997856058257407   T   T   T
  0.4137644438422675  0.2235316499809897  0.4410185452623698   T   T   T
 
  0.00000000E+00  0.00000000E+00  0.00000000E+00
  0.00000000E+00  0.00000000E+00  0.00000000E+00
  0.00000000E+00  0.00000000E+00  0.00000000E+00
  0.00000000E+00  0.00000000E+00  0.00000000E+00
  0.00000000E+00  0.00000000E+00  0.00000000E+00
  0.00000000E+00  0.00000000E+00  0.00000000E+00
  0.00000000E+00  0.00000000E+00  0.00000000E+00
  0.00000000E+00  0.00000000E+00  0.00000000E+00
  0.00000000E+00  0.00000000E+00  0.00000000E+00
  0.00000000E+00  0.00000000E+00  0.00000000E+00
  0.00000000E+00  0.00000000E+00  0.00000000E+00
  0.00000000E+00  0.00000000E+00  0.00000000E+00
  0.00000000E+00  0.00000000E+00  0.00000000E+00
  0.00000000E+00  0.00000000E+00  0.00000000E+00
  0.00000000E+00  0.00000000E+00  0.00000000E+00
  0.00000000E+00  0.00000000E+00  0.00000000E+00
  0.00000000E+00  0.00000000E+00  0.00000000E+00
  0.00000000E+00  0.00000000E+00  0.00000000E+00
  0.00000000E+00  0.00000000E+00  0.00000000E+00
  0.00000000E+00  0.00000000E+00  0.00000000E+00
  0.00000000E+00  0.00000000E+00  0.00000000E+00
  0.00000000E+00  0.00000000E+00  0.00000000E+00
  0.00000000E+00  0.00000000E+00  0.00000000E+00
  0.00000000E+00  0.00000000E+00  0.00000000E+00
  0.00000000E+00  0.00000000E+00  0.00000000E+00
  0.00000000E+00  0.00000000E+00  0.00000000E+00
  0.00000000E+00  0.00000000E+00  0.00000000E+00
  0.00000000E+00  0.00000000E+00  0.00000000E+00
  0.00000000E+00  0.00000000E+00  0.00000000E+00
  0.00000000E+00  0.00000000E+00  0.00000000E+00
  0.00000000E+00  0.00000000E+00  0.00000000E+00
  0.00000000E+00  0.00000000E+00  0.00000000E+00
  0.00000000E+00  0.00000000E+00  0.00000000E+00
  0.00000000E+00  0.00000000E+00  0.00000000E+00
  0.00000000E+00  0.00000000E+00  0.00000000E+00
  0.00000000E+00  0.00000000E+00  0.00000000E+00
  0.00000000E+00  0.00000000E+00  0.00000000E+00
  0.00000000E+00  0.00000000E+00  0.00000000E+00
  0.00000000E+00  0.00000000E+00  0.00000000E+00
  0.00000000E+00  0.00000000E+00  0.00000000E+00
  0.00000000E+00  0.00000000E+00  0.00000000E+00
  0.00000000E+00  0.00000000E+00  0.00000000E+00
  0.00000000E+00  0.00000000E+00  0.00000000E+00
  0.00000000E+00  0.00000000E+00  0.00000000E+00
  0.00000000E+00  0.00000000E+00  0.00000000E+00
  0.00000000E+00  0.00000000E+00  0.00000000E+00
  0.00000000E+00  0.00000000E+00  0.00000000E+00
  0.00000000E+00  0.00000000E+00  0.00000000E+00
  0.00000000E+00  0.00000000E+00  0.00000000E+00
  0.00000000E+00  0.00000000E+00  0.00000000E+00
  0.00000000E+00  0.00000000E+00  0.00000000E+00
  0.00000000E+00  0.00000000E+00  0.00000000E+00
  0.00000000E+00  0.00000000E+00  0.00000000E+00
  0.00000000E+00  0.00000000E+00  0.00000000E+00
  0.00000000E+00  0.00000000E+00  0.00000000E+00
  0.00000000E+00  0.00000000E+00  0.00000000E+00
  0.00000000E+00  0.00000000E+00  0.00000000E+00
  0.00000000E+00  0.00000000E+00  0.00000000E+00
  0.00000000E+00  0.00000000E+00  0.00000000E+00
  0.00000000E+00  0.00000000E+00  0.00000000E+00
  0.00000000E+00  0.00000000E+00  0.00000000E+00
  0.00000000E+00  0.00000000E+00  0.00000000E+00
  0.00000000E+00  0.00000000E+00  0.00000000E+00
  0.00000000E+00  0.00000000E+00  0.00000000E+00
  0.00000000E+00  0.00000000E+00  0.00000000E+00
  0.00000000E+00  0.00000000E+00  0.00000000E+00
  0.00000000E+00  0.00000000E+00  0.00000000E+00
  0.00000000E+00  0.00000000E+00  0.00000000E+00
  0.00000000E+00  0.00000000E+00  0.00000000E+00
  0.00000000E+00  0.00000000E+00  0.00000000E+00
  0.00000000E+00  0.00000000E+00  0.00000000E+00
  0.00000000E+00  0.00000000E+00  0.00000000E+00
  0.00000000E+00  0.00000000E+00  0.00000000E+00
  0.00000000E+00  0.00000000E+00  0.00000000E+00
  0.00000000E+00  0.00000000E+00  0.00000000E+00
  0.00000000E+00  0.00000000E+00  0.00000000E+00
  0.00000000E+00  0.00000000E+00  0.00000000E+00
  0.00000000E+00  0.00000000E+00  0.00000000E+00
  0.00000000E+00  0.00000000E+00  0.00000000E+00
  0.00000000E+00  0.00000000E+00  0.00000000E+00
  0.00000000E+00  0.00000000E+00  0.00000000E+00
  0.00000000E+00  0.00000000E+00  0.00000000E+00
