CeO2-you-111-you-Ca                     
   1.00000000000000     
     9.8514133484285260   -5.6805637473543014    0.0071891768441111
     0.0061944800385027   11.3718546488748196   -0.0071891756121677
     0.0078019002788867   -0.0135132869020937   20.4113414082253755
   O    Ca   Ce H
    53     1    26 2
Selective dynamics
Direct
  0.0002213118947851 -0.0004798846657667  0.9888260852205556   T   T   T
  0.1082662470236455  0.2198807043241725  0.1458284550109768   F   F   F
  0.2196889401704990  0.1049041925146272  0.3070451624621586   T   T   T
  0.1050875683902450  0.2311617425042081  0.3817723020899436   T   T   T
 -0.0011599593836320  0.0012882669083545  0.2304396523971049   T   T   T
  0.2220975948978820  0.1100630953585440  0.0714037758387168   F   F   F
  0.3350484519033970  0.0003378607299717  0.9901960192532084   T   T   T
  0.4422733393535786  0.2243926606455273  0.1505358211939836   F   F   F
  0.5568939596696582  0.1097730403292236  0.3067028476640456   T   T   T
  0.4518448008517877  0.2148211991495437  0.3919276471943636   T   T   T
  0.3347590230602616  0.0003678764236164  0.2300523725253834   T   T   T
  0.5561189477902984  0.1105480522102388  0.0740120523702278   F   F   F
  0.6659156023808858  0.0007513976197701  0.9895779446750138   T   T   T
  0.7846025779718021  0.2261035161095306  0.1506997447223266   F   F   F
  0.8811885677917958  0.1077547541080972  0.3064858537940827   T   T   T
  0.7744593586267335  0.2201135438928518  0.3931618189497241   T   T   T
  0.6665163007536763  0.0001506992462947  0.2281978549760856   T   T   T
  0.8879930981145422  0.1098447510466134  0.0706095510380193   F   F   F
 -0.0008895103309597  0.3325778872656804  0.9890813342191338   T   T   T
  0.1105527439177829  0.5561142560800049  0.1469239411489919   F   F   F
  0.1201853843352095  0.5464816156669167  0.3815814653141324   T   T   T
  0.0180661082694340  0.3424613123575180  0.2370847972925129   T   T   T
  0.2226665210121823  0.4439994789886967  0.0687727129858653   F   F   F
  0.3344746263905562  0.3321913736092400  0.9890750557751758   T   T   T
  0.4467852956792914  0.5584007529778816  0.1458284550107566   F   F   F
  0.5617628074862795  0.4469770598290403  0.3070451624621978   T   T   T
  0.4355042574950178  0.5615794316081276  0.3817723020900983   T   T   T
  0.3254130907710883  0.3412529092300215  0.2315505745597554   T   T   T
  0.5566039046414213  0.4445684051019339  0.0714037758385583   F   F   F
  0.6663291392693883  0.3316175480961981  0.9901960192531262   T   T   T
  0.7787980552867434  0.5555528067811629  0.1500742208036556   F   F   F
  0.8844808714691376  0.4424189245976479  0.3088425669017976   T   T   T
  0.7804869657329933  0.5606100935646438  0.3902778050198156   T   T   T
  0.6662991235740418  0.3319069769392783  0.2300523725254558   T   T   T
  0.8884296479833402  0.4442960300624313  0.0716313149985419   F   F   F
  0.0002031131107641  0.6664638868880910  0.9894048633245079   T   T   T
  0.1111141932173037  0.8878689447111610  0.1500742208036736   F   F   F
  0.2242470753998815  0.7821861285268997  0.3088425669018661   T   T   T
  0.1060569064351446  0.8861800342651741  0.3902778050198167   T   T   T
  0.0012168650558742  0.6654501349427165  0.2320271673257094   T   T   T
  0.2223699699372478  0.7782373520162118  0.0716313149985656   F   F   F
  0.3340881127352974  0.6675565103321874  0.9890813342191163   T   T   T
  0.4405624838914893  0.8820644220282579  0.1506997447223776   F   F   F
  0.5589122458954594  0.7854784322087460  0.3064858537937766   T   T   T
  0.4465524561065683  0.8922076413705957  0.3931618189492330   T   T   T
  0.3242046876431376  0.6486008917336423  0.2370847972926419   T   T   T
  0.5568222489536784  0.7786739018854517  0.0706095510378483   F   F   F
  0.6671468846658783  0.6664456881049725  0.9888260852204558   T   T   T
  0.7779090075077177  0.8887579924926594  0.1482440056940540   F   F   F
  0.8888200170691083  0.7778469829297492  0.3061318899494725   T   T   T
  0.7781699273499902  0.8884970726502001  0.3891072497758807   T   T   T
  0.6653787330919689  0.6678269593844803  0.2304396523970214   T   T   T
  0.8889998874392302  0.7776671125611869  0.0713538751476099   F   F   F
  0.3400810767692066  0.3265849232318442  0.3520571850917183   T   T   T
  0.0012930958955508  0.0024929694324380  0.3475407601921346   T   T   T
  0.2224429110347038  0.1132546694969260  0.1921695860538599   F   F   F
  0.1104265835810665  0.2197936821564722  0.0287218810149730   F   F   F
  0.3338237850851641  0.0045358461519347  0.3495990015500310   T   T   T
  0.5556213712914919  0.1110456287107940  0.1906474053888353   F   F   F
  0.4445113631604695  0.2221546368395634  0.0317112885560114   F   F   F
  0.6662335016377496  0.0004334983634860  0.3494543976233959   T   T   T
  0.8892485214253595  0.1111574884875427  0.1898299134337590   F   F   F
  0.7782254627888139  0.2222450639268001  0.0309320413564121   F   F   F
 -0.0136014661746328  0.3244077208868330  0.3522830396024609   T   T   T
  0.2232308150744910  0.4434351849186769  0.1817141229472059   F   F   F
  0.1103248699131170  0.5563421300864525  0.0292296848917812   F   F   F
  0.5534123305019902  0.4442230889639426  0.1921695860536990   F   F   F
  0.4468723178430256  0.5562404164186410  0.0287218810150713   F   F   F
  0.6621311538558603  0.3328422149190455  0.3495990015494260   T   T   T
  0.8898352997587258  0.4447711597768242  0.1914072442844769   F   F   F
  0.7776101242665329  0.5545334213137949  0.0315079796695341   F   F   F
 -0.0014148249899864  0.6680818249961247  0.3482800225603380   T   T   T
  0.2218948402260809  0.7768317002474817  0.1914072442844702   F   F   F
  0.1121335786870141  0.8890568757339501  0.0315079796694998   F   F   F
  0.3422582791102731  0.6802684661705742  0.3522830396032409   T   T   T
  0.5555095115079661  0.7774184785735645  0.1898299134337210   F   F   F
  0.4444209360726134  0.8884415372114756  0.0309320413564999   F   F   F
  0.6641740305648799  0.6653739041014618  0.3475407601918591   T   T   T
  0.8888571918345044  0.7778098081671753  0.1894121556905094   F   F   F
  0.7776817595274372  0.8889852404719573  0.0302822087860684   F   F   F
0.3400810767692066 0.3265849232318442 0.452057 T T T
0.446598 0.216020 0.433410 T T T 
 
  0.00000000E+00  0.00000000E+00  0.00000000E+00
  0.00000000E+00  0.00000000E+00  0.00000000E+00
  0.00000000E+00  0.00000000E+00  0.00000000E+00
  0.00000000E+00  0.00000000E+00  0.00000000E+00
  0.00000000E+00  0.00000000E+00  0.00000000E+00
  0.00000000E+00  0.00000000E+00  0.00000000E+00
  0.00000000E+00  0.00000000E+00  0.00000000E+00
  0.00000000E+00  0.00000000E+00  0.00000000E+00
  0.00000000E+00  0.00000000E+00  0.00000000E+00
  0.00000000E+00  0.00000000E+00  0.00000000E+00
  0.00000000E+00  0.00000000E+00  0.00000000E+00
  0.00000000E+00  0.00000000E+00  0.00000000E+00
  0.00000000E+00  0.00000000E+00  0.00000000E+00
  0.00000000E+00  0.00000000E+00  0.00000000E+00
  0.00000000E+00  0.00000000E+00  0.00000000E+00
  0.00000000E+00  0.00000000E+00  0.00000000E+00
  0.00000000E+00  0.00000000E+00  0.00000000E+00
  0.00000000E+00  0.00000000E+00  0.00000000E+00
  0.00000000E+00  0.00000000E+00  0.00000000E+00
  0.00000000E+00  0.00000000E+00  0.00000000E+00
  0.00000000E+00  0.00000000E+00  0.00000000E+00
  0.00000000E+00  0.00000000E+00  0.00000000E+00
  0.00000000E+00  0.00000000E+00  0.00000000E+00
  0.00000000E+00  0.00000000E+00  0.00000000E+00
  0.00000000E+00  0.00000000E+00  0.00000000E+00
  0.00000000E+00  0.00000000E+00  0.00000000E+00
  0.00000000E+00  0.00000000E+00  0.00000000E+00
  0.00000000E+00  0.00000000E+00  0.00000000E+00
  0.00000000E+00  0.00000000E+00  0.00000000E+00
  0.00000000E+00  0.00000000E+00  0.00000000E+00
  0.00000000E+00  0.00000000E+00  0.00000000E+00
  0.00000000E+00  0.00000000E+00  0.00000000E+00
  0.00000000E+00  0.00000000E+00  0.00000000E+00
  0.00000000E+00  0.00000000E+00  0.00000000E+00
  0.00000000E+00  0.00000000E+00  0.00000000E+00
  0.00000000E+00  0.00000000E+00  0.00000000E+00
  0.00000000E+00  0.00000000E+00  0.00000000E+00
  0.00000000E+00  0.00000000E+00  0.00000000E+00
  0.00000000E+00  0.00000000E+00  0.00000000E+00
  0.00000000E+00  0.00000000E+00  0.00000000E+00
  0.00000000E+00  0.00000000E+00  0.00000000E+00
  0.00000000E+00  0.00000000E+00  0.00000000E+00
  0.00000000E+00  0.00000000E+00  0.00000000E+00
  0.00000000E+00  0.00000000E+00  0.00000000E+00
  0.00000000E+00  0.00000000E+00  0.00000000E+00
  0.00000000E+00  0.00000000E+00  0.00000000E+00
  0.00000000E+00  0.00000000E+00  0.00000000E+00
  0.00000000E+00  0.00000000E+00  0.00000000E+00
  0.00000000E+00  0.00000000E+00  0.00000000E+00
  0.00000000E+00  0.00000000E+00  0.00000000E+00
  0.00000000E+00  0.00000000E+00  0.00000000E+00
  0.00000000E+00  0.00000000E+00  0.00000000E+00
  0.00000000E+00  0.00000000E+00  0.00000000E+00
  0.00000000E+00  0.00000000E+00  0.00000000E+00
  0.00000000E+00  0.00000000E+00  0.00000000E+00
  0.00000000E+00  0.00000000E+00  0.00000000E+00
  0.00000000E+00  0.00000000E+00  0.00000000E+00
  0.00000000E+00  0.00000000E+00  0.00000000E+00
  0.00000000E+00  0.00000000E+00  0.00000000E+00
  0.00000000E+00  0.00000000E+00  0.00000000E+00
  0.00000000E+00  0.00000000E+00  0.00000000E+00
  0.00000000E+00  0.00000000E+00  0.00000000E+00
  0.00000000E+00  0.00000000E+00  0.00000000E+00
  0.00000000E+00  0.00000000E+00  0.00000000E+00
  0.00000000E+00  0.00000000E+00  0.00000000E+00
  0.00000000E+00  0.00000000E+00  0.00000000E+00
  0.00000000E+00  0.00000000E+00  0.00000000E+00
  0.00000000E+00  0.00000000E+00  0.00000000E+00
  0.00000000E+00  0.00000000E+00  0.00000000E+00
  0.00000000E+00  0.00000000E+00  0.00000000E+00
  0.00000000E+00  0.00000000E+00  0.00000000E+00
  0.00000000E+00  0.00000000E+00  0.00000000E+00
  0.00000000E+00  0.00000000E+00  0.00000000E+00
  0.00000000E+00  0.00000000E+00  0.00000000E+00
  0.00000000E+00  0.00000000E+00  0.00000000E+00
  0.00000000E+00  0.00000000E+00  0.00000000E+00
  0.00000000E+00  0.00000000E+00  0.00000000E+00
  0.00000000E+00  0.00000000E+00  0.00000000E+00
  0.00000000E+00  0.00000000E+00  0.00000000E+00
  0.00000000E+00  0.00000000E+00  0.00000000E+00
