CeO2-you-111-you-Ce                     
   1.00000000000000     
     9.8730338617399802   -5.7153992135775313   -0.0008467631552613
    -0.0131636601738234   11.4079962887754522    0.0008467630109045
    -0.0010598497435064    0.0018357134735640   20.6301491986248138
   O    Ce   Ce
    53     1    26
Selective dynamics
Direct
 -0.0004363763240138  0.0001073048387825  0.9916144554303691   T   T   T
  0.1103189031182374  0.2201301401182690  0.1461341530663940   T   T   T
  0.2274396353491542  0.1092130602380682  0.3051305859153441   T   T   T
  0.1282014483289599  0.2326646459852763  0.3806393257559529   T   T   T
  0.0026179255216310  0.0013975901727101  0.2300894700146211   T   T   T
  0.2216684275345994  0.1101126873239218  0.0719691241173509   T   T   T
  0.3351714342427182  0.0011831007366009  0.9923871084726816   T   T   T
  0.4410446641742418  0.2256213358255067  0.1499986570115134   T   T   T
  0.5546901271092873  0.1119768728909723  0.3045159105997836   T   T   T
  0.4458966118232753  0.2207693881785301  0.3895526249239709   T   T   T
  0.3345583395501284  0.0009231890579498  0.2275824715996342   T   T   T
  0.5556446969013823  0.1110223030986782  0.0754275319065469   T   T   T
  0.6657493459119280  0.0009176540879609  0.9925174163658687   T   T   T
  0.7845538305094285  0.2250332465362453  0.1511914918920520   T   T   T
  0.8849176642068077  0.1039141007997287  0.3059821208316046   T   T   T
  0.7652092051918196  0.2157551592821608  0.3901691729879497   T   T   T
  0.6662347626260033  0.0004322373737417  0.2289116749616041   T   T   T
  0.8879032817048714  0.1101479073333753  0.0725896170167896   T   T   T
 -0.0017002048196384  0.3328345984712013  0.9917954058883413   T   T   T
  0.1100525789631730  0.5566144210369849  0.1461485424129067   T   T   T
  0.1058855435034756  0.5607814564923826  0.3877448914680091   T   T   T
  0.0189822895927133  0.3430711299139997  0.2347869449822345   T   T   T
  0.2221284444901984  0.4445375555100324  0.0698593015214311   T   T   T
  0.3336427164722106  0.3330232835270205  0.9912971094755478   T   T   T
  0.4465358598819944  0.5563480968815473  0.1461341530666058   T   T   T
  0.5574539397656748  0.4392263646516387  0.3051305859156506   T   T   T
  0.4340013540190272  0.5384655516719821  0.3806393257562793   T   T   T
  0.3244619952903119  0.3422040047081532  0.2353669784839082   T   T   T
  0.5565543126761381  0.4449975724651594  0.0719691241176027   T   T   T
  0.6654838992633112  0.3314945657572967  0.9923871084727027   T   T   T
  0.7776325030516715  0.5551793765550970  0.1490725738017500   T   T   T
  0.8813521489684201  0.4450474200527215  0.3051443663049179   T   T   T
  0.7760179399927468  0.5578646799666046  0.3880096430757237   T   T   T
  0.6657438109419106  0.3321076604502850  0.2275824715993595   T   T   T
  0.8878533904255775  0.4443828303142661  0.0722739184158386   T   T   T
 -0.0000721590840991  0.6667391590840638  0.9916558414172745   T   T   T
  0.1114876234445318  0.8890344969484413  0.1490725738018149   T   T   T
  0.2216185799439412  0.7853148510283721  0.3051443663045645   T   T   T
  0.1088023200342700  0.8906490600073592  0.3880096430759653   T   T   T
  0.0001823414738037  0.6664846585260251  0.2296245661039612   T   T   T
  0.2222831696855794  0.7788136095744989  0.0722739184158284   T   T   T
  0.3338314015285398  0.6683672048204429  0.9917954058882981   T   T   T
  0.4416327534638967  0.8821131694905228  0.1511914918920456   T   T   T
  0.5627528992019497  0.7817493357935554  0.3059821208312036   T   T   T
  0.4509108407168842  0.9014577948034845  0.3901691729879190   T   T   T
  0.3235948700870841  0.6476847104067490  0.2347869449824460   T   T   T
  0.5565190926665903  0.7787637182958153  0.0725896170167046   T   T   T
  0.6665596951615218  0.6671033763237647  0.9916144554304657   T   T   T
  0.7780310266319200  0.8886359733681730  0.1502151338796339   T   T   T
  0.8882267091867788  0.7784402908133594  0.3049418493109069   T   T   T
  0.7798704775463406  0.8867965224533115  0.3883735469798619   T   T   T
  0.6652694098276019  0.6640490744788282  0.2300894700141941   T   T   T
  0.8887218053073007  0.7779451946926065  0.0726505601157292   T   T   T
  0.3420817449913377  0.3245842550061553  0.3496315252014107   T   T   T
  0.0006160891299701 -0.0006377606366947  0.3460069347927976   T   T   T
  0.2221090096971244  0.1115956655485985  0.1897212365654668   T   T   T
  0.1096844401543624  0.2200919118391958  0.0306143605121576   T   T   T
  0.3340715045653755 -0.0005803860802061  0.3463179069483199   T   T   T
  0.5557340241489649  0.1109329758508443  0.1899367875910424   T   T   T
  0.4442620850880337  0.2224039149123205  0.0323786344660534   T   T   T
  0.6670789865474808 -0.0004119865462597  0.3467090492769062   T   T   T
  0.8907069996190783  0.1120110537266372  0.1913781015845667   T   T   T
  0.7782222084795676  0.2223087765835494  0.0331962917834747   T   T   T
 -0.0116023302210647  0.3298253420601418  0.3543520017215344   T   T   T
  0.2220364057952891  0.4446295942053166  0.1812577083996050   T   T   T
  0.1098216786889618  0.5568453213097048  0.0309537073053046   T   T   T
  0.5550713344483784  0.4445569903028316  0.1897212365652355   T   T   T
  0.4465740881616024  0.5569825598459969  0.0306143605120761   T   T   T
  0.6672473860788959  0.3325944954327049  0.3463179069479366   T   T   T
  0.8902231198453383  0.4448617962853317  0.1908946717603257   T   T   T
  0.7775044646080822  0.5550235697113596  0.0327150064275894   T   T   T
 -0.0005594872213885  0.6672264872231742  0.3473253778494168   T   T   T
  0.2218042037164149  0.7764438801563746  0.1908946717602866   T   T   T
  0.1116434302889606  0.8891625353920473  0.0327150064275474   T   T   T
  0.3368406579386761  0.6782693302279285  0.3543520017209192   T   T   T
  0.5546559462715973  0.7759600003815755  0.1913781015844444   T   T   T
  0.4443572234165221  0.8884447915203024  0.0331962917834091   T   T   T
  0.6673047606347240  0.6660509108710628  0.3460069347928737   T   T   T
  0.8892612867247425  0.7774057132751442  0.1891209376860580   T   T   T
  0.7773374316191585  0.8893295683806419  0.0332912119556967   T   T   T
 
  0.00000000E+00  0.00000000E+00  0.00000000E+00
  0.00000000E+00  0.00000000E+00  0.00000000E+00
  0.00000000E+00  0.00000000E+00  0.00000000E+00
  0.00000000E+00  0.00000000E+00  0.00000000E+00
  0.00000000E+00  0.00000000E+00  0.00000000E+00
  0.00000000E+00  0.00000000E+00  0.00000000E+00
  0.00000000E+00  0.00000000E+00  0.00000000E+00
  0.00000000E+00  0.00000000E+00  0.00000000E+00
  0.00000000E+00  0.00000000E+00  0.00000000E+00
  0.00000000E+00  0.00000000E+00  0.00000000E+00
  0.00000000E+00  0.00000000E+00  0.00000000E+00
  0.00000000E+00  0.00000000E+00  0.00000000E+00
  0.00000000E+00  0.00000000E+00  0.00000000E+00
  0.00000000E+00  0.00000000E+00  0.00000000E+00
  0.00000000E+00  0.00000000E+00  0.00000000E+00
  0.00000000E+00  0.00000000E+00  0.00000000E+00
  0.00000000E+00  0.00000000E+00  0.00000000E+00
  0.00000000E+00  0.00000000E+00  0.00000000E+00
  0.00000000E+00  0.00000000E+00  0.00000000E+00
  0.00000000E+00  0.00000000E+00  0.00000000E+00
  0.00000000E+00  0.00000000E+00  0.00000000E+00
  0.00000000E+00  0.00000000E+00  0.00000000E+00
  0.00000000E+00  0.00000000E+00  0.00000000E+00
  0.00000000E+00  0.00000000E+00  0.00000000E+00
  0.00000000E+00  0.00000000E+00  0.00000000E+00
  0.00000000E+00  0.00000000E+00  0.00000000E+00
  0.00000000E+00  0.00000000E+00  0.00000000E+00
  0.00000000E+00  0.00000000E+00  0.00000000E+00
  0.00000000E+00  0.00000000E+00  0.00000000E+00
  0.00000000E+00  0.00000000E+00  0.00000000E+00
  0.00000000E+00  0.00000000E+00  0.00000000E+00
  0.00000000E+00  0.00000000E+00  0.00000000E+00
  0.00000000E+00  0.00000000E+00  0.00000000E+00
  0.00000000E+00  0.00000000E+00  0.00000000E+00
  0.00000000E+00  0.00000000E+00  0.00000000E+00
  0.00000000E+00  0.00000000E+00  0.00000000E+00
  0.00000000E+00  0.00000000E+00  0.00000000E+00
  0.00000000E+00  0.00000000E+00  0.00000000E+00
  0.00000000E+00  0.00000000E+00  0.00000000E+00
  0.00000000E+00  0.00000000E+00  0.00000000E+00
  0.00000000E+00  0.00000000E+00  0.00000000E+00
  0.00000000E+00  0.00000000E+00  0.00000000E+00
  0.00000000E+00  0.00000000E+00  0.00000000E+00
  0.00000000E+00  0.00000000E+00  0.00000000E+00
  0.00000000E+00  0.00000000E+00  0.00000000E+00
  0.00000000E+00  0.00000000E+00  0.00000000E+00
  0.00000000E+00  0.00000000E+00  0.00000000E+00
  0.00000000E+00  0.00000000E+00  0.00000000E+00
  0.00000000E+00  0.00000000E+00  0.00000000E+00
  0.00000000E+00  0.00000000E+00  0.00000000E+00
  0.00000000E+00  0.00000000E+00  0.00000000E+00
  0.00000000E+00  0.00000000E+00  0.00000000E+00
  0.00000000E+00  0.00000000E+00  0.00000000E+00
  0.00000000E+00  0.00000000E+00  0.00000000E+00
  0.00000000E+00  0.00000000E+00  0.00000000E+00
  0.00000000E+00  0.00000000E+00  0.00000000E+00
  0.00000000E+00  0.00000000E+00  0.00000000E+00
  0.00000000E+00  0.00000000E+00  0.00000000E+00
  0.00000000E+00  0.00000000E+00  0.00000000E+00
  0.00000000E+00  0.00000000E+00  0.00000000E+00
  0.00000000E+00  0.00000000E+00  0.00000000E+00
  0.00000000E+00  0.00000000E+00  0.00000000E+00
  0.00000000E+00  0.00000000E+00  0.00000000E+00
  0.00000000E+00  0.00000000E+00  0.00000000E+00
  0.00000000E+00  0.00000000E+00  0.00000000E+00
  0.00000000E+00  0.00000000E+00  0.00000000E+00
  0.00000000E+00  0.00000000E+00  0.00000000E+00
  0.00000000E+00  0.00000000E+00  0.00000000E+00
  0.00000000E+00  0.00000000E+00  0.00000000E+00
  0.00000000E+00  0.00000000E+00  0.00000000E+00
  0.00000000E+00  0.00000000E+00  0.00000000E+00
  0.00000000E+00  0.00000000E+00  0.00000000E+00
  0.00000000E+00  0.00000000E+00  0.00000000E+00
  0.00000000E+00  0.00000000E+00  0.00000000E+00
  0.00000000E+00  0.00000000E+00  0.00000000E+00
  0.00000000E+00  0.00000000E+00  0.00000000E+00
  0.00000000E+00  0.00000000E+00  0.00000000E+00
  0.00000000E+00  0.00000000E+00  0.00000000E+00
  0.00000000E+00  0.00000000E+00  0.00000000E+00
  0.00000000E+00  0.00000000E+00  0.00000000E+00
