CeO2-you-111-you-Pb                     
   1.00000000000000     
     9.8686371112980602   -5.6658519060246517   -0.0123293894006272
     0.0275471834155768   11.3794149360861727    0.0123293872987291
    -0.0139672057453901    0.0241919086775801   20.2833057498431160
   O    Pb   Ce H
    53     1    26 1
Selective dynamics
Direct
 -0.0001158811549275 -0.0000055423027300  0.9878607798210554   T   T   T
  0.1081131776272586  0.2199186559236641  0.1453041509419240   T   T   T
  0.2187508521135720  0.1049077637291479  0.3083991600002508   T   T   T
  0.0816742330656949  0.2111183058484040  0.3918591476592239   T   T   T
 -0.0011578593134125  0.0005306689706930  0.2298937024191250   T   T   T
  0.2218572348836248  0.1103174456315527  0.0706403132496009   T   T   T
  0.3341863342793887  0.0008033990702907  0.9890156083909044   T   T   T
  0.4425445471548674  0.2241214528453162  0.1497948342172490   T   T   T
  0.5564520088061181  0.1102149911924629  0.3067851105027758   T   T   T
  0.4549729609363093  0.2116930390624834  0.3955736800420636   T   T   T
  0.3338385727103025 -0.0003397835042565  0.2301419005302273   T   T   T
  0.5562515791543265  0.1104154208452758  0.0729600061617190   T   T   T
  0.6659546782994097  0.0007123217021370  0.9880574391621064   T   T   T
  0.7850671960102459  0.2273142386380701  0.1501118856221813   T   T   T
  0.8798404242392409  0.1076213942619925  0.3052891137293358   T   T   T
  0.7736093728097925  0.2195886653506628  0.3931869931079892   T   T   T
  0.6659288588604815  0.0007381411392231  0.2272696968269261   T   T   T
  0.8876097440104960  0.1106216887076687  0.0694831588491739   T   T   T
 -0.0014097261435116  0.3329918081633518  0.9878411045146815   T   T   T
  0.1104166021647715  0.5562503978333269  0.1466170146916625   T   T   T
  0.1236799392004845  0.5429870607953413  0.3814819996080606   T   T   T
  0.0192758123470923  0.3423465098490338  0.2372851747066650   T   T   T
  0.2222076016123891  0.4444583983877538  0.0679991878013177   T   T   T
  0.3339109827942557  0.3327550172045188  0.9879649252786110   T   T   T
  0.4467473440805100  0.5585538223731873  0.1453041509421303   T   T   T
  0.5617592362747594  0.4479151478861394  0.3083991600009960   T   T   T
  0.4555476941568989  0.5849927669362366  0.3918591476588510   T   T   T
  0.3264388598489523  0.3402271401523944  0.2301607384040996   T   T   T
  0.5563495543683009  0.4448087651157688  0.0706403132494803   T   T   T
  0.6658636009292149  0.3324796657204265  0.9890156083908416   T   T   T
  0.7788656004269171  0.5555823747409738  0.1493415809184163   T   T   T
  0.8854721431261955  0.4416638263209543  0.3092833016200530   T   T   T
  0.7833098208147741  0.5590529943439957  0.3910942824872145   T   T   T
  0.6670067835028410  0.3328274272896164  0.2301419005302288   T   T   T
  0.8884217106756219  0.4448668920116116  0.0705134100677001   T   T   T
 -0.0004347196728384  0.6671017196725051  0.9879982140136339   T   T   T
  0.1110846252578697  0.8878013995724859  0.1493415809182618   T   T   T
  0.2250021736753180  0.7811948568683522  0.3092833016199353   T   T   T
  0.1076140056557220  0.8833571791837986  0.3910942824874567   T   T   T
  0.0015283871138779  0.6651386128842568  0.2321073813415282   T   T   T
  0.2217991079877517  0.7782452893238103  0.0705134100680351   T   T   T
  0.3336741918376140  0.6680767261452472  0.9878411045144700   T   T   T
  0.4393517613618899  0.8815998039898669  0.1501118856221746   T   T   T
  0.5590456057422916  0.7868265757618821  0.3052891137294548   T   T   T
  0.4470773346495948  0.8930576271871484  0.3931869931078963   T   T   T
  0.3243194901488416  0.6473911876547878  0.2372851747055865   T   T   T
  0.5560453112930467  0.7790572559904694  0.0694831588487928   T   T   T
  0.6666725423025693  0.6667828811539730  0.9878607798213446   T   T   T
  0.7773579440555402  0.8893090559440066  0.1474912864332195   T   T   T
  0.8895175722179374  0.7771494277813700  0.3064968756106256   T   T   T
  0.7780338280687579  0.8886331719320760  0.3892136308919076   T   T   T
  0.6661363310294206  0.6678248593153884  0.2298937024189444   T   T   T
  0.8886597198712304  0.7780072801279879  0.0705919445952601   T   T   T
  0.3394635618832393  0.3272024381169463  0.3614193928160301   T   T   T
 -0.0016992851538986 -0.0005786743209345  0.3490305151480835   T   T   T
  0.2220326197156467  0.1128418623144623  0.1916237702060795   T   T   T
  0.1099842594607022  0.2204608529249935  0.0276332830468606   T   T   T
  0.3330748697980171  0.0021939821821110  0.3498780099389611   T   T   T
  0.5554442544131390  0.1112227455884605  0.1901138484466536   T   T   T
  0.4441164049973965  0.2225495950017553  0.0305988874278874   T   T   T
  0.6661021470089764  0.0005648529931672  0.3487430199732461   T   T   T
  0.8893226775422256  0.1111396264676730  0.1891068279496871   T   T   T
  0.7780862757698062  0.2229740378793494  0.0296477442091725   T   T   T
 -0.0153432935014247  0.3214337788128950  0.3535389749269508   T   T   T
  0.2233122803670435  0.4433537196288551  0.1815100522036589   T   T   T
  0.1095825226037654  0.5570844773957874  0.0280809857426820   T   T   T
  0.5538251376837737  0.4446333802840162  0.1916237702058499   T   T   T
  0.4462051470753376  0.5566827405386491  0.0276332830471323   T   T   T
  0.6644730178216046  0.3335911302036346  0.3498780099388940   T   T   T
  0.8904129985814473  0.4450002080569362  0.1910973174940535   T   T   T
  0.7772122310156964  0.5550899461433891  0.0304271415422826   T   T   T
 -0.0003124288372101  0.6669794288412183  0.3488861898980928   T   T   T
  0.2216657919454205  0.7762540014242546  0.1910973174939766   T   T   T
  0.1115770538571675  0.8894547689847724  0.0304271415423285   T   T   T
  0.3452322211878598  0.6820102934954104  0.3535389749284994   T   T   T
  0.5555273735279936  0.7773443224588499  0.1891068279492723   T   T   T
  0.4436919621203456  0.8885807242310431  0.0296477442091988   T   T   T
  0.6672456743181683  0.6683662851524873  0.3490305151474612   T   T   T
  0.8886719169637040  0.7779950830378721  0.1889237306871799   T   T   T
  0.7771438005643616  0.8895231994358458  0.0290272210265656   T   T   T
0.446598 0.216020 0.433410 T T T 
 
  0.00000000E+00  0.00000000E+00  0.00000000E+00
  0.00000000E+00  0.00000000E+00  0.00000000E+00
  0.00000000E+00  0.00000000E+00  0.00000000E+00
  0.00000000E+00  0.00000000E+00  0.00000000E+00
  0.00000000E+00  0.00000000E+00  0.00000000E+00
  0.00000000E+00  0.00000000E+00  0.00000000E+00
  0.00000000E+00  0.00000000E+00  0.00000000E+00
  0.00000000E+00  0.00000000E+00  0.00000000E+00
  0.00000000E+00  0.00000000E+00  0.00000000E+00
  0.00000000E+00  0.00000000E+00  0.00000000E+00
  0.00000000E+00  0.00000000E+00  0.00000000E+00
  0.00000000E+00  0.00000000E+00  0.00000000E+00
  0.00000000E+00  0.00000000E+00  0.00000000E+00
  0.00000000E+00  0.00000000E+00  0.00000000E+00
  0.00000000E+00  0.00000000E+00  0.00000000E+00
  0.00000000E+00  0.00000000E+00  0.00000000E+00
  0.00000000E+00  0.00000000E+00  0.00000000E+00
  0.00000000E+00  0.00000000E+00  0.00000000E+00
  0.00000000E+00  0.00000000E+00  0.00000000E+00
  0.00000000E+00  0.00000000E+00  0.00000000E+00
  0.00000000E+00  0.00000000E+00  0.00000000E+00
  0.00000000E+00  0.00000000E+00  0.00000000E+00
  0.00000000E+00  0.00000000E+00  0.00000000E+00
  0.00000000E+00  0.00000000E+00  0.00000000E+00
  0.00000000E+00  0.00000000E+00  0.00000000E+00
  0.00000000E+00  0.00000000E+00  0.00000000E+00
  0.00000000E+00  0.00000000E+00  0.00000000E+00
  0.00000000E+00  0.00000000E+00  0.00000000E+00
  0.00000000E+00  0.00000000E+00  0.00000000E+00
  0.00000000E+00  0.00000000E+00  0.00000000E+00
  0.00000000E+00  0.00000000E+00  0.00000000E+00
  0.00000000E+00  0.00000000E+00  0.00000000E+00
  0.00000000E+00  0.00000000E+00  0.00000000E+00
  0.00000000E+00  0.00000000E+00  0.00000000E+00
  0.00000000E+00  0.00000000E+00  0.00000000E+00
  0.00000000E+00  0.00000000E+00  0.00000000E+00
  0.00000000E+00  0.00000000E+00  0.00000000E+00
  0.00000000E+00  0.00000000E+00  0.00000000E+00
  0.00000000E+00  0.00000000E+00  0.00000000E+00
  0.00000000E+00  0.00000000E+00  0.00000000E+00
  0.00000000E+00  0.00000000E+00  0.00000000E+00
  0.00000000E+00  0.00000000E+00  0.00000000E+00
  0.00000000E+00  0.00000000E+00  0.00000000E+00
  0.00000000E+00  0.00000000E+00  0.00000000E+00
  0.00000000E+00  0.00000000E+00  0.00000000E+00
  0.00000000E+00  0.00000000E+00  0.00000000E+00
  0.00000000E+00  0.00000000E+00  0.00000000E+00
  0.00000000E+00  0.00000000E+00  0.00000000E+00
  0.00000000E+00  0.00000000E+00  0.00000000E+00
  0.00000000E+00  0.00000000E+00  0.00000000E+00
  0.00000000E+00  0.00000000E+00  0.00000000E+00
  0.00000000E+00  0.00000000E+00  0.00000000E+00
  0.00000000E+00  0.00000000E+00  0.00000000E+00
  0.00000000E+00  0.00000000E+00  0.00000000E+00
  0.00000000E+00  0.00000000E+00  0.00000000E+00
  0.00000000E+00  0.00000000E+00  0.00000000E+00
  0.00000000E+00  0.00000000E+00  0.00000000E+00
  0.00000000E+00  0.00000000E+00  0.00000000E+00
  0.00000000E+00  0.00000000E+00  0.00000000E+00
  0.00000000E+00  0.00000000E+00  0.00000000E+00
  0.00000000E+00  0.00000000E+00  0.00000000E+00
  0.00000000E+00  0.00000000E+00  0.00000000E+00
  0.00000000E+00  0.00000000E+00  0.00000000E+00
  0.00000000E+00  0.00000000E+00  0.00000000E+00
  0.00000000E+00  0.00000000E+00  0.00000000E+00
  0.00000000E+00  0.00000000E+00  0.00000000E+00
  0.00000000E+00  0.00000000E+00  0.00000000E+00
  0.00000000E+00  0.00000000E+00  0.00000000E+00
  0.00000000E+00  0.00000000E+00  0.00000000E+00
  0.00000000E+00  0.00000000E+00  0.00000000E+00
  0.00000000E+00  0.00000000E+00  0.00000000E+00
  0.00000000E+00  0.00000000E+00  0.00000000E+00
  0.00000000E+00  0.00000000E+00  0.00000000E+00
  0.00000000E+00  0.00000000E+00  0.00000000E+00
  0.00000000E+00  0.00000000E+00  0.00000000E+00
  0.00000000E+00  0.00000000E+00  0.00000000E+00
  0.00000000E+00  0.00000000E+00  0.00000000E+00
  0.00000000E+00  0.00000000E+00  0.00000000E+00
  0.00000000E+00  0.00000000E+00  0.00000000E+00
  0.00000000E+00  0.00000000E+00  0.00000000E+00
