CeO2-you-111-you-Cr                     
   1.00000000000000     
     9.8407395898070504   -5.6815540223244039    0.0000000000000000
     0.0000000007887307   11.3631060463492783    0.0000000000000000
     0.0000000000000000    0.0000000000000000   20.3225591016438401
   O    Cr   Ce
    54     1    26
Selective dynamics
Direct
 -0.0001533838346493  0.0006572510938528  0.9878611886074645   T   T   T
  0.1097624499888304  0.2215477249935618  0.1463715148023303   T   T   T
  0.2426550501467866  0.1519771002996642  0.3137490333271390   T   T   T
  0.0584143739064611  0.1958736869460084  0.4025066616907807   T   T   T
  0.0079923700881612  0.0027241487122184  0.2323675022725473   T   T   T
  0.2212243426216703  0.1091156852430503  0.0701551456449902   T   T   T
  0.3341436349283364  0.0006572510936017  0.9878611886074645   T   T   T
  0.4451182750047274  0.2215477249928026  0.1463715148023303   T   T   T
  0.5578686821310724  0.1087983178642849  0.3039270090861192   T   T   T
  0.4707923130395432  0.1958736869395960  0.4025066616907807   T   T   T
  0.3280647786234113  0.0027241487133714  0.2323675022725473   T   T   T
  0.5561767703680005  0.1104902296293060  0.0706372592963086   T   T   T
  0.6666669999999968  0.0000000000000000  0.9884038202092669   T   T   T
  0.7796313679263953  0.2259287358530155  0.1494741564575179   T   T   T
  0.8842636357346414  0.1087983178657133  0.3039270090861192   T   T   T
  0.7759403134151872  0.2185466268303863  0.3914691473735639   T   T   T
  0.6666669999999968  0.0000000000000000  0.2268597133144828   T   T   T
  0.8876474592621346  0.1104902296301351  0.0706372592963086   T   T   T
 -0.0001533838350298  0.3325223650709352  0.9878611886074645   T   T   T
  0.1091933958564878  0.5574736041444265  0.1477667860455525   T   T   T
  0.2426550501330549  0.4240109498471184  0.3137490333271390   T   T   T
  0.1147099901933411  0.5519570098017134  0.3874502744822225   T   T   T
  0.0079923700866986  0.3386012213785437  0.2323675022725473   T   T   T
  0.2212243426223172  0.4454416573786159  0.0701551456449902   T   T   T
  0.3333330000000032  0.3333330000000032  0.9888277168806066   T   T   T
  0.4451182750064376  0.5569045500136427  0.1463715148023303   T   T   T
  0.5146898997201658  0.4240109498532130  0.3137490333271390   T   T   T
  0.4707923130539909  0.6082526261144023  0.4025066616907807   T   T   T
  0.3333330000000032  0.3333330000000032  0.2227017938912512   T   T   T
  0.5575513147560195  0.4454416573783292  0.0701551456449902   T   T   T
  0.6660097489061276  0.3325223650708532  0.9878611886074645   T   T   T
  0.7816132082876548  0.5574736041441463  0.1477667860455525   T   T   T
  0.8875508110542129  0.4417676221079065  0.3099105356576013   T   T   T
  0.7705800196098895  0.5519570098032347  0.3874502744822225   T   T   T
  0.6639428512924881  0.3386012213803463  0.2323675022725473   T   T   T
  0.8888818973043779  0.4444297946087890  0.0698728267565222   T   T   T
  0.0000000000000000  0.6666669999999968  0.9869935851543444   T   T   T
  0.1091933958558574  0.8850537917114318  0.1477667860455525   T   T   T
  0.2248983778904019  0.7791161889457839  0.3099105356576013   T   T   T
  0.1147099901967691  0.8960869803950559  0.3874502744822225   T   T   T
  0.0000000000000000  0.6666669999999968  0.2332697713638029   T   T   T
  0.2222362053913209  0.7777851026956188  0.0698728267565222   T   T   T
  0.3341436349285216  0.6668203838352945  0.9878611886074645   T   T   T
  0.4407372641476940  0.8870356320736015  0.1494741564575179   T   T   T
  0.5578686821342907  0.7824033642700021  0.3039270090861192   T   T   T
  0.4481193731696321  0.8907266865848096  0.3914691473735639   T   T   T
  0.3280647786193507  0.6586746299074361  0.2323675022725473   T   T   T
  0.5561767703698688  0.7790195407405590  0.0706372592963086   T   T   T
  0.6660097489066931  0.6668203838354629  0.9878611886074645   T   T   T
  0.7796313679259042  0.8870356320733834  0.1494741564575179   T   T   T
  0.8875508110553850  0.7791161889463034  0.3099105356576013   T   T   T
  0.7759403134151736  0.8907266865848041  0.3914691473735639   T   T   T
  0.6639428512898901  0.6586746299080846  0.2323675022725473   T   T   T
  0.8888818973043007  0.7777851026955848  0.0698728267565222   T   T   T
  0.3333330000000032  0.3333330000000032  0.3133965767526328   T   T   T
 -0.0031266957951133  0.0039335822917594  0.3536835582285262   T   T   T
  0.2200461707333686  0.1067593414657398  0.1860079628955915   T   T   T
  0.1099810856531703  0.2216570428265816  0.0286702190866635   T   T   T
  0.3403932780875127  0.0039335822918643  0.3536835582285262   T   T   T
  0.5552065656491781  0.1114604343533855  0.1895842548462858   T   T   T
  0.4450089571734075  0.2216570428265773  0.0286702190866635   T   T   T
  0.6666669999999968  0.0000000000000000  0.3485845690778097   T   T   T
  0.8895878687034210  0.1114604343525987  0.1895842548462858   T   T   T
  0.7778939470166160  0.2224538940335398  0.0295275213179385   T   T   T
 -0.0031266957936785  0.3262727219133667  0.3536835582285262   T   T   T
  0.2200461707356090  0.4466198292676249  0.1860079628955915   T   T   T
  0.1104466444445481  0.5562203555564115  0.0288909732775915   T   T   T
  0.5599076585310292  0.4466198292666306  0.1860079628955915   T   T   T
  0.4450089571734174  0.5566859143468476  0.0286702190866635   T   T   T
  0.6627334177064029  0.3262727219128352  0.3536835582285262   T   T   T
  0.8887244640329346  0.4441149280664062  0.1920488736050334   T   T   T
  0.7791067111115657  0.5562203555561177  0.0288909732775915   T   T   T
  0.0000000000000000  0.6666669999999968  0.3488144917554264   T   T   T
  0.2225510719353441  0.7779425359670622  0.1920488736050334   T   T   T
  0.1104466444438863  0.8875602888874754  0.0288909732775915   T   T   T
  0.3403932780887113  0.6697936957954059  0.3536835582285262   T   T   T
  0.5552065656474047  0.7770791312940157  0.1895842548462858   T   T   T
  0.4442121059674405  0.8887730529833808  0.0295275213179385   T   T   T
  0.6627334177061653  0.6697936957947690  0.3536835582285262   T   T   T
  0.8887244640317215  0.7779425359665241  0.1920488736050334   T   T   T
  0.7778939470159367  0.8887730529830794  0.0295275213179385   T   T   T
 
  0.00000000E+00  0.00000000E+00  0.00000000E+00
  0.00000000E+00  0.00000000E+00  0.00000000E+00
  0.00000000E+00  0.00000000E+00  0.00000000E+00
  0.00000000E+00  0.00000000E+00  0.00000000E+00
  0.00000000E+00  0.00000000E+00  0.00000000E+00
  0.00000000E+00  0.00000000E+00  0.00000000E+00
  0.00000000E+00  0.00000000E+00  0.00000000E+00
  0.00000000E+00  0.00000000E+00  0.00000000E+00
  0.00000000E+00  0.00000000E+00  0.00000000E+00
  0.00000000E+00  0.00000000E+00  0.00000000E+00
  0.00000000E+00  0.00000000E+00  0.00000000E+00
  0.00000000E+00  0.00000000E+00  0.00000000E+00
  0.00000000E+00  0.00000000E+00  0.00000000E+00
  0.00000000E+00  0.00000000E+00  0.00000000E+00
  0.00000000E+00  0.00000000E+00  0.00000000E+00
  0.00000000E+00  0.00000000E+00  0.00000000E+00
  0.00000000E+00  0.00000000E+00  0.00000000E+00
  0.00000000E+00  0.00000000E+00  0.00000000E+00
  0.00000000E+00  0.00000000E+00  0.00000000E+00
  0.00000000E+00  0.00000000E+00  0.00000000E+00
  0.00000000E+00  0.00000000E+00  0.00000000E+00
  0.00000000E+00  0.00000000E+00  0.00000000E+00
  0.00000000E+00  0.00000000E+00  0.00000000E+00
  0.00000000E+00  0.00000000E+00  0.00000000E+00
  0.00000000E+00  0.00000000E+00  0.00000000E+00
  0.00000000E+00  0.00000000E+00  0.00000000E+00
  0.00000000E+00  0.00000000E+00  0.00000000E+00
  0.00000000E+00  0.00000000E+00  0.00000000E+00
  0.00000000E+00  0.00000000E+00  0.00000000E+00
  0.00000000E+00  0.00000000E+00  0.00000000E+00
  0.00000000E+00  0.00000000E+00  0.00000000E+00
  0.00000000E+00  0.00000000E+00  0.00000000E+00
  0.00000000E+00  0.00000000E+00  0.00000000E+00
  0.00000000E+00  0.00000000E+00  0.00000000E+00
  0.00000000E+00  0.00000000E+00  0.00000000E+00
  0.00000000E+00  0.00000000E+00  0.00000000E+00
  0.00000000E+00  0.00000000E+00  0.00000000E+00
  0.00000000E+00  0.00000000E+00  0.00000000E+00
  0.00000000E+00  0.00000000E+00  0.00000000E+00
  0.00000000E+00  0.00000000E+00  0.00000000E+00
  0.00000000E+00  0.00000000E+00  0.00000000E+00
  0.00000000E+00  0.00000000E+00  0.00000000E+00
  0.00000000E+00  0.00000000E+00  0.00000000E+00
  0.00000000E+00  0.00000000E+00  0.00000000E+00
  0.00000000E+00  0.00000000E+00  0.00000000E+00
  0.00000000E+00  0.00000000E+00  0.00000000E+00
  0.00000000E+00  0.00000000E+00  0.00000000E+00
  0.00000000E+00  0.00000000E+00  0.00000000E+00
  0.00000000E+00  0.00000000E+00  0.00000000E+00
  0.00000000E+00  0.00000000E+00  0.00000000E+00
  0.00000000E+00  0.00000000E+00  0.00000000E+00
  0.00000000E+00  0.00000000E+00  0.00000000E+00
  0.00000000E+00  0.00000000E+00  0.00000000E+00
  0.00000000E+00  0.00000000E+00  0.00000000E+00
  0.00000000E+00  0.00000000E+00  0.00000000E+00
  0.00000000E+00  0.00000000E+00  0.00000000E+00
  0.00000000E+00  0.00000000E+00  0.00000000E+00
  0.00000000E+00  0.00000000E+00  0.00000000E+00
  0.00000000E+00  0.00000000E+00  0.00000000E+00
  0.00000000E+00  0.00000000E+00  0.00000000E+00
  0.00000000E+00  0.00000000E+00  0.00000000E+00
  0.00000000E+00  0.00000000E+00  0.00000000E+00
  0.00000000E+00  0.00000000E+00  0.00000000E+00
  0.00000000E+00  0.00000000E+00  0.00000000E+00
  0.00000000E+00  0.00000000E+00  0.00000000E+00
  0.00000000E+00  0.00000000E+00  0.00000000E+00
  0.00000000E+00  0.00000000E+00  0.00000000E+00
  0.00000000E+00  0.00000000E+00  0.00000000E+00
  0.00000000E+00  0.00000000E+00  0.00000000E+00
  0.00000000E+00  0.00000000E+00  0.00000000E+00
  0.00000000E+00  0.00000000E+00  0.00000000E+00
  0.00000000E+00  0.00000000E+00  0.00000000E+00
  0.00000000E+00  0.00000000E+00  0.00000000E+00
  0.00000000E+00  0.00000000E+00  0.00000000E+00
  0.00000000E+00  0.00000000E+00  0.00000000E+00
  0.00000000E+00  0.00000000E+00  0.00000000E+00
  0.00000000E+00  0.00000000E+00  0.00000000E+00
  0.00000000E+00  0.00000000E+00  0.00000000E+00
  0.00000000E+00  0.00000000E+00  0.00000000E+00
  0.00000000E+00  0.00000000E+00  0.00000000E+00
  0.00000000E+00  0.00000000E+00  0.00000000E+00
