CeO2-you-111-you-Ag                     
   1.00000000000000     
     9.8199744406305669   -5.6695652581445382   -0.0000000000000000
     0.0000000028750382   11.3391285258226731   -0.0000000000000000
    -0.0000000000000000   -0.0000000000000000   21.1513419558153508
   O    Ag   Ce H
    54     1    26 1
Selective dynamics
Direct
  0.0002775018185409  0.0004389695387494  0.9957677386512082   T   T   T
  0.1042026588653827  0.2187678294330369  0.1482052146711882   F   F   F
  0.2307022970518458  0.1280715941020432  0.3049478742500589   T   T   T
  0.1144236967804378  0.2238783483893256  0.3852740224349694   T   T   T
  0.0039274658040040  0.0008257772435572  0.2307438981412724   T   T   T
  0.2225282625432066  0.1117235250862174  0.0750870467534949   F   F   F
  0.3334944677203317  0.0004389695388276  0.9957677386512082   T   T   T
  0.4478981705676505  0.2187678294333422  0.1482052146711882   F   F   F
  0.5543714418159289  0.1122955581834018  0.3045536257115486   T   T   T
  0.4427876516088838  0.2238783483885312  0.3852740224349694   T   T   T
  0.3302313114396523  0.0008257772431885  0.2307438981412724   T   T   T
  0.5572023165578981  0.1094646834417186  0.0750422945151049   F   F   F
  0.6666669999999968 -0.0000000000000000  0.9944707962902933   T   T   T
  0.7779067050812736  0.2224794101626682  0.1514841676572583   F   F   F
  0.8912581163676803  0.1122955581836088  0.3045536257115486   T   T   T
  0.7775555508468609  0.2217771016936587  0.3830496272807704   T   T   T
  0.6666669999999968 -0.0000000000000000  0.2310693500319575   T   T   T
  0.8855963668839405  0.1094646834418377  0.0750422945151049   F   F   F
  0.0002775018188114  0.3331715322799710  0.9957677386512082   T   T   T
  0.1105218982179202  0.5561451017827784  0.1493794345691093   F   F   F
  0.2307022970555532  0.4359637029497989  0.3049478742500589   T   T   T
  0.1125036620891292  0.5541633379109069  0.3812190166256582   T   T   T
  0.0039274658042200  0.3364346885596193  0.2307438981412724   T   T   T
  0.2225282625436405  0.4441377374569854  0.0750870467534949   F   F   F
  0.3333330000000032  0.3333330000000032  0.9956806532986294   T   T   T
  0.4478981705669624  0.5624643411336278  0.1482052146711882   F   F   F
  0.5385954058926081  0.4359637029481532  0.3049478742500589   T   T   T
  0.4427876516106737  0.5522433032221505  0.3852740224349694   T   T   T
  0.3333330000000032  0.3333330000000032  0.2151749152747696   T   T   T
  0.5549434749131602  0.4441377374567927  0.0750870467534949   F   F   F
  0.6662280304610330  0.3331715322799291  0.9957677386512082   T   T   T
  0.7789562035646411  0.5561451017825649  0.1493794345691093   F   F   F
  0.8886903388897307  0.4440466777795556  0.3040101545511162   T   T   T
  0.7749926758217637  0.5541633379108970  0.3812190166256582   T   T   T
  0.6658412227552970  0.3364346885591547  0.2307438981412724   T   T   T
  0.8881782368247215  0.4430224736495944  0.0753739746786666   F   F   F
 -0.0000000000000000  0.6666669999999968  0.9965630485609561   T   T   T
  0.1105218982174388  0.8877107964346607  0.1493794345691093   F   F   F
  0.2226193222207518  0.7779766611102661  0.3040101545511162   T   T   T
  0.1125036620891070  0.8916743241782006  0.3812190166256582   T   T   T
 -0.0000000000000000  0.6666669999999968  0.2298156813208265   T   T   T
  0.2236435263508996  0.7784887631752753  0.0753739746786666   F   F   F
  0.3334944677204258  0.6663894981813214  0.9957677386512082   T   T   T
  0.4441865898377048  0.8887602949187232  0.1514841676572583   F   F   F
  0.5543714418163955  0.7754088836329892  0.3045536257115486   T   T   T
  0.4448888983061146  0.8891114491531359  0.3830496272807704   T   T   T
  0.3302313114406991  0.6627395341972879  0.2307438981412724   T   T   T
  0.5572023165581664  0.7810706331164438  0.0750422945151049   F   F   F
  0.6662280304608570  0.6663894981812014  0.9957677386512082   T   T   T
  0.7779067050810147  0.8887602949186086  0.1514841676572583   F   F   F
  0.8886903388895174  0.7779766611101713  0.3040101545511162   T   T   T
  0.7775555508470174  0.8891114491532056  0.3830496272807704   T   T   T
  0.6658412227561279  0.6627395341971923  0.2307438981412724   T   T   T
  0.8881782368243788  0.7784887631751233  0.0753739746786666   F   F   F
  0.3333330000000032  0.3333330000000032  0.3487813136833254   T   T   T
  0.0025367874020526  0.0028438073507757  0.3434684833415861   T   T   T
  0.2235906056469648  0.1138482112940893  0.1882510252653093   F   F   F
  0.1104491358411441  0.2218910679207663  0.0350247862137554   F   F   F
  0.3336400199485918  0.0028438073509655  0.3434684833415861   T   T   T
  0.5553660776059922  0.1113009223951819  0.1902164993059190   F   F   F
  0.4447749320796185  0.2218910679209376  0.0350247862137554   F   F   F
  0.6666669999999968 -0.0000000000000000  0.3447039181514620   T   T   T
  0.8892688447888309  0.1113009223948222  0.1902164993059190   F   F   F
  0.7774217184602170  0.2215094369203245  0.0352728359857279   F   F   F
  0.0025367874017491  0.3330259800517074  0.3434684833415861   T   T   T
  0.2235906056465978  0.4430753943528716  0.1882510252653093   F   F   F
  0.1111149154513167  0.5555520845479468  0.0360176080129000   F   F   F
  0.5528187887064443  0.4430753943530346  0.1882510252653093   F   F   F
  0.4447749320792327  0.5562178641583030  0.0350247862137554   F   F   F
  0.6638231926500866  0.3330259800520321  0.3434684833415861   T   T   T
  0.8888960795150692  0.4444581590297916  0.1899598036577175   F   F   F
  0.7777701690968539  0.5555520845481746  0.0360176080129000   F   F   F
 -0.0000000000000000  0.6666669999999968  0.3421385661626714   T   T   T
  0.2222078409690811  0.7777709204849276  0.1899598036577175   F   F   F
  0.1111149154518293  0.8888968309038832  0.0360176080129000   F   F   F
  0.3336400199478608  0.6641302125971921  0.3434684833415861   T   T   T
  0.5553660776051816  0.7773981552099958  0.1902164993059190   F   F   F
  0.4451565630792969  0.8892452815397798  0.0352728359857279   F   F   F
  0.6638231926496591  0.6641302125973270  0.3434684833415861   T   T   T
  0.8888960795158496  0.7777709204852741  0.1899598036577175   F   F   F
  0.7774217184604790  0.8892452815398956  0.0352728359857279   F   F   F
0.446598 0.216020 0.433410 T T T 
 
  0.00000000E+00  0.00000000E+00  0.00000000E+00
  0.00000000E+00  0.00000000E+00  0.00000000E+00
  0.00000000E+00  0.00000000E+00  0.00000000E+00
  0.00000000E+00  0.00000000E+00  0.00000000E+00
  0.00000000E+00  0.00000000E+00  0.00000000E+00
  0.00000000E+00  0.00000000E+00  0.00000000E+00
  0.00000000E+00  0.00000000E+00  0.00000000E+00
  0.00000000E+00  0.00000000E+00  0.00000000E+00
  0.00000000E+00  0.00000000E+00  0.00000000E+00
  0.00000000E+00  0.00000000E+00  0.00000000E+00
  0.00000000E+00  0.00000000E+00  0.00000000E+00
  0.00000000E+00  0.00000000E+00  0.00000000E+00
  0.00000000E+00  0.00000000E+00  0.00000000E+00
  0.00000000E+00  0.00000000E+00  0.00000000E+00
  0.00000000E+00  0.00000000E+00  0.00000000E+00
  0.00000000E+00  0.00000000E+00  0.00000000E+00
  0.00000000E+00  0.00000000E+00  0.00000000E+00
  0.00000000E+00  0.00000000E+00  0.00000000E+00
  0.00000000E+00  0.00000000E+00  0.00000000E+00
  0.00000000E+00  0.00000000E+00  0.00000000E+00
  0.00000000E+00  0.00000000E+00  0.00000000E+00
  0.00000000E+00  0.00000000E+00  0.00000000E+00
  0.00000000E+00  0.00000000E+00  0.00000000E+00
  0.00000000E+00  0.00000000E+00  0.00000000E+00
  0.00000000E+00  0.00000000E+00  0.00000000E+00
  0.00000000E+00  0.00000000E+00  0.00000000E+00
  0.00000000E+00  0.00000000E+00  0.00000000E+00
  0.00000000E+00  0.00000000E+00  0.00000000E+00
  0.00000000E+00  0.00000000E+00  0.00000000E+00
  0.00000000E+00  0.00000000E+00  0.00000000E+00
  0.00000000E+00  0.00000000E+00  0.00000000E+00
  0.00000000E+00  0.00000000E+00  0.00000000E+00
  0.00000000E+00  0.00000000E+00  0.00000000E+00
  0.00000000E+00  0.00000000E+00  0.00000000E+00
  0.00000000E+00  0.00000000E+00  0.00000000E+00
  0.00000000E+00  0.00000000E+00  0.00000000E+00
  0.00000000E+00  0.00000000E+00  0.00000000E+00
  0.00000000E+00  0.00000000E+00  0.00000000E+00
  0.00000000E+00  0.00000000E+00  0.00000000E+00
  0.00000000E+00  0.00000000E+00  0.00000000E+00
  0.00000000E+00  0.00000000E+00  0.00000000E+00
  0.00000000E+00  0.00000000E+00  0.00000000E+00
  0.00000000E+00  0.00000000E+00  0.00000000E+00
  0.00000000E+00  0.00000000E+00  0.00000000E+00
  0.00000000E+00  0.00000000E+00  0.00000000E+00
  0.00000000E+00  0.00000000E+00  0.00000000E+00
  0.00000000E+00  0.00000000E+00  0.00000000E+00
  0.00000000E+00  0.00000000E+00  0.00000000E+00
  0.00000000E+00  0.00000000E+00  0.00000000E+00
  0.00000000E+00  0.00000000E+00  0.00000000E+00
  0.00000000E+00  0.00000000E+00  0.00000000E+00
  0.00000000E+00  0.00000000E+00  0.00000000E+00
  0.00000000E+00  0.00000000E+00  0.00000000E+00
  0.00000000E+00  0.00000000E+00  0.00000000E+00
  0.00000000E+00  0.00000000E+00  0.00000000E+00
  0.00000000E+00  0.00000000E+00  0.00000000E+00
  0.00000000E+00  0.00000000E+00  0.00000000E+00
  0.00000000E+00  0.00000000E+00  0.00000000E+00
  0.00000000E+00  0.00000000E+00  0.00000000E+00
  0.00000000E+00  0.00000000E+00  0.00000000E+00
  0.00000000E+00  0.00000000E+00  0.00000000E+00
  0.00000000E+00  0.00000000E+00  0.00000000E+00
  0.00000000E+00  0.00000000E+00  0.00000000E+00
  0.00000000E+00  0.00000000E+00  0.00000000E+00
  0.00000000E+00  0.00000000E+00  0.00000000E+00
  0.00000000E+00  0.00000000E+00  0.00000000E+00
  0.00000000E+00  0.00000000E+00  0.00000000E+00
  0.00000000E+00  0.00000000E+00  0.00000000E+00
  0.00000000E+00  0.00000000E+00  0.00000000E+00
  0.00000000E+00  0.00000000E+00  0.00000000E+00
  0.00000000E+00  0.00000000E+00  0.00000000E+00
  0.00000000E+00  0.00000000E+00  0.00000000E+00
  0.00000000E+00  0.00000000E+00  0.00000000E+00
  0.00000000E+00  0.00000000E+00  0.00000000E+00
  0.00000000E+00  0.00000000E+00  0.00000000E+00
  0.00000000E+00  0.00000000E+00  0.00000000E+00
  0.00000000E+00  0.00000000E+00  0.00000000E+00
  0.00000000E+00  0.00000000E+00  0.00000000E+00
  0.00000000E+00  0.00000000E+00  0.00000000E+00
  0.00000000E+00  0.00000000E+00  0.00000000E+00
  0.00000000E+00  0.00000000E+00  0.00000000E+00
