CeO2-you-111-you-Pt                     
   1.00000000000000     
     9.8188542044952261   -5.7092917562430952    0.0011264555094801
    -0.0349642631865452   11.3580216267111123   -0.0011264552524717
     0.0009379747147454   -0.0016246195948108   21.2183918281675687
   O    Pt   Ce   H 
    53     1    26     1
Selective dynamics
Direct
  0.0002581213777880  0.0002637460212944  0.9953229979355740   T   T   T
  0.1017151070459390  0.2167230997116247  0.1458017810427633   T   T   T
  0.2390881194437574  0.1435420341722060  0.3094304059174922   T   T   T
  0.1258294345365919  0.2518008120339824  0.3777624905108377   T   T   T
  0.0069510914465573  0.0025361634721596  0.2310321509945608   T   T   T
  0.2223773228877021  0.1113465766102752  0.0755097327314030   T   T   T
  0.3336603811944633  0.0012152950612550  0.9960463421851979   T   T   T
  0.4487344746867384  0.2190272572200628  0.1484174779016269   T   T   T
  0.5614043663949648  0.1154475416176997  0.3038436061646959   T   T   T
  0.4878985703237699  0.2037555665591032  0.4143299899066453   T   T   T
  0.3309261561463085  0.0013342731527476  0.2289662314624469   T   T   T
  0.5577333724338766  0.1082830274075849  0.0764920543541092   T   T   T
  0.6659257173135601  0.0013859488463523  0.9936257878377799   T   T   T
  0.7833093412557949  0.2247137655694542  0.1530018741653502   T   T   T
  0.8894504328617451  0.1090217524448519  0.3040468361930625   T   T   T
  0.7812478823334473  0.2212343195030509  0.3846402423024773   T   T   T
  0.6670791329883349  0.9992204685691375  0.2295141313587420   T   T   T
  0.8836604810968139  0.1076135702487389  0.0744577372590157   T   T   T
  0.9984824988276852  0.3322129318374123  0.9952411746215162   T   T   T
  0.1104103586987283  0.5566629228103543  0.1470644748671145   T   T   T
  0.1146211640596070  0.5503799379732380  0.3786234857478234   T   T   T
  0.0183324916287918  0.3430121352448725  0.2341911030140944   T   T   T
  0.2221144653216617  0.4444875054337155  0.0719354977729519   T   T   T
  0.3334127946054374  0.3320414569236834  0.9952693208892439   T   T   T
  0.4493461840694954  0.5648790824997023  0.1449600116552206   T   T   T
  0.5226260934846558  0.4175914429240659  0.3103680773237278   T   T   T
  0.4190272041774954  0.5409214793052392  0.3763654478062941   T   T   T
  0.3309764411814023  0.3370170747973965  0.2115822033561343   T   T   T
  0.5550204160269094  0.4448396969597836  0.0748350267348263   T   T   T
  0.6649939466120446  0.3321977323441345  0.9960240287984957   T   T   T
  0.7801722543721981  0.5564999879265474  0.1490132337618486   T   T   T
  0.8868262619114494  0.4432893731320952  0.3035862640951074   T   T   T
  0.7718618984792222  0.5539544619562881  0.3797022029083326   T   T   T
  0.6667487492962735  0.3381443623570343  0.2293598676638246   T   T   T
  0.8879097776239154  0.4436413646148229  0.0746090888741348   T   T   T
  0.0001217756167067  0.6674959899191982  0.9957298051451533   T   T   T
  0.1097081436586304  0.8856585280581968  0.1498161458936736   T   T   T
  0.2202930098005816  0.7761068730864763  0.3040809296687901   T   T   T
  0.0958919363682837  0.8855185156246218  0.3828918219284979   T   T   T
 -0.0001193793389153  0.6656877153006316  0.2296060342274085   T   T   T
  0.2237287279708105  0.7791480825905218  0.0747922419941642   T   T   T
  0.3336019749373919  0.6679437713210670  0.9948942118783254   T   T   T
  0.4419391294195496  0.8829346452836178  0.1530121328389955   T   T   T
  0.5573107134796639  0.7768951948136711  0.3027584902483348   T   T   T
  0.4521922323998189  0.8810966306016519  0.3861750712630134   T   T   T
  0.3238886307396597  0.6478287061865318  0.2340823556239209   T   T   T
  0.5587257303162012  0.7826269158184469  0.0736345285678770   T   T   T
  0.6664958480202128  0.6666204374877633  0.9947166490203178   T   T   T
  0.7783343676409642  0.8875969878443087  0.1524539114937703   T   T   T
  0.8850925088480095  0.7757653893817685  0.3012834647554252   T   T   T
  0.7771168251707313  0.8850538527586436  0.3820339438233411   T   T   T
  0.6601434784613546  0.6560130134038052  0.2312998523371108   T   T   T
  0.8878058155548976  0.7785260835157900  0.0747745604357028   T   T   T
  0.3227535346138573  0.3416555672768166  0.3440591541895525   T   T   T
  0.0034330472738858  0.0034473569898693  0.3421696246854783   T   T   T
  0.2251876577189177  0.1139535279523701  0.1895549599359237   T   T   T
  0.1092796962536731  0.2196966163196367  0.0336853531859007   T   T   T
  0.3335170219948082  0.0043041242065615  0.3487475526216984   T   T   T
  0.5555371767249992  0.1103963453786575  0.1916338072418802   T   T   T
  0.4445603113904005  0.2214324476787797  0.0356040200129584   T   T   T
  0.6670877039516078  0.9977403143020983  0.3447884585631561   T   T   T
  0.8901850119757109  0.1109756984132167  0.1907493853226410   T   T   T
  0.7771713382672846  0.2210650293532638  0.0354470937667570   T   T   T
  0.9938468402967239  0.3301653292705405  0.3455465011508380   T   T   T
  0.2232965215111495  0.4432934326996413  0.1801323186395164   T   T   T
  0.1101600114490718  0.5569820333598278  0.0340309939635320   T   T   T
  0.5519713828317679  0.4410217370642365  0.1878581730228298   T   T   T
  0.4464485431409772  0.5572487480241078  0.0330363089229657   T   T   T
  0.6661583436269395  0.3323269617098225  0.3438621664377777   T   T   T
  0.8899634968516701  0.4448727812926712  0.1899945104477289   T   T   T
  0.7776216898713705  0.5552825242686951  0.0358998069478973   T   T   T
  0.9983611752406792  0.6684332045199022  0.3411342936240779   T   T   T
  0.2223721429962470  0.7778413714264597  0.1912602381773245   T   T   T
  0.1117622169641425  0.8891583575897501  0.0365878051522764   T   T   T
  0.3363457732988243  0.6730393157459788  0.3453099758010802   T   T   T
  0.5548975241682598  0.7759033445733381  0.1903802367196258   T   T   T
  0.4453042976542029  0.8894954617560410  0.0353930194301182   T   T   T
  0.6581035662478147  0.6588030470299923  0.3415914686837235   T   T   T
  0.8886830568549312  0.7768741912434871  0.1895623790004781   T   T   T
  0.7772351824356623  0.8894877966056937  0.0349162711051278   T   T   T
  0.4507277591847618  0.2479238336898495  0.4403895919889401   T   T   T
 
  0.00000000E+00  0.00000000E+00  0.00000000E+00
  0.00000000E+00  0.00000000E+00  0.00000000E+00
  0.00000000E+00  0.00000000E+00  0.00000000E+00
  0.00000000E+00  0.00000000E+00  0.00000000E+00
  0.00000000E+00  0.00000000E+00  0.00000000E+00
  0.00000000E+00  0.00000000E+00  0.00000000E+00
  0.00000000E+00  0.00000000E+00  0.00000000E+00
  0.00000000E+00  0.00000000E+00  0.00000000E+00
  0.00000000E+00  0.00000000E+00  0.00000000E+00
  0.00000000E+00  0.00000000E+00  0.00000000E+00
  0.00000000E+00  0.00000000E+00  0.00000000E+00
  0.00000000E+00  0.00000000E+00  0.00000000E+00
  0.00000000E+00  0.00000000E+00  0.00000000E+00
  0.00000000E+00  0.00000000E+00  0.00000000E+00
  0.00000000E+00  0.00000000E+00  0.00000000E+00
  0.00000000E+00  0.00000000E+00  0.00000000E+00
  0.00000000E+00  0.00000000E+00  0.00000000E+00
  0.00000000E+00  0.00000000E+00  0.00000000E+00
  0.00000000E+00  0.00000000E+00  0.00000000E+00
  0.00000000E+00  0.00000000E+00  0.00000000E+00
  0.00000000E+00  0.00000000E+00  0.00000000E+00
  0.00000000E+00  0.00000000E+00  0.00000000E+00
  0.00000000E+00  0.00000000E+00  0.00000000E+00
  0.00000000E+00  0.00000000E+00  0.00000000E+00
  0.00000000E+00  0.00000000E+00  0.00000000E+00
  0.00000000E+00  0.00000000E+00  0.00000000E+00
  0.00000000E+00  0.00000000E+00  0.00000000E+00
  0.00000000E+00  0.00000000E+00  0.00000000E+00
  0.00000000E+00  0.00000000E+00  0.00000000E+00
  0.00000000E+00  0.00000000E+00  0.00000000E+00
  0.00000000E+00  0.00000000E+00  0.00000000E+00
  0.00000000E+00  0.00000000E+00  0.00000000E+00
  0.00000000E+00  0.00000000E+00  0.00000000E+00
  0.00000000E+00  0.00000000E+00  0.00000000E+00
  0.00000000E+00  0.00000000E+00  0.00000000E+00
  0.00000000E+00  0.00000000E+00  0.00000000E+00
  0.00000000E+00  0.00000000E+00  0.00000000E+00
  0.00000000E+00  0.00000000E+00  0.00000000E+00
  0.00000000E+00  0.00000000E+00  0.00000000E+00
  0.00000000E+00  0.00000000E+00  0.00000000E+00
  0.00000000E+00  0.00000000E+00  0.00000000E+00
  0.00000000E+00  0.00000000E+00  0.00000000E+00
  0.00000000E+00  0.00000000E+00  0.00000000E+00
  0.00000000E+00  0.00000000E+00  0.00000000E+00
  0.00000000E+00  0.00000000E+00  0.00000000E+00
  0.00000000E+00  0.00000000E+00  0.00000000E+00
  0.00000000E+00  0.00000000E+00  0.00000000E+00
  0.00000000E+00  0.00000000E+00  0.00000000E+00
  0.00000000E+00  0.00000000E+00  0.00000000E+00
  0.00000000E+00  0.00000000E+00  0.00000000E+00
  0.00000000E+00  0.00000000E+00  0.00000000E+00
  0.00000000E+00  0.00000000E+00  0.00000000E+00
  0.00000000E+00  0.00000000E+00  0.00000000E+00
  0.00000000E+00  0.00000000E+00  0.00000000E+00
  0.00000000E+00  0.00000000E+00  0.00000000E+00
  0.00000000E+00  0.00000000E+00  0.00000000E+00
  0.00000000E+00  0.00000000E+00  0.00000000E+00
  0.00000000E+00  0.00000000E+00  0.00000000E+00
  0.00000000E+00  0.00000000E+00  0.00000000E+00
  0.00000000E+00  0.00000000E+00  0.00000000E+00
  0.00000000E+00  0.00000000E+00  0.00000000E+00
  0.00000000E+00  0.00000000E+00  0.00000000E+00
  0.00000000E+00  0.00000000E+00  0.00000000E+00
  0.00000000E+00  0.00000000E+00  0.00000000E+00
  0.00000000E+00  0.00000000E+00  0.00000000E+00
  0.00000000E+00  0.00000000E+00  0.00000000E+00
  0.00000000E+00  0.00000000E+00  0.00000000E+00
  0.00000000E+00  0.00000000E+00  0.00000000E+00
  0.00000000E+00  0.00000000E+00  0.00000000E+00
  0.00000000E+00  0.00000000E+00  0.00000000E+00
  0.00000000E+00  0.00000000E+00  0.00000000E+00
  0.00000000E+00  0.00000000E+00  0.00000000E+00
  0.00000000E+00  0.00000000E+00  0.00000000E+00
  0.00000000E+00  0.00000000E+00  0.00000000E+00
  0.00000000E+00  0.00000000E+00  0.00000000E+00
  0.00000000E+00  0.00000000E+00  0.00000000E+00
  0.00000000E+00  0.00000000E+00  0.00000000E+00
  0.00000000E+00  0.00000000E+00  0.00000000E+00
  0.00000000E+00  0.00000000E+00  0.00000000E+00
  0.00000000E+00  0.00000000E+00  0.00000000E+00
  0.00000000E+00  0.00000000E+00  0.00000000E+00
