CeO2-you-111-you-Rh                     
   1.00000000000000     
     9.8200904642133562   -5.6696322416929537    0.0000000004416082
     0.0230928492644757   11.3792604735531633    0.0082387772396385
     0.0088499371747241    0.0153285382190821   20.9263051931956987
   O    Rh   Ce   H 
    53     1    26     1
Selective dynamics
Direct
  0.0006122933102936  0.0007249169466336  0.9929985253854865   T   T   T
  0.1120339376036371  0.2236167312892839  0.1482818065119861   T   T   T
  0.2312056033588049  0.1071686436328094  0.3062903321259661   T   T   T
  0.1106141420677078  0.2215372202911325  0.3853720330119776   T   T   T
  0.0028831310924421 -0.0000042005460836  0.2284343796825563   T   T   T
  0.2234888305577843  0.1117726153838716  0.0726056534535933   T   T   T
  0.3353619496496775  0.0011218339591327  0.9930983804695354   T   T   T
  0.4446905079840004  0.2244115498377707  0.1503374888876790   T   T   T
  0.5511791093487347  0.1063054212827364  0.3065710418819343   T   T   T
  0.4539109708631421  0.1880809436619396  0.4123346944120611   T   T   T
  0.3324044162786710  0.9971938899279673  0.2275928604657110   T   T   T
  0.5567576239902768  0.1130035137092285  0.0746743506975860   T   T   T
  0.6673128133257987  0.0009652301983439  0.9942005534731928   T   T   T
  0.7786194678500854  0.2210297750902497  0.1511534368104188   T   T   T
  0.8900223139632584  0.1099876817887301  0.3034640989201915   T   T   T
  0.7860642851708886  0.2138696142345755  0.3867795292398142   T   T   T
  0.6636233896563701  0.9930026670116702  0.2324983823370423   T   T   T
  0.8903788618550343  0.1129109918142033  0.0731171486002285   T   T   T
  0.0018749055335725  0.3353265734499727  0.9936689112537305   T   T   T
  0.1122741661869899  0.5559689052155997  0.1480276246227537   T   T   T
  0.2337255136545814  0.4587489934562298  0.3104855158919534   T   T   T
  0.1115441500378436  0.5602726092859608  0.3877189146125964   T   T   T
  0.0035715258139889  0.3368084399208419  0.2303634382019876   T   T   T
  0.2244479157182564  0.4457923499123389  0.0739336844807086   T   T   T
  0.3345720184331597  0.3345228843424877  0.9934651504131869   T   T   T
  0.4452609979048465  0.5553003685451188  0.1508066484788217   T   T   T
  0.5639827175282689  0.4627613298196731  0.3079248045255844   T   T   T
  0.3303292136683423  0.3318769513987559  0.2300407652872271   T   T   T
  0.5563338612116167  0.4449130961707193  0.0741230029139447   T   T   T
  0.6674562393236020  0.3337296707661573  0.9936393049121416   T   T   T
  0.7776652378016363  0.5561951570971567  0.1495974521040447   T   T   T
  0.8935080258511637  0.4484463765593300  0.3055808312424291   T   T   T
  0.7914914796460633  0.5739388096160752  0.3902728913382746   T   T   T
  0.6654773624766158  0.3333322503025136  0.2296085221853099   T   T   T
  0.8886092327764550  0.4441673217582562  0.0742254756539600   T   T   T
  0.0006595967968687  0.6662525757015129  0.9930342772662646   T   T   T
  0.1118011024732137  0.8899661429653049  0.1462239651404874   T   T   T
  0.2210394681663808  0.7786384836127149  0.3040236188558905   T   T   T
  0.1114290565200620  0.8881634221775796  0.3866808211166571   T   T   T
  0.0024479367950442  0.6680614817239721  0.2274869333324999   T   T   T
  0.2232596290268665  0.7787169653464404  0.0725764742704303   T   T   T
  0.3349803026496652  0.6675388441733608  0.9937745859209540   T   T   T
  0.4471234404630511  0.8902008108252114  0.1483177493336256   T   T   T
  0.5466941762247389  0.7591304763886472  0.3133871431674004   T   T   T
  0.4415848520717731  0.8839618475424132  0.3862648126164448   T   T   T
  0.3340787976126722  0.6709634974322286  0.2286590878523840   T   T   T
  0.5565254305372314  0.7774517817280255  0.0743930581504912   T   T   T
  0.6667731980595015  0.6671333337577799  0.9933548983963946   T   T   T
  0.7802017389550185  0.8921468361210229  0.1476673162345794   T   T   T
  0.8956729055984972  0.7802335401495084  0.3018469910479641   T   T   T
  0.7852133722627366  0.8908076450606515  0.3841303954586240   T   T   T
  0.6727884154902354  0.6743574435037701  0.2280495035537406   T   T   T
  0.8894918312215520  0.7779717385557708  0.0719874337008549   T   T   T
  0.2417642734995910  0.2872906461589333  0.3153956480441201   T   T   T
  0.0033802697345885 -0.0010183593051009  0.3436372025112888   T   T   T
  0.2232757735556037  0.1098533933497984  0.1877297342664363   T   T   T
  0.1124776299639249  0.2236624004817138  0.0334436019139953   T   T   T
  0.3337680455940393 -0.0036490166229891  0.3469843058992895   T   T   T
  0.5555683417833255  0.1116205350326346  0.1912896463555253   T   T   T
  0.4463078581358165  0.2240895777313276  0.0344167090222449   T   T   T
  0.6695871896993718  0.0003104877681058  0.3460177208319059   T   T   T
  0.8914483799537340  0.1120976364185707  0.1900283713036134   T   T   T
  0.7786984719208579  0.2232825662925254  0.0348379768021087   T   T   T
 -0.0026323971899552  0.3345748807691773  0.3448694457972127   T   T   T
  0.2224167940662231  0.4466855458743813  0.1885676285884832   T   T   T
  0.1121349310377090  0.5561566312926607  0.0331559520602651   T   T   T
  0.5575140687848821  0.4459978388380835  0.1938917012548794   T   T   T
  0.4461756497209280  0.5560107610312784  0.0340713259161902   T   T   T
  0.6651073975157880  0.3362596707192567  0.3506862331639056   T   T   T
  0.8888247363072779  0.4454384519815116  0.1904607197029211   T   T   T
  0.7774500356773150  0.5551068237118680  0.0338374385156513   T   T   T
  0.0008328375152433  0.6669073455625949  0.3465547629164920   T   T   T
  0.2226171213713825  0.7789851367412128  0.1867521946327316   T   T   T
  0.1124969365499611  0.8899056271602686  0.0315102558293894   T   T   T
  0.3247861311608835  0.6728992456409106  0.3420749514974642   T   T   T
  0.5563073246339441  0.7780240081933897  0.1887364166744368   T   T   T
  0.4460813290198530  0.8902852509636822  0.0337528156463109   T   T   T
  0.6844620194653677  0.6716875597474073  0.3405382427514075   T   T   T
  0.8919696055492303  0.7792194575916798  0.1862440754436714   T   T   T
  0.7788012597045991  0.8901983055560188  0.0333107920507752   T   T   T
  0.4054785228497890  0.2180835974218395  0.4401444307061108   T   T   T
 
  0.00000000E+00  0.00000000E+00  0.00000000E+00
  0.00000000E+00  0.00000000E+00  0.00000000E+00
  0.00000000E+00  0.00000000E+00  0.00000000E+00
  0.00000000E+00  0.00000000E+00  0.00000000E+00
  0.00000000E+00  0.00000000E+00  0.00000000E+00
  0.00000000E+00  0.00000000E+00  0.00000000E+00
  0.00000000E+00  0.00000000E+00  0.00000000E+00
  0.00000000E+00  0.00000000E+00  0.00000000E+00
  0.00000000E+00  0.00000000E+00  0.00000000E+00
  0.00000000E+00  0.00000000E+00  0.00000000E+00
  0.00000000E+00  0.00000000E+00  0.00000000E+00
  0.00000000E+00  0.00000000E+00  0.00000000E+00
  0.00000000E+00  0.00000000E+00  0.00000000E+00
  0.00000000E+00  0.00000000E+00  0.00000000E+00
  0.00000000E+00  0.00000000E+00  0.00000000E+00
  0.00000000E+00  0.00000000E+00  0.00000000E+00
  0.00000000E+00  0.00000000E+00  0.00000000E+00
  0.00000000E+00  0.00000000E+00  0.00000000E+00
  0.00000000E+00  0.00000000E+00  0.00000000E+00
  0.00000000E+00  0.00000000E+00  0.00000000E+00
  0.00000000E+00  0.00000000E+00  0.00000000E+00
  0.00000000E+00  0.00000000E+00  0.00000000E+00
  0.00000000E+00  0.00000000E+00  0.00000000E+00
  0.00000000E+00  0.00000000E+00  0.00000000E+00
  0.00000000E+00  0.00000000E+00  0.00000000E+00
  0.00000000E+00  0.00000000E+00  0.00000000E+00
  0.00000000E+00  0.00000000E+00  0.00000000E+00
  0.00000000E+00  0.00000000E+00  0.00000000E+00
  0.00000000E+00  0.00000000E+00  0.00000000E+00
  0.00000000E+00  0.00000000E+00  0.00000000E+00
  0.00000000E+00  0.00000000E+00  0.00000000E+00
  0.00000000E+00  0.00000000E+00  0.00000000E+00
  0.00000000E+00  0.00000000E+00  0.00000000E+00
  0.00000000E+00  0.00000000E+00  0.00000000E+00
  0.00000000E+00  0.00000000E+00  0.00000000E+00
  0.00000000E+00  0.00000000E+00  0.00000000E+00
  0.00000000E+00  0.00000000E+00  0.00000000E+00
  0.00000000E+00  0.00000000E+00  0.00000000E+00
  0.00000000E+00  0.00000000E+00  0.00000000E+00
  0.00000000E+00  0.00000000E+00  0.00000000E+00
  0.00000000E+00  0.00000000E+00  0.00000000E+00
  0.00000000E+00  0.00000000E+00  0.00000000E+00
  0.00000000E+00  0.00000000E+00  0.00000000E+00
  0.00000000E+00  0.00000000E+00  0.00000000E+00
  0.00000000E+00  0.00000000E+00  0.00000000E+00
  0.00000000E+00  0.00000000E+00  0.00000000E+00
  0.00000000E+00  0.00000000E+00  0.00000000E+00
  0.00000000E+00  0.00000000E+00  0.00000000E+00
  0.00000000E+00  0.00000000E+00  0.00000000E+00
  0.00000000E+00  0.00000000E+00  0.00000000E+00
  0.00000000E+00  0.00000000E+00  0.00000000E+00
  0.00000000E+00  0.00000000E+00  0.00000000E+00
  0.00000000E+00  0.00000000E+00  0.00000000E+00
  0.00000000E+00  0.00000000E+00  0.00000000E+00
  0.00000000E+00  0.00000000E+00  0.00000000E+00
  0.00000000E+00  0.00000000E+00  0.00000000E+00
  0.00000000E+00  0.00000000E+00  0.00000000E+00
  0.00000000E+00  0.00000000E+00  0.00000000E+00
  0.00000000E+00  0.00000000E+00  0.00000000E+00
  0.00000000E+00  0.00000000E+00  0.00000000E+00
  0.00000000E+00  0.00000000E+00  0.00000000E+00
  0.00000000E+00  0.00000000E+00  0.00000000E+00
  0.00000000E+00  0.00000000E+00  0.00000000E+00
  0.00000000E+00  0.00000000E+00  0.00000000E+00
  0.00000000E+00  0.00000000E+00  0.00000000E+00
  0.00000000E+00  0.00000000E+00  0.00000000E+00
  0.00000000E+00  0.00000000E+00  0.00000000E+00
  0.00000000E+00  0.00000000E+00  0.00000000E+00
  0.00000000E+00  0.00000000E+00  0.00000000E+00
  0.00000000E+00  0.00000000E+00  0.00000000E+00
  0.00000000E+00  0.00000000E+00  0.00000000E+00
  0.00000000E+00  0.00000000E+00  0.00000000E+00
  0.00000000E+00  0.00000000E+00  0.00000000E+00
  0.00000000E+00  0.00000000E+00  0.00000000E+00
  0.00000000E+00  0.00000000E+00  0.00000000E+00
  0.00000000E+00  0.00000000E+00  0.00000000E+00
  0.00000000E+00  0.00000000E+00  0.00000000E+00
  0.00000000E+00  0.00000000E+00  0.00000000E+00
  0.00000000E+00  0.00000000E+00  0.00000000E+00
  0.00000000E+00  0.00000000E+00  0.00000000E+00
  0.00000000E+00  0.00000000E+00  0.00000000E+00
