CeO2-you-111-you-Ir                     
   1.00000000000000     
     9.7946173991500292   -5.6549253639947050    0.0000000000000000
     0.0000000058605909   11.3098487478467575    0.0000000000000000
     0.0000000000000000    0.0000000000000000   21.2413357326235079
   O    Ir   Ce H
    54     1    26 1
Selective dynamics
Direct
  0.0002061259161523  0.0001969021839531  0.9960778680941627   T   T   T
  0.1026126173827026  0.2179728086913024  0.1482326908924022   F   F   F
  0.2354445502179403  0.1375561004347239  0.3028420331415704   T   T   T
  0.1347908727798344  0.2340619363887868  0.3824492035086801   T   T   T
  0.0030487698469980  0.0002687515886044  0.2310598187742793   T   T   T
  0.2224799923122240  0.1116269846243903  0.0753759698790945   F   F   F
  0.3333237762678459  0.0001969021839468  0.9960778680941627   T   T   T
  0.4486931913085961  0.2179728086912576  0.1482326908924022   F   F   F
  0.5531226811951375  0.1135443188046620  0.3059964374619012   T   T   T
  0.4326040636089485  0.2340619363877820  0.3824492035086801   T   T   T
  0.3305529817415455  0.0002687515884434  0.2310598187742793   T   T   T
  0.5574491454765906  0.1092178545234404  0.0754236273047705   F   F   F
  0.6666669999999968 -0.0000000000000000  0.9944753783510466   T   T   T
  0.7774761527814269  0.2216183055628871  0.1519006596018234   F   F   F
  0.8937556376095876  0.1135443188047247  0.3059964374619012   T   T   T
  0.7776968544958089  0.2220597089915421  0.3831543543637206   T   T   T
  0.6666669999999968  0.0000000000000000  0.2328449054398130   T   T   T
  0.8851027090468432  0.1092178545234323  0.0754236273047705   F   F   F
  0.0002061259162466  0.3333422237321881  0.9960778680941627   T   T   T
  0.1102991356236484  0.5563678643765961  0.1496559215048976   F   F   F
  0.2354445502205398  0.4312214497832126  0.3028420331415704   T   T   T
  0.1140746912276660  0.5525923087719624  0.3807843452634684   T   T   T
  0.0030487698468535  0.3361130182580342  0.2310598187742793   T   T   T
  0.2224799923123470  0.4441860076878297  0.0753759698790945   F   F   F
  0.3333330000000032  0.3333330000000032  0.9958454968144748   T   T   T
  0.4486931913086969  0.5640543826174470  0.1482326908924022   F   F   F
  0.5291108995615270  0.4312214497820591  0.3028420331415704   T   T   T
  0.4326040636112125  0.5318761272234386  0.3824492035086801   T   T   T
  0.3333330000000032  0.3333330000000032  0.2126318057996950   T   T   T
  0.5550400153754359  0.4441860076877753  0.0753759698790945   F   F   F
  0.6664700978158928  0.3333422237321400  0.9960778680941627   T   T   T
  0.7794017287528698  0.5563678643765224  0.1496559215048976   F   F   F
  0.8889925535800671  0.4446511071600373  0.3045638953291816   T   T   T
  0.7718506175444079  0.5525923087720777  0.3807843452634684   T   T   T
  0.6663982484112385  0.3361130182579376  0.2310598187742793   T   T   T
  0.8881159545161037  0.4428979090322408  0.0759795797674256   F   F   F
 -0.0000000000000000  0.6666669999999968  0.9964303159703650   T   T   T
  0.1102991356234816  0.8872652712468860  0.1496559215048976   F   F   F
  0.2220148928396478  0.7776744464199297  0.3045638953291816   T   T   T
  0.1140746912279260  0.8948163824559643  0.3807843452634684   T   T   T
 -0.0000000000000000  0.6666669999999968  0.2302275502027045   T   T   T
  0.2237680909678681  0.7785510454838931  0.0759795797674256   F   F   F
  0.3333237762679545  0.6664608740839071  0.9960778680941627   T   T   T
  0.4450476944372021  0.8891908472185699  0.1519006596018234   F   F   F
  0.5531226811952791  0.7729113623906131  0.3059964374619012   T   T   T
  0.4446062910081909  0.8889701455041878  0.3831543543637206   T   T   T
  0.3305529817417633  0.6636182301534582  0.2310598187742793   T   T   T
  0.5574491454765715  0.7815642909531274  0.0754236273047705   F   F   F
  0.6664700978159074  0.6664608740838649  0.9960778680941627   T   T   T
  0.7774761527813641  0.8891908472185427  0.1519006596018234   F   F   F
  0.8889925535802847  0.7776744464200263  0.3045638953291816   T   T   T
  0.7776968544959931  0.8889701455042698  0.3831543543637206   T   T   T
  0.6663982484116008  0.6636182301535222  0.2310598187742793   T   T   T
  0.8881159545160281  0.7785510454838596  0.0759795797674256   F   F   F
  0.3333330000000032  0.3333330000000032  0.3452452729197606   T   T   T
  0.0052169349670767  0.0050348757428531  0.3430343589741877   T   T   T
  0.2233072346575292  0.1132814693151312  0.1881244706453473   F   F   F
  0.1102902676306428  0.2218116338154513  0.0354307699150424   F   F   F
  0.3331509407763237  0.0050348757428633  0.3430343589741877   T   T   T
  0.5556245361878049  0.1110424638129139  0.1907412891955669   F   F   F
  0.4448543661848046  0.2218116338155652  0.0354307699150424   F   F   F
  0.6666669999999968  0.0000000000000000  0.3461739640695405   T   T   T
  0.8887519276248896  0.1110424638126940  0.1907412891955669   F   F   F
  0.7773510937142294  0.2213681874284516  0.0356753162892408   F   F   F
  0.0052169349683027  0.3335150592242498  0.3430343589741877   T   T   T
  0.2233072346573578  0.4433587653423942  0.1881244706453473   F   F   F
  0.1110274512921856  0.5556395487074126  0.0363024093668548   F   F   F
  0.5533855306851202  0.4433587653424703  0.1881244706453473   F   F   F
  0.4448543661845479  0.5563767323689899  0.0354307699150424   F   F   F
  0.6616321242553966  0.3335150592237158  0.3430343589741877   T   T   T
  0.8888737874559276  0.4444135749118672  0.1903079640581193   F   F   F
  0.7779450974153477  0.5556395487075373  0.0363024093668548   F   F   F
 -0.0000000000000000  0.6666669999999968  0.3416562229096096   T   T   T
  0.2222524250881715  0.7777932125440692  0.1903079640581193   F   F   F
  0.1110274512924666  0.8887219025850547  0.0363024093668548   F   F   F
  0.3331509407775267  0.6614500650334310  0.3430343589741877   T   T   T
  0.5556245361873097  0.7779150723743919  0.1907412891955669   F   F   F
  0.4452978125715016  0.8893159062857674  0.0356753162892408   F   F   F
  0.6616321242553739  0.6614500650328868  0.3430343589741877   T   T   T
  0.8888737874559007  0.7777932125440569  0.1903079640581193   F   F   F
  0.7773510937142616  0.8893159062857811  0.0356753162892408   F   F   F
0.446598 0.216020 0.433410 T T T 
 
  0.00000000E+00  0.00000000E+00  0.00000000E+00
  0.00000000E+00  0.00000000E+00  0.00000000E+00
  0.00000000E+00  0.00000000E+00  0.00000000E+00
  0.00000000E+00  0.00000000E+00  0.00000000E+00
  0.00000000E+00  0.00000000E+00  0.00000000E+00
  0.00000000E+00  0.00000000E+00  0.00000000E+00
  0.00000000E+00  0.00000000E+00  0.00000000E+00
  0.00000000E+00  0.00000000E+00  0.00000000E+00
  0.00000000E+00  0.00000000E+00  0.00000000E+00
  0.00000000E+00  0.00000000E+00  0.00000000E+00
  0.00000000E+00  0.00000000E+00  0.00000000E+00
  0.00000000E+00  0.00000000E+00  0.00000000E+00
  0.00000000E+00  0.00000000E+00  0.00000000E+00
  0.00000000E+00  0.00000000E+00  0.00000000E+00
  0.00000000E+00  0.00000000E+00  0.00000000E+00
  0.00000000E+00  0.00000000E+00  0.00000000E+00
  0.00000000E+00  0.00000000E+00  0.00000000E+00
  0.00000000E+00  0.00000000E+00  0.00000000E+00
  0.00000000E+00  0.00000000E+00  0.00000000E+00
  0.00000000E+00  0.00000000E+00  0.00000000E+00
  0.00000000E+00  0.00000000E+00  0.00000000E+00
  0.00000000E+00  0.00000000E+00  0.00000000E+00
  0.00000000E+00  0.00000000E+00  0.00000000E+00
  0.00000000E+00  0.00000000E+00  0.00000000E+00
  0.00000000E+00  0.00000000E+00  0.00000000E+00
  0.00000000E+00  0.00000000E+00  0.00000000E+00
  0.00000000E+00  0.00000000E+00  0.00000000E+00
  0.00000000E+00  0.00000000E+00  0.00000000E+00
  0.00000000E+00  0.00000000E+00  0.00000000E+00
  0.00000000E+00  0.00000000E+00  0.00000000E+00
  0.00000000E+00  0.00000000E+00  0.00000000E+00
  0.00000000E+00  0.00000000E+00  0.00000000E+00
  0.00000000E+00  0.00000000E+00  0.00000000E+00
  0.00000000E+00  0.00000000E+00  0.00000000E+00
  0.00000000E+00  0.00000000E+00  0.00000000E+00
  0.00000000E+00  0.00000000E+00  0.00000000E+00
  0.00000000E+00  0.00000000E+00  0.00000000E+00
  0.00000000E+00  0.00000000E+00  0.00000000E+00
  0.00000000E+00  0.00000000E+00  0.00000000E+00
  0.00000000E+00  0.00000000E+00  0.00000000E+00
  0.00000000E+00  0.00000000E+00  0.00000000E+00
  0.00000000E+00  0.00000000E+00  0.00000000E+00
  0.00000000E+00  0.00000000E+00  0.00000000E+00
  0.00000000E+00  0.00000000E+00  0.00000000E+00
  0.00000000E+00  0.00000000E+00  0.00000000E+00
  0.00000000E+00  0.00000000E+00  0.00000000E+00
  0.00000000E+00  0.00000000E+00  0.00000000E+00
  0.00000000E+00  0.00000000E+00  0.00000000E+00
  0.00000000E+00  0.00000000E+00  0.00000000E+00
  0.00000000E+00  0.00000000E+00  0.00000000E+00
  0.00000000E+00  0.00000000E+00  0.00000000E+00
  0.00000000E+00  0.00000000E+00  0.00000000E+00
  0.00000000E+00  0.00000000E+00  0.00000000E+00
  0.00000000E+00  0.00000000E+00  0.00000000E+00
  0.00000000E+00  0.00000000E+00  0.00000000E+00
  0.00000000E+00  0.00000000E+00  0.00000000E+00
  0.00000000E+00  0.00000000E+00  0.00000000E+00
  0.00000000E+00  0.00000000E+00  0.00000000E+00
  0.00000000E+00  0.00000000E+00  0.00000000E+00
  0.00000000E+00  0.00000000E+00  0.00000000E+00
  0.00000000E+00  0.00000000E+00  0.00000000E+00
  0.00000000E+00  0.00000000E+00  0.00000000E+00
  0.00000000E+00  0.00000000E+00  0.00000000E+00
  0.00000000E+00  0.00000000E+00  0.00000000E+00
  0.00000000E+00  0.00000000E+00  0.00000000E+00
  0.00000000E+00  0.00000000E+00  0.00000000E+00
  0.00000000E+00  0.00000000E+00  0.00000000E+00
  0.00000000E+00  0.00000000E+00  0.00000000E+00
  0.00000000E+00  0.00000000E+00  0.00000000E+00
  0.00000000E+00  0.00000000E+00  0.00000000E+00
  0.00000000E+00  0.00000000E+00  0.00000000E+00
  0.00000000E+00  0.00000000E+00  0.00000000E+00
  0.00000000E+00  0.00000000E+00  0.00000000E+00
  0.00000000E+00  0.00000000E+00  0.00000000E+00
  0.00000000E+00  0.00000000E+00  0.00000000E+00
  0.00000000E+00  0.00000000E+00  0.00000000E+00
  0.00000000E+00  0.00000000E+00  0.00000000E+00
  0.00000000E+00  0.00000000E+00  0.00000000E+00
  0.00000000E+00  0.00000000E+00  0.00000000E+00
  0.00000000E+00  0.00000000E+00  0.00000000E+00
  0.00000000E+00  0.00000000E+00  0.00000000E+00
