CeO2-you-111-you-Au                     
   1.00000000000000     
     9.8423850000000002   -5.6825039999999998    0.0000000000000000
     0.0000000000000000   11.3650059999999993    0.0000000000000000
     0.0000000000000000    0.0000000000000000   21.0000000000000000
   O    Au   Ce   H 
    53     1    26     1
Selective dynamics
Direct
  0.0003395415705199  0.0004292210830977  0.9936048763346534   T   T   T
  0.1068539032636113  0.2201164755484551  0.1473355410131050   T   T   T
  0.2195171561882626  0.0947138659014637  0.2999184890752262   T   T   T
  0.1188939409890993  0.2263096388558718  0.3838401291170226   T   T   T
 -0.0006193613102304  0.0004077775478338  0.2274795463624039   T   T   T
  0.2232550901993664  0.1113756228929380  0.0724814171069401   T   T   T
  0.3340223336947829 -0.0001828542042004  0.9931727098325953   T   T   T
  0.4481093977120143  0.2191383810834276  0.1475557365828309   T   T   T
  0.5498513439517784  0.1094843470218119  0.3063780753846024   T   T   T
  0.4331199220918778  0.2077908413377013  0.4050418821331150   T   T   T
  0.3349023124389878  0.9960004068264658  0.2262166589999833   T   T   T
  0.5581612272088917  0.1108458530767928  0.0733965997976017   T   T   T
  0.6672469241432502  0.0001860981407248  0.9925925642629190   T   T   T
  0.7769799852263501  0.2216573857436351  0.1527561647627287   T   T   T
  0.8925177954158322  0.1125571710842359  0.3041884933098715   T   T   T
  0.7840142370994875  0.2141478435441513  0.3865903548994945   T   T   T
  0.6638489947985875  0.9936008540482192  0.2330616803875186   T   T   T
  0.8863345444616714  0.1101812302230304  0.0737314096010139   T   T   T
  0.0006766900035426  0.3333005117030763  0.9941503023241807   T   T   T
  0.1108746071168756  0.5541055763333872  0.1483014081873023   T   T   T
  0.2370429668663417  0.4532519282706157  0.3076055740304004   T   T   T
  0.1143799454268835  0.5583876845799990  0.3850212571298448   T   T   T
  0.0058878063515427  0.3363670143553138  0.2309482632000110   T   T   T
  0.2235661701215692  0.4436025891041794  0.0737013520889916   T   T   T
  0.3344313450359303  0.3333150643784942  0.9931388049363141   T   T   T
  0.4476920666163604  0.5614524031483584  0.1480428048556321   T   T   T
  0.5298857073847592  0.4543615480218044  0.3236933144799360   T   T   T
  0.3344165288356495  0.3328540771446055  0.2179467797821550   T   T   T
  0.5544437114131057  0.4438314351449596  0.0742818888963266   T   T   T
  0.6671057078636482  0.3338922991435561  0.9938080367262507   T   T   T
  0.7783260625201841  0.5554908349987590  0.1478778262984274   T   T   T
  0.8938905395996211  0.4461632698385453  0.3054773197513213   T   T   T
  0.7902963574050277  0.5732708308392167  0.3864826390503648   T   T   T
  0.6624098126531586  0.3398687493622173  0.2319543497214722   T   T   T
  0.8879119542684607  0.4419134399646413  0.0745343290665133   T   T   T
  0.9995283664646399  0.6650553774113550  0.9942951999972418   T   T   T
  0.1108915652617185  0.8882580883944161  0.1465870643246653   T   T   T
  0.2198117665967847  0.7770758487350952  0.3019814955426319   T   T   T
  0.1125663243184887  0.8873071913672992  0.3857013338875676   T   T   T
  0.0003176508833602  0.6668653175195240  0.2277350748057050   T   T   T
  0.2234614656025708  0.7778104476698948  0.0727757492095195   T   T   T
  0.3331006911811522  0.6657833540673597  0.9935438487552736   T   T   T
  0.4478823366609028  0.8887996498989271  0.1479396422109152   T   T   T
  0.5477226003158074  0.7613750244011198  0.3122559349860464   T   T   T
  0.4391057168348719  0.8849386955145349  0.3838715462260567   T   T   T
  0.3331096290443040  0.6686191918197109  0.2284845296943447   T   T   T
  0.5571638860488405  0.7786201626105261  0.0725083938723791   T   T   T
  0.6666369995033717  0.6653289302758023  0.9932797706021913   T   T   T
  0.7760017803416033  0.8879377508065300  0.1488619176437630   T   T   T
  0.8957142037964768  0.7824838051406916  0.3017946854246711   T   T   T
  0.7823857951746723  0.8914155097553630  0.3833889080161416   T   T   T
  0.6687376672993771  0.6643242562342578  0.2298039213206231   T   T   T
  0.8890720789667840  0.7783729935367451  0.0724905988009049   T   T   T
  0.3272251999849454  0.3432476178966349  0.3563913596323006   T   T   T
  0.0097293193726142  0.0061599081868776  0.3422511224814229   T   T   T
  0.2238780208498372  0.1118164837486778  0.1883655509388139   T   T   T
  0.1113690401606915  0.2219101176986258  0.0337182680434852   T   T   T
  0.3282451624197255 -0.0045307328122214  0.3420254964122612   T   T   T
  0.5556211808544129  0.1112818780761839  0.1909941153489174   T   T   T
  0.4451544027240483  0.2216199974142739  0.0335753144631318   T   T   T
  0.6685481882226421  0.0012870013855206  0.3458049803362142   T   T   T
  0.8897836733335617  0.1108896012596613  0.1897148408921173   T   T   T
  0.7775924136265011  0.2217149738447810  0.0344976504572772   T   T   T
  0.0023239139926136  0.3326417979911089  0.3445535251853830   T   T   T
  0.2244255386469862  0.4426267011937838  0.1882757658118755   T   T   T
  0.1108202875702811  0.5540352311455305  0.0341011299206423   T   T   T
  0.5522239921173790  0.4424778842125819  0.1875929714959617   T   T   T
  0.4449225765721652  0.5554991466899907  0.0328321363674004   T   T   T
  0.6665939890270727  0.3367920445442741  0.3497741291741609   T   T   T
  0.8884901946014456  0.4449418260361707  0.1910263926860124   T   T   T
  0.7778622937614721  0.5545846837855557  0.0340613794336436   T   T   T
  0.0007272356450336  0.6670114328084040  0.3442938393912278   T   T   T
  0.2221967052192561  0.7772585403107725  0.1855805791362223   T   T   T
  0.1118031501301903  0.8891332137045750  0.0325889335811985   T   T   T
  0.3248995798556628  0.6716038609997139  0.3401702639370328   T   T   T
  0.5557161275580695  0.7768880813802574  0.1887275979249569   T   T   T
  0.4463562731120824  0.8893545386068034  0.0332322738791018   T   T   T
  0.6840367842094885  0.6754932599981663  0.3414311806143921   T   T   T
  0.8904453009124524  0.7781177863227291  0.1867667687380203   T   T   T
  0.7775623321662479  0.8888911180088087  0.0330576419650448   T   T   T
  0.4098033304306198  0.2131549943151685  0.4490735969421204   T   T   T
 
  0.00000000E+00  0.00000000E+00  0.00000000E+00
  0.00000000E+00  0.00000000E+00  0.00000000E+00
  0.00000000E+00  0.00000000E+00  0.00000000E+00
  0.00000000E+00  0.00000000E+00  0.00000000E+00
  0.00000000E+00  0.00000000E+00  0.00000000E+00
  0.00000000E+00  0.00000000E+00  0.00000000E+00
  0.00000000E+00  0.00000000E+00  0.00000000E+00
  0.00000000E+00  0.00000000E+00  0.00000000E+00
  0.00000000E+00  0.00000000E+00  0.00000000E+00
  0.00000000E+00  0.00000000E+00  0.00000000E+00
  0.00000000E+00  0.00000000E+00  0.00000000E+00
  0.00000000E+00  0.00000000E+00  0.00000000E+00
  0.00000000E+00  0.00000000E+00  0.00000000E+00
  0.00000000E+00  0.00000000E+00  0.00000000E+00
  0.00000000E+00  0.00000000E+00  0.00000000E+00
  0.00000000E+00  0.00000000E+00  0.00000000E+00
  0.00000000E+00  0.00000000E+00  0.00000000E+00
  0.00000000E+00  0.00000000E+00  0.00000000E+00
  0.00000000E+00  0.00000000E+00  0.00000000E+00
  0.00000000E+00  0.00000000E+00  0.00000000E+00
  0.00000000E+00  0.00000000E+00  0.00000000E+00
  0.00000000E+00  0.00000000E+00  0.00000000E+00
  0.00000000E+00  0.00000000E+00  0.00000000E+00
  0.00000000E+00  0.00000000E+00  0.00000000E+00
  0.00000000E+00  0.00000000E+00  0.00000000E+00
  0.00000000E+00  0.00000000E+00  0.00000000E+00
  0.00000000E+00  0.00000000E+00  0.00000000E+00
  0.00000000E+00  0.00000000E+00  0.00000000E+00
  0.00000000E+00  0.00000000E+00  0.00000000E+00
  0.00000000E+00  0.00000000E+00  0.00000000E+00
  0.00000000E+00  0.00000000E+00  0.00000000E+00
  0.00000000E+00  0.00000000E+00  0.00000000E+00
  0.00000000E+00  0.00000000E+00  0.00000000E+00
  0.00000000E+00  0.00000000E+00  0.00000000E+00
  0.00000000E+00  0.00000000E+00  0.00000000E+00
  0.00000000E+00  0.00000000E+00  0.00000000E+00
  0.00000000E+00  0.00000000E+00  0.00000000E+00
  0.00000000E+00  0.00000000E+00  0.00000000E+00
  0.00000000E+00  0.00000000E+00  0.00000000E+00
  0.00000000E+00  0.00000000E+00  0.00000000E+00
  0.00000000E+00  0.00000000E+00  0.00000000E+00
  0.00000000E+00  0.00000000E+00  0.00000000E+00
  0.00000000E+00  0.00000000E+00  0.00000000E+00
  0.00000000E+00  0.00000000E+00  0.00000000E+00
  0.00000000E+00  0.00000000E+00  0.00000000E+00
  0.00000000E+00  0.00000000E+00  0.00000000E+00
  0.00000000E+00  0.00000000E+00  0.00000000E+00
  0.00000000E+00  0.00000000E+00  0.00000000E+00
  0.00000000E+00  0.00000000E+00  0.00000000E+00
  0.00000000E+00  0.00000000E+00  0.00000000E+00
  0.00000000E+00  0.00000000E+00  0.00000000E+00
  0.00000000E+00  0.00000000E+00  0.00000000E+00
  0.00000000E+00  0.00000000E+00  0.00000000E+00
  0.00000000E+00  0.00000000E+00  0.00000000E+00
  0.00000000E+00  0.00000000E+00  0.00000000E+00
  0.00000000E+00  0.00000000E+00  0.00000000E+00
  0.00000000E+00  0.00000000E+00  0.00000000E+00
  0.00000000E+00  0.00000000E+00  0.00000000E+00
  0.00000000E+00  0.00000000E+00  0.00000000E+00
  0.00000000E+00  0.00000000E+00  0.00000000E+00
  0.00000000E+00  0.00000000E+00  0.00000000E+00
  0.00000000E+00  0.00000000E+00  0.00000000E+00
  0.00000000E+00  0.00000000E+00  0.00000000E+00
  0.00000000E+00  0.00000000E+00  0.00000000E+00
  0.00000000E+00  0.00000000E+00  0.00000000E+00
  0.00000000E+00  0.00000000E+00  0.00000000E+00
  0.00000000E+00  0.00000000E+00  0.00000000E+00
  0.00000000E+00  0.00000000E+00  0.00000000E+00
  0.00000000E+00  0.00000000E+00  0.00000000E+00
  0.00000000E+00  0.00000000E+00  0.00000000E+00
  0.00000000E+00  0.00000000E+00  0.00000000E+00
  0.00000000E+00  0.00000000E+00  0.00000000E+00
  0.00000000E+00  0.00000000E+00  0.00000000E+00
  0.00000000E+00  0.00000000E+00  0.00000000E+00
  0.00000000E+00  0.00000000E+00  0.00000000E+00
  0.00000000E+00  0.00000000E+00  0.00000000E+00
  0.00000000E+00  0.00000000E+00  0.00000000E+00
  0.00000000E+00  0.00000000E+00  0.00000000E+00
  0.00000000E+00  0.00000000E+00  0.00000000E+00
  0.00000000E+00  0.00000000E+00  0.00000000E+00
  0.00000000E+00  0.00000000E+00  0.00000000E+00
