CeO2-you-111-you-Ta                     
   1.00000000000000     
     9.8302922736783671   -5.6755222565919121    0.0000000005590858
     0.0431129029423804   11.4257162491860775    0.0105633847442164
     0.0116443294957368    0.0201685669053349   20.7507070522619337
   O    Ta   Ce H
    53     1    26 2
Selective dynamics
Direct
 -0.0024704297427656 -0.0012529841344699  0.9936249845704730   T   T   T
  0.1113715062317778  0.2223668360242160  0.1478883671978627   F   F   F
  0.2229584816224076  0.1125839632422457  0.2981423146941906   T   T   T
  0.1473526651175172  0.2313203807217413  0.3814801467550851   T   T   T
 -0.0014402826448919 -0.0015665152644425  0.2279099442317203   T   T   T
  0.2210273853126839  0.1087217706254963  0.0711075423936556   F   F   F
  0.3345504456083392 -0.0012529841346286  0.9936249845704401   T   T   T
  0.4443283297923413  0.2223668360236870  0.1478883671979124   F   F   F
  0.5583092895329327  0.1205728211036853  0.3070486419032050   T   T   T
  0.4173007156026461  0.2313203807129893  0.3814801467543597   T   T   T
  0.3332067673806532 -0.0015665152650643  0.2279099442317750   T   T   T
  0.5576447763797332  0.1117535926903123  0.0748444714203313   F   F   F
  0.6666452998421160 -0.0000434003153273  0.9940359009677330   T   T   T
  0.7800093224333541  0.2266846448664779  0.1532877373887410   F   F   F
  0.8955975315710194  0.1205728211042487  0.3070486419032706   T   T   T
  0.7819235346470791  0.2305130692943164  0.3874064653248219   T   T   T
  0.6677495619409810  0.0021651238816584  0.2313256215630209   T   T   T
  0.8874428163108852  0.1117535926905380  0.0748444714202987   F   F   F
 -0.0002159860367380  0.3321594802379648  0.9935452272241966   T   T   T
  0.1099835989295832  0.5539711190666337  0.1484744693813682   F   F   F
  0.2602530240185267  0.4449118801042467  0.3141320102609367   T   T   T
  0.0986317980189527  0.5438165604306253  0.3862121985776968   T   T   T
  0.0135609311141841  0.3409917497648023  0.2334757482286157   T   T   T
  0.2225062485212090  0.4442857985036765  0.0736994831039531   F   F   F
  0.3329296355684244  0.3325262711368289  0.9933679809433892   T   T   T
  0.4434713300083360  0.5536106600171337  0.1502736142096908   F   F   F
  0.5179928560770912  0.4449118800939032  0.3141320102600626   T   T   T
  0.3276494975376931  0.3219659950749563  0.2299030661737423   T   T   T
  0.5551135499822488  0.4442857985036480  0.0736994831039433   F   F   F
  0.6657094662747267  0.3321594802379005  0.9935452272241874   T   T   T
  0.7773205201369016  0.5539711190665485  0.1484744693813700   F   F   F
  0.8870491928955682  0.4407643857906592  0.3030782187349621   T   T   T
  0.7785177624122771  0.5438165604328573  0.3862121985778316   T   T   T
  0.6607648186501180  0.3409917497642017  0.2334757482284466   T   T   T
  0.8884014169656146  0.4434688339310934  0.0729882102865479   F   F   F
 -0.0000289282515959  0.6666091434971683  0.9930570211956397   T   T   T
  0.1099048171732502  0.8864766343457582  0.1464565036243705   F   F   F
  0.2183140025654747  0.7771321702192114  0.3046475818386574   T   T   T
  0.1081175013680568  0.8829020027359273  0.3878198944235915   T   T   T
 -0.0005159761185638  0.6656350477628147  0.2285891006045024   T   T   T
  0.2228786892201857  0.7764117508201008  0.0729941971897083   F   F   F
  0.3337362787625983  0.6655828965620572  0.9932537858676929   T   T   T
  0.4465000486870309  0.8903570051951287  0.1500599492639518   F   F   F
  0.5559412880648589  0.7785485761296893  0.3063918560585437   T   T   T
  0.4548297030676915  0.9019405115729819  0.3896485069700160   T   T   T
  0.3299089433193751  0.6641890532067942  0.2279846134591767   T   T   T
  0.5547526262874000  0.7761712525748412  0.0743808874710760   F   F   F
  0.6651796177992492  0.6655828965620697  0.9932537858676542   T   T   T
  0.7771899565082262  0.8903570051953730  0.1500599492639200   F   F   F
  0.8921511676538133  0.7771321702196093  0.3046475818386510   T   T   T
  0.7804438085061880  0.9019405115729414  0.3896485069699485   T   T   T
  0.6676131098869121  0.6641890532070351  0.2279846134591931   T   T   T
  0.8868660615998575  0.7764117508200780  0.0729941971897382   F   F   F
  0.3163418110423573  0.2993506220880124  0.3288719308496416   T   T   T
 -0.0000178482499922 -0.0020671203174838  0.3481127600745466   T   T   T
  0.2189130991575969  0.1044931983162762  0.1842445256197983   F   F   F
  0.1100464655953056  0.2220511497545986  0.0330304091318507   F   F   F
  0.3312837279324097 -0.0020671203159782  0.3481127600744892   T   T   T
  0.5547134438294261  0.1119974461770194  0.1913767475081743   F   F   F
  0.4453376841592151  0.2220511497548296  0.0330304091318834   F   F   F
  0.6680337390956389  0.0027334781921902  0.3483846772240610   T   T   T
  0.8906180023470333  0.1119974461762232  0.1913767475082669   F   F   F
  0.7778458478741677  0.2223576957480697  0.0347456610766207   F   F   F
  0.0030641230693141  0.3355292475145303  0.3467415575822396   T   T   T
  0.2246506299264308  0.4457825373213641  0.1896100198490210   F   F   F
  0.1115903628703851  0.5550809339069952  0.0334799323408559   F   F   F
  0.5544659073964832  0.4457825373225268  0.1896100198489127   F   F   F
  0.4443526512505274  0.5553733025008082  0.0331819512290960   F   F   F
  0.6657991244459024  0.3355292475163777  0.3467415575824140   T   T   T
  0.8899541207707448  0.4465742415416509  0.1901504519481831   F   F   F
  0.7768235710367933  0.5550809339071996  0.0334799323408533   F   F   F
 -0.0012342414877865  0.6641985170241331  0.3451936398319960   T   T   T
  0.2225789287900970  0.7771494119617205  0.1889075613327470   F   F   F
  0.1100810925231114  0.8868291850463732  0.0316992712436892   F   F   F
  0.3305602520025898  0.6740230742209985  0.3457358958707735   T   T   T
  0.5560691144811251  0.7788042289619105  0.1919784079675497   F   F   F
  0.4453593603764751  0.8887219906338116  0.0343880623413677   F   F   F
  0.6767958222226186  0.6740230742258001  0.3457358958710507   T   T   T
  0.8879034831711365  0.7771494119612444  0.1889075613327830   F   F   F
  0.7766956302573632  0.8887219906338540  0.0343880623413712   F   F   F
0.323418110423573 0.3193506220880124 0.408872 T T T
0.446598 0.216020 0.433410 T T T 
 
  0.00000000E+00  0.00000000E+00  0.00000000E+00
  0.00000000E+00  0.00000000E+00  0.00000000E+00
  0.00000000E+00  0.00000000E+00  0.00000000E+00
  0.00000000E+00  0.00000000E+00  0.00000000E+00
  0.00000000E+00  0.00000000E+00  0.00000000E+00
  0.00000000E+00  0.00000000E+00  0.00000000E+00
  0.00000000E+00  0.00000000E+00  0.00000000E+00
  0.00000000E+00  0.00000000E+00  0.00000000E+00
  0.00000000E+00  0.00000000E+00  0.00000000E+00
  0.00000000E+00  0.00000000E+00  0.00000000E+00
  0.00000000E+00  0.00000000E+00  0.00000000E+00
  0.00000000E+00  0.00000000E+00  0.00000000E+00
  0.00000000E+00  0.00000000E+00  0.00000000E+00
  0.00000000E+00  0.00000000E+00  0.00000000E+00
  0.00000000E+00  0.00000000E+00  0.00000000E+00
  0.00000000E+00  0.00000000E+00  0.00000000E+00
  0.00000000E+00  0.00000000E+00  0.00000000E+00
  0.00000000E+00  0.00000000E+00  0.00000000E+00
  0.00000000E+00  0.00000000E+00  0.00000000E+00
  0.00000000E+00  0.00000000E+00  0.00000000E+00
  0.00000000E+00  0.00000000E+00  0.00000000E+00
  0.00000000E+00  0.00000000E+00  0.00000000E+00
  0.00000000E+00  0.00000000E+00  0.00000000E+00
  0.00000000E+00  0.00000000E+00  0.00000000E+00
  0.00000000E+00  0.00000000E+00  0.00000000E+00
  0.00000000E+00  0.00000000E+00  0.00000000E+00
  0.00000000E+00  0.00000000E+00  0.00000000E+00
  0.00000000E+00  0.00000000E+00  0.00000000E+00
  0.00000000E+00  0.00000000E+00  0.00000000E+00
  0.00000000E+00  0.00000000E+00  0.00000000E+00
  0.00000000E+00  0.00000000E+00  0.00000000E+00
  0.00000000E+00  0.00000000E+00  0.00000000E+00
  0.00000000E+00  0.00000000E+00  0.00000000E+00
  0.00000000E+00  0.00000000E+00  0.00000000E+00
  0.00000000E+00  0.00000000E+00  0.00000000E+00
  0.00000000E+00  0.00000000E+00  0.00000000E+00
  0.00000000E+00  0.00000000E+00  0.00000000E+00
  0.00000000E+00  0.00000000E+00  0.00000000E+00
  0.00000000E+00  0.00000000E+00  0.00000000E+00
  0.00000000E+00  0.00000000E+00  0.00000000E+00
  0.00000000E+00  0.00000000E+00  0.00000000E+00
  0.00000000E+00  0.00000000E+00  0.00000000E+00
  0.00000000E+00  0.00000000E+00  0.00000000E+00
  0.00000000E+00  0.00000000E+00  0.00000000E+00
  0.00000000E+00  0.00000000E+00  0.00000000E+00
  0.00000000E+00  0.00000000E+00  0.00000000E+00
  0.00000000E+00  0.00000000E+00  0.00000000E+00
  0.00000000E+00  0.00000000E+00  0.00000000E+00
  0.00000000E+00  0.00000000E+00  0.00000000E+00
  0.00000000E+00  0.00000000E+00  0.00000000E+00
  0.00000000E+00  0.00000000E+00  0.00000000E+00
  0.00000000E+00  0.00000000E+00  0.00000000E+00
  0.00000000E+00  0.00000000E+00  0.00000000E+00
  0.00000000E+00  0.00000000E+00  0.00000000E+00
  0.00000000E+00  0.00000000E+00  0.00000000E+00
  0.00000000E+00  0.00000000E+00  0.00000000E+00
  0.00000000E+00  0.00000000E+00  0.00000000E+00
  0.00000000E+00  0.00000000E+00  0.00000000E+00
  0.00000000E+00  0.00000000E+00  0.00000000E+00
  0.00000000E+00  0.00000000E+00  0.00000000E+00
  0.00000000E+00  0.00000000E+00  0.00000000E+00
  0.00000000E+00  0.00000000E+00  0.00000000E+00
  0.00000000E+00  0.00000000E+00  0.00000000E+00
  0.00000000E+00  0.00000000E+00  0.00000000E+00
  0.00000000E+00  0.00000000E+00  0.00000000E+00
  0.00000000E+00  0.00000000E+00  0.00000000E+00
  0.00000000E+00  0.00000000E+00  0.00000000E+00
  0.00000000E+00  0.00000000E+00  0.00000000E+00
  0.00000000E+00  0.00000000E+00  0.00000000E+00
  0.00000000E+00  0.00000000E+00  0.00000000E+00
  0.00000000E+00  0.00000000E+00  0.00000000E+00
  0.00000000E+00  0.00000000E+00  0.00000000E+00
  0.00000000E+00  0.00000000E+00  0.00000000E+00
  0.00000000E+00  0.00000000E+00  0.00000000E+00
  0.00000000E+00  0.00000000E+00  0.00000000E+00
  0.00000000E+00  0.00000000E+00  0.00000000E+00
  0.00000000E+00  0.00000000E+00  0.00000000E+00
  0.00000000E+00  0.00000000E+00  0.00000000E+00
  0.00000000E+00  0.00000000E+00  0.00000000E+00
  0.00000000E+00  0.00000000E+00  0.00000000E+00
