CeO2-you-111-you-Ge                     
   1.00000000000000     
     9.8429822858219129   -5.6828488435457372   -0.0000000000000000
     0.0000000007671874   11.3656956882989135    0.0000000000000000
     0.0000000000000000    0.0000000000000000   20.9472343377478758
   O    Ge   Ce H
    54     1    26 1
Selective dynamics
Direct
 -0.0002170906609760 -0.0004550415716507  0.9948030846816142   T   T   T
  0.1192412621460868  0.2262871310724954  0.1528297569264464   F   F   F
  0.2034392463418355  0.0735454926797762  0.2981018004820866   T   T   T
  0.1551406815136672  0.2442368407579588  0.3702448491934634   T   T   T
 -0.0082981908921842 -0.0025589270647007  0.2284200247276157   T   T   T
  0.2221758755553631  0.1110187511107022  0.0743579158009798   F   F   F
  0.3330950490891946 -0.0004550415719626  0.9948030846816142   T   T   T
  0.4403788689264047  0.2262871310720079  0.1528297569264464   F   F   F
  0.5528862316215417  0.1137807683790873  0.3094875299381212   T   T   T
  0.4224291592442877  0.2442368407589562  0.3702448491934634   T   T   T
  0.3390722638269120 -0.0025589270655541  0.2284200247276157   T   T   T
  0.5534149591043165  0.1132520408961274  0.0751384329022475   F   F   F
  0.6666669999999968 -0.0000000000000000  0.9960793723882696   T   T   T
  0.7761222282808536  0.2189104565611501  0.1480185549591680   F   F   F
  0.8942285367573548  0.1137807683788953  0.3094875299381212   T   T   T
  0.7788348091491718  0.2243356182975736  0.3851364030424418   T   T   T
  0.6666669999999968 -0.0000000000000000  0.2330060777340566   T   T   T
  0.8931710817916755  0.1132520408959920  0.0751384329022475   F   F   F
 -0.0002170906612778  0.3335709509099752  0.9948030846816142   T   T   T
  0.1120849842004105  0.5545820158001241  0.1499714530372896   F   F   F
  0.2034392463506033  0.4632267536620552  0.2981018004820866   T   T   T
  0.1093328955421997  0.5573341044541270  0.3885568564222777   T   T   T
 -0.0082981908934791  0.3275937361705967  0.2284200247276157   T   T   T
  0.2221758755554103  0.4444901244446572  0.0743579158009798   F   F   F
  0.3333330000000032  0.3333330000000032  0.9947508559772673   T   T   T
  0.4403788689275037  0.5474257378555040  0.1528297569264464   F   F   F
  0.5931215073075687  0.4632267536581637  0.2981018004820866   T   T   T
  0.4224291592420404  0.5115263184830918  0.3702448491934634   T   T   T
  0.3333330000000032  0.3333330000000032  0.2509226238778043   T   T   T
  0.5556482488892340  0.4444901244446360  0.0743579158009798   F   F   F
  0.6671220415713806  0.3335709509097973  0.9948030846816142   T   T   T
  0.7758300315995463  0.5545820157999612  0.1499714530372896   F   F   F
  0.8898812997378309  0.4464285994752087  0.3049040562144352   T   T   T
  0.7813342089130545  0.5573341044552581  0.3885568564222777   T   T   T
  0.6692259270646445  0.3275937361703184  0.2284200247276157   T   T   T
  0.8890212669472838  0.4447085338946286  0.0748216737926984   F   F   F
 -0.0000000000000000  0.6666669999999968  0.9948850764582050   T   T   T
  0.1120849842000429  0.8908369683999194  0.1499714530372896   F   F   F
  0.2202374005233200  0.7767857002621659  0.3049040562144352   T   T   T
  0.1093328955447462  0.8853327910906195  0.3885568564222777   T   T   T
 -0.0000000000000000  0.6666669999999968  0.2284900046366512   T   T   T
  0.2219574661055724  0.7776457330527130  0.0748216737926984   F   F   F
  0.3330950490895954  0.6668840906618536  0.9948030846816142   T   T   T
  0.4477555434370157  0.8905447717191431  0.1480185549591680   F   F   F
  0.5528862316211084  0.7724384632420173  0.3094875299381212   T   T   T
  0.4423303816998997  0.8878321908508250  0.3851364030424418   T   T   T
  0.3390722638275397  0.6749651908943826  0.2284200247276157   T   T   T
  0.5534149591040117  0.7734959182078806  0.0751384329022475   F   F   F
  0.6671220415720832  0.6668840906619874  0.9948030846816142   T   T   T
  0.7761222282821236  0.8905447717197068  0.1480185549591680   F   F   F
  0.8898812997388490  0.7767857002626183  0.3049040562144352   T   T   T
  0.7788348091509215  0.8878321908516014  0.3851364030424418   T   T   T
  0.6692259270665671  0.6749651908949575  0.2284200247276157   T   T   T
  0.8890212669471446  0.7776457330526512  0.0748216737926984   F   F   F
  0.3333330000000032  0.3333330000000032  0.3419480309976053   T   T   T
  0.0021245641837556 -0.0026519000971112  0.3435336454755843   T   T   T
  0.2209940654308663  0.1086551308625100  0.1918956802609822   F   F   F
  0.1121926325466637  0.2227628162742663  0.0353926750649169   F   F   F
  0.3285565357204429 -0.0026519000957570  0.3435336454755843   T   T   T
  0.5558647160940120  0.1108022839115088  0.1898911095464410   F   F   F
  0.4439031837275986  0.2227628162750943  0.0353926750649169   F   F   F
  0.6666669999999968 -0.0000000000000000  0.3465765763644724   T   T   T
  0.8882715678158015  0.1108022839098128  0.1898911095464410   F   F   F
  0.7779876281395258  0.2226412562791804  0.0349162406770971   F   F   F
  0.0021245641866995  0.3381094642839210  0.3435336454755843   T   T   T
  0.2209940654291073  0.4456719345683525  0.1918956802609822   F   F   F
  0.1113957380760129  0.5552712619220963  0.0344259374125100   F   F   F
  0.5580118691400335  0.4456719345691331  0.1918956802609822   F   F   F
  0.4439031837257331  0.5544743674506469  0.0353926750649169   F   F   F
  0.6693189000959087  0.3381094642839686  0.3435336454755843   T   T   T
  0.8888800264905694  0.4444260529812679  0.1890083720443901   F   F   F
  0.7772085238466619  0.5552712619226787  0.0344259374125100   F   F   F
 -0.0000000000000000  0.6666669999999968  0.3468889591029122   T   T   T
  0.2222399470191544  0.7777869735094274  0.1890083720443901   F   F   F
  0.1113957380773251  0.8894584761552293  0.0344259374125100   F   F   F
  0.3285565357203357  0.6645424358131424  0.3435336454755843   T   T   T
  0.5558647160901911  0.7783954321786785  0.1898911095464410   F   F   F
  0.4440247437212190  0.8886793718604710  0.0349162406770971   F   F   F
  0.6693189000928577  0.6645424358118359  0.3435336454755843   T   T   T
  0.8888800264902766  0.7777869735092976  0.1890083720443901   F   F   F
  0.7779876281392482  0.8886793718603482  0.0349162406770971   F   F   F
0.446598 0.216020 0.433410 T T T 
 
  0.00000000E+00  0.00000000E+00  0.00000000E+00
  0.00000000E+00  0.00000000E+00  0.00000000E+00
  0.00000000E+00  0.00000000E+00  0.00000000E+00
  0.00000000E+00  0.00000000E+00  0.00000000E+00
  0.00000000E+00  0.00000000E+00  0.00000000E+00
  0.00000000E+00  0.00000000E+00  0.00000000E+00
  0.00000000E+00  0.00000000E+00  0.00000000E+00
  0.00000000E+00  0.00000000E+00  0.00000000E+00
  0.00000000E+00  0.00000000E+00  0.00000000E+00
  0.00000000E+00  0.00000000E+00  0.00000000E+00
  0.00000000E+00  0.00000000E+00  0.00000000E+00
  0.00000000E+00  0.00000000E+00  0.00000000E+00
  0.00000000E+00  0.00000000E+00  0.00000000E+00
  0.00000000E+00  0.00000000E+00  0.00000000E+00
  0.00000000E+00  0.00000000E+00  0.00000000E+00
  0.00000000E+00  0.00000000E+00  0.00000000E+00
  0.00000000E+00  0.00000000E+00  0.00000000E+00
  0.00000000E+00  0.00000000E+00  0.00000000E+00
  0.00000000E+00  0.00000000E+00  0.00000000E+00
  0.00000000E+00  0.00000000E+00  0.00000000E+00
  0.00000000E+00  0.00000000E+00  0.00000000E+00
  0.00000000E+00  0.00000000E+00  0.00000000E+00
  0.00000000E+00  0.00000000E+00  0.00000000E+00
  0.00000000E+00  0.00000000E+00  0.00000000E+00
  0.00000000E+00  0.00000000E+00  0.00000000E+00
  0.00000000E+00  0.00000000E+00  0.00000000E+00
  0.00000000E+00  0.00000000E+00  0.00000000E+00
  0.00000000E+00  0.00000000E+00  0.00000000E+00
  0.00000000E+00  0.00000000E+00  0.00000000E+00
  0.00000000E+00  0.00000000E+00  0.00000000E+00
  0.00000000E+00  0.00000000E+00  0.00000000E+00
  0.00000000E+00  0.00000000E+00  0.00000000E+00
  0.00000000E+00  0.00000000E+00  0.00000000E+00
  0.00000000E+00  0.00000000E+00  0.00000000E+00
  0.00000000E+00  0.00000000E+00  0.00000000E+00
  0.00000000E+00  0.00000000E+00  0.00000000E+00
  0.00000000E+00  0.00000000E+00  0.00000000E+00
  0.00000000E+00  0.00000000E+00  0.00000000E+00
  0.00000000E+00  0.00000000E+00  0.00000000E+00
  0.00000000E+00  0.00000000E+00  0.00000000E+00
  0.00000000E+00  0.00000000E+00  0.00000000E+00
  0.00000000E+00  0.00000000E+00  0.00000000E+00
  0.00000000E+00  0.00000000E+00  0.00000000E+00
  0.00000000E+00  0.00000000E+00  0.00000000E+00
  0.00000000E+00  0.00000000E+00  0.00000000E+00
  0.00000000E+00  0.00000000E+00  0.00000000E+00
  0.00000000E+00  0.00000000E+00  0.00000000E+00
  0.00000000E+00  0.00000000E+00  0.00000000E+00
  0.00000000E+00  0.00000000E+00  0.00000000E+00
  0.00000000E+00  0.00000000E+00  0.00000000E+00
  0.00000000E+00  0.00000000E+00  0.00000000E+00
  0.00000000E+00  0.00000000E+00  0.00000000E+00
  0.00000000E+00  0.00000000E+00  0.00000000E+00
  0.00000000E+00  0.00000000E+00  0.00000000E+00
  0.00000000E+00  0.00000000E+00  0.00000000E+00
  0.00000000E+00  0.00000000E+00  0.00000000E+00
  0.00000000E+00  0.00000000E+00  0.00000000E+00
  0.00000000E+00  0.00000000E+00  0.00000000E+00
  0.00000000E+00  0.00000000E+00  0.00000000E+00
  0.00000000E+00  0.00000000E+00  0.00000000E+00
  0.00000000E+00  0.00000000E+00  0.00000000E+00
  0.00000000E+00  0.00000000E+00  0.00000000E+00
  0.00000000E+00  0.00000000E+00  0.00000000E+00
  0.00000000E+00  0.00000000E+00  0.00000000E+00
  0.00000000E+00  0.00000000E+00  0.00000000E+00
  0.00000000E+00  0.00000000E+00  0.00000000E+00
  0.00000000E+00  0.00000000E+00  0.00000000E+00
  0.00000000E+00  0.00000000E+00  0.00000000E+00
  0.00000000E+00  0.00000000E+00  0.00000000E+00
  0.00000000E+00  0.00000000E+00  0.00000000E+00
  0.00000000E+00  0.00000000E+00  0.00000000E+00
  0.00000000E+00  0.00000000E+00  0.00000000E+00
  0.00000000E+00  0.00000000E+00  0.00000000E+00
  0.00000000E+00  0.00000000E+00  0.00000000E+00
  0.00000000E+00  0.00000000E+00  0.00000000E+00
  0.00000000E+00  0.00000000E+00  0.00000000E+00
  0.00000000E+00  0.00000000E+00  0.00000000E+00
  0.00000000E+00  0.00000000E+00  0.00000000E+00
  0.00000000E+00  0.00000000E+00  0.00000000E+00
  0.00000000E+00  0.00000000E+00  0.00000000E+00
  0.00000000E+00  0.00000000E+00  0.00000000E+00
