CeO2-you-111-you-Ba                     
   1.00000000000000     
     9.8827063702129507   -5.6774156924061989    0.0023460832274293
     0.0245672787450707   11.3973811590071819   -0.0023460827027671
     0.0031055705199188   -0.0053790051198795   21.1207059511628650
   O    Ba   Ce   H 
    53     1    26     1
Selective dynamics
Direct
  0.0007457822326340  0.0001086380011322  0.9946098025696177   T   T   T
  0.1083153546356833  0.2200881248022165  0.1452486577388923   T   T   T
  0.2241109334048709  0.1063885194089580  0.3058203784423398   T   T   T
  0.0759251322546624  0.2050777941846549  0.3854009582194760   T   T   T
  0.0013633900277832  0.0031601443162790  0.2278313723663306   T   T   T
  0.2224552811577333  0.1109633383339674  0.0743937974962854   T   T   T
  0.3348656430530662  0.0009734297399235  0.9960315806049941   T   T   T
  0.4410174263392739  0.2246495691891345  0.1523869569306901   T   T   T
  0.5464656971308094  0.1088128812140305  0.3031230978499075   T   T   T
  0.4493223859554307  0.1970637189767417  0.4111656024289410   T   T   T
  0.3300834039819158 -0.0035478178420673  0.2273299985748930   T   T   T
  0.5553268922717131  0.1116312261466007  0.0773145251172260   T   T   T
  0.6656983611869955  0.0016191805384192  0.9954115312920815   T   T   T
  0.7845764094697070  0.2274129863461910  0.1499347271414215   T   T   T
  0.8794199919038739  0.1065576278045126  0.2978823531699590   T   T   T
  0.7774992380811248  0.2128929076127539  0.3855610875353322   T   T   T
  0.6640484162218155  0.0032443368528171  0.2250383556528872   T   T   T
  0.8878604468397490  0.1103978548856921  0.0724948936326477   T   T   T
  0.9985106070244554  0.3334007903677995  0.9948100121010515   T   T   T
  0.1101202870342991  0.5566334494220126  0.1463649833493255   T   T   T
  0.1395539142275073  0.5277077483045406  0.3729006028209739   T   T   T
  0.0173859871136341  0.3413199978954473  0.2324835974216293   T   T   T
  0.2222041739502991  0.4442883996786667  0.0709984992338379   T   T   T
  0.3343843448378687  0.3321606306091076  0.9950259538881727   T   T   T
  0.4468266382194844  0.5592743656501168  0.1460255138668466   T   T   T
  0.5603946526716385  0.4536477849754860  0.3048665900864672   T   T   T
  0.4620462580914306  0.5953036824416613  0.3875241842547085   T   T   T
  0.3234203823249423  0.3417172129969878  0.2286164968185034   T   T   T
  0.5551962179506769  0.4440541396739943  0.0746931624388613   T   T   T
  0.6660737440250389  0.3319698116009279  0.9964004711887778   T   T   T
  0.7774925990787067  0.5563017596244588  0.1500120347163890   T   T   T
  0.8939731016309517  0.4489101548513654  0.3047679187186318   T   T   T
  0.7917497258629023  0.5754639507464726  0.3855584441784446   T   T   T
  0.6680643214795924  0.3343474666079073  0.2269808240540170   T   T   T
  0.8884641720489744  0.4455718037886200  0.0742901748498906   T   T   T
 -0.0003598878644705  0.6670368832387943  0.9954577072662270   T   T   T
  0.1103847387819120  0.8891519322507863  0.1494267976274570   T   T   T
  0.2196551124760150  0.7761595733313286  0.3039707421867232   T   T   T
  0.1063527495179802  0.8837247119489905  0.3828718597095657   T   T   T
  0.0000391632367653  0.6669075689383720  0.2280004763529000   T   T   T
  0.2210937710438879  0.7782179305630139  0.0739677684521450   T   T   T
  0.3340964299616389  0.6685750968543466  0.9949487394959086   T   T   T
  0.4385493819696487  0.8819214825624991  0.1498628179440824   T   T   T
  0.5591011580616815  0.7884300949807710  0.2989294345821506   T   T   T
  0.4430889356665782  0.8926768875018589  0.3844042832317364   T   T   T
  0.3250068088668604  0.6486913383358057  0.2332348363175900   T   T   T
  0.5569622014317442  0.7797750910495521  0.0730346769551285   T   T   T
  0.6666520261279362  0.6663628821239016  0.9951445144207808   T   T   T
  0.7775592705661486  0.8908980791810801  0.1482065237221426   T   T   T
  0.8908336266811029  0.7800267076815418  0.2999451012618122   T   T   T
  0.7783005946654777  0.8920735061868558  0.3800120697702482   T   T   T
  0.6663530815903403  0.6702103283657165  0.2273806141203629   T   T   T
  0.8882094006901876  0.7784982188444922  0.0740092717513007   T   T   T
  0.3331983546189264  0.3363435874641593  0.3729220842679593   T   T   T
  0.9970020424162021  0.9997316853740486  0.3410839889484193   T   T   T
  0.2223722484759904  0.1150750398132650  0.1916328304339734   T   T   T
  0.1105808005248921  0.2203659768270522  0.0327992986060251   T   T   T
  0.3259584336421317 -0.0069183024777653  0.3405478173638426   T   T   T
  0.5543341556041074  0.1129372034144276  0.1899736422052852   T   T   T
  0.4440835643334622  0.2229267680619344  0.0367496684029833   T   T   T
  0.6649848816543835  0.0026518160550102  0.3408414586749243   T   T   T
  0.8892703853785652  0.1124261126909105  0.1870685199286140   T   T   T
  0.7777346690136868  0.2232728962403800  0.0352417519838819   T   T   T
  0.9830848305320745  0.3187209257918496  0.3441569126476199   T   T   T
  0.2231905886620205  0.4436587199541779  0.1801824971874923   T   T   T
  0.1096391458416764  0.5567547452111031  0.0329874264406631   T   T   T
  0.5524228945389434  0.4453905154260198  0.1936161168578879   T   T   T
  0.4466721563572261  0.5564008385883381  0.0334160253257570   T   T   T
  0.6706039772676173  0.3396264120438418  0.3453460883775579   T   T   T
  0.8894021977473021  0.4457329151864562  0.1895602452297562   T   T   T
  0.7764708926382086  0.5545956547844252  0.0363259951086376   T   T   T
 -0.0043385861410759  0.6698998399935867  0.3406545760739153   T   T   T
  0.2200853933652779  0.7756767244194054  0.1883564020652400   T   T   T
  0.1118394189216604  0.8900019391636993  0.0356112828387445   T   T   T
  0.3473054131716006  0.6832327194576808  0.3448536286966674   T   T   T
  0.5548837262541559  0.7783645175481917  0.1875091468195162   T   T   T
  0.4438974477945214  0.8893179253862857  0.0351543095228450   T   T   T
  0.6689137020385834  0.6721700784970612  0.3416704760947925   T   T   T
  0.8885364769298222  0.7790087692819179  0.1869367066083359   T   T   T
  0.7772757160451897  0.8897429636957005  0.0341637572391772   T   T   T
  0.4581311951801807  0.1755610884196092  0.4548639701308848   T   T   T
 
  0.00000000E+00  0.00000000E+00  0.00000000E+00
  0.00000000E+00  0.00000000E+00  0.00000000E+00
  0.00000000E+00  0.00000000E+00  0.00000000E+00
  0.00000000E+00  0.00000000E+00  0.00000000E+00
  0.00000000E+00  0.00000000E+00  0.00000000E+00
  0.00000000E+00  0.00000000E+00  0.00000000E+00
  0.00000000E+00  0.00000000E+00  0.00000000E+00
  0.00000000E+00  0.00000000E+00  0.00000000E+00
  0.00000000E+00  0.00000000E+00  0.00000000E+00
  0.00000000E+00  0.00000000E+00  0.00000000E+00
  0.00000000E+00  0.00000000E+00  0.00000000E+00
  0.00000000E+00  0.00000000E+00  0.00000000E+00
  0.00000000E+00  0.00000000E+00  0.00000000E+00
  0.00000000E+00  0.00000000E+00  0.00000000E+00
  0.00000000E+00  0.00000000E+00  0.00000000E+00
  0.00000000E+00  0.00000000E+00  0.00000000E+00
  0.00000000E+00  0.00000000E+00  0.00000000E+00
  0.00000000E+00  0.00000000E+00  0.00000000E+00
  0.00000000E+00  0.00000000E+00  0.00000000E+00
  0.00000000E+00  0.00000000E+00  0.00000000E+00
  0.00000000E+00  0.00000000E+00  0.00000000E+00
  0.00000000E+00  0.00000000E+00  0.00000000E+00
  0.00000000E+00  0.00000000E+00  0.00000000E+00
  0.00000000E+00  0.00000000E+00  0.00000000E+00
  0.00000000E+00  0.00000000E+00  0.00000000E+00
  0.00000000E+00  0.00000000E+00  0.00000000E+00
  0.00000000E+00  0.00000000E+00  0.00000000E+00
  0.00000000E+00  0.00000000E+00  0.00000000E+00
  0.00000000E+00  0.00000000E+00  0.00000000E+00
  0.00000000E+00  0.00000000E+00  0.00000000E+00
  0.00000000E+00  0.00000000E+00  0.00000000E+00
  0.00000000E+00  0.00000000E+00  0.00000000E+00
  0.00000000E+00  0.00000000E+00  0.00000000E+00
  0.00000000E+00  0.00000000E+00  0.00000000E+00
  0.00000000E+00  0.00000000E+00  0.00000000E+00
  0.00000000E+00  0.00000000E+00  0.00000000E+00
  0.00000000E+00  0.00000000E+00  0.00000000E+00
  0.00000000E+00  0.00000000E+00  0.00000000E+00
  0.00000000E+00  0.00000000E+00  0.00000000E+00
  0.00000000E+00  0.00000000E+00  0.00000000E+00
  0.00000000E+00  0.00000000E+00  0.00000000E+00
  0.00000000E+00  0.00000000E+00  0.00000000E+00
  0.00000000E+00  0.00000000E+00  0.00000000E+00
  0.00000000E+00  0.00000000E+00  0.00000000E+00
  0.00000000E+00  0.00000000E+00  0.00000000E+00
  0.00000000E+00  0.00000000E+00  0.00000000E+00
  0.00000000E+00  0.00000000E+00  0.00000000E+00
  0.00000000E+00  0.00000000E+00  0.00000000E+00
  0.00000000E+00  0.00000000E+00  0.00000000E+00
  0.00000000E+00  0.00000000E+00  0.00000000E+00
  0.00000000E+00  0.00000000E+00  0.00000000E+00
  0.00000000E+00  0.00000000E+00  0.00000000E+00
  0.00000000E+00  0.00000000E+00  0.00000000E+00
  0.00000000E+00  0.00000000E+00  0.00000000E+00
  0.00000000E+00  0.00000000E+00  0.00000000E+00
  0.00000000E+00  0.00000000E+00  0.00000000E+00
  0.00000000E+00  0.00000000E+00  0.00000000E+00
  0.00000000E+00  0.00000000E+00  0.00000000E+00
  0.00000000E+00  0.00000000E+00  0.00000000E+00
  0.00000000E+00  0.00000000E+00  0.00000000E+00
  0.00000000E+00  0.00000000E+00  0.00000000E+00
  0.00000000E+00  0.00000000E+00  0.00000000E+00
  0.00000000E+00  0.00000000E+00  0.00000000E+00
  0.00000000E+00  0.00000000E+00  0.00000000E+00
  0.00000000E+00  0.00000000E+00  0.00000000E+00
  0.00000000E+00  0.00000000E+00  0.00000000E+00
  0.00000000E+00  0.00000000E+00  0.00000000E+00
  0.00000000E+00  0.00000000E+00  0.00000000E+00
  0.00000000E+00  0.00000000E+00  0.00000000E+00
  0.00000000E+00  0.00000000E+00  0.00000000E+00
  0.00000000E+00  0.00000000E+00  0.00000000E+00
  0.00000000E+00  0.00000000E+00  0.00000000E+00
  0.00000000E+00  0.00000000E+00  0.00000000E+00
  0.00000000E+00  0.00000000E+00  0.00000000E+00
  0.00000000E+00  0.00000000E+00  0.00000000E+00
  0.00000000E+00  0.00000000E+00  0.00000000E+00
  0.00000000E+00  0.00000000E+00  0.00000000E+00
  0.00000000E+00  0.00000000E+00  0.00000000E+00
  0.00000000E+00  0.00000000E+00  0.00000000E+00
  0.00000000E+00  0.00000000E+00  0.00000000E+00
  0.00000000E+00  0.00000000E+00  0.00000000E+00
