CeO2-you-111-you-Pb                     
   1.00000000000000     
     9.8384165263087944   -5.7164072728305086    0.0037081973281239
     0.0000000012027571   11.4328125356694574   -0.0000000004257709
     0.0075790041653975   -0.0000000007135320   20.8696912856661605
   O    Pb   Ce   H 
    53     1    26     2
Selective dynamics
Direct
  0.9990305111480475  0.0005842673424299  0.9948458952242700   T   T   T
  0.1152593748265431  0.2242961874133016  0.1510518443178697   F   F   F
  0.2281864376284854  0.1126599507848313  0.3089972524872639   T   T   T
  0.0884347535474323  0.2119536790491268  0.3903119618052821   T   T   T
  0.0030428521039829  0.0023034489075830  0.2293722422476643   T   T   T
  0.2209691433166938  0.1100781849505381  0.0740074088947793   F   F   F
  0.3322565460549232  0.9992771437056366  0.9936201702582654   T   T   T
  0.4450289285441045  0.2200491184064646  0.1460223427567300   F   F   F
  0.5506462589134318  0.1050814665817620  0.3043930555212702   T   T   T
  0.4561302544905970  0.1903448908289065  0.4088411467691296   T   T   T
  0.3316334523815519 -0.0009973307053715  0.2289648641322338   T   T   T
  0.5555950436984745  0.1097210538446376  0.0728887201126298   F   F   F
  0.6684181409279548  0.0007400735210532  0.9940982505387501   T   T   T
  0.7754817519375621  0.2270402543064165  0.1511067975383682   F   F   F
  0.8877292125694534  0.1095213063484210  0.3027947774550972   T   T   T
  0.7832258656311397  0.2173218993349920  0.3871621438454200   T   T   T
  0.6675365252920341  0.0024605630224406  0.2268979760591126   T   T   T
  0.8876473548215387  0.1104901774104761  0.0765200696842356   F   F   F
  0.9985284469677358  0.3309766725551522  0.9947789302010245   T   T   T
  0.1102443136257065  0.5556342259922076  0.1504009530441550   F   F   F
  0.2226157185350828  0.4429258349910619  0.3070952301554128   T   T   T
  0.1120078469807522  0.5589313116505773  0.3858949702388175   T   T   T
  0.0008749323306903  0.3330707957214210  0.2291400692945060   T   T   T
  0.2209691433165872  0.4442239583664929  0.0740074088947864   F   F   F
  0.3308172922166808  0.3321146650324310  0.9938290549815002   T   T   T
  0.4450289285409639  0.5583138101394027  0.1460223427566589   F   F   F
  0.4630267031770180  0.5788022565731282  0.3839958484312218   T   T   T
  0.3467517089810204  0.3400854981285026  0.2274823940361145   T   T   T
  0.5548183291262987  0.4440751645634151  0.0707662590148388   F   F   F
  0.6670081243203069  0.3326335721544338  0.9935098371070020   T   T   T
  0.7790214412279397  0.5561777206121619  0.1470185859679063   F   F   F
  0.8949424534599779  0.4467096646547776  0.3050240403006050   T   T   T
  0.7669116374955205  0.5607310990732167  0.3794115863858077   T   T   T
  0.6569673769057347  0.3417522236740543  0.2335164874461234   T   T   T
  0.8891880588757317  0.4441590548960548  0.0738138597844085   F   F   F
  0.9991742683111114  0.6665133970367551  0.9939831854120382   T   T   T
  0.1102443136256497  0.8879440876321851  0.1504009530441053   F   F   F
  0.2212643777222995  0.7749971944653851  0.3035926863049513   T   T   T
  0.1114566202465467  0.8840754238170592  0.3854358074592429   T   T   T
  0.9978357280265449  0.6670960373675786  0.2298594286578790   T   T   T
  0.2215585031422194  0.7774462515710852  0.0739711001578414   F   F   F
  0.3325896090572705  0.6663210804466067  0.9935404983326648   T   T   T
  0.4443446057539973  0.8888393028770807  0.1489286959405902   F   F   F
  0.5612294986477451  0.7877743949284604  0.3021773478124372   T   T   T
  0.4424398554271807  0.8847270780309200  0.3850861788267553   T   T   T
  0.3346957838939130  0.6655621795079272  0.2296699294490290   T   T   T
  0.5555950436980552  0.7792069898536766  0.0728887201125303   F   F   F
  0.6669178748355248  0.6681005697610518  0.9935287666102053   T   T   T
  0.7754817519363542  0.8817744976301114  0.1511067975385245   F   F   F
  0.8926523518299392  0.7853618773062863  0.3044693678521020   T   T   T
  0.7811991615241158  0.8952073653741921  0.3872404660643077   T   T   T
  0.6574989254973868  0.6485130103662471  0.2354964701989435   T   T   T
  0.8891880588755683  0.7783620039787280  0.0738138597843161   F   F   F
  0.3158316731552642  0.3306640468217446  0.3625586178802738   T   T   T
  0.0033887461966568  0.0041920850285484  0.3450615528663649   T   T   T
  0.2245942643115697  0.1135328357893997  0.1916438233350064   F   F   F
  0.1112268232392069  0.2222799116195660  0.0351542808073404   F   F   F
  0.3292592616811771  0.9901010334676056  0.3446661409812270   T   T   T
  0.5552111808760642  0.1111997730175602  0.1890011935397808   F   F   F
  0.4429989481187775  0.2198246970073825  0.0321862666287416   F   F   F
  0.6672368448026224  0.0028873313669779  0.3441442432278181   T   T   T
  0.8897781552223165  0.1115555776121653  0.1900654363005785   F   F   F
  0.7778227964804927  0.2223742026306397  0.0342924745098543   F   F   F
  0.0003123580108326  0.3336289746994188  0.3452874825787179   T   T   T
  0.2245942643128132  0.4443944285205461  0.1916438233349780   F   F   F
  0.1104069612523801  0.5544290870918545  0.0349459459335009   F   F   F
  0.5534452357235438  0.4433886178581261  0.1811537040636679   F   F   F
  0.4429989481194099  0.5565082511106354  0.0321862666287771   F   F   F
  0.6728943528184713  0.3279103945524622  0.3509118766196414   T   T   T
  0.8882304099035778  0.4449584936178894  0.1904874775523453   F   F   F
  0.7795897670220810  0.5564618835113890  0.0324005433128178   F   F   F
 -0.0010133021316782  0.6658955956101161  0.3443713210980678   T   T   T
  0.2223212602782283  0.7778276301397682  0.1890596578145747   F   F   F
  0.1104069612523517  0.8893118741615282  0.0349459459334653   F   F   F
  0.3353337428235517  0.6670555170228624  0.3450851422559705   T   T   T
  0.5552111808815141  0.7773444078582017  0.1890011935398661   F   F   F
  0.4447882444534557  0.8890611222263374  0.0338337382563267   F   F   F
  0.6743187741667767  0.6852967760155632  0.3481770991491251   T   T   T
  0.8882304099067966  0.7766049162936071  0.1904874775524092   F   F   F
  0.7778227964812601  0.8887815938503891  0.0342924745098756   F   F   F
  0.3329591457594664  0.3260503059149946  0.4583395216323161   T   T   T
  0.4271319049472616  0.2115846985079326  0.4489744296432591   T   T   T
 
  0.00000000E+00  0.00000000E+00  0.00000000E+00
  0.00000000E+00  0.00000000E+00  0.00000000E+00
  0.00000000E+00  0.00000000E+00  0.00000000E+00
  0.00000000E+00  0.00000000E+00  0.00000000E+00
  0.00000000E+00  0.00000000E+00  0.00000000E+00
  0.00000000E+00  0.00000000E+00  0.00000000E+00
  0.00000000E+00  0.00000000E+00  0.00000000E+00
  0.00000000E+00  0.00000000E+00  0.00000000E+00
  0.00000000E+00  0.00000000E+00  0.00000000E+00
  0.00000000E+00  0.00000000E+00  0.00000000E+00
  0.00000000E+00  0.00000000E+00  0.00000000E+00
  0.00000000E+00  0.00000000E+00  0.00000000E+00
  0.00000000E+00  0.00000000E+00  0.00000000E+00
  0.00000000E+00  0.00000000E+00  0.00000000E+00
  0.00000000E+00  0.00000000E+00  0.00000000E+00
  0.00000000E+00  0.00000000E+00  0.00000000E+00
  0.00000000E+00  0.00000000E+00  0.00000000E+00
  0.00000000E+00  0.00000000E+00  0.00000000E+00
  0.00000000E+00  0.00000000E+00  0.00000000E+00
  0.00000000E+00  0.00000000E+00  0.00000000E+00
  0.00000000E+00  0.00000000E+00  0.00000000E+00
  0.00000000E+00  0.00000000E+00  0.00000000E+00
  0.00000000E+00  0.00000000E+00  0.00000000E+00
  0.00000000E+00  0.00000000E+00  0.00000000E+00
  0.00000000E+00  0.00000000E+00  0.00000000E+00
  0.00000000E+00  0.00000000E+00  0.00000000E+00
  0.00000000E+00  0.00000000E+00  0.00000000E+00
  0.00000000E+00  0.00000000E+00  0.00000000E+00
  0.00000000E+00  0.00000000E+00  0.00000000E+00
  0.00000000E+00  0.00000000E+00  0.00000000E+00
  0.00000000E+00  0.00000000E+00  0.00000000E+00
  0.00000000E+00  0.00000000E+00  0.00000000E+00
  0.00000000E+00  0.00000000E+00  0.00000000E+00
  0.00000000E+00  0.00000000E+00  0.00000000E+00
  0.00000000E+00  0.00000000E+00  0.00000000E+00
  0.00000000E+00  0.00000000E+00  0.00000000E+00
  0.00000000E+00  0.00000000E+00  0.00000000E+00
  0.00000000E+00  0.00000000E+00  0.00000000E+00
  0.00000000E+00  0.00000000E+00  0.00000000E+00
  0.00000000E+00  0.00000000E+00  0.00000000E+00
  0.00000000E+00  0.00000000E+00  0.00000000E+00
  0.00000000E+00  0.00000000E+00  0.00000000E+00
  0.00000000E+00  0.00000000E+00  0.00000000E+00
  0.00000000E+00  0.00000000E+00  0.00000000E+00
  0.00000000E+00  0.00000000E+00  0.00000000E+00
  0.00000000E+00  0.00000000E+00  0.00000000E+00
  0.00000000E+00  0.00000000E+00  0.00000000E+00
  0.00000000E+00  0.00000000E+00  0.00000000E+00
  0.00000000E+00  0.00000000E+00  0.00000000E+00
  0.00000000E+00  0.00000000E+00  0.00000000E+00
  0.00000000E+00  0.00000000E+00  0.00000000E+00
  0.00000000E+00  0.00000000E+00  0.00000000E+00
  0.00000000E+00  0.00000000E+00  0.00000000E+00
  0.00000000E+00  0.00000000E+00  0.00000000E+00
  0.00000000E+00  0.00000000E+00  0.00000000E+00
  0.00000000E+00  0.00000000E+00  0.00000000E+00
  0.00000000E+00  0.00000000E+00  0.00000000E+00
  0.00000000E+00  0.00000000E+00  0.00000000E+00
  0.00000000E+00  0.00000000E+00  0.00000000E+00
  0.00000000E+00  0.00000000E+00  0.00000000E+00
  0.00000000E+00  0.00000000E+00  0.00000000E+00
  0.00000000E+00  0.00000000E+00  0.00000000E+00
  0.00000000E+00  0.00000000E+00  0.00000000E+00
  0.00000000E+00  0.00000000E+00  0.00000000E+00
  0.00000000E+00  0.00000000E+00  0.00000000E+00
  0.00000000E+00  0.00000000E+00  0.00000000E+00
  0.00000000E+00  0.00000000E+00  0.00000000E+00
  0.00000000E+00  0.00000000E+00  0.00000000E+00
  0.00000000E+00  0.00000000E+00  0.00000000E+00
  0.00000000E+00  0.00000000E+00  0.00000000E+00
  0.00000000E+00  0.00000000E+00  0.00000000E+00
  0.00000000E+00  0.00000000E+00  0.00000000E+00
  0.00000000E+00  0.00000000E+00  0.00000000E+00
  0.00000000E+00  0.00000000E+00  0.00000000E+00
  0.00000000E+00  0.00000000E+00  0.00000000E+00
  0.00000000E+00  0.00000000E+00  0.00000000E+00
  0.00000000E+00  0.00000000E+00  0.00000000E+00
  0.00000000E+00  0.00000000E+00  0.00000000E+00
  0.00000000E+00  0.00000000E+00  0.00000000E+00
  0.00000000E+00  0.00000000E+00  0.00000000E+00
  0.00000000E+00  0.00000000E+00  0.00000000E+00
  0.00000000E+00  0.00000000E+00  0.00000000E+00
