CeO2-you-111-you-Y                      
   1.00000000000000     
     9.8634396836856819   -5.6946599257103383    0.0000000002539930
     0.0104594922566310   11.4074342179786150    0.0048333759215423
     0.0052045299893471    0.0090145088382767   21.2075270147286830
   O    Y    Ce   H 
    53     1    26     1
Selective dynamics
Direct
 -0.0001856807731804  0.0001154703516546  0.9966221437517890   T   T   T
  0.1102527527252265  0.2214593412081114  0.1485913777191389   T   T   T
  0.2251358224733680  0.1057206358941595  0.3016137370169528   T   T   T
  0.1076239855151060  0.2160436672389680  0.3813357939150693   T   T   T
  0.0007210729068639  0.0005648599773584  0.2282418645525703   T   T   T
  0.2226526208595121  0.1107815472151033  0.0744528847022169   T   T   T
  0.3339980162690455  0.0002060529938034  0.9963148507213443   T   T   T
  0.4454337225981205  0.2218184783885186  0.1494523681636958   T   T   T
  0.5514438078162226  0.1192345991023256  0.3036527246376274   T   T   T
  0.4361015061914192  0.2193284024517428  0.3975860824994819   T   T   T
  0.3330891549807262 -0.0031855562238960  0.2267725709446826   T   T   T
  0.5570256848620705  0.1114774900826424  0.0752901293418870   T   T   T
  0.6668612658864951  0.9994569006050260  0.9964371460186584   T   T   T
  0.7784727435332829  0.2232866989775058  0.1508783624193518   T   T   T
  0.8893162830292621  0.1135303945396809  0.3016938999542804   T   T   T
  0.7779133494888201  0.2243726276701151  0.3813891494034452   T   T   T
  0.6637865703545165 -0.0001681903699969  0.2305378952090002   T   T   T
  0.8878133955973979  0.1110044623790893  0.0756071883810429   T   T   T
  0.0004227915860820  0.3328098120396946  0.9964453188563029   T   T   T
  0.1109931419561510  0.5550037918087224  0.1483539010446238   T   T   T
  0.2353520411049399  0.4457427472876581  0.3086829489066609   T   T   T
  0.0977523912996395  0.5482940595288283  0.3842454020543322   T   T   T
  0.0066700355170110  0.3367168957516816  0.2294945233746620   T   T   T
  0.2231245705085691  0.4446868101063248  0.0755830045383561   T   T   T
  0.3334459728438535  0.3332643620357194  0.9964400723667556   T   T   T
  0.4456760459135362  0.5562840409808378  0.1508549274733222   T   T   T
  0.5426693556908648  0.4383797946627459  0.3122021072654819   T   T   T
  0.3305709506892794  0.3287003667605461  0.2263413836161475   T   T   T
  0.5545296466307298  0.4441558824175452  0.0759862062843640   T   T   T
  0.6662559847108790  0.3334313620407976  0.9966973300184170   T   T   T
  0.7773964390796420  0.5548311439979074  0.1487840111211957   T   T   T
  0.8898329991835020  0.4431215112350071  0.3005124257366461   T   T   T
  0.7867324654539761  0.5482842043089365  0.3846539573869805   T   T   T
  0.6667675892001764  0.3384897614160237  0.2293754087966220   T   T   T
  0.8889732945417128  0.4440138088813250  0.0745247386980828   T   T   T
 -0.0001574050409498  0.6671875225648538  0.9962064462888908   T   T   T
  0.1106338764487340  0.8885711616543431  0.1477653012853843   T   T   T
  0.2177362679508475  0.7787379568917947  0.3017275851390360   T   T   T
  0.1139162492833155  0.8887293417194678  0.3841774570067375   T   T   T
  0.9994815875628342  0.6663435563657165  0.2269509796094250   T   T   T
  0.2226895560744882  0.7775749274373569  0.0743321389017702   T   T   T
  0.3340877473298720  0.6662613142904803  0.9966721938333098   T   T   T
  0.4463293437084126  0.8897289066455406  0.1492662766703550   T   T   T
  0.5549690174052270  0.7758562091890909  0.3075156077354642   T   T   T
  0.4481938891711919  0.9044238082388760  0.3845717741926632   T   T   T
  0.3316262896717530  0.6668035961347319  0.2268568656935594   T   T   T
  0.5560133096380415  0.7773124828423127  0.0760166217243164   T   T   T
  0.6664609137086637  0.6662956104921578  0.9965403187778592   T   T   T
  0.7769821928760069  0.8898410185399567  0.1508660173474045   T   T   T
  0.8960166956417802  0.7806986136663089  0.3032090089772056   T   T   T
  0.7872446868810874  0.9050252924432051  0.3846200815331471   T   T   T
  0.6685629432056895  0.6650999735603680  0.2282229394102676   T   T   T
  0.8882395348750977  0.7781161026861297  0.0752206258731508   T   T   T
  0.3183665071611348  0.3128781345476347  0.3325926431686301   T   T   T
  0.0005353440743092  0.0018852510105874  0.3436066290988640   T   T   T
  0.2212285975554105  0.1086275659289801  0.1871193717901057   T   T   T
  0.1112214055924469  0.2223590295003024  0.0360687663908206   T   T   T
  0.3285072382293319 -0.0074360021144463  0.3415443391145258   T   T   T
  0.5549720484808942  0.1115170509127446  0.1895439652650923   T   T   T
  0.4449529883247910  0.2224646382508124  0.0358819191767827   T   T   T
  0.6675713775118843  0.0022906910550292  0.3433037655982530   T   T   T
  0.8896990675625716  0.1116591166265230  0.1897725832663936   T   T   T
  0.7779476373352174  0.2221549876079119  0.0362575072416114   T   T   T
  0.0037882059341418  0.3333869839783001  0.3426979381344197   T   T   T
  0.2238133448212062  0.4450138693318315  0.1895833969683594   T   T   T
  0.1115388722236643  0.5552471928246282  0.0355566303167591   T   T   T
  0.5548806899552052  0.4446520441698465  0.1901109679995907   T   T   T
  0.4448940643089982  0.5556588868237170  0.0364983575823391   T   T   T
  0.6745850549999108  0.3390913615061618  0.3413015638184819   T   T   T
  0.8902662482742831  0.4458650120377270  0.1884836761178237   T   T   T
  0.7772114817280079  0.5555235360845774  0.0361428986373187   T   T   T
 -0.0002407629640504  0.6640066050644016  0.3433111486369416   T   T   T
  0.2219001269588267  0.7770992280237778  0.1869787784626178   T   T   T
  0.1109216499060061  0.8887584023760082  0.0347663220946316   T   T   T
  0.3261797174476730  0.6731643844185359  0.3421146480956768   T   T   T
  0.5553395191182759  0.7777509303956768  0.1914368036977534   T   T   T
  0.4456214007866495  0.8890344337033808  0.0362081873811752   T   T   T
  0.6820041199126488  0.6742212726250653  0.3422019656750960   T   T   T
  0.8893567245418903  0.7778027247762949  0.1885025814796747   T   T   T
  0.7772076786281987  0.8888595660362565  0.0367164045886582   T   T   T
  0.4342351649735631  0.2130614693928680  0.4433971633106273   T   T   T
 
  0.00000000E+00  0.00000000E+00  0.00000000E+00
  0.00000000E+00  0.00000000E+00  0.00000000E+00
  0.00000000E+00  0.00000000E+00  0.00000000E+00
  0.00000000E+00  0.00000000E+00  0.00000000E+00
  0.00000000E+00  0.00000000E+00  0.00000000E+00
  0.00000000E+00  0.00000000E+00  0.00000000E+00
  0.00000000E+00  0.00000000E+00  0.00000000E+00
  0.00000000E+00  0.00000000E+00  0.00000000E+00
  0.00000000E+00  0.00000000E+00  0.00000000E+00
  0.00000000E+00  0.00000000E+00  0.00000000E+00
  0.00000000E+00  0.00000000E+00  0.00000000E+00
  0.00000000E+00  0.00000000E+00  0.00000000E+00
  0.00000000E+00  0.00000000E+00  0.00000000E+00
  0.00000000E+00  0.00000000E+00  0.00000000E+00
  0.00000000E+00  0.00000000E+00  0.00000000E+00
  0.00000000E+00  0.00000000E+00  0.00000000E+00
  0.00000000E+00  0.00000000E+00  0.00000000E+00
  0.00000000E+00  0.00000000E+00  0.00000000E+00
  0.00000000E+00  0.00000000E+00  0.00000000E+00
  0.00000000E+00  0.00000000E+00  0.00000000E+00
  0.00000000E+00  0.00000000E+00  0.00000000E+00
  0.00000000E+00  0.00000000E+00  0.00000000E+00
  0.00000000E+00  0.00000000E+00  0.00000000E+00
  0.00000000E+00  0.00000000E+00  0.00000000E+00
  0.00000000E+00  0.00000000E+00  0.00000000E+00
  0.00000000E+00  0.00000000E+00  0.00000000E+00
  0.00000000E+00  0.00000000E+00  0.00000000E+00
  0.00000000E+00  0.00000000E+00  0.00000000E+00
  0.00000000E+00  0.00000000E+00  0.00000000E+00
  0.00000000E+00  0.00000000E+00  0.00000000E+00
  0.00000000E+00  0.00000000E+00  0.00000000E+00
  0.00000000E+00  0.00000000E+00  0.00000000E+00
  0.00000000E+00  0.00000000E+00  0.00000000E+00
  0.00000000E+00  0.00000000E+00  0.00000000E+00
  0.00000000E+00  0.00000000E+00  0.00000000E+00
  0.00000000E+00  0.00000000E+00  0.00000000E+00
  0.00000000E+00  0.00000000E+00  0.00000000E+00
  0.00000000E+00  0.00000000E+00  0.00000000E+00
  0.00000000E+00  0.00000000E+00  0.00000000E+00
  0.00000000E+00  0.00000000E+00  0.00000000E+00
  0.00000000E+00  0.00000000E+00  0.00000000E+00
  0.00000000E+00  0.00000000E+00  0.00000000E+00
  0.00000000E+00  0.00000000E+00  0.00000000E+00
  0.00000000E+00  0.00000000E+00  0.00000000E+00
  0.00000000E+00  0.00000000E+00  0.00000000E+00
  0.00000000E+00  0.00000000E+00  0.00000000E+00
  0.00000000E+00  0.00000000E+00  0.00000000E+00
  0.00000000E+00  0.00000000E+00  0.00000000E+00
  0.00000000E+00  0.00000000E+00  0.00000000E+00
  0.00000000E+00  0.00000000E+00  0.00000000E+00
  0.00000000E+00  0.00000000E+00  0.00000000E+00
  0.00000000E+00  0.00000000E+00  0.00000000E+00
  0.00000000E+00  0.00000000E+00  0.00000000E+00
  0.00000000E+00  0.00000000E+00  0.00000000E+00
  0.00000000E+00  0.00000000E+00  0.00000000E+00
  0.00000000E+00  0.00000000E+00  0.00000000E+00
  0.00000000E+00  0.00000000E+00  0.00000000E+00
  0.00000000E+00  0.00000000E+00  0.00000000E+00
  0.00000000E+00  0.00000000E+00  0.00000000E+00
  0.00000000E+00  0.00000000E+00  0.00000000E+00
  0.00000000E+00  0.00000000E+00  0.00000000E+00
  0.00000000E+00  0.00000000E+00  0.00000000E+00
  0.00000000E+00  0.00000000E+00  0.00000000E+00
  0.00000000E+00  0.00000000E+00  0.00000000E+00
  0.00000000E+00  0.00000000E+00  0.00000000E+00
  0.00000000E+00  0.00000000E+00  0.00000000E+00
  0.00000000E+00  0.00000000E+00  0.00000000E+00
  0.00000000E+00  0.00000000E+00  0.00000000E+00
  0.00000000E+00  0.00000000E+00  0.00000000E+00
  0.00000000E+00  0.00000000E+00  0.00000000E+00
  0.00000000E+00  0.00000000E+00  0.00000000E+00
  0.00000000E+00  0.00000000E+00  0.00000000E+00
  0.00000000E+00  0.00000000E+00  0.00000000E+00
  0.00000000E+00  0.00000000E+00  0.00000000E+00
  0.00000000E+00  0.00000000E+00  0.00000000E+00
  0.00000000E+00  0.00000000E+00  0.00000000E+00
  0.00000000E+00  0.00000000E+00  0.00000000E+00
  0.00000000E+00  0.00000000E+00  0.00000000E+00
  0.00000000E+00  0.00000000E+00  0.00000000E+00
  0.00000000E+00  0.00000000E+00  0.00000000E+00
  0.00000000E+00  0.00000000E+00  0.00000000E+00
