CeO2-you-111-you-Sn                     
   1.00000000000000     
     9.9160831069937903   -5.7250536254581439   -0.0000000008476533
    -0.0417723931599708   11.3777533333409284   -0.0161704452927646
    -0.0175662126666772   -0.0304255676615943   21.1450815087385777
   O    Sn   Ce   H 
    53     1    26     2
Selective dynamics
Direct
  0.0002767036549512  0.0001349786399438  0.9964412868057824   T   T   T
  0.1106845331950908  0.2227347640672477  0.1503646288152751   F   F   F
  0.2448956406881320  0.1319406139872314  0.3098564578140539   T   T   T
  0.0988292937585188  0.2157289079008180  0.3798911744410098   T   T   T
  0.0084754522539413  0.0049926961586106  0.2303513680587823   T   T   T
  0.2229577457558989  0.1125824915118443  0.0757218234961812   F   F   F
  0.3330787927214224  0.0005575089613933  0.9964749783078085   T   T   T
  0.4453832308720536  0.2227347640670274  0.1503646288152609   F   F   F
  0.5501173306387777  0.1070919520354674  0.3025785065912630   T   T   T
  0.4567831792045025  0.1908058650824358  0.4090906914658666   T   T   T
  0.3286990356862284 -0.0000857828389470  0.2286961973325883   T   T   T
  0.5559166428726456  0.1118812187479747  0.0753517054648611   F   F   F
  0.6668564984459890  0.9996032148259598  0.9965995648993274   T   T   T
  0.7756077023006256  0.2178814046011581  0.1512459290201633   F   F   F
  0.8833583595821984  0.1057383185613786  0.3007327183539120   T   T   T
  0.7819798787297529  0.2130117482542003  0.3843147562342272   T   T   T
  0.6609900382695689  0.9915941922788709  0.2296725172839007   T   T   T
  0.8892985758753298  0.1118812187480813  0.0753517054648682   F   F   F
  0.0004396299587737  0.3336964354881602  0.9969838663561456   T   T   T
  0.1107772181816955  0.5549153897341057  0.1501275182565891   F   F   F
  0.2336869719091783  0.4416919749219035  0.3070200472648930   T   T   T
  0.0961929508451978  0.5482519348424177  0.3843283361769765   T   T   T
  0.0032868417023902  0.3345115446970754  0.2302036985514253   T   T   T
  0.2232038751422891  0.4448347017416197  0.0760876785654361   F   F   F
  0.3336435536918624  0.3340394423218763  0.9966656786737339   T   T   T
  0.4442882585081662  0.5552445170163764  0.1508423343354650   F   F   F
  0.5288466579851421  0.4453078706110484  0.3147255095218764   T   T   T
  0.3321746557748569  0.3329695331987366  0.2285948952588938   T   T   T
  0.5549648265992744  0.4448347017416339  0.0760876785654361   F   F   F
  0.6668382872841225  0.3336774497555970  0.9969455343145274   T   T   T
  0.7774711715525839  0.5549153897340702  0.1501275182565891   F   F   F
  0.8897024084691644  0.4449879354129729  0.3020818126450492   T   T   T
  0.7865676548701898  0.5724513384323718  0.3837885933503221   T   T   T
  0.6629254070510568  0.3371378030857799  0.2295757736675670   T   T   T
  0.8880736569417351  0.4428133138834767  0.0765972064229956   F   F   F
  0.9989149567055844  0.6652377331689883  0.9969856121812866   T   T   T
  0.1116732791101285  0.8900135582201827  0.1483966773449907   F   F   F
  0.2196303645764628  0.7787506121273997  0.3030643717459087   T   T   T
  0.1126901443882327  0.8919854041918237  0.3809632722488298   T   T   T
  0.0003576780138949  0.6682015614506233  0.2273384639412738   T   T   T
  0.2217838710264459  0.7779200352344589  0.0749683514567892   F   F   F
  0.3337636117894444  0.6671821733481340  0.9969693548768828   T   T   T
  0.4435115189215892  0.8893637777020800  0.1487789698908486   F   F   F
  0.5557388943961992  0.7633170613911983  0.3115805497225014   T   T   T
  0.4495844839769856  0.8977929832519431  0.3851387153437757   T   T   T
  0.3340101772340431  0.6685071463807689  0.2277608191968260   T   T   T
  0.5556332041798910  0.7779324083598382  0.0762610206641625   F   F   F
  0.6667226983555830  0.6672238307643835  0.9969514276788699   T   T   T
  0.7791852587805792  0.8893637777022860  0.1487789698908415   F   F   F
  0.8929214668953748  0.7819693421074798  0.3005372407290624   T   T   T
  0.7857601852214706  0.8910488769965246  0.3842132690155552   T   T   T
  0.6701502002905431  0.6664411627887205  0.2290160554729717   T   T   T
  0.8894691642079806  0.7779200352344873  0.0749683514567820   F   F   F
  0.3171621923001379  0.3288540534492198  0.3368048215504731   T   T   T
  0.0020764553444618  0.0039500796533995  0.3439864407410794   T   T   T
  0.2241219086196509  0.1149108172391564  0.1901270880726287   F   F   F
  0.1117023084057251  0.2227067662382183  0.0367265314255150   F   F   F
  0.3348034304082985 -0.0043566824656975  0.3441308469597680   T   T   T
  0.5544320319395979  0.1098445328311257  0.1896282102822013   F   F   F
  0.4443374578325532  0.2227067662382964  0.0367265314255150   F   F   F
  0.6653545102598275  0.9986269126193573  0.3440170232033873   T   T   T
  0.8887465008915001  0.1098445328308060  0.1896282102822440   F   F   F
  0.7774360887272209  0.2215381774543843  0.0366823708287143   F   F   F
 -0.0060923427288969  0.3296622806689718  0.3437583728058931   T   T   T
  0.2225160846527032  0.4441503979272099  0.1914755017393830   F   F   F
  0.1108376895890260  0.5545435461096773  0.0367152497105607   F   F   F
  0.5549683132746352  0.4441503979270678  0.1914755017393475   F   F   F
  0.4440628879686273  0.5547937759371777  0.0366541843437105   F   F   F
  0.6668723685396019  0.3341238533270507  0.3481474199310431   T   T   T
  0.8887596352076983  0.4441852704157228  0.1899059141621748   F   F   F
  0.7770388565207185  0.5545435461096915  0.0367152497105465   F   F   F
  0.0004211593966817  0.6658864569187570  0.3423665847753738   T   T   T
  0.2210475047214047  0.7792205669250407  0.1873378595039128   F   F   F
  0.1112959982202923  0.8892589964406525  0.0353672675805967   F   F   F
  0.3245480250800306  0.6704056840010798  0.3440633596281203   T   T   T
  0.5543783367395108  0.7754226734789427  0.1882579608289632   F   F   F
  0.4442563158563360  0.8888204516103713  0.0357855886489773   F   F   F
  0.6853680711277736  0.6767610632062894  0.3400859877330487   T   T   T
  0.8915060622032200  0.7792205669248631  0.1873378595039981   F   F   F
  0.7778971357540669  0.8888204516103428  0.0357855886489560   F   F   F
  0.3610926011122709  0.3830378940451646  0.4154865164003577   T   T   T
  0.4235613607027340  0.2121998630002354  0.4471665635718138   T   T   T
 
  0.00000000E+00  0.00000000E+00  0.00000000E+00
  0.00000000E+00  0.00000000E+00  0.00000000E+00
  0.00000000E+00  0.00000000E+00  0.00000000E+00
  0.00000000E+00  0.00000000E+00  0.00000000E+00
  0.00000000E+00  0.00000000E+00  0.00000000E+00
  0.00000000E+00  0.00000000E+00  0.00000000E+00
  0.00000000E+00  0.00000000E+00  0.00000000E+00
  0.00000000E+00  0.00000000E+00  0.00000000E+00
  0.00000000E+00  0.00000000E+00  0.00000000E+00
  0.00000000E+00  0.00000000E+00  0.00000000E+00
  0.00000000E+00  0.00000000E+00  0.00000000E+00
  0.00000000E+00  0.00000000E+00  0.00000000E+00
  0.00000000E+00  0.00000000E+00  0.00000000E+00
  0.00000000E+00  0.00000000E+00  0.00000000E+00
  0.00000000E+00  0.00000000E+00  0.00000000E+00
  0.00000000E+00  0.00000000E+00  0.00000000E+00
  0.00000000E+00  0.00000000E+00  0.00000000E+00
  0.00000000E+00  0.00000000E+00  0.00000000E+00
  0.00000000E+00  0.00000000E+00  0.00000000E+00
  0.00000000E+00  0.00000000E+00  0.00000000E+00
  0.00000000E+00  0.00000000E+00  0.00000000E+00
  0.00000000E+00  0.00000000E+00  0.00000000E+00
  0.00000000E+00  0.00000000E+00  0.00000000E+00
  0.00000000E+00  0.00000000E+00  0.00000000E+00
  0.00000000E+00  0.00000000E+00  0.00000000E+00
  0.00000000E+00  0.00000000E+00  0.00000000E+00
  0.00000000E+00  0.00000000E+00  0.00000000E+00
  0.00000000E+00  0.00000000E+00  0.00000000E+00
  0.00000000E+00  0.00000000E+00  0.00000000E+00
  0.00000000E+00  0.00000000E+00  0.00000000E+00
  0.00000000E+00  0.00000000E+00  0.00000000E+00
  0.00000000E+00  0.00000000E+00  0.00000000E+00
  0.00000000E+00  0.00000000E+00  0.00000000E+00
  0.00000000E+00  0.00000000E+00  0.00000000E+00
  0.00000000E+00  0.00000000E+00  0.00000000E+00
  0.00000000E+00  0.00000000E+00  0.00000000E+00
  0.00000000E+00  0.00000000E+00  0.00000000E+00
  0.00000000E+00  0.00000000E+00  0.00000000E+00
  0.00000000E+00  0.00000000E+00  0.00000000E+00
  0.00000000E+00  0.00000000E+00  0.00000000E+00
  0.00000000E+00  0.00000000E+00  0.00000000E+00
  0.00000000E+00  0.00000000E+00  0.00000000E+00
  0.00000000E+00  0.00000000E+00  0.00000000E+00
  0.00000000E+00  0.00000000E+00  0.00000000E+00
  0.00000000E+00  0.00000000E+00  0.00000000E+00
  0.00000000E+00  0.00000000E+00  0.00000000E+00
  0.00000000E+00  0.00000000E+00  0.00000000E+00
  0.00000000E+00  0.00000000E+00  0.00000000E+00
  0.00000000E+00  0.00000000E+00  0.00000000E+00
  0.00000000E+00  0.00000000E+00  0.00000000E+00
  0.00000000E+00  0.00000000E+00  0.00000000E+00
  0.00000000E+00  0.00000000E+00  0.00000000E+00
  0.00000000E+00  0.00000000E+00  0.00000000E+00
  0.00000000E+00  0.00000000E+00  0.00000000E+00
  0.00000000E+00  0.00000000E+00  0.00000000E+00
  0.00000000E+00  0.00000000E+00  0.00000000E+00
  0.00000000E+00  0.00000000E+00  0.00000000E+00
  0.00000000E+00  0.00000000E+00  0.00000000E+00
  0.00000000E+00  0.00000000E+00  0.00000000E+00
  0.00000000E+00  0.00000000E+00  0.00000000E+00
  0.00000000E+00  0.00000000E+00  0.00000000E+00
  0.00000000E+00  0.00000000E+00  0.00000000E+00
  0.00000000E+00  0.00000000E+00  0.00000000E+00
  0.00000000E+00  0.00000000E+00  0.00000000E+00
  0.00000000E+00  0.00000000E+00  0.00000000E+00
  0.00000000E+00  0.00000000E+00  0.00000000E+00
  0.00000000E+00  0.00000000E+00  0.00000000E+00
  0.00000000E+00  0.00000000E+00  0.00000000E+00
  0.00000000E+00  0.00000000E+00  0.00000000E+00
  0.00000000E+00  0.00000000E+00  0.00000000E+00
  0.00000000E+00  0.00000000E+00  0.00000000E+00
  0.00000000E+00  0.00000000E+00  0.00000000E+00
  0.00000000E+00  0.00000000E+00  0.00000000E+00
  0.00000000E+00  0.00000000E+00  0.00000000E+00
  0.00000000E+00  0.00000000E+00  0.00000000E+00
  0.00000000E+00  0.00000000E+00  0.00000000E+00
  0.00000000E+00  0.00000000E+00  0.00000000E+00
  0.00000000E+00  0.00000000E+00  0.00000000E+00
  0.00000000E+00  0.00000000E+00  0.00000000E+00
  0.00000000E+00  0.00000000E+00  0.00000000E+00
  0.00000000E+00  0.00000000E+00  0.00000000E+00
  0.00000000E+00  0.00000000E+00  0.00000000E+00
