CeO2-you-111-you-Ce                     
   1.00000000000000     
     9.8761064212428185   -5.7019730689266668    0.0000000004117460
     0.0177447740355906   11.4346789792161196    0.0078872358064599
     0.0083789126814258    0.0145127000284807   21.2012601894147039
   O    Ce   Ce H
    53     1    26 1
Selective dynamics
Direct
 -0.0000377916704502  0.0000259172948800  0.9977442825760011   T   T   T
  0.1103401383859746  0.2221698535502540  0.1492635762658797   T   T   T
  0.2203554941332016  0.1073779882677863  0.3010199225104579   T   T   T
  0.1121313690489049  0.2176070399655562  0.3810756173644834   T   T   T
 -0.0001139581618756 -0.0000055154888519  0.2278050399645953   T   T   T
  0.2219605498715460  0.1105880997431200  0.0756062423659376   T   T   T
  0.3333967089653248  0.0000259172948694  0.9977442825760054   T   T   T
  0.4451627151642133  0.2221698535502907  0.1492635762658928   T   T   T
  0.5569559287418955  0.1140014961902090  0.3018123777657302   T   T   T
  0.4388086709163190  0.2176070399664926  0.3810756173645523   T   T   T
  0.3334414426728872 -0.0000055154888172  0.2278050399646179   T   T   T
  0.5560853415891241  0.1112336140263535  0.0762011002668257   T   T   T
  0.6665600599769916 -0.0002138800460038  0.9983698027406249   T   T   T
  0.7784255641478508  0.2235171282957029  0.1512472957854825   T   T   T
  0.8903795674480144  0.1140014961900719  0.3018123777657087   T   T   T
  0.7786451464218960  0.2239562928438825  0.3808563957330969   T   T   T
  0.6658563283515341 -0.0016213432969110  0.2293883687974944   T   T   T
  0.8884822724371970  0.1112336140263422  0.0762011002668245   T   T   T
  0.0003434055051150  0.3332092923735395  0.9981378577361857   T   T   T
  0.1099265128056570  0.5544015566806503  0.1493142494446685   T   T   T
  0.2370964831728896  0.4447900730709021  0.3090577993804042   T   T   T
  0.0967375804524467  0.5470882609061959  0.3826339882765645   T   T   T
  0.0068942047992228  0.3368968417903125  0.2299607263966641   T   T   T
  0.2227243562459101  0.4448155870405497  0.0765682317156447   T   T   T
  0.3330644233430720  0.3327958466861823  0.9983737390503560   T   T   T
  0.4440635973204868  0.5547951946409304  0.1509757548299739   T   T   T
  0.5410275898992295  0.4447900730729388  0.3090577993805882   T   T   T
  0.3304925977799328  0.3276521955602607  0.2272298832009823   T   T   T
  0.5554252307946471  0.4448155870405557  0.0765682317156405   T   T   T
  0.6661998868684077  0.3332092923735421  0.9981378577361879   T   T   T
  0.7778080438751396  0.5544015566807010  0.1493142494446650   T   T   T
  0.8871780030265976  0.4410220060528472  0.3002947248648017   T   T   T
  0.7836836804536286  0.5470882609060026  0.3826339882764488   T   T   T
  0.6633366369912437  0.3368968417904700  0.2299607263966509   T   T   T
  0.8886730117362204  0.4440120234724039  0.0754179963086815   T   T   T
  0.0005524457448080  0.6677718914895744  0.9979182828703123   T   T   T
  0.1107343719959848  0.8881357439919617  0.1486486640366952   T   T   T
  0.2185965129073648  0.7804770782597026  0.3023004139103015   T   T   T
  0.1116327915791665  0.8899325831585055  0.3828195646281077   T   T   T
 -0.0005449587195869  0.6655770825607944  0.2278372051028488   T   T   T
  0.2226494063082974  0.7779333327539274  0.0758181441578549   T   T   T
  0.3335647384409006  0.6667693558710651  0.9983055707276346   T   T   T
  0.4454461255445806  0.8897644787756862  0.1501165718189490   T   T   T
  0.5542829009249842  0.7752318018495061  0.3060908301990503   T   T   T
  0.4496603384004609  0.9035295981976125  0.3839652236577450   T   T   T
  0.3305808074386169  0.6662828095729908  0.2268371454493118   T   T   T
  0.5552876693527043  0.7772413387054019  0.0769751736746424   T   T   T
  0.6665376174301934  0.6667693558710774  0.9983055707276320   T   T   T
  0.7776513532311422  0.8897644787757504  0.1501165718189368   T   T   T
  0.8952135653531531  0.7804770782602578  0.3023004139102640   T   T   T
  0.7872022597977893  0.9035295981977718  0.3839652236577417   T   T   T
  0.6690350021346029  0.6662828095731580  0.2268371454492998   T   T   T
  0.8886169264456035  0.7779333327539381  0.0758181441578527   T   T   T
  0.3229465258773756  0.3125600517532036  0.3369396166442405   T   T   T
 -0.0010983177595036 -0.0008895984892847  0.3431867280427788   T   T   T
  0.2208619324285396  0.1083908648567157  0.1870464526772299   T   T   T
  0.1108633431843947  0.2224998813181937  0.0369246634653875   T   T   T
  0.3335417192711269 -0.0008895984896238  0.3431867280427015   T   T   T
  0.5549460741633950  0.1110921617867599  0.1898430927010550   T   T   T
  0.4449695381337922  0.2224998813181823  0.0369246634653878   T   T   T
  0.6674091956387034  0.0014843912773105  0.3425256512927037   T   T   T
  0.8894800876236095  0.1110921617868114  0.1898430927010666   T   T   T
  0.7778035604580683  0.2222731209161389  0.0373437870265299   T   T   T
 -0.0000402232375926  0.3334874100597648  0.3421135605674287   T   T   T
  0.2231292838766497  0.4448396024804445  0.1895299134708711   T   T   T
  0.1112977561904222  0.5555579567913592  0.0371302995648249   T   T   T
  0.5550443186033752  0.4448396024801552  0.1895299134708717   T   T   T
  0.4446688047750459  0.5560056095500976  0.0374251017466422   T   T   T
  0.6668616332967134  0.3334874100585345  0.3421135605674117   T   T   T
  0.8892986968675060  0.4452633937352752  0.1892992028295586   T   T   T
  0.7775932006009201  0.5555579567913622  0.0371302995648239   T   T   T
 -0.0017021730806807  0.6632626538391583  0.3425559734986166   T   T   T
  0.2217708302484837  0.7778404543248280  0.1883990422703483   T   T   T
  0.1111201849365705  0.8889073698730786  0.0358520047100746   T   T   T
  0.3267690828534603  0.6758604352333316  0.3413307964415077   T   T   T
  0.5555132567146114  0.7776925134293359  0.1909517559952502   T   T   T
  0.4450180127767489  0.8891370440606313  0.0374577900403390   T   T   T
  0.6824243523767582  0.6758604352298707  0.3413307964412452   T   T   T
  0.8894026240764191  0.7778404543248327  0.1883990422703713   T   T   T
  0.7774520312839270  0.8891370440606355  0.0374577900403395   T   T   T
0.446598 0.216020 0.433410 T T T 
 
  0.00000000E+00  0.00000000E+00  0.00000000E+00
  0.00000000E+00  0.00000000E+00  0.00000000E+00
  0.00000000E+00  0.00000000E+00  0.00000000E+00
  0.00000000E+00  0.00000000E+00  0.00000000E+00
  0.00000000E+00  0.00000000E+00  0.00000000E+00
  0.00000000E+00  0.00000000E+00  0.00000000E+00
  0.00000000E+00  0.00000000E+00  0.00000000E+00
  0.00000000E+00  0.00000000E+00  0.00000000E+00
  0.00000000E+00  0.00000000E+00  0.00000000E+00
  0.00000000E+00  0.00000000E+00  0.00000000E+00
  0.00000000E+00  0.00000000E+00  0.00000000E+00
  0.00000000E+00  0.00000000E+00  0.00000000E+00
  0.00000000E+00  0.00000000E+00  0.00000000E+00
  0.00000000E+00  0.00000000E+00  0.00000000E+00
  0.00000000E+00  0.00000000E+00  0.00000000E+00
  0.00000000E+00  0.00000000E+00  0.00000000E+00
  0.00000000E+00  0.00000000E+00  0.00000000E+00
  0.00000000E+00  0.00000000E+00  0.00000000E+00
  0.00000000E+00  0.00000000E+00  0.00000000E+00
  0.00000000E+00  0.00000000E+00  0.00000000E+00
  0.00000000E+00  0.00000000E+00  0.00000000E+00
  0.00000000E+00  0.00000000E+00  0.00000000E+00
  0.00000000E+00  0.00000000E+00  0.00000000E+00
  0.00000000E+00  0.00000000E+00  0.00000000E+00
  0.00000000E+00  0.00000000E+00  0.00000000E+00
  0.00000000E+00  0.00000000E+00  0.00000000E+00
  0.00000000E+00  0.00000000E+00  0.00000000E+00
  0.00000000E+00  0.00000000E+00  0.00000000E+00
  0.00000000E+00  0.00000000E+00  0.00000000E+00
  0.00000000E+00  0.00000000E+00  0.00000000E+00
  0.00000000E+00  0.00000000E+00  0.00000000E+00
  0.00000000E+00  0.00000000E+00  0.00000000E+00
  0.00000000E+00  0.00000000E+00  0.00000000E+00
  0.00000000E+00  0.00000000E+00  0.00000000E+00
  0.00000000E+00  0.00000000E+00  0.00000000E+00
  0.00000000E+00  0.00000000E+00  0.00000000E+00
  0.00000000E+00  0.00000000E+00  0.00000000E+00
  0.00000000E+00  0.00000000E+00  0.00000000E+00
  0.00000000E+00  0.00000000E+00  0.00000000E+00
  0.00000000E+00  0.00000000E+00  0.00000000E+00
  0.00000000E+00  0.00000000E+00  0.00000000E+00
  0.00000000E+00  0.00000000E+00  0.00000000E+00
  0.00000000E+00  0.00000000E+00  0.00000000E+00
  0.00000000E+00  0.00000000E+00  0.00000000E+00
  0.00000000E+00  0.00000000E+00  0.00000000E+00
  0.00000000E+00  0.00000000E+00  0.00000000E+00
  0.00000000E+00  0.00000000E+00  0.00000000E+00
  0.00000000E+00  0.00000000E+00  0.00000000E+00
  0.00000000E+00  0.00000000E+00  0.00000000E+00
  0.00000000E+00  0.00000000E+00  0.00000000E+00
  0.00000000E+00  0.00000000E+00  0.00000000E+00
  0.00000000E+00  0.00000000E+00  0.00000000E+00
  0.00000000E+00  0.00000000E+00  0.00000000E+00
  0.00000000E+00  0.00000000E+00  0.00000000E+00
  0.00000000E+00  0.00000000E+00  0.00000000E+00
  0.00000000E+00  0.00000000E+00  0.00000000E+00
  0.00000000E+00  0.00000000E+00  0.00000000E+00
  0.00000000E+00  0.00000000E+00  0.00000000E+00
  0.00000000E+00  0.00000000E+00  0.00000000E+00
  0.00000000E+00  0.00000000E+00  0.00000000E+00
  0.00000000E+00  0.00000000E+00  0.00000000E+00
  0.00000000E+00  0.00000000E+00  0.00000000E+00
  0.00000000E+00  0.00000000E+00  0.00000000E+00
  0.00000000E+00  0.00000000E+00  0.00000000E+00
  0.00000000E+00  0.00000000E+00  0.00000000E+00
  0.00000000E+00  0.00000000E+00  0.00000000E+00
  0.00000000E+00  0.00000000E+00  0.00000000E+00
  0.00000000E+00  0.00000000E+00  0.00000000E+00
  0.00000000E+00  0.00000000E+00  0.00000000E+00
  0.00000000E+00  0.00000000E+00  0.00000000E+00
  0.00000000E+00  0.00000000E+00  0.00000000E+00
  0.00000000E+00  0.00000000E+00  0.00000000E+00
  0.00000000E+00  0.00000000E+00  0.00000000E+00
  0.00000000E+00  0.00000000E+00  0.00000000E+00
  0.00000000E+00  0.00000000E+00  0.00000000E+00
  0.00000000E+00  0.00000000E+00  0.00000000E+00
  0.00000000E+00  0.00000000E+00  0.00000000E+00
  0.00000000E+00  0.00000000E+00  0.00000000E+00
  0.00000000E+00  0.00000000E+00  0.00000000E+00
  0.00000000E+00  0.00000000E+00  0.00000000E+00
