CeO2-you-111-you-Mo                     
   1.00000000000000     
     9.8898060657063613   -5.7098825642105142    0.0000000000000000
    -0.0000000051255109   11.4197631099072900    0.0000000000000000
     0.0000000000000000    0.0000000000000000   20.8076767939309271
   O    Mo   Ce   H 
    54     1    26     2
Selective dynamics
Direct
  0.9997359552541834 -0.0000467086335544  0.9947039086519532   T   T   T
  0.1193479604966186  0.2263404802485312  0.1530014013479857   F   F   F
  0.2609026491153459  0.1438123847058207  0.3144696047898218   T   T   T
  0.1441300039306375  0.2503453196610482  0.3786479659152208   T   T   T
  0.0053097013229167  0.0005025104068924  0.2305050074982192   T   T   T
  0.2221413173322802  0.1109496346645642  0.0738856089170170   F   F   F
  0.3334955744696297  0.0004080499730720  0.9944727267987487   T   T   T
  0.4403255197519087  0.2263404802487301  0.1530014013479857   F   F   F
  0.5567951678405334  0.1118182956409642  0.3031233631910025   T   T   T
  0.4826467904767693  0.1862410772995800  0.4122922760487009   T   T   T
  0.3300116720663325 -0.0017787150059609  0.2292331319633361   T   T   T
  0.5534154600817374  0.1132515399192258  0.0752151928258087   F   F   F
  0.6668668257502682 -0.0000611378859355  0.9962226403125032   T   T   T
  0.7761341740675860  0.2189343481348018  0.1486185958412349   F   F   F
  0.8906287059470808  0.1139456679897410  0.3071884173823646   T   T   T
  0.7795517534184870  0.2222444422694837  0.3855905346296098   T   T   T
  0.6677329150486742 -0.0015411153675931  0.2303098659559522   T   T   T
  0.8931700798371978  0.1132515399189344  0.0752151928258087   F   F   F
  0.9994382280985341  0.3323874289368051  0.9945403483063284   T   T   T
  0.1118082733101247  0.5548587266899148  0.1481397798217401   F   F   F
  0.2144046446385199  0.4418751062097442  0.3029458825247905   T   T   T
  0.0937391303078047  0.5467120140683203  0.3869481716396044   T   T   T
 -0.0040525592240875  0.3328822513323857  0.2288995350821717   T   T   T
  0.2221413173322730  0.4445246826677121  0.0738856089170170   F   F   F
  0.3329734619220856  0.3329253897062185  0.9948900026796940   T   T   T
  0.4403255197514682  0.5473190395027459  0.1530014013479857   F   F   F
  0.5353792119466929  0.4150119579992852  0.3098174774321988   T   T   T
  0.4219730868026980  0.5157022068039959  0.3747010331223574   T   T   T
  0.3296390687191190  0.3391211222560692  0.2385708988721051   T   T   T
  0.5557173653354539  0.4445246826677192  0.0738856089170170   F   F   F
  0.6665253404175840  0.3329692517679971  0.9942719163117940   T   T   T
  0.7763834533797791  0.5548587266899005  0.1481397798217401   F   F   F
  0.8858694008278334  0.4437519806790622  0.3029543722942917   T   T   T
  0.7735679079765363  0.5534878888372130  0.3840693120879139   T   T   T
  0.6690365114912606  0.3348396173927350  0.2279171417771347   T   T   T
  0.8887986241623906  0.4442632483247806  0.0733102898694753   F   F   F
 -0.0001157679548548  0.6669538670339478  0.9939755690344823   T   T   T
  0.1118082733101033  0.8902835466201893  0.1481397798217401   F   F   F
  0.2192677763741378  0.7775628607150059  0.3032397433544547   T   T   T
  0.1205085621676049  0.8841653342378516  0.3862009724794139   T   T   T
 -0.0008525254869047  0.6663270793810505  0.2265805437629045   T   T   T
  0.2224027516752329  0.7778683758376062  0.0733102898694753   F   F   F
  0.3336354375627637  0.6671510476235200  0.9942438097138127   T   T   T
  0.4477316518639824  0.8905328259324108  0.1486185958412349   F   F   F
  0.5589663482589475  0.7720217853431688  0.3054358867999434   T   T   T
  0.4536513839540408  0.8967520420335258  0.3861925808677508   T   T   T
  0.3338604978697037  0.6687563033128421  0.2274038534633347   T   T   T
  0.5534154600810695  0.7734969201618398  0.0752151928258087   F   F   F
  0.6670161077661286  0.6675883673010968  0.9945492670911298   T   T   T
  0.7761341740684244  0.8905328259327874  0.1486185958412349   F   F   F
  0.8875617284683630  0.7727263560937655  0.3042114124956391   T   T   T
  0.7671439742979094  0.8761310663780201  0.3876368209012526   T   T   T
  0.6675627308044594  0.6616999523219093  0.2307533185249484   T   T   T
  0.8887986241623835  0.7778683758376062  0.0733102898694753   F   F   F
  0.3129085671837607  0.3458826274022598  0.3337872312515359   T   T   T
  0.0055081281000555 -0.0005852514488127  0.3495476801677626   T   T   T
  0.2199172534882621  0.1065015069762083  0.1912117892866689   F   F   F
  0.1120946268887977  0.2227138134446278  0.0352788545295581   F   F   F
  0.3364062515596574 -0.0052013481121282  0.3469008382165124   T   T   T
  0.5554085247386880  0.1112584752626873  0.1906662584730014   F   F   F
  0.4439521865558262  0.2227138134448268  0.0352788545295581   F   F   F
  0.6678026445709487 -0.0044842326971689  0.3460757192361970   T   T   T
  0.8891839505235737  0.1112584752622610  0.1906662584730014   F   F   F
  0.7778295956695587  0.2223251913390598  0.0348608598644304   F   F   F
  0.9924554609509024  0.3353419722500723  0.3443321030745119   T   T   T
  0.2199172534889442  0.4467487465120428  0.1912117892866689   F   F   F
  0.1115325941710310  0.5551344058282552  0.0330921629897531   F   F   F
  0.5601654930228079  0.4467487465117372  0.1912117892866689   F   F   F
  0.4439521865553715  0.5545723731105596  0.0352788545295581   F   F   F
  0.6675594667028552  0.3304429631724520  0.3454968735886371   T   T   T
  0.8892609860556675  0.4451879721119028  0.1876021503459597   F   F   F
  0.7769348116574335  0.5551344058284755  0.0330921629897531   F   F   F
  0.0006721040779101  0.6669220425088154  0.3441859770278072   T   T   T
  0.2214780278899298  0.7774060139443293  0.1876021503459597   F   F   F
  0.1115325941715284  0.8897321883432809  0.0330921629897531   F   F   F
  0.3299266039920659  0.6677298128687363  0.3483518765744133   T   T   T
  0.5554085247377429  0.7774830494750518  0.1906662584730014   F   F   F
  0.4443408086607263  0.8888374043304381  0.0348608598644304   F   F   F
  0.6701761801342212  0.6642286274751548  0.3442251350379371   T   T   T
  0.8892609860544027  0.7774060139437680  0.1876021503459597   F   F   F
  0.7778295956697079  0.8888374043305021  0.0348608598644304   F   F   F
  0.3597645224313818  0.3020321512795938  0.4038851051186849   T   T   T
  0.4321274607536339  0.2330858684032915  0.4231848305285009   T   T   T
 
  0.00000000E+00  0.00000000E+00  0.00000000E+00
  0.00000000E+00  0.00000000E+00  0.00000000E+00
  0.00000000E+00  0.00000000E+00  0.00000000E+00
  0.00000000E+00  0.00000000E+00  0.00000000E+00
  0.00000000E+00  0.00000000E+00  0.00000000E+00
  0.00000000E+00  0.00000000E+00  0.00000000E+00
  0.00000000E+00  0.00000000E+00  0.00000000E+00
  0.00000000E+00  0.00000000E+00  0.00000000E+00
  0.00000000E+00  0.00000000E+00  0.00000000E+00
  0.00000000E+00  0.00000000E+00  0.00000000E+00
  0.00000000E+00  0.00000000E+00  0.00000000E+00
  0.00000000E+00  0.00000000E+00  0.00000000E+00
  0.00000000E+00  0.00000000E+00  0.00000000E+00
  0.00000000E+00  0.00000000E+00  0.00000000E+00
  0.00000000E+00  0.00000000E+00  0.00000000E+00
  0.00000000E+00  0.00000000E+00  0.00000000E+00
  0.00000000E+00  0.00000000E+00  0.00000000E+00
  0.00000000E+00  0.00000000E+00  0.00000000E+00
  0.00000000E+00  0.00000000E+00  0.00000000E+00
  0.00000000E+00  0.00000000E+00  0.00000000E+00
  0.00000000E+00  0.00000000E+00  0.00000000E+00
  0.00000000E+00  0.00000000E+00  0.00000000E+00
  0.00000000E+00  0.00000000E+00  0.00000000E+00
  0.00000000E+00  0.00000000E+00  0.00000000E+00
  0.00000000E+00  0.00000000E+00  0.00000000E+00
  0.00000000E+00  0.00000000E+00  0.00000000E+00
  0.00000000E+00  0.00000000E+00  0.00000000E+00
  0.00000000E+00  0.00000000E+00  0.00000000E+00
  0.00000000E+00  0.00000000E+00  0.00000000E+00
  0.00000000E+00  0.00000000E+00  0.00000000E+00
  0.00000000E+00  0.00000000E+00  0.00000000E+00
  0.00000000E+00  0.00000000E+00  0.00000000E+00
  0.00000000E+00  0.00000000E+00  0.00000000E+00
  0.00000000E+00  0.00000000E+00  0.00000000E+00
  0.00000000E+00  0.00000000E+00  0.00000000E+00
  0.00000000E+00  0.00000000E+00  0.00000000E+00
  0.00000000E+00  0.00000000E+00  0.00000000E+00
  0.00000000E+00  0.00000000E+00  0.00000000E+00
  0.00000000E+00  0.00000000E+00  0.00000000E+00
  0.00000000E+00  0.00000000E+00  0.00000000E+00
  0.00000000E+00  0.00000000E+00  0.00000000E+00
  0.00000000E+00  0.00000000E+00  0.00000000E+00
  0.00000000E+00  0.00000000E+00  0.00000000E+00
  0.00000000E+00  0.00000000E+00  0.00000000E+00
  0.00000000E+00  0.00000000E+00  0.00000000E+00
  0.00000000E+00  0.00000000E+00  0.00000000E+00
  0.00000000E+00  0.00000000E+00  0.00000000E+00
  0.00000000E+00  0.00000000E+00  0.00000000E+00
  0.00000000E+00  0.00000000E+00  0.00000000E+00
  0.00000000E+00  0.00000000E+00  0.00000000E+00
  0.00000000E+00  0.00000000E+00  0.00000000E+00
  0.00000000E+00  0.00000000E+00  0.00000000E+00
  0.00000000E+00  0.00000000E+00  0.00000000E+00
  0.00000000E+00  0.00000000E+00  0.00000000E+00
  0.00000000E+00  0.00000000E+00  0.00000000E+00
  0.00000000E+00  0.00000000E+00  0.00000000E+00
  0.00000000E+00  0.00000000E+00  0.00000000E+00
  0.00000000E+00  0.00000000E+00  0.00000000E+00
  0.00000000E+00  0.00000000E+00  0.00000000E+00
  0.00000000E+00  0.00000000E+00  0.00000000E+00
  0.00000000E+00  0.00000000E+00  0.00000000E+00
  0.00000000E+00  0.00000000E+00  0.00000000E+00
  0.00000000E+00  0.00000000E+00  0.00000000E+00
  0.00000000E+00  0.00000000E+00  0.00000000E+00
  0.00000000E+00  0.00000000E+00  0.00000000E+00
  0.00000000E+00  0.00000000E+00  0.00000000E+00
  0.00000000E+00  0.00000000E+00  0.00000000E+00
  0.00000000E+00  0.00000000E+00  0.00000000E+00
  0.00000000E+00  0.00000000E+00  0.00000000E+00
  0.00000000E+00  0.00000000E+00  0.00000000E+00
  0.00000000E+00  0.00000000E+00  0.00000000E+00
  0.00000000E+00  0.00000000E+00  0.00000000E+00
  0.00000000E+00  0.00000000E+00  0.00000000E+00
  0.00000000E+00  0.00000000E+00  0.00000000E+00
  0.00000000E+00  0.00000000E+00  0.00000000E+00
  0.00000000E+00  0.00000000E+00  0.00000000E+00
  0.00000000E+00  0.00000000E+00  0.00000000E+00
  0.00000000E+00  0.00000000E+00  0.00000000E+00
  0.00000000E+00  0.00000000E+00  0.00000000E+00
  0.00000000E+00  0.00000000E+00  0.00000000E+00
  0.00000000E+00  0.00000000E+00  0.00000000E+00
  0.00000000E+00  0.00000000E+00  0.00000000E+00
  0.00000000E+00  0.00000000E+00  0.00000000E+00
