CeO2-you-111-you-Mg                     
   1.00000000000000     
     9.8358177635432629   -5.6787124044700201    0.0000000000000000
     0.0000000008849982   11.3574228118073837    0.0000000000000000
     0.0000000000000000    0.0000000000000000   21.1691607423094652
   O    Mg   Ce   H 
    54     1    26     2
Selective dynamics
Direct
 -0.0013038903446013 -0.0019636746791485  0.9952901540968605   T   T   T
  0.1060454800930206  0.2179302216845376  0.1481970831664540   T   T   T
  0.2345613363394554  0.1227808219383236  0.3060262087062519   T   T   T
  0.0842987052388152  0.2069935582259039  0.3859134111874143   T   T   T
  0.0024802565090349 -0.0013418324612411  0.2293059147019251   T   T   T
  0.2205715346193593  0.1087473533677529  0.0749124270495710   T   T   T
  0.3313249325429285 -0.0019318605595797  0.9953709393128578   T   T   T
  0.4451924273662656  0.2180588874035627  0.1488003145990568   T   T   T
  0.5501569408583933  0.1128123634368148  0.3032062319184484   T   T   T
  0.4638659971060526  0.1992641092566161  0.4041217451556807   T   T   T
  0.3298007488082935 -0.0040736635443951  0.2282396300214581   T   T   T
  0.5545174985194692  0.1079163156441117  0.0744799793273308   T   T   T
  0.6644076473086428 -0.0025580089438133  0.9947289804246370   T   T   T
  0.7760368152261716  0.2199385476085255  0.1505503757223245   T   T   T
  0.8843858055472813  0.1065967571033859  0.3002703413540723   T   T   T
  0.7754353090238367  0.2179492224043824  0.3803923697632832   T   T   T
  0.6605018802393849 -0.0049251551632704  0.2298522600868831   T   T   T
  0.8848809470154956  0.1070604945220224  0.0744148645474113   T   T   T
 -0.0015717461832373  0.3301539810454385  0.9954412588636291   T   T   T
  0.1084447317753700  0.5526865160673962  0.1485176711474892   T   T   T
  0.2355524805107466  0.4408708126664801  0.3063347682453089   T   T   T
  0.1134933355778712  0.5546570712811205  0.3818077378938594   T   T   T
  0.0029187972348368  0.3331073933642570  0.2294270004618187   T   T   T
  0.2212321548370101  0.4422716539793504  0.0745332456004451   T   T   T
  0.3318562190644040  0.3304528564415568  0.9954329537720809   T   T   T
  0.4451946479742614  0.5563798899816214  0.1489713404850889   T   T   T
  0.5369044909299122  0.4327420784588289  0.3103615702793949   T   T   T
  0.4667667398813444  0.5955263885974340  0.4041721013827178   T   T   T
  0.3317458387625793  0.3301999293659501  0.2209988950826442   T   T   T
  0.5537254030179153  0.4419592297379805  0.0750709606081710   T   T   T
  0.6646209667487261  0.3309890077312326  0.9952603898367410   T   T   T
  0.7771857094460995  0.5529881802868126  0.1488146309110137   T   T   T
  0.8895364046053095  0.4432876354799287  0.3036178212038124   T   T   T
  0.7764792077892202  0.5526445152277962  0.3821581855596892   T   T   T
  0.6656542779075832  0.3346193465752236  0.2299821321491202   T   T   T
  0.8866116816210725  0.4407351877013705  0.0745378985723536   T   T   T
 -0.0028399547080029  0.6636122554275361  0.9955763532388928   T   T   T
  0.1085238970976354  0.8849918779336300  0.1484465381946275   T   T   T
  0.2190212389768118  0.7741837446537180  0.3021307057658310   T   T   T
  0.1122072448203294  0.8867371574991533  0.3821052062609950   T   T   T
 -0.0018329792742764  0.6638920902493695  0.2284948315332655   T   T   T
  0.2206378886245837  0.7752274227410549  0.0739970694524759   T   T   T
  0.3315922752463711  0.6639463472022656  0.9953574528957801   T   T   T
  0.4426116015339763  0.8857716135193326  0.1489266494627216   T   T   T
  0.5501112755563389  0.7666787534660788  0.3030965688866643   T   T   T
  0.4412387004417477  0.8854106764680191  0.3797089924312013   T   T   T
  0.3289318063525780  0.6626148790013148  0.2283365111687633   T   T   T
  0.5549215856221780  0.7760784421443543  0.0743731891060219   T   T   T
  0.6644948568694099  0.6638487150715212  0.9950502551011140   T   T   T
  0.7756609566393774  0.8856294180394879  0.1506609522936505   T   T   T
  0.8892733702410628  0.7755014123154479  0.3034803837498479   T   T   T
  0.7759725116224677  0.8866673115841948  0.3803461096705045   T   T   T
  0.6657923195773545  0.6601780498867423  0.2298322123917068   T   T   T
  0.8860852888920050  0.7756273460489856  0.0745536106578468   T   T   T
  0.3268884243707088  0.3275251457186614  0.3171904526657021   T   T   T
  0.0025583896082029  0.0039399873286077  0.3433778997032417   T   T   T
  0.2209595449485912  0.1083186398896667  0.1885093766566144   T   T   T
  0.1091280946485475  0.2194666381478165  0.0351561143995069   T   T   T
  0.3282240683579227 -0.0053420015180897  0.3416442036326654   T   T   T
  0.5532213874372908  0.1083815339586309  0.1891758562871983   T   T   T
  0.4429345021904924  0.2196544734806027  0.0349846213931235   T   T   T
  0.6641767278250246 -0.0033154860541012  0.3422458980287093   T   T   T
  0.8872563707792652  0.1083207620429793  0.1893056399554787   T   T   T
  0.7757157390257923  0.2192778442266430  0.0350406629133837   T   T   T
  0.0029832703466440  0.3277358424659703  0.3433062822866944   T   T   T
  0.2211969560625643  0.4417830114331027  0.1884461829736126   T   T   T
  0.1089521712889106  0.5526656866302759  0.0349333087044935   T   T   T
  0.5538197423072975  0.4413803771494363  0.1891848801399691   T   T   T
  0.4431017088771352  0.5532762045264199  0.0349837310471495   T   T   T
  0.6687566686654193  0.3334116694080557  0.3424670565343035   T   T   T
  0.8880753657400426  0.4421665585630017  0.1893162267621291   T   T   T
  0.7757376676667707  0.5527597984476622  0.0353407501224152   T   T   T
  0.0000146312784068  0.6645302382670734  0.3419498486551192   T   T   T
  0.2203130892364289  0.7746716422207448  0.1878597679611357   T   T   T
  0.1090256960263913  0.8864156212297373  0.0349586556751157   T   T   T
  0.3285495495775635  0.6622457462953857  0.3417633592113438   T   T   T
  0.5531574223249620  0.7741863838824884  0.1892242825715775   T   T   T
  0.4429763098254708  0.8864426347245248  0.0347603336272722   T   T   T
  0.6692590387631915  0.6644274426148077  0.3422054221413565   T   T   T
  0.8879204403800962  0.7752108378317307  0.1891497127272149   T   T   T
  0.7756723197299954  0.8862571650189082  0.0349769039568011   T   T   T
  0.4425415771963321  0.5445820214568704  0.4434554203280391   T   T   T
  0.4408985278642196  0.2168529361259135  0.4459087634795695   T   T   T
 
  0.00000000E+00  0.00000000E+00  0.00000000E+00
  0.00000000E+00  0.00000000E+00  0.00000000E+00
  0.00000000E+00  0.00000000E+00  0.00000000E+00
  0.00000000E+00  0.00000000E+00  0.00000000E+00
  0.00000000E+00  0.00000000E+00  0.00000000E+00
  0.00000000E+00  0.00000000E+00  0.00000000E+00
  0.00000000E+00  0.00000000E+00  0.00000000E+00
  0.00000000E+00  0.00000000E+00  0.00000000E+00
  0.00000000E+00  0.00000000E+00  0.00000000E+00
  0.00000000E+00  0.00000000E+00  0.00000000E+00
  0.00000000E+00  0.00000000E+00  0.00000000E+00
  0.00000000E+00  0.00000000E+00  0.00000000E+00
  0.00000000E+00  0.00000000E+00  0.00000000E+00
  0.00000000E+00  0.00000000E+00  0.00000000E+00
  0.00000000E+00  0.00000000E+00  0.00000000E+00
  0.00000000E+00  0.00000000E+00  0.00000000E+00
  0.00000000E+00  0.00000000E+00  0.00000000E+00
  0.00000000E+00  0.00000000E+00  0.00000000E+00
  0.00000000E+00  0.00000000E+00  0.00000000E+00
  0.00000000E+00  0.00000000E+00  0.00000000E+00
  0.00000000E+00  0.00000000E+00  0.00000000E+00
  0.00000000E+00  0.00000000E+00  0.00000000E+00
  0.00000000E+00  0.00000000E+00  0.00000000E+00
  0.00000000E+00  0.00000000E+00  0.00000000E+00
  0.00000000E+00  0.00000000E+00  0.00000000E+00
  0.00000000E+00  0.00000000E+00  0.00000000E+00
  0.00000000E+00  0.00000000E+00  0.00000000E+00
  0.00000000E+00  0.00000000E+00  0.00000000E+00
  0.00000000E+00  0.00000000E+00  0.00000000E+00
  0.00000000E+00  0.00000000E+00  0.00000000E+00
  0.00000000E+00  0.00000000E+00  0.00000000E+00
  0.00000000E+00  0.00000000E+00  0.00000000E+00
  0.00000000E+00  0.00000000E+00  0.00000000E+00
  0.00000000E+00  0.00000000E+00  0.00000000E+00
  0.00000000E+00  0.00000000E+00  0.00000000E+00
  0.00000000E+00  0.00000000E+00  0.00000000E+00
  0.00000000E+00  0.00000000E+00  0.00000000E+00
  0.00000000E+00  0.00000000E+00  0.00000000E+00
  0.00000000E+00  0.00000000E+00  0.00000000E+00
  0.00000000E+00  0.00000000E+00  0.00000000E+00
  0.00000000E+00  0.00000000E+00  0.00000000E+00
  0.00000000E+00  0.00000000E+00  0.00000000E+00
  0.00000000E+00  0.00000000E+00  0.00000000E+00
  0.00000000E+00  0.00000000E+00  0.00000000E+00
  0.00000000E+00  0.00000000E+00  0.00000000E+00
  0.00000000E+00  0.00000000E+00  0.00000000E+00
  0.00000000E+00  0.00000000E+00  0.00000000E+00
  0.00000000E+00  0.00000000E+00  0.00000000E+00
  0.00000000E+00  0.00000000E+00  0.00000000E+00
  0.00000000E+00  0.00000000E+00  0.00000000E+00
  0.00000000E+00  0.00000000E+00  0.00000000E+00
  0.00000000E+00  0.00000000E+00  0.00000000E+00
  0.00000000E+00  0.00000000E+00  0.00000000E+00
  0.00000000E+00  0.00000000E+00  0.00000000E+00
  0.00000000E+00  0.00000000E+00  0.00000000E+00
  0.00000000E+00  0.00000000E+00  0.00000000E+00
  0.00000000E+00  0.00000000E+00  0.00000000E+00
  0.00000000E+00  0.00000000E+00  0.00000000E+00
  0.00000000E+00  0.00000000E+00  0.00000000E+00
  0.00000000E+00  0.00000000E+00  0.00000000E+00
  0.00000000E+00  0.00000000E+00  0.00000000E+00
  0.00000000E+00  0.00000000E+00  0.00000000E+00
  0.00000000E+00  0.00000000E+00  0.00000000E+00
  0.00000000E+00  0.00000000E+00  0.00000000E+00
  0.00000000E+00  0.00000000E+00  0.00000000E+00
  0.00000000E+00  0.00000000E+00  0.00000000E+00
  0.00000000E+00  0.00000000E+00  0.00000000E+00
  0.00000000E+00  0.00000000E+00  0.00000000E+00
  0.00000000E+00  0.00000000E+00  0.00000000E+00
  0.00000000E+00  0.00000000E+00  0.00000000E+00
  0.00000000E+00  0.00000000E+00  0.00000000E+00
  0.00000000E+00  0.00000000E+00  0.00000000E+00
  0.00000000E+00  0.00000000E+00  0.00000000E+00
  0.00000000E+00  0.00000000E+00  0.00000000E+00
  0.00000000E+00  0.00000000E+00  0.00000000E+00
  0.00000000E+00  0.00000000E+00  0.00000000E+00
  0.00000000E+00  0.00000000E+00  0.00000000E+00
  0.00000000E+00  0.00000000E+00  0.00000000E+00
  0.00000000E+00  0.00000000E+00  0.00000000E+00
  0.00000000E+00  0.00000000E+00  0.00000000E+00
  0.00000000E+00  0.00000000E+00  0.00000000E+00
  0.00000000E+00  0.00000000E+00  0.00000000E+00
  0.00000000E+00  0.00000000E+00  0.00000000E+00
