CeO2-you-111-you-Tl                     
   1.00000000000000     
     9.8666432551635399   -5.6975726413441841    0.0006440905225950
    -0.0009207012310151   11.3935485761783593   -0.0006440904046599
     0.0007394737852041   -0.0012808060634469   21.2030945078075099
   O    Tl   Ce   H 
    53     1    26     1
Selective dynamics
Direct
  0.9999459838956268  0.9998950998388286  0.9957438470804081   T   T   T
  0.1087330607210633  0.2191724244586907  0.1467207538429969   T   T   T
  0.2317345809446034  0.1104699697637671  0.3023477916531848   T   T   T
  0.1174872763862795  0.2242055846931136  0.3798290179774507   T   T   T
  0.0034139254732297  0.0020699555198269  0.2299624831412522   T   T   T
  0.2217279883147449  0.1100844014563076  0.0747133310119245   T   T   T
  0.3353074339204388  0.0012110484243954  0.9968111496981626   T   T   T
  0.4415382698869846  0.2248536197914954  0.1508229423825019   T   T   T
  0.5500953595910074  0.1161252767502202  0.3030183558384413   T   T   T
  0.4479277950582861  0.2183364982727573  0.3997049271958804   T   T   T
  0.3338779479724651 -0.0014590927197506  0.2257508057711778   T   T   T
  0.5559712874324948  0.1113180600096255  0.0776596006083742   T   T   T
  0.6661175729207311  0.0007258210760120  0.9965873000615901   T   T   T
  0.7846262101702985  0.2243407764578819  0.1510627425366542   T   T   T
  0.8829443369316409  0.1036793559072968  0.3035813671291942   T   T   T
  0.7656199122545938  0.2181536005054310  0.3848690498708788   T   T   T
  0.6643443458816229  0.0026120507182858  0.2289613255660337   T   T   T
  0.8876639625749683  0.1089763835342878  0.0751274783253308   T   T   T
  0.9980703985988592  0.3313980096091143  0.9957341935049983   T   T   T
  0.1105677219997280  0.5565615726500366  0.1462002681803320   T   T   T
  0.1064342540992280  0.5598190960896812  0.3819550887223262   T   T   T
  0.0180873728154149  0.3417594183308890  0.2326888706970514   T   T   T
  0.2223045469020214  0.4441690390609389  0.0718632649033640   T   T   T
  0.3337897910400570  0.3318205967224624  0.9957356423003766   T   T   T
  0.4477013865566039  0.5582386648791745  0.1464910436689469   T   T   T
  0.5563012604305710  0.4349277385726890  0.3023699257368536   T   T   T
  0.4422477480605877  0.5487316624892774  0.3797909305214750   T   T   T
  0.3247574627516231  0.3421864286658000  0.2297090077823214   T   T   T
  0.5557851394468428  0.4443328938791983  0.0745833302405280   T   T   T
  0.6661746062186583  0.3319827552450352  0.9968376041143251   T   T   T
  0.7779917915580838  0.5556676747947681  0.1496208457272401   T   T   T
  0.8838360596462612  0.4455988154616323  0.3009717619973970   T   T   T
  0.7772972606807279  0.5567783619991428  0.3817070732716792   T   T   T
  0.6678746169845481  0.3325451406740056  0.2258082278457241   T   T   T
  0.8888140825165628  0.4444001080654066  0.0745053541579770   T   T   T
  0.9999772014549930  0.6672983263720216  0.9961017329191667   T   T   T
  0.1100689721479421  0.8885663016220839  0.1498289850403320   T   T   T
  0.2210587994089050  0.7824273316219482  0.3008861726160122   T   T   T
  0.1103649834673003  0.8896196376477346  0.3815465248856180   T   T   T
  0.0004615164820750  0.6659585926231858  0.2278734598093018   T   T   T
  0.2226112894366988  0.7785754748943364  0.0745687486216345   T   T   T
  0.3346664978566239  0.6687627686179189  0.9958994836262773   T   T   T
  0.4422960957041593  0.8820115544267868  0.1511138823082252   T   T   T
  0.5631905731138988  0.7834026153846227  0.3031906430042877   T   T   T
  0.4494679003488083  0.9014832847321453  0.3848532237698857   T   T   T
  0.3248433986770868  0.6481342658061598  0.2328028216095223   T   T   T
  0.5574062393399697  0.7791987485105266  0.0749719167365985   T   T   T
  0.6673093283531959  0.6670708288475793  0.9959935214241962   T   T   T
  0.7777850462070095  0.8891146027093622  0.1524092138435204   T   T   T
  0.8886909878135784  0.7783871639509686  0.3022508044349905   T   T   T
  0.7793810766249719  0.8871262896703562  0.3839698970719160   T   T   T
  0.6642342638748009  0.6623688342764694  0.2297690957040440   T   T   T
  0.8883847036857047  0.7784631197995974  0.0755824350315697   T   T   T
  0.3366573832577970  0.3297659362583796  0.3466383657129989   T   T   T
 -0.0000263360234831  0.9994215357088122  0.3423686835183540   T   T   T
  0.2224123152998463  0.1126885399549809  0.1898398830303648   T   T   T
  0.1096375019373377  0.2194619703656769  0.0341089471075861   T   T   T
  0.3291379592479494 -0.0061468147365937  0.3399953270157272   T   T   T
  0.5554229636103438  0.1112511136437007  0.1893520893917144   T   T   T
  0.4442887899936658  0.2223717693871568  0.0359598301512720   T   T   T
  0.6662112821797328  0.0003613375518893  0.3430568174273328   T   T   T
  0.8907423691031079  0.1124563611005231  0.1914407846994604   T   T   T
  0.7783711195884855  0.2219200026447361  0.0363937176097366   T   T   T
  0.9898596750653544  0.3290999019742389  0.3500323627825995   T   T   T
  0.2226240402999466  0.4441295716196237  0.1808446893914685   T   T   T
  0.1103479651811175  0.5565020249653616  0.0337778704287858   T   T   T
  0.5537483124102834  0.4438605571576780  0.1898354400974037   T   T   T
  0.4468832059289330  0.5568707348701646  0.0341626399133794   T   T   T
  0.6725869212151034  0.3373936096665205  0.3401186083146974   T   T   T
  0.8909804384100622  0.4449657777354304  0.1892447590662854   T   T   T
  0.7774334823252907  0.5550038874833438  0.0364021391317979   T   T   T
  0.0004017580283662  0.6661383715117680  0.3418023111429916   T   T   T
  0.2215404671440548  0.7756083917250060  0.1892286406888839   T   T   T
  0.1116620882221881  0.8893817036995930  0.0363733774443767   T   T   T
  0.3375338475685719  0.6765490158444215  0.3500814475030390   T   T   T
  0.5542130781304698  0.7758391392862989  0.1914136808142346   T   T   T
  0.4449268113544129  0.8887361114298995  0.0364967019631401   T   T   T
  0.6671716869154023  0.6664673282649348  0.3423725793023634   T   T   T
  0.8890825036493455  0.7773404823005032  0.1891240146724121   T   T   T
  0.7774403519173223  0.8892704839497588  0.0369192906502553   T   T   T
  0.4437723934037962  0.2212086014746667  0.4454897355060004   T   T   T
 
  0.00000000E+00  0.00000000E+00  0.00000000E+00
  0.00000000E+00  0.00000000E+00  0.00000000E+00
  0.00000000E+00  0.00000000E+00  0.00000000E+00
  0.00000000E+00  0.00000000E+00  0.00000000E+00
  0.00000000E+00  0.00000000E+00  0.00000000E+00
  0.00000000E+00  0.00000000E+00  0.00000000E+00
  0.00000000E+00  0.00000000E+00  0.00000000E+00
  0.00000000E+00  0.00000000E+00  0.00000000E+00
  0.00000000E+00  0.00000000E+00  0.00000000E+00
  0.00000000E+00  0.00000000E+00  0.00000000E+00
  0.00000000E+00  0.00000000E+00  0.00000000E+00
  0.00000000E+00  0.00000000E+00  0.00000000E+00
  0.00000000E+00  0.00000000E+00  0.00000000E+00
  0.00000000E+00  0.00000000E+00  0.00000000E+00
  0.00000000E+00  0.00000000E+00  0.00000000E+00
  0.00000000E+00  0.00000000E+00  0.00000000E+00
  0.00000000E+00  0.00000000E+00  0.00000000E+00
  0.00000000E+00  0.00000000E+00  0.00000000E+00
  0.00000000E+00  0.00000000E+00  0.00000000E+00
  0.00000000E+00  0.00000000E+00  0.00000000E+00
  0.00000000E+00  0.00000000E+00  0.00000000E+00
  0.00000000E+00  0.00000000E+00  0.00000000E+00
  0.00000000E+00  0.00000000E+00  0.00000000E+00
  0.00000000E+00  0.00000000E+00  0.00000000E+00
  0.00000000E+00  0.00000000E+00  0.00000000E+00
  0.00000000E+00  0.00000000E+00  0.00000000E+00
  0.00000000E+00  0.00000000E+00  0.00000000E+00
  0.00000000E+00  0.00000000E+00  0.00000000E+00
  0.00000000E+00  0.00000000E+00  0.00000000E+00
  0.00000000E+00  0.00000000E+00  0.00000000E+00
  0.00000000E+00  0.00000000E+00  0.00000000E+00
  0.00000000E+00  0.00000000E+00  0.00000000E+00
  0.00000000E+00  0.00000000E+00  0.00000000E+00
  0.00000000E+00  0.00000000E+00  0.00000000E+00
  0.00000000E+00  0.00000000E+00  0.00000000E+00
  0.00000000E+00  0.00000000E+00  0.00000000E+00
  0.00000000E+00  0.00000000E+00  0.00000000E+00
  0.00000000E+00  0.00000000E+00  0.00000000E+00
  0.00000000E+00  0.00000000E+00  0.00000000E+00
  0.00000000E+00  0.00000000E+00  0.00000000E+00
  0.00000000E+00  0.00000000E+00  0.00000000E+00
  0.00000000E+00  0.00000000E+00  0.00000000E+00
  0.00000000E+00  0.00000000E+00  0.00000000E+00
  0.00000000E+00  0.00000000E+00  0.00000000E+00
  0.00000000E+00  0.00000000E+00  0.00000000E+00
  0.00000000E+00  0.00000000E+00  0.00000000E+00
  0.00000000E+00  0.00000000E+00  0.00000000E+00
  0.00000000E+00  0.00000000E+00  0.00000000E+00
  0.00000000E+00  0.00000000E+00  0.00000000E+00
  0.00000000E+00  0.00000000E+00  0.00000000E+00
  0.00000000E+00  0.00000000E+00  0.00000000E+00
  0.00000000E+00  0.00000000E+00  0.00000000E+00
  0.00000000E+00  0.00000000E+00  0.00000000E+00
  0.00000000E+00  0.00000000E+00  0.00000000E+00
  0.00000000E+00  0.00000000E+00  0.00000000E+00
  0.00000000E+00  0.00000000E+00  0.00000000E+00
  0.00000000E+00  0.00000000E+00  0.00000000E+00
  0.00000000E+00  0.00000000E+00  0.00000000E+00
  0.00000000E+00  0.00000000E+00  0.00000000E+00
  0.00000000E+00  0.00000000E+00  0.00000000E+00
  0.00000000E+00  0.00000000E+00  0.00000000E+00
  0.00000000E+00  0.00000000E+00  0.00000000E+00
  0.00000000E+00  0.00000000E+00  0.00000000E+00
  0.00000000E+00  0.00000000E+00  0.00000000E+00
  0.00000000E+00  0.00000000E+00  0.00000000E+00
  0.00000000E+00  0.00000000E+00  0.00000000E+00
  0.00000000E+00  0.00000000E+00  0.00000000E+00
  0.00000000E+00  0.00000000E+00  0.00000000E+00
  0.00000000E+00  0.00000000E+00  0.00000000E+00
  0.00000000E+00  0.00000000E+00  0.00000000E+00
  0.00000000E+00  0.00000000E+00  0.00000000E+00
  0.00000000E+00  0.00000000E+00  0.00000000E+00
  0.00000000E+00  0.00000000E+00  0.00000000E+00
  0.00000000E+00  0.00000000E+00  0.00000000E+00
  0.00000000E+00  0.00000000E+00  0.00000000E+00
  0.00000000E+00  0.00000000E+00  0.00000000E+00
  0.00000000E+00  0.00000000E+00  0.00000000E+00
  0.00000000E+00  0.00000000E+00  0.00000000E+00
  0.00000000E+00  0.00000000E+00  0.00000000E+00
  0.00000000E+00  0.00000000E+00  0.00000000E+00
  0.00000000E+00  0.00000000E+00  0.00000000E+00
