CeO2-you-111-you-Ni                     
   1.00000000000000     
     9.8205666401696714   -5.6699071646920896    0.0000000000000000
     0.0000000028007476   11.3398123386687679    0.0000000000000000
     0.0000000000000000    0.0000000000000000   20.8125899465341355
   O    Ni   Ce   H 
    54     1    26     1
Selective dynamics
Direct
  0.9995456910367980 -0.0001693738138746  0.9929895722028196   T   T   T
  0.1121203617862818  0.2227266808930395  0.1496172103314848   F   F   F
  0.2404403975124700  0.1265392383292397  0.3095216115773449   T   T   T
  0.1264592080906716  0.2351042144667009  0.3787429705333265   T   T   T
  0.0047773186490080  0.0021454669878454  0.2314488296847374   T   T   T
  0.2222705088505421  0.1112080177011237  0.0734662178818439   F   F   F
  0.3334720613995717 -0.0000203350683840  0.9931454648226008   T   T   T
  0.4439393191067538  0.2227266808929542  0.1496172103314848   F   F   F
  0.5531712722496638  0.1135664651256174  0.3069443278658074   T   T   T
  0.4684759446950919  0.1976524311835121  0.4114420024042543   T   T   T
  0.3320034610175953 -0.0009142736709083  0.2301907540487073   T   T   T
  0.5555406448607059  0.1111263551395609  0.0741012488483292   F   F   F
  0.6664933162514235 -0.0000597460011276  0.9931788620442787   T   T   T
  0.7776631865374526  0.2219923730751177  0.1498992357575091   F   F   F
  0.8903132997819432  0.1101009172529858  0.3059939262339326   T   T   T
  0.7801593632388524  0.2216242102082056  0.3863753584923494   T   T   T
  0.6663916343815014  0.0003850895638242  0.2312620806472810   T   T   T
  0.8889197102787776  0.1111263551394828  0.0741012488483292   F   F   F
  0.9997874039073275  0.3331897973876262  0.9931026199667338   T   T   T
  0.1111200237835774  0.5555469762169309  0.1495990413265460   F   F   F
  0.2212393222358278  0.4458405994341595  0.3026679899588450   T   T   T
  0.1110078533961836  0.5561732979103664  0.3860795068094809   T   T   T
 -0.0017640169565052  0.3323291549082159  0.2303951941856634   T   T   T
  0.2222705088504497  0.4443954911494146  0.0734662178818439   F   F   F
  0.3332797660355175  0.3333271133384537  0.9927803127694829   T   T   T
  0.4439393191069598  0.5545466382140134  0.1496172103314848   F   F   F
  0.5398027556665554  0.4257442456959769  0.3098111763863726   T   T   T
  0.4320856482828584  0.5408417662324648  0.3788413002522934   T   T   T
  0.3316660076085773  0.3353771547477524  0.2314510411531302   T   T   T
  0.5554589822990152  0.4443954911494572  0.0734662178818439   F   F   F
  0.6667269879605542  0.3330255653999105  0.9931125512550417   T   T   T
  0.7777599524331933  0.5555469762167746  0.1495990413265460   F   F   F
  0.8891306158160200  0.4459352548947242  0.3061390139636880   T   T   T
  0.7749018149803257  0.5544239281776888  0.3858804881247629   T   T   T
  0.6675702206512186  0.3345654163403946  0.2303632794495981   T   T   T
  0.8888235427293978  0.4443130854587167  0.0737088316276910   F   F   F
  0.0000168358997645  0.6666073908433422  0.9931691340171375   T   T   T
  0.1111200237832293  0.8889070475662990  0.1495990413265460   F   F   F
  0.2204301870199442  0.7773313053479234  0.3058189944873533   T   T   T
  0.1119753103666694  0.8916230634024918  0.3865280471909711   T   T   T
 -0.0007205908858558  0.6670922027760173  0.2301503109587324   T   T   T
  0.2223529145410268  0.7778434572705990  0.0737088316276910   F   F   F
  0.3337692694569690  0.6670296618287324  0.9931229613526872   T   T   T
  0.4446736269255283  0.8890038134625442  0.1498992357575091   F   F   F
  0.5563755055970808  0.7766762292225191  0.3063996208767888   T   T   T
  0.4441790155234017  0.8864761799316434  0.3860220380381335   T   T   T
  0.3344111160619935  0.6683562289581945  0.2302225570014340   T   T   T
  0.5555406448605211  0.7777472897209563  0.0741012488483292   F   F   F
  0.6666550006726886  0.6667764357168069  0.9931310100259626   T   T   T
  0.7776631865370121  0.8890038134623452  0.1498992357575091   F   F   F
  0.8890496753237055  0.7786554956099470  0.3056571362589817   T   T   T
  0.7784553410661469  0.8891751966177700  0.3869253805631723   T   T   T
  0.6647536789869239  0.6621497730657722  0.2318623216720090   T   T   T
  0.8888235427295754  0.7778434572706772  0.0737088316276910   F   F   F
  0.3194135350054559  0.3470722811396413  0.3297234064334158   T   T   T
  0.0066555875293708  0.0060836274694338  0.3456933314316498   T   T   T
  0.2226344666469089  0.1119359332937222  0.1904723999402336   F   F   F
  0.1112045967245550  0.2222687983623075  0.0334522070749799   F   F   F
  0.3323763592673541 -0.0016564951593501  0.3466060209516480   T   T   T
  0.5555393710298304  0.1111276289704861  0.1901588073163651   F   F   F
  0.4443972016377487  0.2222687983623359  0.0334522070749799   F   F   F
  0.6679360581317845 -0.0010648106025587  0.3474451317884215   T   T   T
  0.8889222579405569  0.1111276289703866  0.1901588073163651   F   F   F
  0.7777734327937011  0.2222128655874158  0.0336961176709920   F   F   F
  0.0020924769319642  0.3341607749413802  0.3458518151120060   T   T   T
  0.2226344666471363  0.4440315333531899  0.1904723999402336   F   F   F
  0.1111409945878350  0.5555260054121902  0.0336287246235543   F   F   F
  0.5547310667059548  0.4440315333530904  0.1904723999402336   F   F   F
  0.4443972016376918  0.5554624032753566  0.0334522070749799   F   F   F
  0.6679875113024750  0.3338798184072385  0.3466095654055631   T   T   T
  0.8890038800002031  0.4446737600001498  0.1900332825085727   F   F   F
  0.7777180108243442  0.5555260054121831  0.0336287246235543   F   F   F
 -0.0006699834949184  0.6674291674812618  0.3456931209199062   T   T   T
  0.2219922399989898  0.7776631199997937  0.1900332825085727   F   F   F
  0.1111409945878208  0.8889489891756313  0.0336287246235543   F   F   F
  0.3325152698042231  0.6646142824888475  0.3458514111291522   T   T   T
  0.5555393710296173  0.7777447420591272  0.1901588073163651   F   F   F
  0.4444531344125977  0.8888935672062956  0.0336961176709920   F   F   F
  0.6605280152430107  0.6600372270801591  0.3457514831673279   T   T   T
  0.8890038800008000  0.7776631200000566  0.1900332825085727   F   F   F
  0.7777734327936940  0.8888935672062885  0.0336961176709920   F   F   F
  0.4310937467545626  0.2349122716522408  0.4421792807338766   T   T   T
 
  0.00000000E+00  0.00000000E+00  0.00000000E+00
  0.00000000E+00  0.00000000E+00  0.00000000E+00
  0.00000000E+00  0.00000000E+00  0.00000000E+00
  0.00000000E+00  0.00000000E+00  0.00000000E+00
  0.00000000E+00  0.00000000E+00  0.00000000E+00
  0.00000000E+00  0.00000000E+00  0.00000000E+00
  0.00000000E+00  0.00000000E+00  0.00000000E+00
  0.00000000E+00  0.00000000E+00  0.00000000E+00
  0.00000000E+00  0.00000000E+00  0.00000000E+00
  0.00000000E+00  0.00000000E+00  0.00000000E+00
  0.00000000E+00  0.00000000E+00  0.00000000E+00
  0.00000000E+00  0.00000000E+00  0.00000000E+00
  0.00000000E+00  0.00000000E+00  0.00000000E+00
  0.00000000E+00  0.00000000E+00  0.00000000E+00
  0.00000000E+00  0.00000000E+00  0.00000000E+00
  0.00000000E+00  0.00000000E+00  0.00000000E+00
  0.00000000E+00  0.00000000E+00  0.00000000E+00
  0.00000000E+00  0.00000000E+00  0.00000000E+00
  0.00000000E+00  0.00000000E+00  0.00000000E+00
  0.00000000E+00  0.00000000E+00  0.00000000E+00
  0.00000000E+00  0.00000000E+00  0.00000000E+00
  0.00000000E+00  0.00000000E+00  0.00000000E+00
  0.00000000E+00  0.00000000E+00  0.00000000E+00
  0.00000000E+00  0.00000000E+00  0.00000000E+00
  0.00000000E+00  0.00000000E+00  0.00000000E+00
  0.00000000E+00  0.00000000E+00  0.00000000E+00
  0.00000000E+00  0.00000000E+00  0.00000000E+00
  0.00000000E+00  0.00000000E+00  0.00000000E+00
  0.00000000E+00  0.00000000E+00  0.00000000E+00
  0.00000000E+00  0.00000000E+00  0.00000000E+00
  0.00000000E+00  0.00000000E+00  0.00000000E+00
  0.00000000E+00  0.00000000E+00  0.00000000E+00
  0.00000000E+00  0.00000000E+00  0.00000000E+00
  0.00000000E+00  0.00000000E+00  0.00000000E+00
  0.00000000E+00  0.00000000E+00  0.00000000E+00
  0.00000000E+00  0.00000000E+00  0.00000000E+00
  0.00000000E+00  0.00000000E+00  0.00000000E+00
  0.00000000E+00  0.00000000E+00  0.00000000E+00
  0.00000000E+00  0.00000000E+00  0.00000000E+00
  0.00000000E+00  0.00000000E+00  0.00000000E+00
  0.00000000E+00  0.00000000E+00  0.00000000E+00
  0.00000000E+00  0.00000000E+00  0.00000000E+00
  0.00000000E+00  0.00000000E+00  0.00000000E+00
  0.00000000E+00  0.00000000E+00  0.00000000E+00
  0.00000000E+00  0.00000000E+00  0.00000000E+00
  0.00000000E+00  0.00000000E+00  0.00000000E+00
  0.00000000E+00  0.00000000E+00  0.00000000E+00
  0.00000000E+00  0.00000000E+00  0.00000000E+00
  0.00000000E+00  0.00000000E+00  0.00000000E+00
  0.00000000E+00  0.00000000E+00  0.00000000E+00
  0.00000000E+00  0.00000000E+00  0.00000000E+00
  0.00000000E+00  0.00000000E+00  0.00000000E+00
  0.00000000E+00  0.00000000E+00  0.00000000E+00
  0.00000000E+00  0.00000000E+00  0.00000000E+00
  0.00000000E+00  0.00000000E+00  0.00000000E+00
  0.00000000E+00  0.00000000E+00  0.00000000E+00
  0.00000000E+00  0.00000000E+00  0.00000000E+00
  0.00000000E+00  0.00000000E+00  0.00000000E+00
  0.00000000E+00  0.00000000E+00  0.00000000E+00
  0.00000000E+00  0.00000000E+00  0.00000000E+00
  0.00000000E+00  0.00000000E+00  0.00000000E+00
  0.00000000E+00  0.00000000E+00  0.00000000E+00
  0.00000000E+00  0.00000000E+00  0.00000000E+00
  0.00000000E+00  0.00000000E+00  0.00000000E+00
  0.00000000E+00  0.00000000E+00  0.00000000E+00
  0.00000000E+00  0.00000000E+00  0.00000000E+00
  0.00000000E+00  0.00000000E+00  0.00000000E+00
  0.00000000E+00  0.00000000E+00  0.00000000E+00
  0.00000000E+00  0.00000000E+00  0.00000000E+00
  0.00000000E+00  0.00000000E+00  0.00000000E+00
  0.00000000E+00  0.00000000E+00  0.00000000E+00
  0.00000000E+00  0.00000000E+00  0.00000000E+00
  0.00000000E+00  0.00000000E+00  0.00000000E+00
  0.00000000E+00  0.00000000E+00  0.00000000E+00
  0.00000000E+00  0.00000000E+00  0.00000000E+00
  0.00000000E+00  0.00000000E+00  0.00000000E+00
  0.00000000E+00  0.00000000E+00  0.00000000E+00
  0.00000000E+00  0.00000000E+00  0.00000000E+00
  0.00000000E+00  0.00000000E+00  0.00000000E+00
  0.00000000E+00  0.00000000E+00  0.00000000E+00
  0.00000000E+00  0.00000000E+00  0.00000000E+00
  0.00000000E+00  0.00000000E+00  0.00000000E+00
