CeO2-you-111-you-Cd                     
   1.00000000000000     
     9.8429070363730968   -5.6719636456314451   -0.0052352207223810
     0.0093892309493896   11.3601879190010813    0.0052352198435961
    -0.0053754749647738    0.0093105953355276   21.1931759225737828
   O    Cd   Ce   H 
    53     1    26     1
Selective dynamics
Direct
  0.0000075532905903 -0.0000837731773485  0.9954424340618137   T   T   T
  0.1081792375263439  0.2193493211446460  0.1457729227944459   T   T   T
  0.2266715759694959  0.1065533836215121  0.3033748546877824   T   T   T
  0.1127008650166160  0.2337659957688444  0.3742640797615184   T   T   T
  0.0023172794076409  0.0031259067440480  0.2287065273067339   T   T   T
  0.2226038904777228  0.1103495041913056  0.0745914023644258   T   T   T
  0.3349397617042644  0.0003693972082860  0.9963687829093474   T   T   T
  0.4421474725653546  0.2233851028453831  0.1516725551992489   T   T   T
  0.5476961909954271  0.1077723829048919  0.3050983095777125   T   T   T
  0.4373333737281629  0.2129233227997659  0.4030086554545856   T   T   T
  0.3323346784510013 -0.0032973351901602  0.2273041871810446   T   T   T
  0.5561270854085282  0.1101819641649990  0.0780030751904885   T   T   T
  0.6658989846575234  0.0009087020813234  0.9955760187964350   T   T   T
  0.7846854946626944  0.2255517165738498  0.1515924789603076   T   T   T
  0.8849957549752240  0.1078746980429070  0.3014450596316798   T   T   T
  0.7819658023857476  0.2130402288121150  0.3869266981472038   T   T   T
  0.6660995309914470  0.0019637106726386  0.2283799724954932   T   T   T
  0.8871739387388988  0.1100961411253893  0.0738612379664754   T   T   T
  0.9984378717722567  0.3325912822175827  0.9952047030185276   T   T   T
  0.1106645980931659  0.5556184060329605  0.1469325430387505   T   T   T
  0.1211325313811304  0.5459405614226606  0.3763625306764767   T   T   T
  0.0189537189700209  0.3413290775820232  0.2340959583895177   T   T   T
  0.2229073180094858  0.4442706866476472  0.0715416180713757   T   T   T
  0.3346045461029732  0.3321616296526465  0.9952916873061888   T   T   T
  0.4476613629376607  0.5591498155291188  0.1466787439955977   T   T   T
  0.5556212831731421  0.4476373927792141  0.3034575069090845   T   T   T
  0.4340577855136309  0.5597811775491890  0.3784215454043868   T   T   T
  0.3243445492438532  0.3395191804848197  0.2278792522036024   T   T   T
  0.5559467135084876  0.4440466533475161  0.0753109185528814   T   T   T
  0.6658058352731360  0.3317311998682861  0.9967136511400866   T   T   T
  0.7785362844218379  0.5563304215064533  0.1506692576803606   T   T   T
  0.8914704615367885  0.4454537927235983  0.3039368844826895   T   T   T
  0.7881219152069898  0.5733166366018173  0.3847724672024293   T   T   T
  0.6674638458242043  0.3325952494831351  0.2273602961351763   T   T   T
  0.8886367486066079  0.4446087278383815  0.0749999952401855   T   T   T
  0.9996643268273263  0.6669398868905118  0.9958446032989178   T   T   T
  0.1109856015417700  0.8879570223928888  0.1497827901672511   T   T   T
  0.2228885991211233  0.7784881983910955  0.3034479727967480   T   T   T
  0.1094505999236329  0.8866124418797825  0.3827155956096421   T   T   T
  0.0012707839308542  0.6661137004817212  0.2289229566069004   T   T   T
  0.2226765029953111  0.7779762765845686  0.0747433583396957   T   T   T
  0.3340996947711187  0.6681210049769807  0.9950668561731475   T   T   T
  0.4411379308356049  0.8811230327713440  0.1517472024251373   T   T   T
  0.5582087964675004  0.7836757555479071  0.3027906483967156   T   T   T
  0.4434866585166440  0.8884798346093936  0.3856933218358358   T   T   T
  0.3238888674021347  0.6463447414699096  0.2349268047984859   T   T   T
  0.5570342917252086  0.7789944000999213  0.0740143333940974   T   T   T
  0.6675201345952350  0.6664152892699118  0.9953589151309061   T   T   T
  0.7775926550544608  0.8900685281741102  0.1500478849163903   T   T   T
  0.8913797527185058  0.7804952583813465  0.3006979329754265   T   T   T
  0.7810834520700649  0.8901921375012436  0.3813269695219942   T   T   T
  0.6668755100687924  0.6686613427103740  0.2290217223821776   T   T   T
  0.8887816181246617  0.7786554095119600  0.0750055733985190   T   T   T
  0.3369862050983849  0.3337067747337460  0.3473352839080442   T   T   T
  0.0031688355675673  0.0025100714921524  0.3407413883836986   T   T   T
  0.2233126363399899  0.1133600050563163  0.1907176102456454   T   T   T
  0.1102918923342509  0.2200462302444786  0.0333770859061566   T   T   T
  0.3283377444463059 -0.0054294303744206  0.3415564924364889   T   T   T
  0.5554111906219638  0.1115385169909890  0.1910312561989660   T   T   T
  0.4446186548851981  0.2222755248033323  0.0367657257600476   T   T   T
  0.6674353552568617  0.0008989642115107  0.3434528358445124   T   T   T
  0.8902052140884066  0.1119769567041114  0.1893250635685277   T   T   T
  0.7777342791485461  0.2223380904374843  0.0360623995037928   T   T   T
  0.9896804256917863  0.3248282741360947  0.3454391862172304   T   T   T
  0.2235806051075287  0.4428865167312738  0.1806072853041605   T   T   T
  0.1100650330536060  0.5563504392034802  0.0336714778717069   T   T   T
  0.5535787738550483  0.4439944053462723  0.1926130240337056   T   T   T
  0.4470894097810558  0.5563678710707450  0.0337940303973579   T   T   T
  0.6677998645801002  0.3374261515732855  0.3467365966408844   T   T   T
  0.8895648499368563  0.4446102361638614  0.1906833664086366   T   T   T
  0.7770935495407750  0.5547406941921038  0.0368436959023414   T   T   T
  0.9985710926019044  0.6668365550083246  0.3418344282386611   T   T   T
  0.2211878222436641  0.7750722981175557  0.1893620277420813   T   T   T
  0.1119366300424676  0.8893155248815189  0.0361342410181271   T   T   T
  0.3413165566762073  0.6764035324796049  0.3464412935554561   T   T   T
  0.5553795394689135  0.7770128100796690  0.1898331940251283   T   T   T
  0.4446229730928957  0.8886833259028494  0.0358170296842983   T   T   T
  0.6666783284164152  0.6667554075936647  0.3417634047287847   T   T   T
  0.8894327782312456  0.7782804435797647  0.1884745130339009   T   T   T
  0.7773641445731098  0.8894069146598688  0.0353638317745142   T   T   T
  0.4256599981009481  0.2141563717339274  0.4483819775651940   T   T   T
 
  0.00000000E+00  0.00000000E+00  0.00000000E+00
  0.00000000E+00  0.00000000E+00  0.00000000E+00
  0.00000000E+00  0.00000000E+00  0.00000000E+00
  0.00000000E+00  0.00000000E+00  0.00000000E+00
  0.00000000E+00  0.00000000E+00  0.00000000E+00
  0.00000000E+00  0.00000000E+00  0.00000000E+00
  0.00000000E+00  0.00000000E+00  0.00000000E+00
  0.00000000E+00  0.00000000E+00  0.00000000E+00
  0.00000000E+00  0.00000000E+00  0.00000000E+00
  0.00000000E+00  0.00000000E+00  0.00000000E+00
  0.00000000E+00  0.00000000E+00  0.00000000E+00
  0.00000000E+00  0.00000000E+00  0.00000000E+00
  0.00000000E+00  0.00000000E+00  0.00000000E+00
  0.00000000E+00  0.00000000E+00  0.00000000E+00
  0.00000000E+00  0.00000000E+00  0.00000000E+00
  0.00000000E+00  0.00000000E+00  0.00000000E+00
  0.00000000E+00  0.00000000E+00  0.00000000E+00
  0.00000000E+00  0.00000000E+00  0.00000000E+00
  0.00000000E+00  0.00000000E+00  0.00000000E+00
  0.00000000E+00  0.00000000E+00  0.00000000E+00
  0.00000000E+00  0.00000000E+00  0.00000000E+00
  0.00000000E+00  0.00000000E+00  0.00000000E+00
  0.00000000E+00  0.00000000E+00  0.00000000E+00
  0.00000000E+00  0.00000000E+00  0.00000000E+00
  0.00000000E+00  0.00000000E+00  0.00000000E+00
  0.00000000E+00  0.00000000E+00  0.00000000E+00
  0.00000000E+00  0.00000000E+00  0.00000000E+00
  0.00000000E+00  0.00000000E+00  0.00000000E+00
  0.00000000E+00  0.00000000E+00  0.00000000E+00
  0.00000000E+00  0.00000000E+00  0.00000000E+00
  0.00000000E+00  0.00000000E+00  0.00000000E+00
  0.00000000E+00  0.00000000E+00  0.00000000E+00
  0.00000000E+00  0.00000000E+00  0.00000000E+00
  0.00000000E+00  0.00000000E+00  0.00000000E+00
  0.00000000E+00  0.00000000E+00  0.00000000E+00
  0.00000000E+00  0.00000000E+00  0.00000000E+00
  0.00000000E+00  0.00000000E+00  0.00000000E+00
  0.00000000E+00  0.00000000E+00  0.00000000E+00
  0.00000000E+00  0.00000000E+00  0.00000000E+00
  0.00000000E+00  0.00000000E+00  0.00000000E+00
  0.00000000E+00  0.00000000E+00  0.00000000E+00
  0.00000000E+00  0.00000000E+00  0.00000000E+00
  0.00000000E+00  0.00000000E+00  0.00000000E+00
  0.00000000E+00  0.00000000E+00  0.00000000E+00
  0.00000000E+00  0.00000000E+00  0.00000000E+00
  0.00000000E+00  0.00000000E+00  0.00000000E+00
  0.00000000E+00  0.00000000E+00  0.00000000E+00
  0.00000000E+00  0.00000000E+00  0.00000000E+00
  0.00000000E+00  0.00000000E+00  0.00000000E+00
  0.00000000E+00  0.00000000E+00  0.00000000E+00
  0.00000000E+00  0.00000000E+00  0.00000000E+00
  0.00000000E+00  0.00000000E+00  0.00000000E+00
  0.00000000E+00  0.00000000E+00  0.00000000E+00
  0.00000000E+00  0.00000000E+00  0.00000000E+00
  0.00000000E+00  0.00000000E+00  0.00000000E+00
  0.00000000E+00  0.00000000E+00  0.00000000E+00
  0.00000000E+00  0.00000000E+00  0.00000000E+00
  0.00000000E+00  0.00000000E+00  0.00000000E+00
  0.00000000E+00  0.00000000E+00  0.00000000E+00
  0.00000000E+00  0.00000000E+00  0.00000000E+00
  0.00000000E+00  0.00000000E+00  0.00000000E+00
  0.00000000E+00  0.00000000E+00  0.00000000E+00
  0.00000000E+00  0.00000000E+00  0.00000000E+00
  0.00000000E+00  0.00000000E+00  0.00000000E+00
  0.00000000E+00  0.00000000E+00  0.00000000E+00
  0.00000000E+00  0.00000000E+00  0.00000000E+00
  0.00000000E+00  0.00000000E+00  0.00000000E+00
  0.00000000E+00  0.00000000E+00  0.00000000E+00
  0.00000000E+00  0.00000000E+00  0.00000000E+00
  0.00000000E+00  0.00000000E+00  0.00000000E+00
  0.00000000E+00  0.00000000E+00  0.00000000E+00
  0.00000000E+00  0.00000000E+00  0.00000000E+00
  0.00000000E+00  0.00000000E+00  0.00000000E+00
  0.00000000E+00  0.00000000E+00  0.00000000E+00
  0.00000000E+00  0.00000000E+00  0.00000000E+00
  0.00000000E+00  0.00000000E+00  0.00000000E+00
  0.00000000E+00  0.00000000E+00  0.00000000E+00
  0.00000000E+00  0.00000000E+00  0.00000000E+00
  0.00000000E+00  0.00000000E+00  0.00000000E+00
  0.00000000E+00  0.00000000E+00  0.00000000E+00
  0.00000000E+00  0.00000000E+00  0.00000000E+00
