CeO2-you-111-you-V                      
   1.00000000000000     
     9.8880230534235931   -5.6843361569459532   -0.0309676926359445
     0.0212323223180101   11.4054457718473294    0.0309676874324266
    -0.0339082056281240    0.0587307318735342   20.9130856246907939
   O    V    Ce   H 
    53     1    26     2
Selective dynamics
Direct
  0.9994867135884101 -0.0000982069144815  0.9952670902855366   T   T   T
  0.1162893816875084  0.2237391506297897  0.1500430838660520   F   F   F
  0.2450759019423545  0.1192046381722832  0.3014098868310877   T   T   T
  0.1723882958452307  0.2658408534921257  0.3667137851091885   T   T   T
  0.0024047229067307 -0.0000149448728246  0.2284286135809752   T   T   T
  0.2215680397980648  0.1098838910245235  0.0743286343823044   F   F   F
  0.3350090027347535  0.0012462068729980  0.9960119979349911   T   T   T
  0.4389868663289391  0.2276791336702289  0.1532885148718606   F   F   F
  0.5482957888732780  0.1187463077305135  0.3066512641056359   T   T   T
  0.4196884657454923  0.2486381353277872  0.3945264079917887   T   T   T
  0.3343775717910972  0.9954003774370931  0.2260732293375842   T   T   T
  0.5543870101939987  0.1122799898062254  0.0782379408616620   F   F   F
  0.6658072100539191  0.0016030035391988  0.9976733082059001   T   T   T
  0.7848976845772171  0.2236506305259098  0.1511540048047095   F   F   F
  0.8870736903598030  0.1109512189988059  0.3046528633644373   T   T   T
  0.7664732083109063  0.2192413739988927  0.3882477832096319   T   T   T
  0.6647811606347716  0.0025080897636263  0.2304243932357654   T   T   T
  0.8918475030918955  0.1117469083082483  0.0754288989580516   F   F   F
  0.9980889812636079  0.3326492240685137  0.9950950422303613   T   T   T
  0.1117226881754618  0.5549443118231707  0.1463048260546032   F   F   F
  0.1084458483874359  0.5581504340415976  0.3849244864023348   T   T   T
  0.0177161938326069  0.3440508929465647  0.2332236015283664   T   T   T
  0.2223996564112554  0.4442663435910532  0.0725517975595480   F   F   F
  0.3333389960957199  0.3322970178112524  0.9952434320837060   T   T   T
  0.4429268493751763  0.5503776183148190  0.1500430838658104   F   F   F
  0.5495292133096826  0.4239459874548269  0.3008025089271961   T   T   T
  0.3992610363209522  0.4921418082078626  0.3671043110729228   T   T   T
  0.3163695504405118  0.3500876717797528  0.2506138221199799   T   T   T
  0.5567831089742157  0.4450979602002505  0.0743286343822120   F   F   F
  0.6649156031110520  0.3316195453600629  0.9959720601776076   T   T   T
  0.7782394422910031  0.5552214727406977  0.1498595265342715   F   F   F
  0.8844319453475439  0.4435901209074709  0.3025939482451225   T   T   T
  0.7822283762812258  0.5467691833904081  0.3873286307899931   T   T   T
  0.6710908133325943  0.3318720504622747  0.2260510359017782   T   T   T
  0.8885646544308230  0.4448315504199485  0.0741440985859327   F   F   F
  0.9989613326535244  0.6677574835845417  0.9948118578589021   T   T   T
  0.1114455272574091  0.8884275577050076  0.1498595265341720   F   F   F
  0.2229320589967424  0.7822333375510508  0.3028827986001530   T   T   T
  0.1217060106440331  0.8859949262675717  0.3874677298760202   T   T   T
  0.0023913888884341  0.6648552449481234  0.2277942998504928   T   T   T
  0.2218344495794042  0.7781023455681861  0.0741440985860606   F   F   F
  0.3339573278712232  0.6684217743505326  0.9950211923028472   T   T   T
  0.4430153694727750  0.8817693154201365  0.1511540048040985   F   F   F
  0.5558159451973071  0.7799044691088405  0.3042326060697404   T   T   T
  0.4480234059938026  0.8995048260472871  0.3881322545198095   T   T   T
  0.3229536481552267  0.6486441572074090  0.2331353051908999   T   T   T
  0.5549200916930275  0.7748194969086626  0.0754288989579948   F   F   F
  0.6669591582027873  0.6677839039202514  0.9952033699963145   T   T   T
  0.7756846842073415  0.8909823157946377  0.1504906429480073   F   F   F
  0.8930350826078465  0.7747890056295533  0.3040556922410755   T   T   T
  0.7723110095391863  0.8937204491797097  0.3887670913944342   T   T   T
  0.6677668702151585  0.6651018042363254  0.2282065806711207   T   T   T
  0.8883616703075532  0.7783053296914062  0.0751908747169594   F   F   F
  0.3336741895343386  0.3309339282803379  0.3356056139932426   T   T   T
  0.0020852673418545  0.9966210910862857  0.3455587446158809   T   T   T
  0.2199630567908102  0.1059371673823932  0.1911394543346887   F   F   F
  0.1102959361313367  0.2205755482440992  0.0343673755892837   F   F   F
  0.3289928658783033  0.9938813567262368  0.3431876644426013   T   T   T
  0.5555703159311207  0.1110966840752141  0.1910469741037417   F   F   F
  0.4438594156211053  0.2228065843793985  0.0362646810495093   F   F   F
  0.6682988823503946 -0.0015972777770670  0.3466359395211701   T   T   T
  0.8904804215619890  0.1119189674556367  0.1925528537115682   F   F   F
  0.7783018075830057  0.2228341546877886  0.0366165877839890   F   F   F
  0.9879846696956988  0.3312723202786671  0.3502893909237507   T   T   T
  0.2222142073012563  0.4444517926850793  0.1833930746494232   F   F   F
  0.1101336727580957  0.5565333272395279  0.0331183793257210   F   F   F
  0.5607298326118197  0.4467029432027019  0.1911394543349871   F   F   F
  0.4460904517567528  0.5563710638693280  0.0343673755888929   F   F   F
  0.6728672803396801  0.3383876757637586  0.3429452225510866   T   T   T
  0.8921050285929581  0.4449279265005543  0.1900447784417381   F   F   F
  0.7768947012930809  0.5552557593591132  0.0349503954933752   F   F   F
  0.0015419480315421  0.6657334277940419  0.3454161737785770   T   T   T
  0.2217380735053283  0.7745619714201766  0.1900447784419939   F   F   F
  0.1114112406428305  0.8897722987083512  0.0349503954935741   F   F   F
  0.3355099374652116  0.6780052319956188  0.3501213351741909   T   T   T
  0.5547480325344409  0.7761865784347961  0.1925528537116179   F   F   F
  0.4438318453112586  0.8883651924181279  0.0366165877839251   F   F   F
  0.6706417235494213  0.6650169620849700  0.3452919759343693   T   T   T
  0.8893060499179981  0.7773609500856651  0.1886364494689872   F   F   F
  0.7770560705346696  0.8896109294654906  0.0367472310826642   F   F   F
  0.3120273561575519  0.3551805357285697  0.4928870976074375   T   T   T
  0.4064907219823093  0.2635468308492156  0.4391986297348835   T   T   T
 
  0.00000000E+00  0.00000000E+00  0.00000000E+00
  0.00000000E+00  0.00000000E+00  0.00000000E+00
  0.00000000E+00  0.00000000E+00  0.00000000E+00
  0.00000000E+00  0.00000000E+00  0.00000000E+00
  0.00000000E+00  0.00000000E+00  0.00000000E+00
  0.00000000E+00  0.00000000E+00  0.00000000E+00
  0.00000000E+00  0.00000000E+00  0.00000000E+00
  0.00000000E+00  0.00000000E+00  0.00000000E+00
  0.00000000E+00  0.00000000E+00  0.00000000E+00
  0.00000000E+00  0.00000000E+00  0.00000000E+00
  0.00000000E+00  0.00000000E+00  0.00000000E+00
  0.00000000E+00  0.00000000E+00  0.00000000E+00
  0.00000000E+00  0.00000000E+00  0.00000000E+00
  0.00000000E+00  0.00000000E+00  0.00000000E+00
  0.00000000E+00  0.00000000E+00  0.00000000E+00
  0.00000000E+00  0.00000000E+00  0.00000000E+00
  0.00000000E+00  0.00000000E+00  0.00000000E+00
  0.00000000E+00  0.00000000E+00  0.00000000E+00
  0.00000000E+00  0.00000000E+00  0.00000000E+00
  0.00000000E+00  0.00000000E+00  0.00000000E+00
  0.00000000E+00  0.00000000E+00  0.00000000E+00
  0.00000000E+00  0.00000000E+00  0.00000000E+00
  0.00000000E+00  0.00000000E+00  0.00000000E+00
  0.00000000E+00  0.00000000E+00  0.00000000E+00
  0.00000000E+00  0.00000000E+00  0.00000000E+00
  0.00000000E+00  0.00000000E+00  0.00000000E+00
  0.00000000E+00  0.00000000E+00  0.00000000E+00
  0.00000000E+00  0.00000000E+00  0.00000000E+00
  0.00000000E+00  0.00000000E+00  0.00000000E+00
  0.00000000E+00  0.00000000E+00  0.00000000E+00
  0.00000000E+00  0.00000000E+00  0.00000000E+00
  0.00000000E+00  0.00000000E+00  0.00000000E+00
  0.00000000E+00  0.00000000E+00  0.00000000E+00
  0.00000000E+00  0.00000000E+00  0.00000000E+00
  0.00000000E+00  0.00000000E+00  0.00000000E+00
  0.00000000E+00  0.00000000E+00  0.00000000E+00
  0.00000000E+00  0.00000000E+00  0.00000000E+00
  0.00000000E+00  0.00000000E+00  0.00000000E+00
  0.00000000E+00  0.00000000E+00  0.00000000E+00
  0.00000000E+00  0.00000000E+00  0.00000000E+00
  0.00000000E+00  0.00000000E+00  0.00000000E+00
  0.00000000E+00  0.00000000E+00  0.00000000E+00
  0.00000000E+00  0.00000000E+00  0.00000000E+00
  0.00000000E+00  0.00000000E+00  0.00000000E+00
  0.00000000E+00  0.00000000E+00  0.00000000E+00
  0.00000000E+00  0.00000000E+00  0.00000000E+00
  0.00000000E+00  0.00000000E+00  0.00000000E+00
  0.00000000E+00  0.00000000E+00  0.00000000E+00
  0.00000000E+00  0.00000000E+00  0.00000000E+00
  0.00000000E+00  0.00000000E+00  0.00000000E+00
  0.00000000E+00  0.00000000E+00  0.00000000E+00
  0.00000000E+00  0.00000000E+00  0.00000000E+00
  0.00000000E+00  0.00000000E+00  0.00000000E+00
  0.00000000E+00  0.00000000E+00  0.00000000E+00
  0.00000000E+00  0.00000000E+00  0.00000000E+00
  0.00000000E+00  0.00000000E+00  0.00000000E+00
  0.00000000E+00  0.00000000E+00  0.00000000E+00
  0.00000000E+00  0.00000000E+00  0.00000000E+00
  0.00000000E+00  0.00000000E+00  0.00000000E+00
  0.00000000E+00  0.00000000E+00  0.00000000E+00
  0.00000000E+00  0.00000000E+00  0.00000000E+00
  0.00000000E+00  0.00000000E+00  0.00000000E+00
  0.00000000E+00  0.00000000E+00  0.00000000E+00
  0.00000000E+00  0.00000000E+00  0.00000000E+00
  0.00000000E+00  0.00000000E+00  0.00000000E+00
  0.00000000E+00  0.00000000E+00  0.00000000E+00
  0.00000000E+00  0.00000000E+00  0.00000000E+00
  0.00000000E+00  0.00000000E+00  0.00000000E+00
  0.00000000E+00  0.00000000E+00  0.00000000E+00
  0.00000000E+00  0.00000000E+00  0.00000000E+00
  0.00000000E+00  0.00000000E+00  0.00000000E+00
  0.00000000E+00  0.00000000E+00  0.00000000E+00
  0.00000000E+00  0.00000000E+00  0.00000000E+00
  0.00000000E+00  0.00000000E+00  0.00000000E+00
  0.00000000E+00  0.00000000E+00  0.00000000E+00
  0.00000000E+00  0.00000000E+00  0.00000000E+00
  0.00000000E+00  0.00000000E+00  0.00000000E+00
  0.00000000E+00  0.00000000E+00  0.00000000E+00
  0.00000000E+00  0.00000000E+00  0.00000000E+00
  0.00000000E+00  0.00000000E+00  0.00000000E+00
  0.00000000E+00  0.00000000E+00  0.00000000E+00
  0.00000000E+00  0.00000000E+00  0.00000000E+00
