CeO2-you-111-you-Hf                     
   1.00000000000000     
     9.8275325578233925   -5.6739289345181376    0.0000000009305697
     0.0379791903897464   11.4136377551919406    0.0177497162897079
     0.0193671628769887    0.0335449044223166   20.6701582249474498
   O    Hf   Ce   H 
    53     1    26     2
Selective dynamics
Direct
  0.9992702239284490  0.9997748565032696  0.9923096928768336   T   T   T
  0.1111634977537079  0.2227062037143810  0.1478602308618662   F   F   F
  0.2344257009434016  0.1192922422698046  0.3047708112714949   T   T   T
  0.1267777669387871  0.2262329562781293  0.3816940103196175   T   T   T
  0.0023487535430728  0.0002290177172465  0.2293377688772550   T   T   T
  0.2216829450464033  0.1100328900930307  0.0711591743756443   F   F   F
  0.3342239407964171  0.9997613835099104  0.9924290055339413   T   T   T
  0.4448757059605626  0.2227062037144378  0.1478602308619728   F   F   F
  0.5501906919318772  0.1191420144985591  0.3086490138059736   T   T   T
  0.4261163991545398  0.2312868811875737  0.3983632408609685   T   T   T
  0.3313757294458611  0.9973632503001527  0.2285965376730089   T   T   T
  0.5571129673835316  0.1118036641702602  0.0733595382056649   F   F   F
  0.6666043170685807  0.9995994406011319  0.9927685615228656   T   T   T
  0.7791858284771749  0.2250376569542496  0.1520597922051508   F   F   F
  0.8921246945133207  0.1130504979869865  0.3056679445114553   T   T   T
  0.7792404801080840  0.2232222015839827  0.3861246089172325   T   T   T
  0.6652402110283152  0.0020735549698165  0.2324992934248071   T   T   T
  0.8880246967867791  0.1118036641703384  0.0733595382056507   F   F   F
  0.0006022411142529  0.3334411902904852  0.9923360305377199   T   T   T
  0.1100564610898189  0.5539398975767753  0.1487765856881111   F   F   F
  0.2357501227092765  0.4402475692063777  0.3063681925656973   T   T   T
  0.0975882934139216  0.5440450402078135  0.3877227603007000   T   T   T
  0.0050049433953030  0.3347075600719543  0.2313638934649240   T   T   T
  0.2232182223993533  0.4451114249294363  0.0736165832340561   F   F   F
  0.3338908959687381  0.3336946700246281  0.9924266849172367   T   T   T
  0.4441196755654886  0.5549073511309430  0.1509508957757149   F   F   F
  0.5344284602023615  0.4290862847104186  0.3085849988969195   T   T   T
  0.3284625322251196  0.3273004159645329  0.2296395850912578   T   T   T
  0.5552272025300127  0.4451114249294363  0.0736165832340703   F   F   F
  0.6664140509342132  0.3332816929632979  0.9923510252710752   T   T   T
  0.7772164364872793  0.5539398975769032  0.1487765856881325   F   F   F
  0.8894645885102117  0.4424676931336172  0.3041795840713541   T   T   T
  0.7821611007054019  0.5452301782517592  0.3877058192969483   T   T   T
  0.6661474130918257  0.3360958140493997  0.2310573477884391   T   T   T
  0.8884099439184254  0.4434858878367649  0.0728580239481218   F   F   F
  0.0002284860157670  0.6669830813222004  0.9922889303043121   T   T   T
  0.1102405492345824  0.8871480984687636  0.1469288435589675   F   F   F
  0.2185705063511640  0.7787325215853077  0.3061849143441487   T   T   T
  0.1136637030536224  0.8918762469033026  0.3881600532426082   T   T   T
 -0.0004892020809724  0.6668094340072667  0.2293456013410240   T   T   T
  0.2227764055904800  0.7772260236526378  0.0726567350650598   F   F   F
  0.3338477531788357  0.6668723944864732  0.9925515963089552   T   T   T
  0.4465416059095233  0.8902802620173702  0.1495931715375605   F   F   F
  0.5570505650399414  0.7794719089917511  0.3093218200964621   T   T   T
  0.4476778324269500  0.9026168367273641  0.3896245517531121   T   T   T
  0.3320932672920280  0.6667814751714805  0.2289883348699715   T   T   T
  0.5548831200795377  0.7764322401590391  0.0740297142439843   F   F   F
  0.6662069970378803  0.6666430918986150  0.9924402190778542   T   T   T
  0.7770716561078927  0.8902802620174981  0.1495931715375107   F   F   F
  0.8952821423287736  0.7802861337663511  0.3064965703591186   T   T   T
  0.7884711060028500  0.9039555205568989  0.3898364385086800   T   T   T
  0.6680164218109571  0.6647882522238566  0.2299545092446624   T   T   T
  0.8877826180621824  0.7772260236526947  0.0726567350650527   F   F   F
  0.3212716948894597  0.3232627565636818  0.3321826833421319   T   T   T
  0.0029382614187426  0.0018657221800129  0.3468649798069267   T   T   T
  0.2196456918777869  0.1059583837546896  0.1853273282315513   F   F   F
  0.1108685751636571  0.2229217623657078  0.0324508374494812   F   F   F
  0.3285176452497957 -0.0069364251636603  0.3460165933153079   T   T   T
  0.5548830833461480  0.1116123915596248  0.1906182892374915   F   F   F
  0.4453861872021818  0.2229217623658712  0.0324508374494812   F   F   F
  0.6677716778719232  0.0004293281757723  0.3483864333496610   T   T   T
  0.8900633082138683  0.1116123915595253  0.1906182892375696   F   F   F
  0.7780771288467463  0.2228202576933214  0.0335101812725753   F   F   F
  0.0039654685548731  0.3323363693775990  0.3464214929487476   T   T   T
  0.2242742757316520  0.4455870596563756  0.1902570327638884   F   F   F
  0.1115357274844442  0.5555352460726226  0.0329999219351365   F   F   F
  0.5546467839244045  0.4455870596559137  0.1902570327638742   F   F   F
  0.4447712034399771  0.5562104068798561  0.0330441845450764   F   F   F
  0.6723990717218588  0.3373037363408902  0.3449135740886904   T   T   T
  0.8895382347787617  0.4457424695579419  0.1906509853942353   F   F   F
  0.7773325185881532  0.5555352460727008  0.0329999219351222   F   F   F
  0.9994444908078394  0.6641182376704942  0.3462330184642827   T   T   T
  0.2222307397393521  0.7773085513404183  0.1888060101701470   F   F   F
  0.1107210603453694  0.8881091206907712  0.0312111769443604   F   F   F
  0.3302033929690191  0.6666641482087567  0.3494045665398228   T   T   T
  0.5561019566819496  0.7788699133642467  0.1922612973020108   F   F   F
  0.4453416011983862  0.8891138214948242  0.0334268210756150   F   F   F
  0.6714675828614138  0.6669323999521777  0.3486937878475749   T   T   T
  0.8884108116005862  0.7773085513401412  0.1888060101702038   F   F   F
  0.7771052202964910  0.8891138214947603  0.0334268210756363   F   F   F
  0.4182494137051169  0.5050012161421386  0.3936840435024154   T   T   T
  0.4219177940546970  0.2432016824176378  0.4447648223316563   T   T   T
 
  0.00000000E+00  0.00000000E+00  0.00000000E+00
  0.00000000E+00  0.00000000E+00  0.00000000E+00
  0.00000000E+00  0.00000000E+00  0.00000000E+00
  0.00000000E+00  0.00000000E+00  0.00000000E+00
  0.00000000E+00  0.00000000E+00  0.00000000E+00
  0.00000000E+00  0.00000000E+00  0.00000000E+00
  0.00000000E+00  0.00000000E+00  0.00000000E+00
  0.00000000E+00  0.00000000E+00  0.00000000E+00
  0.00000000E+00  0.00000000E+00  0.00000000E+00
  0.00000000E+00  0.00000000E+00  0.00000000E+00
  0.00000000E+00  0.00000000E+00  0.00000000E+00
  0.00000000E+00  0.00000000E+00  0.00000000E+00
  0.00000000E+00  0.00000000E+00  0.00000000E+00
  0.00000000E+00  0.00000000E+00  0.00000000E+00
  0.00000000E+00  0.00000000E+00  0.00000000E+00
  0.00000000E+00  0.00000000E+00  0.00000000E+00
  0.00000000E+00  0.00000000E+00  0.00000000E+00
  0.00000000E+00  0.00000000E+00  0.00000000E+00
  0.00000000E+00  0.00000000E+00  0.00000000E+00
  0.00000000E+00  0.00000000E+00  0.00000000E+00
  0.00000000E+00  0.00000000E+00  0.00000000E+00
  0.00000000E+00  0.00000000E+00  0.00000000E+00
  0.00000000E+00  0.00000000E+00  0.00000000E+00
  0.00000000E+00  0.00000000E+00  0.00000000E+00
  0.00000000E+00  0.00000000E+00  0.00000000E+00
  0.00000000E+00  0.00000000E+00  0.00000000E+00
  0.00000000E+00  0.00000000E+00  0.00000000E+00
  0.00000000E+00  0.00000000E+00  0.00000000E+00
  0.00000000E+00  0.00000000E+00  0.00000000E+00
  0.00000000E+00  0.00000000E+00  0.00000000E+00
  0.00000000E+00  0.00000000E+00  0.00000000E+00
  0.00000000E+00  0.00000000E+00  0.00000000E+00
  0.00000000E+00  0.00000000E+00  0.00000000E+00
  0.00000000E+00  0.00000000E+00  0.00000000E+00
  0.00000000E+00  0.00000000E+00  0.00000000E+00
  0.00000000E+00  0.00000000E+00  0.00000000E+00
  0.00000000E+00  0.00000000E+00  0.00000000E+00
  0.00000000E+00  0.00000000E+00  0.00000000E+00
  0.00000000E+00  0.00000000E+00  0.00000000E+00
  0.00000000E+00  0.00000000E+00  0.00000000E+00
  0.00000000E+00  0.00000000E+00  0.00000000E+00
  0.00000000E+00  0.00000000E+00  0.00000000E+00
  0.00000000E+00  0.00000000E+00  0.00000000E+00
  0.00000000E+00  0.00000000E+00  0.00000000E+00
  0.00000000E+00  0.00000000E+00  0.00000000E+00
  0.00000000E+00  0.00000000E+00  0.00000000E+00
  0.00000000E+00  0.00000000E+00  0.00000000E+00
  0.00000000E+00  0.00000000E+00  0.00000000E+00
  0.00000000E+00  0.00000000E+00  0.00000000E+00
  0.00000000E+00  0.00000000E+00  0.00000000E+00
  0.00000000E+00  0.00000000E+00  0.00000000E+00
  0.00000000E+00  0.00000000E+00  0.00000000E+00
  0.00000000E+00  0.00000000E+00  0.00000000E+00
  0.00000000E+00  0.00000000E+00  0.00000000E+00
  0.00000000E+00  0.00000000E+00  0.00000000E+00
  0.00000000E+00  0.00000000E+00  0.00000000E+00
  0.00000000E+00  0.00000000E+00  0.00000000E+00
  0.00000000E+00  0.00000000E+00  0.00000000E+00
  0.00000000E+00  0.00000000E+00  0.00000000E+00
  0.00000000E+00  0.00000000E+00  0.00000000E+00
  0.00000000E+00  0.00000000E+00  0.00000000E+00
  0.00000000E+00  0.00000000E+00  0.00000000E+00
  0.00000000E+00  0.00000000E+00  0.00000000E+00
  0.00000000E+00  0.00000000E+00  0.00000000E+00
  0.00000000E+00  0.00000000E+00  0.00000000E+00
  0.00000000E+00  0.00000000E+00  0.00000000E+00
  0.00000000E+00  0.00000000E+00  0.00000000E+00
  0.00000000E+00  0.00000000E+00  0.00000000E+00
  0.00000000E+00  0.00000000E+00  0.00000000E+00
  0.00000000E+00  0.00000000E+00  0.00000000E+00
  0.00000000E+00  0.00000000E+00  0.00000000E+00
  0.00000000E+00  0.00000000E+00  0.00000000E+00
  0.00000000E+00  0.00000000E+00  0.00000000E+00
  0.00000000E+00  0.00000000E+00  0.00000000E+00
  0.00000000E+00  0.00000000E+00  0.00000000E+00
  0.00000000E+00  0.00000000E+00  0.00000000E+00
  0.00000000E+00  0.00000000E+00  0.00000000E+00
  0.00000000E+00  0.00000000E+00  0.00000000E+00
  0.00000000E+00  0.00000000E+00  0.00000000E+00
  0.00000000E+00  0.00000000E+00  0.00000000E+00
  0.00000000E+00  0.00000000E+00  0.00000000E+00
  0.00000000E+00  0.00000000E+00  0.00000000E+00
