CeO2-you-111-you-Fe                     
   1.00000000000000     
     9.8343708279750661   -5.6725500315919355   -0.0147213378880048
     0.0046133042493599   11.3530885434695090    0.0147213354059205
    -0.0159893593243474    0.0276943812637338   20.9933984491606758
   O    Fe   Ce   H 
    53     1    26     2
Selective dynamics
Direct
  0.9997434928132347 -0.0000627402160884  0.9950449597369450   T   T   T
  0.1113942298957440  0.2218577806274240  0.1485933210664712   F   F   F
  0.2259382756587954  0.1028372751638003  0.3015873779350466   T   T   T
  0.1504154070720100  0.2490880832224843  0.3689024884582763   T   T   T
  0.0001971311951489  0.0002220900511453  0.2295086480747338   T   T   T
  0.2217660886189137  0.1107047272018917  0.0745299418690166   F   F   F
  0.3347831763249260  0.0008519056433448  0.9957425542210991   T   T   T
  0.4417586177128925  0.2249073822860765  0.1514624120723127   F   F   F
  0.5500071940698800  0.1173175187772307  0.3066574566714682   T   T   T
  0.4306093439352273  0.2375536653422815  0.3931221045706231   T   T   T
  0.3363274678052243 -0.0016550478311538  0.2278417826959988   T   T   T
  0.5558484125873946  0.1108185874126590  0.0776483626235986   F   F   F
  0.6657884022393811  0.0006713367641498  0.9957248458322090   T   T   T
  0.7840241567920572  0.2243992474282379  0.1519222698965450   F   F   F
  0.8868021185864652  0.1045476492961391  0.3062623615173503   T   T   T
  0.7666250354939896  0.2175609517079437  0.3880240087508941   T   T   T
  0.6658111937252290  0.0017711434909235  0.2309487467974485   T   T   T
  0.8893033030984014  0.1110113008306470  0.0749009375527265   F   F   F
  0.9979949765038452  0.3327773871076802  0.9946033588511157   T   T   T
  0.1111583448569604  0.5555086551402653  0.1482290274427029   F   F   F
  0.1066965611089371  0.5612998867248048  0.3867148169974285   T   T   T
  0.0162610022140030  0.3414255623335560  0.2344661668716596   T   T   T
  0.2223103748245876  0.4443556251761578  0.0728717809651087   F   F   F
  0.3335411808611515  0.3323912430099373  0.9947167952170639   T   T   T
  0.4448082193773786  0.5552727701048070  0.1485933210665351   F   F   F
  0.5645033853957329  0.4409774782897211  0.3018463375857177   T   T   T
  0.4169877529788680  0.5161311240791617  0.3682624547167119   T   T   T
  0.3253465641876309  0.3421777257577584  0.2388787884465060   T   T   T
  0.5559622727981903  0.4448999113806593  0.0745299418690522   F   F   F
  0.6655103174367184  0.3315761369316916  0.9957657805761994   T   T   T
  0.7774241987861927  0.5542754476813059  0.1506931999187060   F   F   F
  0.8839075229248912  0.4467549852767047  0.3044211902321556   T   T   T
  0.7761090397837506  0.5577221631948661  0.3866846390252220   T   T   T
  0.6682915015768717  0.3304827830988190  0.2278265192727515   T   T   T
  0.8883810527533242  0.4444958814161808  0.0750554107580328   F   F   F
  0.9992898491326810  0.6675142747923907  0.9951002118286876   T   T   T
  0.1123915523182077  0.8892428012125748  0.1506931999187273   F   F   F
  0.2203123134961783  0.7833017160870727  0.3045612768179016   T   T   T
  0.1096849297035959  0.8912439869417628  0.3866650366896190   T   T   T
  0.0004394764186839  0.6666367918586468  0.2293689779478182   T   T   T
  0.2221701185832003  0.7782859472463670  0.0750554107580115   F   F   F
  0.3335968652857701  0.6680634837378913  0.9946203372841947   T   T   T
  0.4422667525721877  0.8826428432070657  0.1519222698964953   F   F   F
  0.5624539771777455  0.7807702305587286  0.3058352590570697   T   T   T
  0.4500020282373919  0.9008367269484729  0.3879652297381030   T   T   T
  0.3248861889275234  0.6500556120261072  0.2346353441531712   T   T   T
  0.5556556991698045  0.7773636969021354  0.0749009375527550   F   F   F
  0.6671421742732903  0.6675746380087388  0.9948291082121512   T   T   T
  0.7767336642925642  0.8899333357082639  0.1502299107455443   F   F   F
  0.8886333693047133  0.7781508025643432  0.3040283508231071   T   T   T
  0.7797864767827827  0.8869838064492999  0.3864700559998805   T   T   T
  0.6662682077976828  0.6662031829897296  0.2294346794072987   T   T   T
  0.8887075807872975  0.7779594192122801  0.0752840742999865   F   F   F
  0.3334724883797408  0.3328135014528805  0.3385514955386189   T   T   T
  0.0041534996294210  0.0012386517548762  0.3427047452782586   T   T   T
  0.2226484323077287  0.1117165039930725  0.1914929083120640   F   F   F
  0.1102177440087999  0.2208407722784429  0.0338806941938330   F   F   F
  0.3289188540787477 -0.0038582327853351  0.3433177114627897   T   T   T
  0.5560143368978672  0.1106526631036857  0.1911140630334671   F   F   F
  0.4442576951230990  0.2224083048760903  0.0359576488135787   F   F   F
  0.6675040668813377 -0.0002480037169908  0.3466794387217199   T   T   T
  0.8900399461606483  0.1116612621825084  0.1913382182914702   F   F   F
  0.7781263074630544  0.2224681022614305  0.0359331590833634   F   F   F
  0.9936128149639649  0.3311745987492710  0.3519129488479360   T   T   T
  0.2234219966831716  0.4432440033148239  0.1841499509233557   F   F   F
  0.1101278775034302  0.5565391224968437  0.0342598118308359   F   F   F
  0.5549504960020002  0.4440175676895137  0.1914929083121066   F   F   F
  0.4458252277212864  0.5564492559914527  0.0338806941938117   F   F   F
  0.6710057810819138  0.3382990720979043  0.3434771490808152   T   T   T
  0.8903598414460063  0.4446886304647890  0.1913571842502932   F   F   F
  0.7771192717761153  0.5548702732577482  0.0356871378097949   F   F   F
  0.0001527029962314  0.6670768559245177  0.3458347143388040   T   T   T
  0.2219773695382230  0.7763071585607193  0.1913571842502293   F   F   F
  0.1117967267431723  0.8895477282239028  0.0356871378097949   F   F   F
  0.3361020780693048  0.6736927510024664  0.3519416826455601   T   T   T
  0.5550057378132820  0.7766270538414233  0.1913382182913210   F   F   F
  0.4441978977383272  0.8885406925380224  0.0359331590833492   F   F   F
  0.6657556046821195  0.6628587029178681  0.3425644311914854   T   T   T
  0.8890766298394297  0.7775903701603823  0.1889155792687944   F   F   F
  0.7771899464410978  0.8894770535582950  0.0355449335645091   F   F   F
  0.3159894276159924  0.3492734060856048  0.4688653440148236   T   T   T
  0.4163699209972671  0.2507748112688721  0.4378251549252836   T   T   T
 
  0.00000000E+00  0.00000000E+00  0.00000000E+00
  0.00000000E+00  0.00000000E+00  0.00000000E+00
  0.00000000E+00  0.00000000E+00  0.00000000E+00
  0.00000000E+00  0.00000000E+00  0.00000000E+00
  0.00000000E+00  0.00000000E+00  0.00000000E+00
  0.00000000E+00  0.00000000E+00  0.00000000E+00
  0.00000000E+00  0.00000000E+00  0.00000000E+00
  0.00000000E+00  0.00000000E+00  0.00000000E+00
  0.00000000E+00  0.00000000E+00  0.00000000E+00
  0.00000000E+00  0.00000000E+00  0.00000000E+00
  0.00000000E+00  0.00000000E+00  0.00000000E+00
  0.00000000E+00  0.00000000E+00  0.00000000E+00
  0.00000000E+00  0.00000000E+00  0.00000000E+00
  0.00000000E+00  0.00000000E+00  0.00000000E+00
  0.00000000E+00  0.00000000E+00  0.00000000E+00
  0.00000000E+00  0.00000000E+00  0.00000000E+00
  0.00000000E+00  0.00000000E+00  0.00000000E+00
  0.00000000E+00  0.00000000E+00  0.00000000E+00
  0.00000000E+00  0.00000000E+00  0.00000000E+00
  0.00000000E+00  0.00000000E+00  0.00000000E+00
  0.00000000E+00  0.00000000E+00  0.00000000E+00
  0.00000000E+00  0.00000000E+00  0.00000000E+00
  0.00000000E+00  0.00000000E+00  0.00000000E+00
  0.00000000E+00  0.00000000E+00  0.00000000E+00
  0.00000000E+00  0.00000000E+00  0.00000000E+00
  0.00000000E+00  0.00000000E+00  0.00000000E+00
  0.00000000E+00  0.00000000E+00  0.00000000E+00
  0.00000000E+00  0.00000000E+00  0.00000000E+00
  0.00000000E+00  0.00000000E+00  0.00000000E+00
  0.00000000E+00  0.00000000E+00  0.00000000E+00
  0.00000000E+00  0.00000000E+00  0.00000000E+00
  0.00000000E+00  0.00000000E+00  0.00000000E+00
  0.00000000E+00  0.00000000E+00  0.00000000E+00
  0.00000000E+00  0.00000000E+00  0.00000000E+00
  0.00000000E+00  0.00000000E+00  0.00000000E+00
  0.00000000E+00  0.00000000E+00  0.00000000E+00
  0.00000000E+00  0.00000000E+00  0.00000000E+00
  0.00000000E+00  0.00000000E+00  0.00000000E+00
  0.00000000E+00  0.00000000E+00  0.00000000E+00
  0.00000000E+00  0.00000000E+00  0.00000000E+00
  0.00000000E+00  0.00000000E+00  0.00000000E+00
  0.00000000E+00  0.00000000E+00  0.00000000E+00
  0.00000000E+00  0.00000000E+00  0.00000000E+00
  0.00000000E+00  0.00000000E+00  0.00000000E+00
  0.00000000E+00  0.00000000E+00  0.00000000E+00
  0.00000000E+00  0.00000000E+00  0.00000000E+00
  0.00000000E+00  0.00000000E+00  0.00000000E+00
  0.00000000E+00  0.00000000E+00  0.00000000E+00
  0.00000000E+00  0.00000000E+00  0.00000000E+00
  0.00000000E+00  0.00000000E+00  0.00000000E+00
  0.00000000E+00  0.00000000E+00  0.00000000E+00
  0.00000000E+00  0.00000000E+00  0.00000000E+00
  0.00000000E+00  0.00000000E+00  0.00000000E+00
  0.00000000E+00  0.00000000E+00  0.00000000E+00
  0.00000000E+00  0.00000000E+00  0.00000000E+00
  0.00000000E+00  0.00000000E+00  0.00000000E+00
  0.00000000E+00  0.00000000E+00  0.00000000E+00
  0.00000000E+00  0.00000000E+00  0.00000000E+00
  0.00000000E+00  0.00000000E+00  0.00000000E+00
  0.00000000E+00  0.00000000E+00  0.00000000E+00
  0.00000000E+00  0.00000000E+00  0.00000000E+00
  0.00000000E+00  0.00000000E+00  0.00000000E+00
  0.00000000E+00  0.00000000E+00  0.00000000E+00
  0.00000000E+00  0.00000000E+00  0.00000000E+00
  0.00000000E+00  0.00000000E+00  0.00000000E+00
  0.00000000E+00  0.00000000E+00  0.00000000E+00
  0.00000000E+00  0.00000000E+00  0.00000000E+00
  0.00000000E+00  0.00000000E+00  0.00000000E+00
  0.00000000E+00  0.00000000E+00  0.00000000E+00
  0.00000000E+00  0.00000000E+00  0.00000000E+00
  0.00000000E+00  0.00000000E+00  0.00000000E+00
  0.00000000E+00  0.00000000E+00  0.00000000E+00
  0.00000000E+00  0.00000000E+00  0.00000000E+00
  0.00000000E+00  0.00000000E+00  0.00000000E+00
  0.00000000E+00  0.00000000E+00  0.00000000E+00
  0.00000000E+00  0.00000000E+00  0.00000000E+00
  0.00000000E+00  0.00000000E+00  0.00000000E+00
  0.00000000E+00  0.00000000E+00  0.00000000E+00
  0.00000000E+00  0.00000000E+00  0.00000000E+00
  0.00000000E+00  0.00000000E+00  0.00000000E+00
  0.00000000E+00  0.00000000E+00  0.00000000E+00
  0.00000000E+00  0.00000000E+00  0.00000000E+00
