CeO2-you-111-you-Rh                     
   1.00000000000000     
     9.7925622306971345   -5.6537388120115013    0.0000000000000000
     0.0000000061605534   11.3074756448175151    0.0000000000000000
     0.0000000000000000    0.0000000000000000   21.1075598993297469
   O    Rh   Ce H
    54     1    26 2
Selective dynamics
Direct
  0.0003830324662172  0.0004604962562130  0.9948072551590071   T   T   T
  0.1029314727720516  0.2181322363857758  0.1481409006569025   T   T   T
  0.2347670933694756  0.1362011867365223  0.3040320698589138   T   T   T
  0.1344620940082111  0.2338975470019370  0.3844603392873185   T   T   T
  0.0030780842564128  0.0003664975720629  0.2313111371446595   T   T   T
  0.2226498917630627  0.1119667835260655  0.0747617187685680   T   T   T
  0.3334104637900380  0.0004604962561963  0.9948072551590071   T   T   T
  0.4485337636137202  0.2181322363855524  0.1481409006569025   T   T   T
  0.5529299887995086  0.1137370111999630  0.3065039990337892   T   T   T
  0.4327684529937220  0.2338975470000104  0.3844603392873185   T   T   T
  0.3306214133156133  0.0003664975717108  0.2313111371446595   T   T   T
  0.5572524022371896  0.1094145977627092  0.0745377949818414   T   T   T
  0.6666669999999968 -0.0000000000000000  0.9930753286278194   T   T   T
  0.7775305929922511  0.2217271859845750  0.1514737698997428   T   T   T
  0.8941410224006184  0.1137370112001266  0.3065039990337892   T   T   T
  0.7777786350667714  0.2222232701333623  0.3839465122598368   T   T   T
  0.6666669999999968 -0.0000000000000000  0.2326502947942758   T   T   T
  0.8854961955255525  0.1094145977627416  0.0745377949818414   T   T   T
  0.0003830324663050  0.3332555362099697  0.9948072551590071   T   T   T
  0.1104792564938355  0.5561877435065939  0.1493963722377800   T   T   T
  0.2347670933749410  0.4318989066329493  0.3040320698589138   T   T   T
  0.1141932721327333  0.5524737278670220  0.3820021272892258   T   T   T
  0.0030780842563226  0.3360445866835597  0.2313111371446595   T   T   T
  0.2226498917631897  0.4440161082369932  0.0747617187685680   T   T   T
  0.3333330000000032  0.3333330000000032  0.9949561918286542   T   T   T
  0.4485337636142235  0.5637355272286786  0.1481409006569025   T   T   T
  0.5304658132555904  0.4318989066305236  0.3040320698589138   T   T   T
  0.4327684529980624  0.5322049059980598  0.3844603392873185   T   T   T
  0.3333330000000032  0.3333330000000032  0.2137757194978555   T   T   T
  0.5547002164737549  0.4440161082369368  0.0747617187685680   T   T   T
  0.6662065037436193  0.3332555362099143  0.9948072551590071   T   T   T
  0.7790414870126239  0.5561877435064629  0.1493963722377800   T   T   T
  0.8891851299365708  0.4450362598731719  0.3051218876298871   T   T   T
  0.7716134557343610  0.5524737278670985  0.3820021272892258   T   T   T
  0.6663005024272707  0.3360445866832475  0.2313111371446595   T   T   T
  0.8881683791293203  0.4430027582587146  0.0750021896640503   T   T   T
 -0.0000000000000000  0.6666669999999968  0.9953562629267509   T   T   T
  0.1104792564935409  0.8876255129869477  0.1493963722377800   T   T   T
  0.2216297401269291  0.7774818700634260  0.3051218876298871   T   T   T
  0.1141932721329054  0.8950535442658837  0.3820021272892258   T   T   T
 -0.0000000000000000  0.6666669999999968  0.2302884511936223   T   T   T
  0.2236632417415282  0.7784986208706764  0.0750021896640503   T   T   T
  0.3334104637901636  0.6662839675338726  0.9948072551590071   T   T   T
  0.4449388140156387  0.8891364070077457  0.1514737698997428   T   T   T
  0.5529299887998770  0.7725259775999102  0.3065039990337892   T   T   T
  0.4444427298660312  0.8888883649332254  0.3839465122598368   T   T   T
  0.3306214133163166  0.6635889157446894  0.2313111371446595   T   T   T
  0.5572524022372619  0.7811708044745492  0.0745377949818414   T   T   T
  0.6662065037436575  0.6662839675338340  0.9948072551590071   T   T   T
  0.7775305929921029  0.8891364070076795  0.1514737698997428   T   T   T
  0.8891851299365003  0.7774818700633945  0.3051218876298871   T   T   T
  0.7777786350671908  0.8888883649334117  0.3839465122598368   T   T   T
  0.6663005024280642  0.6635889157447294  0.2313111371446595   T   T   T
  0.8881683791291518  0.7784986208706021  0.0750021896640503   T   T   T
  0.3333330000000032  0.3333330000000032  0.3470564819899173   T   T   T
  0.0057025997610472  0.0052632401225556  0.3439563746505410   T   T   T
  0.2234597438413575  0.1135864876827155  0.1884996689387875   T   T   T
  0.1104526092930427  0.2218928046466369  0.0345208583880617   T   T   T
  0.3328936403621032  0.0052632401225509  0.3439563746505410   T   T   T
  0.5555111091569319  0.1111558908437961  0.1905834331167107   T   T   T
  0.4447731953535902  0.2218928046467380  0.0345208583880617   T   T   T
  0.6666669999999968 -0.0000000000000000  0.3465386298091152   T   T   T
  0.8889787816866418  0.1111558908435735  0.1905834331167107   T   T   T
  0.7773844454948280  0.2214348909896208  0.0345168291226352   T   T   T
  0.0057025997623806  0.3337723596384842  0.3439563746505410   T   T   T
  0.2234597438413491  0.4432062561586381  0.1884996689387875   T   T   T
  0.1111392671855642  0.5555277328140312  0.0353480674243889   T   T   T
  0.5530805123172999  0.4432062561586417  0.1884996689387875   T   T   T
  0.4447731953533626  0.5562143907066324  0.0345208583880617   T   T   T
  0.6614037598755054  0.3337723596378879  0.3439563746505410   T   T   T
  0.8887890940614238  0.4442441881227911  0.1901447171382747   T   T   T
  0.7777214656285889  0.5555277328141570  0.0353480674243889   T   T   T
 -0.0000000000000000  0.6666669999999968  0.3422602705167053   T   T   T
  0.2224218118770278  0.7778779059385730  0.1901447171382747   T   T   T
  0.1111392671858470  0.8889455343718162  0.0353480674243889   T   T   T
  0.3328936403634473  0.6609644002395565  0.3439563746505410   T   T   T
  0.5555111091564305  0.7776882183126304  0.1905834331167107   T   T   T
  0.4452311090102415  0.8892825545051688  0.0345168291226352   T   T   T
  0.6614037598755161  0.6609644002389645  0.3439563746505410   T   T   T
  0.8887890940615485  0.7778779059386284  0.1901447171382747   T   T   T
  0.7773844454949234  0.8892825545052107  0.0345168291226352   T   T   T
0.3333330000000032 0.3333330000000032 0.447056 T T T
0.446598 0.216020 0.433410 T T T 
 
  0.00000000E+00  0.00000000E+00  0.00000000E+00
  0.00000000E+00  0.00000000E+00  0.00000000E+00
  0.00000000E+00  0.00000000E+00  0.00000000E+00
  0.00000000E+00  0.00000000E+00  0.00000000E+00
  0.00000000E+00  0.00000000E+00  0.00000000E+00
  0.00000000E+00  0.00000000E+00  0.00000000E+00
  0.00000000E+00  0.00000000E+00  0.00000000E+00
  0.00000000E+00  0.00000000E+00  0.00000000E+00
  0.00000000E+00  0.00000000E+00  0.00000000E+00
  0.00000000E+00  0.00000000E+00  0.00000000E+00
  0.00000000E+00  0.00000000E+00  0.00000000E+00
  0.00000000E+00  0.00000000E+00  0.00000000E+00
  0.00000000E+00  0.00000000E+00  0.00000000E+00
  0.00000000E+00  0.00000000E+00  0.00000000E+00
  0.00000000E+00  0.00000000E+00  0.00000000E+00
  0.00000000E+00  0.00000000E+00  0.00000000E+00
  0.00000000E+00  0.00000000E+00  0.00000000E+00
  0.00000000E+00  0.00000000E+00  0.00000000E+00
  0.00000000E+00  0.00000000E+00  0.00000000E+00
  0.00000000E+00  0.00000000E+00  0.00000000E+00
  0.00000000E+00  0.00000000E+00  0.00000000E+00
  0.00000000E+00  0.00000000E+00  0.00000000E+00
  0.00000000E+00  0.00000000E+00  0.00000000E+00
  0.00000000E+00  0.00000000E+00  0.00000000E+00
  0.00000000E+00  0.00000000E+00  0.00000000E+00
  0.00000000E+00  0.00000000E+00  0.00000000E+00
  0.00000000E+00  0.00000000E+00  0.00000000E+00
  0.00000000E+00  0.00000000E+00  0.00000000E+00
  0.00000000E+00  0.00000000E+00  0.00000000E+00
  0.00000000E+00  0.00000000E+00  0.00000000E+00
  0.00000000E+00  0.00000000E+00  0.00000000E+00
  0.00000000E+00  0.00000000E+00  0.00000000E+00
  0.00000000E+00  0.00000000E+00  0.00000000E+00
  0.00000000E+00  0.00000000E+00  0.00000000E+00
  0.00000000E+00  0.00000000E+00  0.00000000E+00
  0.00000000E+00  0.00000000E+00  0.00000000E+00
  0.00000000E+00  0.00000000E+00  0.00000000E+00
  0.00000000E+00  0.00000000E+00  0.00000000E+00
  0.00000000E+00  0.00000000E+00  0.00000000E+00
  0.00000000E+00  0.00000000E+00  0.00000000E+00
  0.00000000E+00  0.00000000E+00  0.00000000E+00
  0.00000000E+00  0.00000000E+00  0.00000000E+00
  0.00000000E+00  0.00000000E+00  0.00000000E+00
  0.00000000E+00  0.00000000E+00  0.00000000E+00
  0.00000000E+00  0.00000000E+00  0.00000000E+00
  0.00000000E+00  0.00000000E+00  0.00000000E+00
  0.00000000E+00  0.00000000E+00  0.00000000E+00
  0.00000000E+00  0.00000000E+00  0.00000000E+00
  0.00000000E+00  0.00000000E+00  0.00000000E+00
  0.00000000E+00  0.00000000E+00  0.00000000E+00
  0.00000000E+00  0.00000000E+00  0.00000000E+00
  0.00000000E+00  0.00000000E+00  0.00000000E+00
  0.00000000E+00  0.00000000E+00  0.00000000E+00
  0.00000000E+00  0.00000000E+00  0.00000000E+00
  0.00000000E+00  0.00000000E+00  0.00000000E+00
  0.00000000E+00  0.00000000E+00  0.00000000E+00
  0.00000000E+00  0.00000000E+00  0.00000000E+00
  0.00000000E+00  0.00000000E+00  0.00000000E+00
  0.00000000E+00  0.00000000E+00  0.00000000E+00
  0.00000000E+00  0.00000000E+00  0.00000000E+00
  0.00000000E+00  0.00000000E+00  0.00000000E+00
  0.00000000E+00  0.00000000E+00  0.00000000E+00
  0.00000000E+00  0.00000000E+00  0.00000000E+00
  0.00000000E+00  0.00000000E+00  0.00000000E+00
  0.00000000E+00  0.00000000E+00  0.00000000E+00
  0.00000000E+00  0.00000000E+00  0.00000000E+00
  0.00000000E+00  0.00000000E+00  0.00000000E+00
  0.00000000E+00  0.00000000E+00  0.00000000E+00
  0.00000000E+00  0.00000000E+00  0.00000000E+00
  0.00000000E+00  0.00000000E+00  0.00000000E+00
  0.00000000E+00  0.00000000E+00  0.00000000E+00
  0.00000000E+00  0.00000000E+00  0.00000000E+00
  0.00000000E+00  0.00000000E+00  0.00000000E+00
  0.00000000E+00  0.00000000E+00  0.00000000E+00
  0.00000000E+00  0.00000000E+00  0.00000000E+00
  0.00000000E+00  0.00000000E+00  0.00000000E+00
  0.00000000E+00  0.00000000E+00  0.00000000E+00
  0.00000000E+00  0.00000000E+00  0.00000000E+00
  0.00000000E+00  0.00000000E+00  0.00000000E+00
  0.00000000E+00  0.00000000E+00  0.00000000E+00
  0.00000000E+00  0.00000000E+00  0.00000000E+00
