CeO2-you-111-you-Re                     
   1.00000000000000     
     9.8465586595326720   -5.6849136637097528   -0.0000000000000000
     0.0000000001908902   11.3698253269020384    0.0000000000000000
     0.0000000000000000    0.0000000000000000   21.0931913324391900
   O    Re   Ce H
    54     1    26 1
Selective dynamics
Direct
  0.0002506653806671  0.0007743993494171  0.9952112122281256   T   T   T
  0.0999205081359040  0.2166267540659737  0.1470009042313049   F   F   F
  0.2474547445042297  0.1615764890089823  0.3042220014250094   T   T   T
  0.1673280759551834  0.2503305379851847  0.3993107841978838   T   T   T
  0.0062602647837291  0.0002254661176838  0.2300824187940092   T   T   T
  0.2224373874521646  0.1115417749048904  0.0743739078608575   F   F   F
  0.3338567339683773  0.0007743993493325  0.9952112122281256   T   T   T
  0.4500392459300658  0.2166267540642163  0.1470009042313049   F   F   F
  0.5522555283478567  0.1144114716619497  0.3054471437191247   T   T   T
  0.4163354620299974  0.2503305379919234  0.3993107841978838   T   T   T
  0.3272982013351404  0.0002254661174928  0.2300824187940092   T   T   T
  0.5582279947479075  0.1084390052475792  0.0744417611275672   F   F   F
  0.6666669999999968 -0.0000000000000000  0.9927854201110247   T   T   T
  0.7780021503578796  0.2226703007151331  0.1518291288060243   F   F   F
  0.8954899433110801  0.1144114716589365  0.3054471437191247   T   T   T
  0.7766594185799440  0.2199848371597366  0.3835717105147134   T   T   T
  0.6666669999999968 -0.0000000000000000  0.2320211249865128   T   T   T
  0.8835450105010613  0.1084390052489678  0.0744417611275672   F   F   F
  0.0002506653798193  0.3328092660310623  0.9952112122281256   T   T   T
  0.1099854264250861  0.5566815735737883  0.1479237715517280   F   F   F
  0.2474547445030443  0.4192112554952432  0.3042220014250094   T   T   T
  0.1108139269421812  0.5558530730611090  0.3811796495302957   T   T   T
  0.0062602647863931  0.3393677986656184  0.2300824187940092   T   T   T
  0.2224373874508929  0.4442286125472703  0.0743739078608575   F   F   F
  0.3333330000000032  0.3333330000000032  0.9953609330782910   T   T   T
  0.4500392459340254  0.5667464918698171  0.1470009042313049   F   F   F
  0.5050905109927331  0.4192112554957695  0.3042220014250094   T   T   T
  0.4163354620148148  0.4993389240228988  0.3993107841978838   T   T   T
  0.3333330000000032  0.3333330000000032  0.2047501646293346   T   T   T
  0.5551252250969496  0.4442286125478347  0.0743739078608575   F   F   F
  0.6658926006516132  0.3328092660313541  0.9952112122281256   T   T   T
  0.7800291471490457  0.5566815735741357  0.1479237715517280   F   F   F
  0.8885341031148278  0.4437342062306532  0.3035224188333517   T   T   T
  0.7783721461179139  0.5558530730600993  0.3811796495302957   T   T   T
  0.6664415338780364  0.3393677986642448  0.2300824187940092   T   T   T
  0.8879787701148920  0.4426235402295110  0.0741376496674136   F   F   F
  0.0000000000000000  0.6666669999999968  0.9953295072139818   T   T   T
  0.1099854264258680  0.8866378528520800  0.1479237715517280   F   F   F
  0.2229317937725930  0.7781328968851690  0.3035224188333517   T   T   T
  0.1108139269399048  0.8882948538787960  0.3811796495302957   T   T   T
  0.0000000000000000  0.6666669999999968  0.2297012820431145   T   T   T
  0.2240424597696000  0.7786882298851048  0.0741376496674136   F   F   F
  0.3338567339677201  0.6664163346192289  0.9952112122281256   T   T   T
  0.4439956992828121  0.8886648496421172  0.1518291288060243   F   F   F
  0.5522555283410673  0.7711770566791141  0.3054471437191247   T   T   T
  0.4466811628397470  0.8900075814200528  0.3835717105147134   T   T   T
  0.3272982013382345  0.6604067352180711  0.2300824187940092   T   T   T
  0.5582279947510360  0.7831219895034527  0.0744417611275672   F   F   F
  0.6658926006518036  0.6664163346196055  0.9952112122281256   T   T   T
  0.7780021503593022  0.8886648496427491  0.1518291288060243   F   F   F
  0.8885341031125794  0.7781328968841715  0.3035224188333517   T   T   T
  0.7766594185803016  0.8900075814202110  0.3835717105147134   T   T   T
  0.6664415338784666  0.6604067352168888  0.2300824187940092   T   T   T
  0.8879787701155079  0.7786882298853773  0.0741376496674136   F   F   F
  0.3333330000000032  0.3333330000000032  0.3597831837137938   T   T   T
 -0.0010797552481954 -0.0038313528460540  0.3426148869830837   T   T   T
  0.2236998676887596  0.1140667353754863  0.1870744512460993   F   F   F
  0.1099950619089212  0.2216640309526959  0.0344888305650627   F   F   F
  0.3305814024039818 -0.0038313528493114  0.3426148869830837   T   T   T
  0.5552036148166112  0.1114633851742940  0.1905623919813766   F   F   F
  0.4450019690437709  0.2216640309511280  0.0344888305650627   F   F   F
  0.6666669999999968 -0.0000000000000000  0.3442225531777147   T   T   T
  0.8895937703604805  0.1114633851770911  0.1905623919813766   F   F   F
  0.7770456095496376  0.2207572190992322  0.0347024577121921   F   F   F
 -0.0010797552440563  0.3360845975905223  0.3426148869830837   T   T   T
  0.2236998676933328  0.4429661323132694  0.1870744512460993   F   F   F
  0.1111303862380462  0.5555366137672741  0.0348372603207218   F   F   F
  0.5526002646179148  0.4429661323112399  0.1870744512460993   F   F   F
  0.4450019690473034  0.5566719380961831  0.0344888305650627   F   F   F
  0.6704983528327355  0.3360845975854280  0.3426148869830837   T   T   T
  0.8893041610708218  0.4452743221408927  0.1884169480740349   F   F   F
  0.7777392275275899  0.5555366137656401  0.0348372603207218   F   F   F
  0.0000000000000000  0.6666669999999968  0.3428512089207460   T   T   T
  0.2213916778566674  0.7773628389291750  0.1884169480740349   F   F   F
  0.1111303862343638  0.8889277724670899  0.0348372603207218   F   F   F
  0.3305814024154599  0.6677467552606264  0.3426148869830837   T   T   T
  0.5552036148229128  0.7770732296486148  0.1905623919813766   F   F   F
  0.4459087809006040  0.8896213904503592  0.0347024577121921   F   F   F
  0.6704983528400743  0.6677467552587890  0.3426148869830837   T   T   T
  0.8893041610725111  0.7773628389299253  0.1884169480740349   F   F   F
  0.7770456095497511  0.8896213904504091  0.0347024577121921   F   F   F
0.446598 0.216020 0.433410 T T T 
 
  0.00000000E+00  0.00000000E+00  0.00000000E+00
  0.00000000E+00  0.00000000E+00  0.00000000E+00
  0.00000000E+00  0.00000000E+00  0.00000000E+00
  0.00000000E+00  0.00000000E+00  0.00000000E+00
  0.00000000E+00  0.00000000E+00  0.00000000E+00
  0.00000000E+00  0.00000000E+00  0.00000000E+00
  0.00000000E+00  0.00000000E+00  0.00000000E+00
  0.00000000E+00  0.00000000E+00  0.00000000E+00
  0.00000000E+00  0.00000000E+00  0.00000000E+00
  0.00000000E+00  0.00000000E+00  0.00000000E+00
  0.00000000E+00  0.00000000E+00  0.00000000E+00
  0.00000000E+00  0.00000000E+00  0.00000000E+00
  0.00000000E+00  0.00000000E+00  0.00000000E+00
  0.00000000E+00  0.00000000E+00  0.00000000E+00
  0.00000000E+00  0.00000000E+00  0.00000000E+00
  0.00000000E+00  0.00000000E+00  0.00000000E+00
  0.00000000E+00  0.00000000E+00  0.00000000E+00
  0.00000000E+00  0.00000000E+00  0.00000000E+00
  0.00000000E+00  0.00000000E+00  0.00000000E+00
  0.00000000E+00  0.00000000E+00  0.00000000E+00
  0.00000000E+00  0.00000000E+00  0.00000000E+00
  0.00000000E+00  0.00000000E+00  0.00000000E+00
  0.00000000E+00  0.00000000E+00  0.00000000E+00
  0.00000000E+00  0.00000000E+00  0.00000000E+00
  0.00000000E+00  0.00000000E+00  0.00000000E+00
  0.00000000E+00  0.00000000E+00  0.00000000E+00
  0.00000000E+00  0.00000000E+00  0.00000000E+00
  0.00000000E+00  0.00000000E+00  0.00000000E+00
  0.00000000E+00  0.00000000E+00  0.00000000E+00
  0.00000000E+00  0.00000000E+00  0.00000000E+00
  0.00000000E+00  0.00000000E+00  0.00000000E+00
  0.00000000E+00  0.00000000E+00  0.00000000E+00
  0.00000000E+00  0.00000000E+00  0.00000000E+00
  0.00000000E+00  0.00000000E+00  0.00000000E+00
  0.00000000E+00  0.00000000E+00  0.00000000E+00
  0.00000000E+00  0.00000000E+00  0.00000000E+00
  0.00000000E+00  0.00000000E+00  0.00000000E+00
  0.00000000E+00  0.00000000E+00  0.00000000E+00
  0.00000000E+00  0.00000000E+00  0.00000000E+00
  0.00000000E+00  0.00000000E+00  0.00000000E+00
  0.00000000E+00  0.00000000E+00  0.00000000E+00
  0.00000000E+00  0.00000000E+00  0.00000000E+00
  0.00000000E+00  0.00000000E+00  0.00000000E+00
  0.00000000E+00  0.00000000E+00  0.00000000E+00
  0.00000000E+00  0.00000000E+00  0.00000000E+00
  0.00000000E+00  0.00000000E+00  0.00000000E+00
  0.00000000E+00  0.00000000E+00  0.00000000E+00
  0.00000000E+00  0.00000000E+00  0.00000000E+00
  0.00000000E+00  0.00000000E+00  0.00000000E+00
  0.00000000E+00  0.00000000E+00  0.00000000E+00
  0.00000000E+00  0.00000000E+00  0.00000000E+00
  0.00000000E+00  0.00000000E+00  0.00000000E+00
  0.00000000E+00  0.00000000E+00  0.00000000E+00
  0.00000000E+00  0.00000000E+00  0.00000000E+00
  0.00000000E+00  0.00000000E+00  0.00000000E+00
  0.00000000E+00  0.00000000E+00  0.00000000E+00
  0.00000000E+00  0.00000000E+00  0.00000000E+00
  0.00000000E+00  0.00000000E+00  0.00000000E+00
  0.00000000E+00  0.00000000E+00  0.00000000E+00
  0.00000000E+00  0.00000000E+00  0.00000000E+00
  0.00000000E+00  0.00000000E+00  0.00000000E+00
  0.00000000E+00  0.00000000E+00  0.00000000E+00
  0.00000000E+00  0.00000000E+00  0.00000000E+00
  0.00000000E+00  0.00000000E+00  0.00000000E+00
  0.00000000E+00  0.00000000E+00  0.00000000E+00
  0.00000000E+00  0.00000000E+00  0.00000000E+00
  0.00000000E+00  0.00000000E+00  0.00000000E+00
  0.00000000E+00  0.00000000E+00  0.00000000E+00
  0.00000000E+00  0.00000000E+00  0.00000000E+00
  0.00000000E+00  0.00000000E+00  0.00000000E+00
  0.00000000E+00  0.00000000E+00  0.00000000E+00
  0.00000000E+00  0.00000000E+00  0.00000000E+00
  0.00000000E+00  0.00000000E+00  0.00000000E+00
  0.00000000E+00  0.00000000E+00  0.00000000E+00
  0.00000000E+00  0.00000000E+00  0.00000000E+00
  0.00000000E+00  0.00000000E+00  0.00000000E+00
  0.00000000E+00  0.00000000E+00  0.00000000E+00
  0.00000000E+00  0.00000000E+00  0.00000000E+00
  0.00000000E+00  0.00000000E+00  0.00000000E+00
  0.00000000E+00  0.00000000E+00  0.00000000E+00
  0.00000000E+00  0.00000000E+00  0.00000000E+00
