CeO2-you-111-you-Bi                     
   1.00000000000000     
     9.8692771926929161   -5.6901123005032259   -0.0022150946831396
     0.0068571100569485   11.3920994606020543    0.0022150943224671
    -0.0022146511767568    0.0038358882388099   21.2088272741057509
   O    Bi   Ce   H 
    53     1    26     2
Selective dynamics
Direct
  0.9996181190678959  0.9991915516140960  0.9970178664789803   T   T   T
  0.1100550900848916  0.2211313907330208  0.1472554323810868   F   F   F
  0.2239378955137240  0.1043198051668917  0.3051805610144005   T   T   T
  0.0998209518007822  0.2093277670215226  0.3874487986532498   T   T   T
  0.0000885475422285  0.0001627954687048  0.2291675595625291   T   T   T
  0.2218321142191400  0.1103038369074127  0.0756233945251950   F   F   F
  0.3355092051237146  0.0013600358082269  0.9980119681231920   T   T   T
  0.4413718058861917  0.2252941941132747  0.1515521426086295   F   F   F
  0.5497347461350133  0.1148680011516573  0.3035738678406883   T   T   T
  0.4551617908589906  0.2090666823256584  0.4031199966773854   T   T   T
  0.3337757330385809 -0.0016491246945177  0.2272836101879007   T   T   T
  0.5559497031190830  0.1107172968809067  0.0785859412205951   F   F   F
  0.6660297444513859  0.0010222923374129  0.9975912344478263   T   T   T
  0.7850563527355519  0.2264388481654294  0.1518011497162348   F   F   F
  0.8812039402398076  0.1032052683138794  0.3024981638867270   T   T   T
  0.7651983744375870  0.2176918816158841  0.3844180248475261   T   T   T
  0.6641845361312214  0.0021969135654689  0.2282561916098698   T   T   T
  0.8881154826768238  0.1102069890118997  0.0755158419890876   F   F   F
  0.9981398646350220  0.3321391708983442  0.9964444896121674   T   T   T
  0.1103567119208861  0.5563102880773130  0.1475017366888096   F   F   F
  0.1262578668225955  0.5611215016972758  0.3777272264718645   T   T   T
  0.0159717715872984  0.3416906285632480  0.2333022089386037   T   T   T
  0.2221417778826122  0.4445242221177139  0.0726163789920875   F   F   F
  0.3340694113361425  0.3322111626712049  0.9965035715191928   T   T   T
  0.4455346092692025  0.5566119099159295  0.1472554323808666   F   F   F
  0.5619227810659777  0.4445085691322975  0.3071931925014605   T   T   T
  0.4378197959986803  0.5680442584352801  0.3823898350110815   T   T   T
  0.3274360453213170  0.3399360353430224  0.2235119626988367   T   T   T
  0.5563631630928683  0.4448338857809233  0.0756233945252021   F   F   F
  0.6660422634849548  0.3319353953763968  0.9979692058681181   T   T   T
  0.7781302777926484  0.5556350653733872  0.1508516944901004   F   F   F
  0.8858721378986306  0.4484523304052464  0.3035281066388050   T   T   T
  0.7820544795355127  0.5593141209850884  0.3847813332676989   T   T   T
  0.6677958471009398  0.3332583469249917  0.2279329936502303   T   T   T
  0.8885395237133196  0.4446896372477696  0.0755047257793748   F   F   F
  0.9994205119569614  0.6671476493840446  0.9968836215925766   T   T   T
  0.1110319346259487  0.8885367222065952  0.1508516944900862   F   F   F
  0.2231087946092299  0.7820064765715342  0.3022062645043120   T   T   T
  0.1092670287929729  0.8838586820083458  0.3833865040096271   T   T   T
  0.0013028151986094  0.6671592381173683  0.2292149359277074   T   T   T
  0.2219763627519242  0.7781274762862722  0.0755047257793393   F   F   F
  0.3342638204128016  0.6686347123338930  0.9966488909586428   T   T   T
  0.4402271518348613  0.8816106472645657  0.1518011497163343   F   F   F
  0.5575030482238694  0.7839384912760533  0.3025207611961963   T   T   T
  0.4444724466998688  0.8931751617510094  0.3836338168756343   T   T   T
  0.3244009611143672  0.6492474528498037  0.2353769550352687   T   T   T
  0.5564600109884097  0.7785515173231730  0.0755158419890734   F   F   F
  0.6673983227495346  0.6673699161668678  0.9966651084151257   T   T   T
  0.7775501942257250  0.8891168057745915  0.1510026564920537   F   F   F
  0.8880438470505408  0.7762471627165631  0.3030094762859988   T   T   T
  0.7746033948469149  0.8851114614488279  0.3823303405985506   T   T   T
  0.6646196680670301  0.6665410075900221  0.2297686049237036   T   T   T
  0.8886631046613331  0.7780038953385571  0.0765182011529646   F   F   F
  0.3306578958789665  0.3312875641080202  0.3759734587393832   T   T   T
 -0.0002293296888216 -0.0006396142616051  0.3428158707083099   T   T   T
  0.2216217743452304  0.1118340844514449  0.1903988292350860   F   F   F
  0.1099979323908471  0.2201909777135356  0.0348985583614834   F   F   F
  0.3270184992279879  0.9958007390101130  0.3403687310936691   T   T   T
  0.5553740128019129  0.1112929871991781  0.1900859581486856   F   F   F
  0.4443122729599551  0.2223537270400726  0.0372456039543110   F   F   F
  0.6664465002295015  0.0019675844200897  0.3424703744453651   T   T   T
  0.8898531187205947  0.1117756721376963  0.1903231341272189   F   F   F
  0.7780498380057708  0.2224007124652942  0.0371797927708784   F   F   F
  0.9886923356623208  0.3250960805037149  0.3496726592349957   T   T   T
  0.2222308921073690  0.4444351078896602  0.1817618418123743   F   F   F
  0.1099784600258005  0.5566885399743100  0.0348696308777150   F   F   F
  0.5548329155468892  0.4450442256536817  0.1903988292351357   F   F   F
  0.4464750222860232  0.5566690676087518  0.0348985583614976   F   F   F
  0.6725134845857420  0.3401043227055230  0.3412377110329471   T   T   T
  0.8901327798114878  0.4449180547698859  0.1906365224785773   F   F   F
  0.7774826773698180  0.5551398267992127  0.0375040908865216   F   F   F
 -0.0002417260410166  0.6671565313591116  0.3427845339271773   T   T   T
  0.2217479452327424  0.7765342201929712  0.1906365224786128   F   F   F
  0.1115271732014094  0.8891843226304985  0.0375040908865145   F   F   F
  0.3408709665064144  0.6821033591663366  0.3461092900780464   T   T   T
  0.5548913278591669  0.7768138812791463  0.1903231341273326   F   F   F
  0.4442652875346056  0.8886171619943610  0.0371797927709139   F   F   F
  0.6659854916018246  0.6663008415800489  0.3427602887389098   T   T   T
  0.8886660970281568  0.7780009029726216  0.1896426936095139   F   F   F
  0.7774385423546946  0.8892284576446983  0.0372727365932946   F   F   F
  0.3471251206090669  0.3332838053374301  0.4649059961793229   T   T   T
  0.4501165764586185  0.2154071793455442  0.4488042997469035   T   T   T
 
  0.00000000E+00  0.00000000E+00  0.00000000E+00
  0.00000000E+00  0.00000000E+00  0.00000000E+00
  0.00000000E+00  0.00000000E+00  0.00000000E+00
  0.00000000E+00  0.00000000E+00  0.00000000E+00
  0.00000000E+00  0.00000000E+00  0.00000000E+00
  0.00000000E+00  0.00000000E+00  0.00000000E+00
  0.00000000E+00  0.00000000E+00  0.00000000E+00
  0.00000000E+00  0.00000000E+00  0.00000000E+00
  0.00000000E+00  0.00000000E+00  0.00000000E+00
  0.00000000E+00  0.00000000E+00  0.00000000E+00
  0.00000000E+00  0.00000000E+00  0.00000000E+00
  0.00000000E+00  0.00000000E+00  0.00000000E+00
  0.00000000E+00  0.00000000E+00  0.00000000E+00
  0.00000000E+00  0.00000000E+00  0.00000000E+00
  0.00000000E+00  0.00000000E+00  0.00000000E+00
  0.00000000E+00  0.00000000E+00  0.00000000E+00
  0.00000000E+00  0.00000000E+00  0.00000000E+00
  0.00000000E+00  0.00000000E+00  0.00000000E+00
  0.00000000E+00  0.00000000E+00  0.00000000E+00
  0.00000000E+00  0.00000000E+00  0.00000000E+00
  0.00000000E+00  0.00000000E+00  0.00000000E+00
  0.00000000E+00  0.00000000E+00  0.00000000E+00
  0.00000000E+00  0.00000000E+00  0.00000000E+00
  0.00000000E+00  0.00000000E+00  0.00000000E+00
  0.00000000E+00  0.00000000E+00  0.00000000E+00
  0.00000000E+00  0.00000000E+00  0.00000000E+00
  0.00000000E+00  0.00000000E+00  0.00000000E+00
  0.00000000E+00  0.00000000E+00  0.00000000E+00
  0.00000000E+00  0.00000000E+00  0.00000000E+00
  0.00000000E+00  0.00000000E+00  0.00000000E+00
  0.00000000E+00  0.00000000E+00  0.00000000E+00
  0.00000000E+00  0.00000000E+00  0.00000000E+00
  0.00000000E+00  0.00000000E+00  0.00000000E+00
  0.00000000E+00  0.00000000E+00  0.00000000E+00
  0.00000000E+00  0.00000000E+00  0.00000000E+00
  0.00000000E+00  0.00000000E+00  0.00000000E+00
  0.00000000E+00  0.00000000E+00  0.00000000E+00
  0.00000000E+00  0.00000000E+00  0.00000000E+00
  0.00000000E+00  0.00000000E+00  0.00000000E+00
  0.00000000E+00  0.00000000E+00  0.00000000E+00
  0.00000000E+00  0.00000000E+00  0.00000000E+00
  0.00000000E+00  0.00000000E+00  0.00000000E+00
  0.00000000E+00  0.00000000E+00  0.00000000E+00
  0.00000000E+00  0.00000000E+00  0.00000000E+00
  0.00000000E+00  0.00000000E+00  0.00000000E+00
  0.00000000E+00  0.00000000E+00  0.00000000E+00
  0.00000000E+00  0.00000000E+00  0.00000000E+00
  0.00000000E+00  0.00000000E+00  0.00000000E+00
  0.00000000E+00  0.00000000E+00  0.00000000E+00
  0.00000000E+00  0.00000000E+00  0.00000000E+00
  0.00000000E+00  0.00000000E+00  0.00000000E+00
  0.00000000E+00  0.00000000E+00  0.00000000E+00
  0.00000000E+00  0.00000000E+00  0.00000000E+00
  0.00000000E+00  0.00000000E+00  0.00000000E+00
  0.00000000E+00  0.00000000E+00  0.00000000E+00
  0.00000000E+00  0.00000000E+00  0.00000000E+00
  0.00000000E+00  0.00000000E+00  0.00000000E+00
  0.00000000E+00  0.00000000E+00  0.00000000E+00
  0.00000000E+00  0.00000000E+00  0.00000000E+00
  0.00000000E+00  0.00000000E+00  0.00000000E+00
  0.00000000E+00  0.00000000E+00  0.00000000E+00
  0.00000000E+00  0.00000000E+00  0.00000000E+00
  0.00000000E+00  0.00000000E+00  0.00000000E+00
  0.00000000E+00  0.00000000E+00  0.00000000E+00
  0.00000000E+00  0.00000000E+00  0.00000000E+00
  0.00000000E+00  0.00000000E+00  0.00000000E+00
  0.00000000E+00  0.00000000E+00  0.00000000E+00
  0.00000000E+00  0.00000000E+00  0.00000000E+00
  0.00000000E+00  0.00000000E+00  0.00000000E+00
  0.00000000E+00  0.00000000E+00  0.00000000E+00
  0.00000000E+00  0.00000000E+00  0.00000000E+00
  0.00000000E+00  0.00000000E+00  0.00000000E+00
  0.00000000E+00  0.00000000E+00  0.00000000E+00
  0.00000000E+00  0.00000000E+00  0.00000000E+00
  0.00000000E+00  0.00000000E+00  0.00000000E+00
  0.00000000E+00  0.00000000E+00  0.00000000E+00
  0.00000000E+00  0.00000000E+00  0.00000000E+00
  0.00000000E+00  0.00000000E+00  0.00000000E+00
  0.00000000E+00  0.00000000E+00  0.00000000E+00
  0.00000000E+00  0.00000000E+00  0.00000000E+00
  0.00000000E+00  0.00000000E+00  0.00000000E+00
  0.00000000E+00  0.00000000E+00  0.00000000E+00
