CeO2-you-111-you-Tc                     
   1.00000000000000     
     9.8083651651070269   -5.6628626365728527   -0.0000000005876470
     0.0318403375018915   11.3808723587683538   -0.0120479011159015
    -0.0132122329179355   -0.0228842549102817   20.5233113862758856
   O    Tc   Ce   H 
    53     1    26     1
Selective dynamics
Direct
 -0.0003466129971108 -0.0016771357435814  0.9893070495089328   T   T   T
  0.1215675599934370  0.2256158652070080  0.1490834348899018   T   T   T
  0.2310437915021262  0.1278460211793287  0.3042016812074824   T   T   T
  0.1568116247905137  0.2464506156826785  0.3942766996263388   T   T   T
  0.0028842335664986  0.0005843963290727  0.2269572563571005   T   T   T
  0.2222051806038941  0.1075055263497248  0.0698895283374004   T   T   T
  0.3343448615728135  0.9967830175512361  0.9883704346388500   T   T   T
  0.4438986952633526  0.2197007213925486  0.1453494921777135   T   T   T
  0.5513448832577047  0.1081853951274546  0.3076705631770071   T   T   T
  0.4225077570372358  0.2349859918001303  0.3913051704967915   T   T   T
  0.3317641762896554 -0.0020562615259951  0.2299311523464348   T   T   T
  0.5562648480465721  0.1078975267331935  0.0710759545403367   T   T   T
  0.6696301095063517 -0.0015610189936935  0.9896895272797048   T   T   T
  0.7753286827494691  0.2229490866722517  0.1498053383979763   T   T   T
  0.8970723072605788  0.1194177767909872  0.3079949347780294   T   T   T
  0.7832299323536560  0.2196181110093557  0.3931915037805827   T   T   T
  0.6707973448821647  0.0019582640803117  0.2304474443278995   T   T   T
  0.8908964714883153  0.1096012826694739  0.0735184713743971   T   T   T
  0.0000540966339949  0.3284440476417991  0.9891001380766844   T   T   T
  0.1121462525796622  0.5534431138623354  0.1462391805002358   T   T   T
  0.2176144592167033  0.4224722290442225  0.3044217247074972   T   T   T
  0.1024134918091811  0.5446286557705999  0.3889147101925871   T   T   T
  0.0029798598614689  0.3344936842564047  0.2270454785924719   T   T   T
  0.2228581787323693  0.4423706753576027  0.0692525898308932   T   T   T
  0.3324213495202158  0.3292680026358251  0.9880582854610042   T   T   T
  0.4450599916334598  0.5532770078385510  0.1446192147927735   T   T   T
  0.4451612815263594  0.4851865026189525  0.3645440753459916   T   T   T
  0.3599237302102836  0.3443718711567313  0.2397001456973886   T   T   T
  0.5563942362395784  0.4417808391119474  0.0672241343888473   T   T   T
  0.6674668449065090  0.3289898085333996  0.9880422261421947   T   T   T
  0.7811847295138413  0.5551095965883993  0.1440717820057097   T   T   T
  0.8920397578576995  0.4402201037092542  0.3041318824795810   T   T   T
  0.7907396852108025  0.5594602872311810  0.3899806559133427   T   T   T
  0.6587276688148718  0.3416495456622533  0.2334476899700744   T   T   T
  0.8897604780608239  0.4412933466730684  0.0693779413840032   T   T   T
  0.0012402758569204  0.6644915008863149  0.9884176784837191   T   T   T
  0.1131526658642061  0.8870241993882566  0.1477266493748742   T   T   T
  0.2234771524992086  0.7744831959179432  0.3040430259666736   T   T   T
  0.1261791741534330  0.8861701076279160  0.3903429948176679   T   T   T
  0.0000775916585427  0.6626046229065172  0.2282176778711749   T   T   T
  0.2244349690287486  0.7759355636246722  0.0703254755823932   T   T   T
  0.3346876367570628  0.6648558785858247  0.9881728001461151   T   T   T
  0.4469661432993262  0.8880339512177802  0.1499925002863040   T   T   T
  0.5589253243170166  0.7814642307088812  0.3063490234200345   T   T   T
  0.4462368354115495  0.8954215931920902  0.3914324114959201   T   T   T
  0.3322532380674910  0.6587451281037443  0.2284935275080729   T   T   T
  0.5564481793463139  0.7760516298932033  0.0709729979260588   T   T   T
  0.6681721579002311  0.6656369318304193  0.9879742457201355   T   T   T
  0.7759618054468375  0.8834655887836319  0.1501134591033268   T   T   T
  0.8984977065632035  0.7806323402010870  0.3055576793141840   T   T   T
  0.7746009319697718  0.8972798502385101  0.3949481918022665   T   T   T
  0.6629010527416813  0.6509934321705921  0.2321425986149047   T   T   T
  0.8904506119054877  0.7770238609592874  0.0704378141575768   T   T   T
  0.3032800973654223  0.3199388029991430  0.3377997512645921   T   T   T
  0.0052127506179658  0.0001105523840133  0.3520942056269138   T   T   T
  0.2241651840066528  0.1092667602896935  0.1888204529838845   T   T   T
  0.1121257045182149  0.2195504894528500  0.0297471601073298   T   T   T
  0.3316143970094275 -0.0106875364453987  0.3461331793795780   T   T   T
  0.5559737525248195  0.1109790711796810  0.1911683660608766   T   T   T
  0.4444078691388745  0.2174623552416883  0.0280650068144033   T   T   T
  0.6681036409835510 -0.0008266800971835  0.3496619896230927   T   T   T
  0.8914170331861935  0.1106550629682368  0.1906533588121713   T   T   T
  0.7784016652288246  0.2195290363307985  0.0307643324221363   T   T   T
 -0.0032438835715333  0.3339068208261209  0.3468779303287320   T   T   T
  0.2248622072853259  0.4438903565923795  0.1870175790297438   T   T   T
  0.1118761845384569  0.5526456203423191  0.0294226199731984   T   T   T
  0.5591267725452400  0.4446835233663427  0.1803240960216840   T   T   T
  0.4450909898677003  0.5546473826000574  0.0277304978279293   T   T   T
  0.6750544722398626  0.3325289187883174  0.3537476996668349   T   T   T
  0.8889097323986228  0.4433382026401532  0.1885358941543129   T   T   T
  0.7804037426389643  0.5542377364193909  0.0277875959518241   T   T   T
  0.0014352610282071  0.6638156602551082  0.3471280915237778   T   T   T
  0.2229193387699767  0.7745865710343464  0.1877791019905447   T   T   T
  0.1117653958502521  0.8868473890279551  0.0302623659985734   T   T   T
  0.3332420078347694  0.6631526099977031  0.3474229161825131   T   T   T
  0.5572774279543189  0.7753905665655449  0.1916666131024173   T   T   T
  0.4466294288335490  0.8870873954012460  0.0310597271876220   T   T   T
  0.6808186696054772  0.6788834830563621  0.3522682707989470   T   T   T
  0.8907183193710471  0.7765442685400465  0.1902458096848527   T   T   T
  0.7787535414126414  0.8868092279266372  0.0313326209074123   T   T   T
  0.4089569045351152  0.2509122460757824  0.4366715222586312   T   T   T
 
  0.00000000E+00  0.00000000E+00  0.00000000E+00
  0.00000000E+00  0.00000000E+00  0.00000000E+00
  0.00000000E+00  0.00000000E+00  0.00000000E+00
  0.00000000E+00  0.00000000E+00  0.00000000E+00
  0.00000000E+00  0.00000000E+00  0.00000000E+00
  0.00000000E+00  0.00000000E+00  0.00000000E+00
  0.00000000E+00  0.00000000E+00  0.00000000E+00
  0.00000000E+00  0.00000000E+00  0.00000000E+00
  0.00000000E+00  0.00000000E+00  0.00000000E+00
  0.00000000E+00  0.00000000E+00  0.00000000E+00
  0.00000000E+00  0.00000000E+00  0.00000000E+00
  0.00000000E+00  0.00000000E+00  0.00000000E+00
  0.00000000E+00  0.00000000E+00  0.00000000E+00
  0.00000000E+00  0.00000000E+00  0.00000000E+00
  0.00000000E+00  0.00000000E+00  0.00000000E+00
  0.00000000E+00  0.00000000E+00  0.00000000E+00
  0.00000000E+00  0.00000000E+00  0.00000000E+00
  0.00000000E+00  0.00000000E+00  0.00000000E+00
  0.00000000E+00  0.00000000E+00  0.00000000E+00
  0.00000000E+00  0.00000000E+00  0.00000000E+00
  0.00000000E+00  0.00000000E+00  0.00000000E+00
  0.00000000E+00  0.00000000E+00  0.00000000E+00
  0.00000000E+00  0.00000000E+00  0.00000000E+00
  0.00000000E+00  0.00000000E+00  0.00000000E+00
  0.00000000E+00  0.00000000E+00  0.00000000E+00
  0.00000000E+00  0.00000000E+00  0.00000000E+00
  0.00000000E+00  0.00000000E+00  0.00000000E+00
  0.00000000E+00  0.00000000E+00  0.00000000E+00
  0.00000000E+00  0.00000000E+00  0.00000000E+00
  0.00000000E+00  0.00000000E+00  0.00000000E+00
  0.00000000E+00  0.00000000E+00  0.00000000E+00
  0.00000000E+00  0.00000000E+00  0.00000000E+00
  0.00000000E+00  0.00000000E+00  0.00000000E+00
  0.00000000E+00  0.00000000E+00  0.00000000E+00
  0.00000000E+00  0.00000000E+00  0.00000000E+00
  0.00000000E+00  0.00000000E+00  0.00000000E+00
  0.00000000E+00  0.00000000E+00  0.00000000E+00
  0.00000000E+00  0.00000000E+00  0.00000000E+00
  0.00000000E+00  0.00000000E+00  0.00000000E+00
  0.00000000E+00  0.00000000E+00  0.00000000E+00
  0.00000000E+00  0.00000000E+00  0.00000000E+00
  0.00000000E+00  0.00000000E+00  0.00000000E+00
  0.00000000E+00  0.00000000E+00  0.00000000E+00
  0.00000000E+00  0.00000000E+00  0.00000000E+00
  0.00000000E+00  0.00000000E+00  0.00000000E+00
  0.00000000E+00  0.00000000E+00  0.00000000E+00
  0.00000000E+00  0.00000000E+00  0.00000000E+00
  0.00000000E+00  0.00000000E+00  0.00000000E+00
  0.00000000E+00  0.00000000E+00  0.00000000E+00
  0.00000000E+00  0.00000000E+00  0.00000000E+00
  0.00000000E+00  0.00000000E+00  0.00000000E+00
  0.00000000E+00  0.00000000E+00  0.00000000E+00
  0.00000000E+00  0.00000000E+00  0.00000000E+00
  0.00000000E+00  0.00000000E+00  0.00000000E+00
  0.00000000E+00  0.00000000E+00  0.00000000E+00
  0.00000000E+00  0.00000000E+00  0.00000000E+00
  0.00000000E+00  0.00000000E+00  0.00000000E+00
  0.00000000E+00  0.00000000E+00  0.00000000E+00
  0.00000000E+00  0.00000000E+00  0.00000000E+00
  0.00000000E+00  0.00000000E+00  0.00000000E+00
  0.00000000E+00  0.00000000E+00  0.00000000E+00
  0.00000000E+00  0.00000000E+00  0.00000000E+00
  0.00000000E+00  0.00000000E+00  0.00000000E+00
  0.00000000E+00  0.00000000E+00  0.00000000E+00
  0.00000000E+00  0.00000000E+00  0.00000000E+00
  0.00000000E+00  0.00000000E+00  0.00000000E+00
  0.00000000E+00  0.00000000E+00  0.00000000E+00
  0.00000000E+00  0.00000000E+00  0.00000000E+00
  0.00000000E+00  0.00000000E+00  0.00000000E+00
  0.00000000E+00  0.00000000E+00  0.00000000E+00
  0.00000000E+00  0.00000000E+00  0.00000000E+00
  0.00000000E+00  0.00000000E+00  0.00000000E+00
  0.00000000E+00  0.00000000E+00  0.00000000E+00
  0.00000000E+00  0.00000000E+00  0.00000000E+00
  0.00000000E+00  0.00000000E+00  0.00000000E+00
  0.00000000E+00  0.00000000E+00  0.00000000E+00
  0.00000000E+00  0.00000000E+00  0.00000000E+00
  0.00000000E+00  0.00000000E+00  0.00000000E+00
  0.00000000E+00  0.00000000E+00  0.00000000E+00
  0.00000000E+00  0.00000000E+00  0.00000000E+00
  0.00000000E+00  0.00000000E+00  0.00000000E+00
