CeO2-you-111-you-Cd                     
   1.00000000000000     
     9.8826232238119580   -5.7057355508434409   -0.0000000010332488
    -0.0188243856376406   11.3788643032791974   -0.0197355970220452
    -0.0214139146441252   -0.0370899818634447   20.8517932097645478
   O    Cd   Ce H
    53     1    26 2
Selective dynamics
Direct
 -0.0003823464591335 -0.0003071265348660  0.9942677272756623   T   T   T
  0.1074000949386400  0.2214031922555557  0.1486671905887227   F   F   F
  0.2190247010042817  0.1047164020083262  0.3019877029137223   T   T   T
  0.0964460181165258  0.2167193549516487  0.3870647133402129   T   T   T
 -0.0006392106262598 -0.0001224211999977  0.2282833552387506   T   T   T
  0.2223883661336177  0.1114437322671908  0.0733940480996410   F   F   F
  0.3334082199243265 -0.0003071265348740  0.9942677272756617   T   T   T
  0.4473360973166556  0.2214031922553464  0.1486671905887251   F   F   F
  0.5581528370043153  0.1113217098701211  0.3036946443812851   T   T   T
  0.4536063368353618  0.2167193549523601  0.3870647133403459   T   T   T
  0.3338497894264245 -0.0001224212004903  0.2282833552387531   T   T   T
  0.5578191353848753  0.1108213802453432  0.0739457026747186   F   F   F
  0.6659029357256244 -0.0015281285487509  0.9932490071364583   T   T   T
  0.7774139727183319  0.2214939454367369  0.1531493870427298   F   F   F
  0.8865028728663311  0.1113217098707075  0.3036946443812897   T   T   T
  0.7765570656700401  0.2197801313397525  0.3856822301907042   T   T   T
  0.6618824382441726 -0.0095691235120288  0.2322422010424558   T   T   T
  0.8863362448605060  0.1108213802454571  0.0739457026747341   F   F   F
  0.0001773174971523  0.3324931863641745  0.9942657245982550   T   T   T
  0.1102320183045331  0.5545455109459569  0.1493801187211864   F   F   F
  0.2393422924283919  0.4560528500319433  0.3122940758904897   T   T   T
  0.1111941563664648  0.5608582135134594  0.3861958561916073   T   T   T
  0.0073415438705792  0.3375502743803560  0.2324802790522662   T   T   T
  0.2236892033003537  0.4448518809980876  0.0747237725323852   F   F   F
  0.3328593902876438  0.3323857805754056  0.9944387598908974   T   T   T
  0.4460834438151501  0.5588348876306360  0.1499580686157830   F   F   F
  0.5500445576024501  0.4560528500313354  0.3122940758903732   T   T   T
  0.3331675712074365  0.3330021424152659  0.2228271033211913   T   T   T
  0.5544966776975265  0.4448518809979140  0.0747237725323838   F   F   F
  0.6656498688669001  0.3324931863640987  0.9942657245982620   T   T   T
  0.7776464926412112  0.5545455109457135  0.1493801187211872   F   F   F
  0.8888013207173180  0.4442686414347903  0.3059647263017887   T   T   T
  0.7829970571469165  0.5608582135141374  0.3861958561916056   T   T   T
  0.6635427305094469  0.3375502743799578  0.2324802790522522   T   T   T
  0.8875392953545623  0.4417445907091818  0.0748288939726802   F   F   F
 -0.0012399683553741  0.6641870632891282  0.9944599886442070   T   T   T
  0.1111368559240406  0.8889407118477061  0.1469857020464598   F   F   F
  0.2195617313529660  0.7802700307708698  0.3034459793153783   T   T   T
  0.1118750712249541  0.8904171424495122  0.3865226770099930   T   T   T
  0.0005495341488156  0.6677660682975575  0.2286497689663799   T   T   T
  0.2221714841607526  0.7770346078886085  0.0729841223776634   F   F   F
  0.3327780076332826  0.6654500597256287  0.9937943754342787   T   T   T
  0.4450863517328302  0.8888443776589954  0.1484638519298087   F   F   F
  0.5447660635378804  0.7561981270757320  0.3135724980505644   T   T   T
  0.4433213344931104  0.8903605203936492  0.3836126336155613   T   T   T
  0.3321882049156292  0.6702980256390715  0.2289637512725242   T   T   T
  0.5554266294353150  0.7775192588705941  0.0737230945975938   F   F   F
  0.6660050520924401  0.6654500597255987  0.9937943754342747   T   T   T
  0.7770910259264109  0.8888443776592305  0.1484638519298063   F   F   F
  0.8940412994191692  0.7802700307721954  0.3034459793154289   T   T   T
  0.7803721859014963  0.8903605203939386  0.3836126336155340   T   T   T
  0.6714428207234161  0.6702980256393799  0.2289637512725335   T   T   T
  0.8881961237279550  0.7770346078885558  0.0729841223776586   F   F   F
  0.3260141374342431  0.3186952748682445  0.3423535140551720   T   T   T
  0.0050681163931364  0.0062454846641909  0.3451305309538772   T   T   T
  0.2227181035218986  0.1121032070445660  0.1886905897093186   F   F   F
  0.1107073081491634  0.2220181466176112  0.0343842769402189   F   F   F
  0.3345103682703893  0.0062454846655900  0.3451305309538492   T   T   T
  0.5547720389240360  0.1107057560756090  0.1902593036789368   F   F   F
  0.4446438384684936  0.2220181466177011  0.0343842769402044   F   F   F
  0.6668208918594419  0.0003077837211392  0.3457465154964566   T   T   T
  0.8892677171508272  0.1107057560748819  0.1902593036789406   F   F   F
  0.7773164394028848  0.2212988788056777  0.0345836465945367   F   F   F
  0.0017341068116141  0.3322196077930160  0.3467516529212958   T   T   T
  0.2239311181280573  0.4440371653511696  0.1905857593403121   F   F   F
  0.1103613052063079  0.5537249349916095  0.0344948589869764   F   F   F
  0.5534400472243974  0.4440371653515880  0.1905857593402771   F   F   F
  0.4440104559497924  0.5546889118994439  0.0337563760733600   F   F   F
  0.6638195009821759  0.3322196077930192  0.3467516529212431   T   T   T
  0.8894075830371481  0.4454811660740176  0.1913990468564705   F   F   F
  0.7766966297853375  0.5537249349917098  0.0344948589869720   F   F   F
  0.0010835869041692  0.6688341738087835  0.3457420668846555   T   T   T
  0.2215475198780591  0.7790003029487133  0.1871081588742810   F   F   F
  0.1108411340735425  0.8883492681472953  0.0328529640002589   F   F   F
  0.3227543699787321  0.6734524445791058  0.3408896429396709   T   T   T
  0.5551631745564485  0.7769923491128846  0.1888297462233781   F   F   F
  0.4447204369394415  0.8881963355443718  0.0334112790651934   F   F   F
  0.6840310746015910  0.6734524445794102  0.3408896429399489   T   T   T
  0.8907857830700827  0.7790003029484689  0.1871081588742889   F   F   F
  0.7768088986048285  0.8881963355442750  0.0334112790651962   F   F   F
0.3260141374342431 0.3186952748682445 0.442354 T T T
0.446598 0.216020 0.433410 T T T 
 
  0.00000000E+00  0.00000000E+00  0.00000000E+00
  0.00000000E+00  0.00000000E+00  0.00000000E+00
  0.00000000E+00  0.00000000E+00  0.00000000E+00
  0.00000000E+00  0.00000000E+00  0.00000000E+00
  0.00000000E+00  0.00000000E+00  0.00000000E+00
  0.00000000E+00  0.00000000E+00  0.00000000E+00
  0.00000000E+00  0.00000000E+00  0.00000000E+00
  0.00000000E+00  0.00000000E+00  0.00000000E+00
  0.00000000E+00  0.00000000E+00  0.00000000E+00
  0.00000000E+00  0.00000000E+00  0.00000000E+00
  0.00000000E+00  0.00000000E+00  0.00000000E+00
  0.00000000E+00  0.00000000E+00  0.00000000E+00
  0.00000000E+00  0.00000000E+00  0.00000000E+00
  0.00000000E+00  0.00000000E+00  0.00000000E+00
  0.00000000E+00  0.00000000E+00  0.00000000E+00
  0.00000000E+00  0.00000000E+00  0.00000000E+00
  0.00000000E+00  0.00000000E+00  0.00000000E+00
  0.00000000E+00  0.00000000E+00  0.00000000E+00
  0.00000000E+00  0.00000000E+00  0.00000000E+00
  0.00000000E+00  0.00000000E+00  0.00000000E+00
  0.00000000E+00  0.00000000E+00  0.00000000E+00
  0.00000000E+00  0.00000000E+00  0.00000000E+00
  0.00000000E+00  0.00000000E+00  0.00000000E+00
  0.00000000E+00  0.00000000E+00  0.00000000E+00
  0.00000000E+00  0.00000000E+00  0.00000000E+00
  0.00000000E+00  0.00000000E+00  0.00000000E+00
  0.00000000E+00  0.00000000E+00  0.00000000E+00
  0.00000000E+00  0.00000000E+00  0.00000000E+00
  0.00000000E+00  0.00000000E+00  0.00000000E+00
  0.00000000E+00  0.00000000E+00  0.00000000E+00
  0.00000000E+00  0.00000000E+00  0.00000000E+00
  0.00000000E+00  0.00000000E+00  0.00000000E+00
  0.00000000E+00  0.00000000E+00  0.00000000E+00
  0.00000000E+00  0.00000000E+00  0.00000000E+00
  0.00000000E+00  0.00000000E+00  0.00000000E+00
  0.00000000E+00  0.00000000E+00  0.00000000E+00
  0.00000000E+00  0.00000000E+00  0.00000000E+00
  0.00000000E+00  0.00000000E+00  0.00000000E+00
  0.00000000E+00  0.00000000E+00  0.00000000E+00
  0.00000000E+00  0.00000000E+00  0.00000000E+00
  0.00000000E+00  0.00000000E+00  0.00000000E+00
  0.00000000E+00  0.00000000E+00  0.00000000E+00
  0.00000000E+00  0.00000000E+00  0.00000000E+00
  0.00000000E+00  0.00000000E+00  0.00000000E+00
  0.00000000E+00  0.00000000E+00  0.00000000E+00
  0.00000000E+00  0.00000000E+00  0.00000000E+00
  0.00000000E+00  0.00000000E+00  0.00000000E+00
  0.00000000E+00  0.00000000E+00  0.00000000E+00
  0.00000000E+00  0.00000000E+00  0.00000000E+00
  0.00000000E+00  0.00000000E+00  0.00000000E+00
  0.00000000E+00  0.00000000E+00  0.00000000E+00
  0.00000000E+00  0.00000000E+00  0.00000000E+00
  0.00000000E+00  0.00000000E+00  0.00000000E+00
  0.00000000E+00  0.00000000E+00  0.00000000E+00
  0.00000000E+00  0.00000000E+00  0.00000000E+00
  0.00000000E+00  0.00000000E+00  0.00000000E+00
  0.00000000E+00  0.00000000E+00  0.00000000E+00
  0.00000000E+00  0.00000000E+00  0.00000000E+00
  0.00000000E+00  0.00000000E+00  0.00000000E+00
  0.00000000E+00  0.00000000E+00  0.00000000E+00
  0.00000000E+00  0.00000000E+00  0.00000000E+00
  0.00000000E+00  0.00000000E+00  0.00000000E+00
  0.00000000E+00  0.00000000E+00  0.00000000E+00
  0.00000000E+00  0.00000000E+00  0.00000000E+00
  0.00000000E+00  0.00000000E+00  0.00000000E+00
  0.00000000E+00  0.00000000E+00  0.00000000E+00
  0.00000000E+00  0.00000000E+00  0.00000000E+00
  0.00000000E+00  0.00000000E+00  0.00000000E+00
  0.00000000E+00  0.00000000E+00  0.00000000E+00
  0.00000000E+00  0.00000000E+00  0.00000000E+00
  0.00000000E+00  0.00000000E+00  0.00000000E+00
  0.00000000E+00  0.00000000E+00  0.00000000E+00
  0.00000000E+00  0.00000000E+00  0.00000000E+00
  0.00000000E+00  0.00000000E+00  0.00000000E+00
  0.00000000E+00  0.00000000E+00  0.00000000E+00
  0.00000000E+00  0.00000000E+00  0.00000000E+00
  0.00000000E+00  0.00000000E+00  0.00000000E+00
  0.00000000E+00  0.00000000E+00  0.00000000E+00
  0.00000000E+00  0.00000000E+00  0.00000000E+00
  0.00000000E+00  0.00000000E+00  0.00000000E+00
