CeO2-you-111-you-Ti                     
   1.00000000000000     
     9.8409571659083532   -5.6876494504878057    0.0227002394230686
     0.0000000004810956   11.3752969000920654   -0.0000000026411335
     0.0498716554239602   -0.0000000050673935   21.0351206131162982
   O    Ti   Ce H
    53     1    26 1
Selective dynamics
Direct
 -0.0003427282511420  0.0011948839913790  0.9961362698493029   T   T   T
  0.1196968356337560  0.2265149178177557  0.1519596015941740   T   T   T
  0.2127052232186754  0.0987470793915343  0.2992708964766490   T   T   T
  0.1408623572728291  0.2370976786395427  0.3769648246585732   T   T   T
 -0.0042485900602926 -0.0006166601859595  0.2271280797419212   T   T   T
  0.2219085926171286  0.1102510176887540  0.0744604428404782   T   T   T
  0.3345752540258480  0.0001806969926091  0.9953763283794989   T   T   T
  0.4425508975402045  0.2225509127492698  0.1489149582515585   T   T   T
  0.5506755865335538  0.1056706979211863  0.3063798789813511   T   T   T
  0.4291918286033031  0.2563793018208733  0.3657754834783751   T   T   T
  0.3343446994848568 -0.0007411555947811  0.2285536243212808   T   T   T
  0.5547619473990729  0.1112565016183351  0.0755110459875338   T   T   T
  0.6694897382965621  0.0014113691483538  0.9967538145223023   T   T   T
  0.7726372998314149  0.2237489798647832  0.1516848015770485   T   T   T
  0.8934041723606696  0.1133685861808672  0.3048139098757153   T   T   T
  0.7834024372293115  0.2159098616290792  0.3874042934028286   T   T   T
  0.6674148422979682  0.0003739211491775  0.2304271056219783   T   T   T
  0.8897479700891556  0.1115404850445624  0.0782291739488761   T   T   T
 -0.0003427282512503  0.3317953877573763  0.9961362698492935   T   T   T
  0.1104981292138978  0.5549478553119206  0.1503576945049525   T   T   T
  0.2127052232105149  0.4472911438214578  0.2992708964787211   T   T   T
  0.1153421856303195  0.5576988842046819  0.3852202352372426   T   T   T
 -0.0042485900597018  0.3297010701258607  0.2271280797417610   T   T   T
  0.2219085926167555  0.4449905749276978  0.0744604428404061   T   T   T
  0.3327618696855361  0.3330474348423642  0.9953383923482803   T   T   T
  0.4425508975394737  0.5533339847916624  0.1489149582513309   T   T   T
  0.4291918285856119  0.5061465267731281  0.3657754834789049   T   T   T
  0.3499021626339588  0.3416175813197055  0.2419672370215457   T   T   T
  0.5556685590184991  0.4445002795092566  0.0731435310273328   T   T   T
  0.6685527780664791  0.3331829044754009  0.9954490470273248   T   T   T
  0.7780321064282357  0.5556830532136013  0.1475356784317809   T   T   T
  0.8962869427830408  0.4445117240343841  0.3040422915072304   T   T   T
  0.7880140991088598  0.5606740495544460  0.3849479111521589   T   T   T
  0.6589863191720393  0.3426529425189489  0.2342483608850906   T   T   T
  0.8901174318438367  0.4446001187306902  0.0750455010801963   T   T   T
  0.0008603082498664  0.6670971541249721  0.9953522574008362   T   T   T
  0.1104981292135054  0.8888842739007522  0.1503576945051662   T   T   T
  0.2214527774864002  0.7773933887434886  0.3026677106300466   T   T   T
  0.1153421856285262  0.8909773014261813  0.3852202352377655   T   T   T
 -0.0024071542057359  0.6654634228961512  0.2289730286286577   T   T   T
  0.2226450172821473  0.7779895086410804  0.0752195983355703   T   T   T
  0.3345752540257928  0.6677285570332795  0.9953763283795696   T   T   T
  0.4465074970027383  0.8899207485019279  0.1506959030953831   T   T   T
  0.5506755865313361  0.7783378886103891  0.3063798789812656   T   T   T
  0.4368901327459770  0.8851120663726217  0.3846036295300523   T   T   T
  0.3343446994850413  0.6684198550800378  0.2285536243206688   T   T   T
  0.5547619473988186  0.7768384457811021  0.0755110459875613   T   T   T
  0.6685527780668037  0.6687028735915667  0.9954490470274969   T   T   T
  0.7726372998308757  0.8822213199655567  0.1516848015767048   T   T   T
  0.8962869427799296  0.7851082187454613  0.3040422915074613   T   T   T
  0.7834024372224020  0.9008255755952018  0.3874042934040419   T   T   T
  0.6589863191656766  0.6496663766487234  0.2342483608855418   T   T   T
  0.8901174318440439  0.7788503131130756  0.0750455010803359   T   T   T
  0.3193534459642095  0.3263432229794410  0.3374960657174542   T   T   T
  0.0035617876451932  0.0021774365651722  0.3431865565040506   T   T   T
  0.2214665511365190  0.1099978584882688  0.1907240304888564   T   T   T
  0.1119682330119672  0.2226506165062934  0.0360338317556447   T   T   T
  0.3285617786700338 -0.0015645651889997  0.3414733793204514   T   T   T
  0.5549256558614327  0.1121612823340435  0.1921077452798277   T   T   T
  0.4441552125543176  0.2208152915867589  0.0343468006184896   T   T   T
  0.6657520075216848 -0.0004574962361960  0.3460410850052579   T   T   T
  0.8878106369165606  0.1105718184595444  0.1907290826048774   T   T   T
  0.7779942984640250  0.2227572414280425  0.0365072280972445   T   T   T
  0.0035617876408441  0.3347173510773409  0.3431865565039006   T   T   T
  0.2214665511379456  0.4448016926464747  0.1907240304886844   T   T   T
  0.1112149382005144  0.5550118946217576  0.0356160874551160   T   T   T
  0.5550331466489109  0.4441825733230318  0.1839060581631849   T   T   T
  0.4441552125539756  0.5566739209669161  0.0343468006186220   T   T   T
  0.6726661161165892  0.3310584135662877  0.3514386207309543   T   T   T
  0.8868610898219526  0.4444343642832042  0.1913100326434145   T   T   T
  0.7799418365629023  0.5566379182816285  0.0341802137429630   T   T   T
 -0.0005347403845801  0.6663996298114386  0.3446106745670805   T   T   T
  0.2213768271866579  0.7773554135935790  0.1885327845229424   T   T   T
  0.1112149382001392  0.8895370435786971  0.0356160874552254   T   T   T
  0.3285617786707985  0.6634603438554214  0.3414733793200016   T   T   T
  0.5549256558653340  0.7760973735272503  0.1921077452799528   T   T   T
  0.4460919885053296  0.8897129942525198  0.0364614667592408   T   T   T
  0.6726661161358306  0.6749407025604155  0.3514386207285597   T   T   T
  0.8868610898237802  0.7757597255442183  0.1913100326438684   T   T   T
  0.7779942984639988  0.8885700570359784  0.0365072280971212   T   T   T
0.446598 0.216020 0.433410 T T T 
 
  0.00000000E+00  0.00000000E+00  0.00000000E+00
  0.00000000E+00  0.00000000E+00  0.00000000E+00
  0.00000000E+00  0.00000000E+00  0.00000000E+00
  0.00000000E+00  0.00000000E+00  0.00000000E+00
  0.00000000E+00  0.00000000E+00  0.00000000E+00
  0.00000000E+00  0.00000000E+00  0.00000000E+00
  0.00000000E+00  0.00000000E+00  0.00000000E+00
  0.00000000E+00  0.00000000E+00  0.00000000E+00
  0.00000000E+00  0.00000000E+00  0.00000000E+00
  0.00000000E+00  0.00000000E+00  0.00000000E+00
  0.00000000E+00  0.00000000E+00  0.00000000E+00
  0.00000000E+00  0.00000000E+00  0.00000000E+00
  0.00000000E+00  0.00000000E+00  0.00000000E+00
  0.00000000E+00  0.00000000E+00  0.00000000E+00
  0.00000000E+00  0.00000000E+00  0.00000000E+00
  0.00000000E+00  0.00000000E+00  0.00000000E+00
  0.00000000E+00  0.00000000E+00  0.00000000E+00
  0.00000000E+00  0.00000000E+00  0.00000000E+00
  0.00000000E+00  0.00000000E+00  0.00000000E+00
  0.00000000E+00  0.00000000E+00  0.00000000E+00
  0.00000000E+00  0.00000000E+00  0.00000000E+00
  0.00000000E+00  0.00000000E+00  0.00000000E+00
  0.00000000E+00  0.00000000E+00  0.00000000E+00
  0.00000000E+00  0.00000000E+00  0.00000000E+00
  0.00000000E+00  0.00000000E+00  0.00000000E+00
  0.00000000E+00  0.00000000E+00  0.00000000E+00
  0.00000000E+00  0.00000000E+00  0.00000000E+00
  0.00000000E+00  0.00000000E+00  0.00000000E+00
  0.00000000E+00  0.00000000E+00  0.00000000E+00
  0.00000000E+00  0.00000000E+00  0.00000000E+00
  0.00000000E+00  0.00000000E+00  0.00000000E+00
  0.00000000E+00  0.00000000E+00  0.00000000E+00
  0.00000000E+00  0.00000000E+00  0.00000000E+00
  0.00000000E+00  0.00000000E+00  0.00000000E+00
  0.00000000E+00  0.00000000E+00  0.00000000E+00
  0.00000000E+00  0.00000000E+00  0.00000000E+00
  0.00000000E+00  0.00000000E+00  0.00000000E+00
  0.00000000E+00  0.00000000E+00  0.00000000E+00
  0.00000000E+00  0.00000000E+00  0.00000000E+00
  0.00000000E+00  0.00000000E+00  0.00000000E+00
  0.00000000E+00  0.00000000E+00  0.00000000E+00
  0.00000000E+00  0.00000000E+00  0.00000000E+00
  0.00000000E+00  0.00000000E+00  0.00000000E+00
  0.00000000E+00  0.00000000E+00  0.00000000E+00
  0.00000000E+00  0.00000000E+00  0.00000000E+00
  0.00000000E+00  0.00000000E+00  0.00000000E+00
  0.00000000E+00  0.00000000E+00  0.00000000E+00
  0.00000000E+00  0.00000000E+00  0.00000000E+00
  0.00000000E+00  0.00000000E+00  0.00000000E+00
  0.00000000E+00  0.00000000E+00  0.00000000E+00
  0.00000000E+00  0.00000000E+00  0.00000000E+00
  0.00000000E+00  0.00000000E+00  0.00000000E+00
  0.00000000E+00  0.00000000E+00  0.00000000E+00
  0.00000000E+00  0.00000000E+00  0.00000000E+00
  0.00000000E+00  0.00000000E+00  0.00000000E+00
  0.00000000E+00  0.00000000E+00  0.00000000E+00
  0.00000000E+00  0.00000000E+00  0.00000000E+00
  0.00000000E+00  0.00000000E+00  0.00000000E+00
  0.00000000E+00  0.00000000E+00  0.00000000E+00
  0.00000000E+00  0.00000000E+00  0.00000000E+00
  0.00000000E+00  0.00000000E+00  0.00000000E+00
  0.00000000E+00  0.00000000E+00  0.00000000E+00
  0.00000000E+00  0.00000000E+00  0.00000000E+00
  0.00000000E+00  0.00000000E+00  0.00000000E+00
  0.00000000E+00  0.00000000E+00  0.00000000E+00
  0.00000000E+00  0.00000000E+00  0.00000000E+00
  0.00000000E+00  0.00000000E+00  0.00000000E+00
  0.00000000E+00  0.00000000E+00  0.00000000E+00
  0.00000000E+00  0.00000000E+00  0.00000000E+00
  0.00000000E+00  0.00000000E+00  0.00000000E+00
  0.00000000E+00  0.00000000E+00  0.00000000E+00
  0.00000000E+00  0.00000000E+00  0.00000000E+00
  0.00000000E+00  0.00000000E+00  0.00000000E+00
  0.00000000E+00  0.00000000E+00  0.00000000E+00
  0.00000000E+00  0.00000000E+00  0.00000000E+00
  0.00000000E+00  0.00000000E+00  0.00000000E+00
  0.00000000E+00  0.00000000E+00  0.00000000E+00
  0.00000000E+00  0.00000000E+00  0.00000000E+00
  0.00000000E+00  0.00000000E+00  0.00000000E+00
  0.00000000E+00  0.00000000E+00  0.00000000E+00
