CeO2-you-111-you-Cu                     
   1.00000000000000     
     9.8360088682195066   -5.6788227390755974    0.0000000001973158
    -0.0017100702509544   11.3546815510786985    0.0037587411625093
     0.0039700673338288    0.0068763571650267   21.1804275110266431
   O    Cu   Ce   H 
    53     1    26     2
Selective dynamics
Direct
  0.0000295490406332  0.0001547202930942  0.9962217521638966   T   T   T
  0.1050101754054609  0.2197826820285229  0.1489947338658837   F   F   F
  0.2317821911254363  0.1217460580524625  0.3089625107946389   T   T   T
  0.0946334474921714  0.2122752737865178  0.3879206230471576   T   T   T
  0.0037523441936022 -0.0004222375994834  0.2298972497440533   T   T   T
  0.2225400915051026  0.1117471830101309  0.0752259489246043   F   F   F
  0.3339144489599154  0.0008119589478327  0.9962908391211949   T   T   T
  0.4481055066227597  0.2197826820281747  0.1489947338658837   F   F   F
  0.5521649418643658  0.1123066112604068  0.3047189976050016   T   T   T
  0.4687572872432963  0.2013458273207612  0.4050140613908404   T   T   T
  0.3299978086774255  0.9987587376895014  0.2296027249713167   T   T   T
  0.5586801893450328  0.1108261194217519  0.0758354234770380   F   F   F
  0.6668183257962815  0.0000261462824401  0.9952753844921908   T   T   T
  0.7781901130916253  0.2230462261833068  0.1548639723251384   F   F   F
  0.8880330658627210  0.1077778139576655  0.3032972739151730   T   T   T
  0.7781648323010227  0.2183589196237377  0.3809583721414755   T   T   T
  0.6610662866301379  0.9913667625406705  0.2336077365891517   T   T   T
  0.8854799300767553  0.1108261194219864  0.0758354234770451   F   F   F
  0.0008515255713947  0.3335210408003288  0.9964809567609735   T   T   T
  0.1097326500793798  0.5543829805062188  0.1500473211893336   F   F   F
  0.2219442725547328  0.4531837975232487  0.3034136577261642   T   T   T
  0.1104345248704788  0.5578479618527334  0.3851665982458671   T   T   T
  0.0009335872329888  0.3314017768487085  0.2305677142233092   T   T   T
  0.2233216824038635  0.4445802876576224  0.0763553970894648   F   F   F
  0.3332302080052859  0.3332321660773010  0.9963562851175567   T   T   T
  0.4472680583816881  0.5612041167636264  0.1497227122869376   F   F   F
  0.5622331972316376  0.4480903245209409  0.3081755670034596   T   T   T
  0.3327234059327413  0.3315103601535940  0.2197640959969150   T   T   T
  0.5545926052534398  0.4445802876573310  0.0763553970894648   F   F   F
  0.6663560002429852  0.3340491675109845  0.9966723759852002   T   T   T
  0.7779833304265154  0.5543829805058706  0.1500473211893478   F   F   F
  0.8908557834456243  0.4457019772241999  0.3046358319151637   T   T   T
  0.7841606019548367  0.5569815322368404  0.3855570286652328   T   T   T
  0.6656028382752290  0.3337142170883340  0.2305674973680511   T   T   T
  0.8875967554225355  0.4418595108451555  0.0766666182949010   F   F   F
  0.9998131396567581  0.6660692354972755  0.9968669207814479   T   T   T
  0.1103301357995505  0.8873272715985578  0.1481158568861289   F   F   F
  0.2201251225611449  0.7768743837212221  0.3030130630923897   T   T   T
  0.1134999173340858  0.8884269703797671  0.3834975886421935   T   T   T
  0.0004944778458880  0.6680252592347509  0.2291662486557150   T   T   T
  0.2231843680535306  0.7779814586890126  0.0749802054294051   F   F   F
  0.3327730306921590  0.6654612244190855  0.9964447162319674   T   T   T
  0.4459325415747415  0.8887407073124436  0.1496110747578996   F   F   F
  0.5445602003390814  0.7523517041078264  0.3125312590446291   T   T   T
  0.4417774960555875  0.8858382643549099  0.3806995112210805   T   T   T
  0.3348854447229188  0.6717897559313125  0.2284126812175270   T   T   T
  0.5561048640913100  0.7788757281825980  0.0748743717485070   F   F   F
  0.6664082757728700  0.6660696738561409  0.9961723210823887   T   T   T
  0.7761411657379114  0.8887407073126568  0.1496110747578925   F   F   F
  0.8915304905450948  0.7770485431442143  0.3037524045681865   T   T   T
  0.7783770478689652  0.8861553906296779  0.3821206909009914   T   T   T
  0.6697350318931052  0.6684810234479884  0.2291641174645308   T   T   T
  0.8881300906356770  0.7779814586889913  0.0749802054294122   F   F   F
  0.2857628980392410  0.2926186798612709  0.3568442027127240   T   T   T
  0.0029154220382551  0.0022274117368076  0.3438126923709610   T   T   T
  0.2223280792775952  0.1113231585562033  0.1893089526120662   F   F   F
  0.1108759001516688  0.2225041179116687  0.0364546630851237   F   F   F
  0.3313157391050843 -0.0014051010915768  0.3433088935397439   T   T   T
  0.5548104877494211  0.1104723147909112  0.1908137528348277   F   F   F
  0.4449612177600883  0.2225041179118818  0.0364546630851308   F   F   F
  0.6656258346965751 -0.0034130803375151  0.3446563368935984   T   T   T
  0.8889958270403113  0.1104723147897317  0.1908137528348632   F   F   F
  0.7778391844949866  0.2223443689898161  0.0365965221389644   F   F   F
  0.0029870750816768  0.3317997861404492  0.3431622674897526   T   T   T
  0.2249855589817855  0.4429723440109825  0.1900368074277239   F   F   F
  0.1106852416472393  0.5546116489916599  0.0367501486056838   F   F   F
  0.5513207850307396  0.4429723440116007  0.1900368074277523   F   F   F
  0.4444272595407455  0.5555225190812578  0.0354648102931776   F   F   F
  0.6704233999172421  0.3356569965880574  0.3429973215847260   T   T   T
  0.8892280236296628  0.4451220472588204  0.1922217955292993   F   F   F
  0.7772594073445092  0.5546116489919086  0.0367501486056909   F   F   F
  0.0016182172760018  0.6666877121008294  0.3444964951883556   T   T   T
  0.2216554923201812  0.7779898202204123  0.1875474416910592   F   F   F
  0.1112868887939271  0.8892407775880642  0.0352363428628379   F   F   F
  0.3209336197917841  0.6642081413224421  0.3391033883112936   T   T   T
  0.5553547741881246  0.7773755483760638  0.1893407290262843   F   F   F
  0.4454501769199553  0.8892146131235705  0.0354969478477329   F   F   F
  0.6790368801740624  0.6646706467056354  0.3396978268680041   T   T   T
  0.8896673278995735  0.7779898202201991  0.1875474416910663   F   F   F
  0.7770974362035119  0.8892146131235279  0.0354969478477258   F   F   F
  0.3594008887364927  0.4129406737491416  0.4029439070996118   T   T   T
  0.4327095546957792  0.2444605035535440  0.4326889353729644   T   T   T
 
  0.00000000E+00  0.00000000E+00  0.00000000E+00
  0.00000000E+00  0.00000000E+00  0.00000000E+00
  0.00000000E+00  0.00000000E+00  0.00000000E+00
  0.00000000E+00  0.00000000E+00  0.00000000E+00
  0.00000000E+00  0.00000000E+00  0.00000000E+00
  0.00000000E+00  0.00000000E+00  0.00000000E+00
  0.00000000E+00  0.00000000E+00  0.00000000E+00
  0.00000000E+00  0.00000000E+00  0.00000000E+00
  0.00000000E+00  0.00000000E+00  0.00000000E+00
  0.00000000E+00  0.00000000E+00  0.00000000E+00
  0.00000000E+00  0.00000000E+00  0.00000000E+00
  0.00000000E+00  0.00000000E+00  0.00000000E+00
  0.00000000E+00  0.00000000E+00  0.00000000E+00
  0.00000000E+00  0.00000000E+00  0.00000000E+00
  0.00000000E+00  0.00000000E+00  0.00000000E+00
  0.00000000E+00  0.00000000E+00  0.00000000E+00
  0.00000000E+00  0.00000000E+00  0.00000000E+00
  0.00000000E+00  0.00000000E+00  0.00000000E+00
  0.00000000E+00  0.00000000E+00  0.00000000E+00
  0.00000000E+00  0.00000000E+00  0.00000000E+00
  0.00000000E+00  0.00000000E+00  0.00000000E+00
  0.00000000E+00  0.00000000E+00  0.00000000E+00
  0.00000000E+00  0.00000000E+00  0.00000000E+00
  0.00000000E+00  0.00000000E+00  0.00000000E+00
  0.00000000E+00  0.00000000E+00  0.00000000E+00
  0.00000000E+00  0.00000000E+00  0.00000000E+00
  0.00000000E+00  0.00000000E+00  0.00000000E+00
  0.00000000E+00  0.00000000E+00  0.00000000E+00
  0.00000000E+00  0.00000000E+00  0.00000000E+00
  0.00000000E+00  0.00000000E+00  0.00000000E+00
  0.00000000E+00  0.00000000E+00  0.00000000E+00
  0.00000000E+00  0.00000000E+00  0.00000000E+00
  0.00000000E+00  0.00000000E+00  0.00000000E+00
  0.00000000E+00  0.00000000E+00  0.00000000E+00
  0.00000000E+00  0.00000000E+00  0.00000000E+00
  0.00000000E+00  0.00000000E+00  0.00000000E+00
  0.00000000E+00  0.00000000E+00  0.00000000E+00
  0.00000000E+00  0.00000000E+00  0.00000000E+00
  0.00000000E+00  0.00000000E+00  0.00000000E+00
  0.00000000E+00  0.00000000E+00  0.00000000E+00
  0.00000000E+00  0.00000000E+00  0.00000000E+00
  0.00000000E+00  0.00000000E+00  0.00000000E+00
  0.00000000E+00  0.00000000E+00  0.00000000E+00
  0.00000000E+00  0.00000000E+00  0.00000000E+00
  0.00000000E+00  0.00000000E+00  0.00000000E+00
  0.00000000E+00  0.00000000E+00  0.00000000E+00
  0.00000000E+00  0.00000000E+00  0.00000000E+00
  0.00000000E+00  0.00000000E+00  0.00000000E+00
  0.00000000E+00  0.00000000E+00  0.00000000E+00
  0.00000000E+00  0.00000000E+00  0.00000000E+00
  0.00000000E+00  0.00000000E+00  0.00000000E+00
  0.00000000E+00  0.00000000E+00  0.00000000E+00
  0.00000000E+00  0.00000000E+00  0.00000000E+00
  0.00000000E+00  0.00000000E+00  0.00000000E+00
  0.00000000E+00  0.00000000E+00  0.00000000E+00
  0.00000000E+00  0.00000000E+00  0.00000000E+00
  0.00000000E+00  0.00000000E+00  0.00000000E+00
  0.00000000E+00  0.00000000E+00  0.00000000E+00
  0.00000000E+00  0.00000000E+00  0.00000000E+00
  0.00000000E+00  0.00000000E+00  0.00000000E+00
  0.00000000E+00  0.00000000E+00  0.00000000E+00
  0.00000000E+00  0.00000000E+00  0.00000000E+00
  0.00000000E+00  0.00000000E+00  0.00000000E+00
  0.00000000E+00  0.00000000E+00  0.00000000E+00
  0.00000000E+00  0.00000000E+00  0.00000000E+00
  0.00000000E+00  0.00000000E+00  0.00000000E+00
  0.00000000E+00  0.00000000E+00  0.00000000E+00
  0.00000000E+00  0.00000000E+00  0.00000000E+00
  0.00000000E+00  0.00000000E+00  0.00000000E+00
  0.00000000E+00  0.00000000E+00  0.00000000E+00
  0.00000000E+00  0.00000000E+00  0.00000000E+00
  0.00000000E+00  0.00000000E+00  0.00000000E+00
  0.00000000E+00  0.00000000E+00  0.00000000E+00
  0.00000000E+00  0.00000000E+00  0.00000000E+00
  0.00000000E+00  0.00000000E+00  0.00000000E+00
  0.00000000E+00  0.00000000E+00  0.00000000E+00
  0.00000000E+00  0.00000000E+00  0.00000000E+00
  0.00000000E+00  0.00000000E+00  0.00000000E+00
  0.00000000E+00  0.00000000E+00  0.00000000E+00
  0.00000000E+00  0.00000000E+00  0.00000000E+00
  0.00000000E+00  0.00000000E+00  0.00000000E+00
  0.00000000E+00  0.00000000E+00  0.00000000E+00
