CeO2-you-111-you-Bi                     
   1.00000000000000     
     9.8516419767906225   -5.6878485178719771    0.0000000000000000
    -0.0000000010121192   11.3756950321098689    0.0000000000000000
     0.0000000000000000    0.0000000000000000   21.2880923991241851
   O    Bi   Ce   H 
    54     1    26     1
Selective dynamics
Direct
 -0.0000079100188108  0.0000129230509367  0.9976599428822234   T   T   T
  0.1113500329839070  0.2223415164919444  0.1501839608862880   F   F   F
  0.2264264517862969  0.1104258679721176  0.3048888287446501   T   T   T
  0.0937910965944532  0.2133488047720549  0.3837538756392938   T   T   T
  0.0004074731108942  0.0001879733372616  0.2292685671506345   T   T   T
  0.2221730880260324  0.1110131760520616  0.0761882473561712   F   F   F
  0.3330967840342295  0.0001389444243710  0.9977202268720048   T   T   T
  0.4443244835080336  0.2223415164919373  0.1501839608862880   F   F   F
  0.5512202597156105  0.1148664688129326  0.3039477632694451   T   T   T
  0.4565579891746411  0.2100332667814620  0.4008887151409907   T   T   T
  0.3319569286118911  0.9982648436499990  0.2287809632743238   T   T   T
  0.5555149110288511  0.1111520889711386  0.0763678180462151   F   F   F
  0.6669214087737750 -0.0001388539490379  0.9977942833917307   T   T   T
  0.7777329466543250  0.2221318933086636  0.1502039760485161   F   F   F
  0.8860970034247678  0.1096970349145110  0.3016180750694011   T   T   T
  0.7772802367434375  0.2228926490561521  0.3810985363498001   T   T   T
  0.6653274609585526  0.0021045338145939  0.2289487709823295   T   T   T
  0.8889711779422953  0.1111520889711386  0.0763678180462151   F   F   F
  0.9997744831619777  0.3329275608417159  0.9976757457534150   T   T   T
  0.1109896085255215  0.5556773914744113  0.1501170128628715   F   F   F
  0.2222132200697942  0.4446161187582259  0.3035071878430589   T   T   T
  0.1111133194857814  0.5559158305305441  0.3821625688320224   T   T   T
  0.0005175010236540  0.3335763487596310  0.2290819653284190   T   T   T
  0.2221730880260182  0.4444929119739598  0.0761882473561712   F   F   F
  0.3330662967443255  0.3330155320284548  0.9977459141814727   T   T   T
  0.4443244835080549  0.5553169670161253  0.1501839608862880   F   F   F
  0.5564854215460298  0.4402357877868871  0.3049129528989848   T   T   T
  0.4531554280570491  0.5725973667830350  0.3836596062537502   T   T   T
  0.3328134843801759  0.3336369110396140  0.2294769776530893   T   T   T
  0.5556538239479636  0.4444929119739669  0.0761882473561712   F   F   F
  0.6665239318412244  0.3332096119984261  0.9975493121156555   T   T   T
  0.7780207829489143  0.5556773914744326  0.1501170128628715   F   F   F
  0.8905664146420162  0.4454105605293677  0.3029982899267563   T   T   T
  0.7798172230141333  0.5546158676844698  0.3826993254018503   T   T   T
  0.6686496898201045  0.3342789032374658  0.2285966147567820   T   T   T
  0.8888045234351054  0.4442750468702314  0.0762896244133842   F   F   F
 -0.0001256970291445  0.6670443317904331  0.9979432034290643   T   T   T
  0.1109896085255713  0.8886462170511606  0.1501170128628715   F   F   F
  0.2215740495000749  0.7761655044166669  0.3027495347319500   T   T   T
  0.1123572320293594  0.8869464218479362  0.3826762751913614   T   T   T
 -0.0002096350738408  0.6668992077256011  0.2290735245229578   T   T   T
  0.2223909531298105  0.7778624765648914  0.0762896244133842   F   F   F
  0.3333009171777498  0.6668241056738332  0.9975105315634240   T   T   T
  0.4445341066913429  0.8889340533456718  0.1502039760485161   F   F   F
  0.5577281869192365  0.7811971872095667  0.3015702170404945   T   T   T
  0.4439303870410965  0.8888151903377733  0.3810797286111358   T   T   T
  0.3333403091812858  0.6659886035094646  0.2290185598520041   T   T   T
  0.5555149110288653  0.7776958220577228  0.0763678180462151   F   F   F
  0.6669245901739927  0.6670699594320366  0.9976807147610853   T   T   T
  0.7777329466543179  0.8889340533456718  0.1502039760485161   F   F   F
  0.8889701736131645  0.7776263207870678  0.3038237376702574   T   T   T
  0.7767622952625878  0.8902876007938847  0.3816539101689621   T   T   T
  0.6662750054902293  0.6652340794988156  0.2294137592692110   T   T   T
  0.8888045234350770  0.7778624765648772  0.0762896244133842   F   F   F
  0.3283943089036134  0.3383730845424752  0.3417669758196021   T   T   T
 -0.0008699917589779  0.0007845357918734  0.3427037611189571   T   T   T
  0.2221279567000209  0.1109229134000458  0.1896826526813058   F   F   F
  0.1111545812499131  0.2222437906249510  0.0371240818365095   F   F   F
  0.3285978109329107  0.9927963416687546  0.3414527940483421   T   T   T
  0.5555051980210877  0.1111618019788807  0.1896208992830779   F   F   F
  0.4444222093750341  0.2222437906249439  0.0371240818365095   F   F   F
  0.6663709652797090  0.0006130317932273  0.3415995027262286   T   T   T
  0.8889906039578008  0.1111618019788878  0.1896208992830779   F   F   F
  0.7777909318313050  0.2222478636626164  0.0370972738756308   F   F   F
 -0.0004205757272978  0.3319413710453158  0.3429408712685854   T   T   T
  0.2221279566999925  0.4445380432999713  0.1896826526813058   F   F   F
  0.1111430203018244  0.5555239796981937  0.0371125139091433   F   F   F
  0.5557440866000007  0.4445380432999784  0.1896826526813058   F   F   F
  0.4444222093750483  0.5555124187501193  0.0371240818365095   F   F   F
  0.6738431745943919  0.3380675718295888  0.3415054368966713   T   T   T
  0.8889389881710059  0.4445439763419969  0.1894968429740800   F   F   F
  0.7777139593963653  0.5555239796981937  0.0371125139091433   F   F   F
  0.0005360784908229  0.6662509042811376  0.3429468021008668   T   T   T
  0.2221220236579811  0.7777280118289980  0.1894968429740800   F   F   F
  0.1111430203018102  0.8889530406036172  0.0371125139091433   F   F   F
  0.3351252797183158  0.6673824229690792  0.3429195711771492   T   T   T
  0.5555051980211161  0.7776763960422315  0.1896208992830779   F   F   F
  0.4444181363373687  0.8888760681686918  0.0370972738756308   F   F   F
  0.6660918571050698  0.6675785053707773  0.3427763907650623   T   T   T
  0.8889389881710201  0.7777280118290051  0.1894968429740800   F   F   F
  0.7777909318313192  0.8888760681686918  0.0370972738756308   F   F   F
  0.4459115941613223  0.2195913001138853  0.4456411956363180   T   T   T
 
  0.00000000E+00  0.00000000E+00  0.00000000E+00
  0.00000000E+00  0.00000000E+00  0.00000000E+00
  0.00000000E+00  0.00000000E+00  0.00000000E+00
  0.00000000E+00  0.00000000E+00  0.00000000E+00
  0.00000000E+00  0.00000000E+00  0.00000000E+00
  0.00000000E+00  0.00000000E+00  0.00000000E+00
  0.00000000E+00  0.00000000E+00  0.00000000E+00
  0.00000000E+00  0.00000000E+00  0.00000000E+00
  0.00000000E+00  0.00000000E+00  0.00000000E+00
  0.00000000E+00  0.00000000E+00  0.00000000E+00
  0.00000000E+00  0.00000000E+00  0.00000000E+00
  0.00000000E+00  0.00000000E+00  0.00000000E+00
  0.00000000E+00  0.00000000E+00  0.00000000E+00
  0.00000000E+00  0.00000000E+00  0.00000000E+00
  0.00000000E+00  0.00000000E+00  0.00000000E+00
  0.00000000E+00  0.00000000E+00  0.00000000E+00
  0.00000000E+00  0.00000000E+00  0.00000000E+00
  0.00000000E+00  0.00000000E+00  0.00000000E+00
  0.00000000E+00  0.00000000E+00  0.00000000E+00
  0.00000000E+00  0.00000000E+00  0.00000000E+00
  0.00000000E+00  0.00000000E+00  0.00000000E+00
  0.00000000E+00  0.00000000E+00  0.00000000E+00
  0.00000000E+00  0.00000000E+00  0.00000000E+00
  0.00000000E+00  0.00000000E+00  0.00000000E+00
  0.00000000E+00  0.00000000E+00  0.00000000E+00
  0.00000000E+00  0.00000000E+00  0.00000000E+00
  0.00000000E+00  0.00000000E+00  0.00000000E+00
  0.00000000E+00  0.00000000E+00  0.00000000E+00
  0.00000000E+00  0.00000000E+00  0.00000000E+00
  0.00000000E+00  0.00000000E+00  0.00000000E+00
  0.00000000E+00  0.00000000E+00  0.00000000E+00
  0.00000000E+00  0.00000000E+00  0.00000000E+00
  0.00000000E+00  0.00000000E+00  0.00000000E+00
  0.00000000E+00  0.00000000E+00  0.00000000E+00
  0.00000000E+00  0.00000000E+00  0.00000000E+00
  0.00000000E+00  0.00000000E+00  0.00000000E+00
  0.00000000E+00  0.00000000E+00  0.00000000E+00
  0.00000000E+00  0.00000000E+00  0.00000000E+00
  0.00000000E+00  0.00000000E+00  0.00000000E+00
  0.00000000E+00  0.00000000E+00  0.00000000E+00
  0.00000000E+00  0.00000000E+00  0.00000000E+00
  0.00000000E+00  0.00000000E+00  0.00000000E+00
  0.00000000E+00  0.00000000E+00  0.00000000E+00
  0.00000000E+00  0.00000000E+00  0.00000000E+00
  0.00000000E+00  0.00000000E+00  0.00000000E+00
  0.00000000E+00  0.00000000E+00  0.00000000E+00
  0.00000000E+00  0.00000000E+00  0.00000000E+00
  0.00000000E+00  0.00000000E+00  0.00000000E+00
  0.00000000E+00  0.00000000E+00  0.00000000E+00
  0.00000000E+00  0.00000000E+00  0.00000000E+00
  0.00000000E+00  0.00000000E+00  0.00000000E+00
  0.00000000E+00  0.00000000E+00  0.00000000E+00
  0.00000000E+00  0.00000000E+00  0.00000000E+00
  0.00000000E+00  0.00000000E+00  0.00000000E+00
  0.00000000E+00  0.00000000E+00  0.00000000E+00
  0.00000000E+00  0.00000000E+00  0.00000000E+00
  0.00000000E+00  0.00000000E+00  0.00000000E+00
  0.00000000E+00  0.00000000E+00  0.00000000E+00
  0.00000000E+00  0.00000000E+00  0.00000000E+00
  0.00000000E+00  0.00000000E+00  0.00000000E+00
  0.00000000E+00  0.00000000E+00  0.00000000E+00
  0.00000000E+00  0.00000000E+00  0.00000000E+00
  0.00000000E+00  0.00000000E+00  0.00000000E+00
  0.00000000E+00  0.00000000E+00  0.00000000E+00
  0.00000000E+00  0.00000000E+00  0.00000000E+00
  0.00000000E+00  0.00000000E+00  0.00000000E+00
  0.00000000E+00  0.00000000E+00  0.00000000E+00
  0.00000000E+00  0.00000000E+00  0.00000000E+00
  0.00000000E+00  0.00000000E+00  0.00000000E+00
  0.00000000E+00  0.00000000E+00  0.00000000E+00
  0.00000000E+00  0.00000000E+00  0.00000000E+00
  0.00000000E+00  0.00000000E+00  0.00000000E+00
  0.00000000E+00  0.00000000E+00  0.00000000E+00
  0.00000000E+00  0.00000000E+00  0.00000000E+00
  0.00000000E+00  0.00000000E+00  0.00000000E+00
  0.00000000E+00  0.00000000E+00  0.00000000E+00
  0.00000000E+00  0.00000000E+00  0.00000000E+00
  0.00000000E+00  0.00000000E+00  0.00000000E+00
  0.00000000E+00  0.00000000E+00  0.00000000E+00
  0.00000000E+00  0.00000000E+00  0.00000000E+00
  0.00000000E+00  0.00000000E+00  0.00000000E+00
  0.00000000E+00  0.00000000E+00  0.00000000E+00
