CeO2-you-111-you-Pb                     
   1.00000000000000     
     9.9242270653546534   -5.7297555420333461   -0.0000000010483693
    -0.0432214523086127   11.3846473208958159   -0.0200885188359178
    -0.0214260846419974   -0.0371110609377293   21.1772514930615543
   O    Pb   Ce   H 
    53     1    26     2
Selective dynamics
Direct
  0.0004859053448972  0.0002250077994835  0.9970393687320389   T   T   T
  0.1098718919129382  0.2223591543843710  0.1500942592717109   F   F   F
  0.2241762742500712  0.1086848368602627  0.3051424596509064   T   T   T
  0.0797619934390382  0.2079925969441081  0.3872335279991567   T   T   T
  0.0010902283127772  0.0007460666312955  0.2286212845595391   T   T   T
  0.2229164313195042  0.1124998626389697  0.0759740570783549   F   F   F
  0.3329938725650708  0.0002792307799068  0.9967158364349390   T   T   T
  0.4458202624713579  0.2223591543842574  0.1500942592717394   F   F   F
  0.5514489036126703  0.1144005943692858  0.3033910494932847   T   T   T
  0.4646687490642555  0.2039793872363376  0.4038460715242714   T   T   T
  0.3323180960814442 -0.0007853508911405  0.2283068303199545   T   T   T
  0.5562737780713150  0.1116975062427414  0.0753466396933291   F   F   F
  0.6666543476555983  0.9996301440173118  0.9966957858695765   T   T   T
  0.7758391571419594  0.2183443142838755  0.1516652317923786   F   F   F
  0.8832098492255288  0.1082356373429551  0.3008043795467982   T   T   T
  0.7757064210649445  0.2216600646697355  0.3804447264459565   T   T   T
  0.6607384058287785  0.9944445073969417  0.2299442673991876   T   T   T
  0.8887577281715053  0.1116975062428267  0.0753466396933291   F   F   F
  0.0005987238861445  0.3338026209236288  0.9972600673464829   T   T   T
  0.1107614687385237  0.5549170065105429  0.1499567838033826   F   F   F
  0.2245158205562248  0.4497268051065686  0.3057995235340534   T   T   T
  0.1113519169157917  0.5598963098434175  0.3825127580189452   T   T   T
  0.0007540173261689  0.3338555571035091  0.2297221623616354   T   T   T
  0.2232244092719995  0.4447955346145704  0.0763618506508834   F   F   F
  0.3334316931441728  0.3336383137828093  0.9969638150765867   T   T   T
  0.4448197941446423  0.5563075882897905  0.1507209915232650   F   F   F
  0.5612015338696998  0.4478736161769696  0.3069518512579300   T   T   T
  0.3339875500420235  0.3343412773999584  0.2260381473841644   T   T   T
  0.5549051253424864  0.4447955346145491  0.0763618506508905   F   F   F
  0.6667519598568870  0.3337315908795276  0.9976133691932181   T   T   T
  0.7774885377717453  0.5549170065104505  0.1499567838033826   F   F   F
  0.8903930483920087  0.4466035376686560  0.3034419781237108   T   T   T
  0.7828523240369081  0.5583299385657725  0.3833734432967438   T   T   T
  0.6678384125390516  0.3346482363093092  0.2295072526196863   T   T   T
  0.8879808604588462  0.4426277209176774  0.0766971748466787   F   F   F
  0.9988849114511095  0.6650228183331890  0.9975584761657332   T   T   T
  0.1117726101277299  0.8902122202550231  0.1482264876027699   F   F   F
  0.2194046318757507  0.7779688352329986  0.3020370721609392   T   T   T
  0.1123168067352413  0.8879536510665523  0.3834945369562613   T   T   T
  0.0003164912154019  0.6684227462975446  0.2278494746596929   T   T   T
  0.2218372150165706  0.7778912186390201  0.0748881078255650   F   F   F
  0.3335440711307143  0.6665966108044690  0.9975123310222140   T   T   T
  0.4437336603934270  0.8890985346483617  0.1484840018407141   F   F   F
  0.5497770128728626  0.7675847901317059  0.3050822983133284   T   T   T
  0.4412392548069577  0.8883428513806454  0.3796385461351194   T   T   T
  0.3324658643646454  0.6694941501639844  0.2282362925023586   T   T   T
  0.5556697456467319  0.7780054912934844  0.0761308436935693   F   F   F
  0.6665420055716241  0.6668387956359161  0.9971975331913185   T   T   T
  0.7786978742553288  0.8890985346486318  0.1484840018407212   F   F   F
  0.8912408937069726  0.7793276243575458  0.3030149957250647   T   T   T
  0.7761216263776612  0.8889156113826864  0.3802708130094421   T   T   T
  0.6699786513783288  0.6695498814444385  0.2284280519218974   T   T   T
  0.8893870036224953  0.7778912186390485  0.0748881078255579   F   F   F
  0.3265507835544764  0.3336870788610006  0.3528038420710043   T   T   T
  0.0001526408925353  0.0032475558495468  0.3426438415898023   T   T   T
  0.2241378792886337  0.1149427585779321  0.1899128659405065   F   F   F
  0.1114895664220228  0.2225737785955317  0.0370382192564875   F   F   F
  0.3278906942887151 -0.0047201280054202  0.3412031888935019   T   T   T
  0.5543566421390267  0.1098635416939331  0.1893995465305736   F   F   F
  0.4444172121735761  0.2225737785956667  0.0370382192564875   F   F   F
  0.6641910842070226  0.9988928505382645  0.3411522288282200   T   T   T
  0.8888408995540260  0.1098635416932581  0.1893995465305878   F   F   F
  0.7774048807502041  0.2214757615003933  0.0369365809319788   F   F   F
 -0.0009950452257048  0.3316566158533133  0.3431058359069550   T   T   T
  0.2227580192032761  0.4438923558245094  0.1913155124777930   F   F   F
  0.1106876185001653  0.5543095636932378  0.0370165413167527   F   F   F
  0.5544683366224277  0.4438923558245591  0.1913155124777290   F   F   F
  0.4440570953664178  0.5547821907327091  0.0368704610656181   F   F   F
  0.6743381017078536  0.3386902893707894  0.3418924469790633   T   T   T
  0.8889138843880318  0.4444937687757999  0.1899724029357657   F   F   F
  0.7769549451931042  0.5543095636932875  0.0370165413167385   F   F   F
  0.0010231690092833  0.6685967217797985  0.3432119353764445   T   T   T
  0.2209875347000434  0.7795214939161639  0.1868847723930500   F   F   F
  0.1112944731392460  0.8892559462786807  0.0354605623943556   F   F   F
  0.3273630011310617  0.6701244678883870  0.3398791136916866   T   T   T
  0.5544587946237627  0.7755835892474892  0.1877996618444868   F   F   F
  0.4443819950946732  0.8887070772186192  0.0359736002833984   F   F   F
  0.6761097285071120  0.6713467147222936  0.3399222328583304   T   T   T
  0.8918669592154274  0.7795214939155741  0.1868847723930500   F   F   F
  0.7776580821238639  0.8887070772185837  0.0359736002834055   F   F   F
  0.4574310772054686  0.5807730304668824  0.3894152625887456   T   T   T
  0.4532673993743401  0.2118859951687590  0.4488600828591031   T   T   T
 
  0.00000000E+00  0.00000000E+00  0.00000000E+00
  0.00000000E+00  0.00000000E+00  0.00000000E+00
  0.00000000E+00  0.00000000E+00  0.00000000E+00
  0.00000000E+00  0.00000000E+00  0.00000000E+00
  0.00000000E+00  0.00000000E+00  0.00000000E+00
  0.00000000E+00  0.00000000E+00  0.00000000E+00
  0.00000000E+00  0.00000000E+00  0.00000000E+00
  0.00000000E+00  0.00000000E+00  0.00000000E+00
  0.00000000E+00  0.00000000E+00  0.00000000E+00
  0.00000000E+00  0.00000000E+00  0.00000000E+00
  0.00000000E+00  0.00000000E+00  0.00000000E+00
  0.00000000E+00  0.00000000E+00  0.00000000E+00
  0.00000000E+00  0.00000000E+00  0.00000000E+00
  0.00000000E+00  0.00000000E+00  0.00000000E+00
  0.00000000E+00  0.00000000E+00  0.00000000E+00
  0.00000000E+00  0.00000000E+00  0.00000000E+00
  0.00000000E+00  0.00000000E+00  0.00000000E+00
  0.00000000E+00  0.00000000E+00  0.00000000E+00
  0.00000000E+00  0.00000000E+00  0.00000000E+00
  0.00000000E+00  0.00000000E+00  0.00000000E+00
  0.00000000E+00  0.00000000E+00  0.00000000E+00
  0.00000000E+00  0.00000000E+00  0.00000000E+00
  0.00000000E+00  0.00000000E+00  0.00000000E+00
  0.00000000E+00  0.00000000E+00  0.00000000E+00
  0.00000000E+00  0.00000000E+00  0.00000000E+00
  0.00000000E+00  0.00000000E+00  0.00000000E+00
  0.00000000E+00  0.00000000E+00  0.00000000E+00
  0.00000000E+00  0.00000000E+00  0.00000000E+00
  0.00000000E+00  0.00000000E+00  0.00000000E+00
  0.00000000E+00  0.00000000E+00  0.00000000E+00
  0.00000000E+00  0.00000000E+00  0.00000000E+00
  0.00000000E+00  0.00000000E+00  0.00000000E+00
  0.00000000E+00  0.00000000E+00  0.00000000E+00
  0.00000000E+00  0.00000000E+00  0.00000000E+00
  0.00000000E+00  0.00000000E+00  0.00000000E+00
  0.00000000E+00  0.00000000E+00  0.00000000E+00
  0.00000000E+00  0.00000000E+00  0.00000000E+00
  0.00000000E+00  0.00000000E+00  0.00000000E+00
  0.00000000E+00  0.00000000E+00  0.00000000E+00
  0.00000000E+00  0.00000000E+00  0.00000000E+00
  0.00000000E+00  0.00000000E+00  0.00000000E+00
  0.00000000E+00  0.00000000E+00  0.00000000E+00
  0.00000000E+00  0.00000000E+00  0.00000000E+00
  0.00000000E+00  0.00000000E+00  0.00000000E+00
  0.00000000E+00  0.00000000E+00  0.00000000E+00
  0.00000000E+00  0.00000000E+00  0.00000000E+00
  0.00000000E+00  0.00000000E+00  0.00000000E+00
  0.00000000E+00  0.00000000E+00  0.00000000E+00
  0.00000000E+00  0.00000000E+00  0.00000000E+00
  0.00000000E+00  0.00000000E+00  0.00000000E+00
  0.00000000E+00  0.00000000E+00  0.00000000E+00
  0.00000000E+00  0.00000000E+00  0.00000000E+00
  0.00000000E+00  0.00000000E+00  0.00000000E+00
  0.00000000E+00  0.00000000E+00  0.00000000E+00
  0.00000000E+00  0.00000000E+00  0.00000000E+00
  0.00000000E+00  0.00000000E+00  0.00000000E+00
  0.00000000E+00  0.00000000E+00  0.00000000E+00
  0.00000000E+00  0.00000000E+00  0.00000000E+00
  0.00000000E+00  0.00000000E+00  0.00000000E+00
  0.00000000E+00  0.00000000E+00  0.00000000E+00
  0.00000000E+00  0.00000000E+00  0.00000000E+00
  0.00000000E+00  0.00000000E+00  0.00000000E+00
  0.00000000E+00  0.00000000E+00  0.00000000E+00
  0.00000000E+00  0.00000000E+00  0.00000000E+00
  0.00000000E+00  0.00000000E+00  0.00000000E+00
  0.00000000E+00  0.00000000E+00  0.00000000E+00
  0.00000000E+00  0.00000000E+00  0.00000000E+00
  0.00000000E+00  0.00000000E+00  0.00000000E+00
  0.00000000E+00  0.00000000E+00  0.00000000E+00
  0.00000000E+00  0.00000000E+00  0.00000000E+00
  0.00000000E+00  0.00000000E+00  0.00000000E+00
  0.00000000E+00  0.00000000E+00  0.00000000E+00
  0.00000000E+00  0.00000000E+00  0.00000000E+00
  0.00000000E+00  0.00000000E+00  0.00000000E+00
  0.00000000E+00  0.00000000E+00  0.00000000E+00
  0.00000000E+00  0.00000000E+00  0.00000000E+00
  0.00000000E+00  0.00000000E+00  0.00000000E+00
  0.00000000E+00  0.00000000E+00  0.00000000E+00
  0.00000000E+00  0.00000000E+00  0.00000000E+00
  0.00000000E+00  0.00000000E+00  0.00000000E+00
  0.00000000E+00  0.00000000E+00  0.00000000E+00
  0.00000000E+00  0.00000000E+00  0.00000000E+00
