CeO2-you-111-you-Ba                     
   1.00000000000000     
     9.8827063702129507   -5.6774156924061989    0.0023460832274293
     0.0245672787450707   11.3973811590071819   -0.0023460827027671
     0.0031055705199188   -0.0053790051198795   21.1207059511628650
   O    Ba   Ce   H 
    53     1    26     2
Selective dynamics
Direct
  0.0002025661693111 -0.0002400148060976  0.9958033547071923   T   T   T
  0.1074885866608142  0.2196132315378279  0.1464276956952943   F   F   F
  0.2152646217272879  0.1083647777829166  0.3052805505382696   T   T   T
  0.0731677153630450  0.2049133601821329  0.3883159781195317   T   T   T
  0.9978490652153585  0.0001593155389076  0.2277965972439941   T   T   T
  0.2219188114212827  0.1103944005064292  0.0759511719564827   F   F   F
  0.3345693955668081  0.0005774878290095  0.9972977365881992   T   T   T
  0.4420712280655010  0.2245947719328569  0.1520589906639955   F   F   F
  0.5600632010441398  0.1201831365264392  0.3033690226377928   T   T   T
  0.4734798855625886  0.2183575350082518  0.4121148676453527   T   T   T
  0.3331404036538591 -0.0018108555492423  0.2273424400197099   T   T   T
  0.5561711045494491  0.1104958954507893  0.0777566911665133   F   F   F
  0.6658528526687606  0.0009235182403473  0.9958894917194168   T   T   T
  0.7849134871387164  0.2277512510790629  0.1507822079074828   F   F   F
  0.8790343402600849  0.1073895580511769  0.2994802014042629   T   T   T
  0.7751951442917931  0.2232132723786713  0.3854442414618336   T   T   T
  0.6640055095188044  0.0017901047180246  0.2252334656007201   T   T   T
  0.8872397749965160  0.1095281303998163  0.0736856272064159   F   F   F
  0.9985903082837305  0.3320874331895015  0.9958148420496225   T   T   T
  0.1108202656858666  0.5558467343095401  0.1471631121969708   F   F   F
  0.1410007717276643  0.5261002856882058  0.3743591772629826   T   T   T
  0.0183728910303454  0.3412288297965840  0.2341077491083654   T   T   T
  0.2228797127669750  0.4437862872345093  0.0717202370418590   F   F   F
  0.3348280255678195  0.3315383184799351  0.9960021654470148   T   T   T
  0.4470527684682466  0.5591784133417335  0.1464276956945767   F   F   F
  0.5607681669654438  0.4421437815915606  0.3069873071347650   T   T   T
  0.4632767844329489  0.5915755358132759  0.3867475130108064   T   T   T
  0.3267079182335674  0.3432479534214767  0.2282379239150426   T   T   T
  0.5562725994939655  0.4447471885789653  0.0759511719564259   F   F   F
  0.6661464792296308  0.3320200580111245  0.9975809747014344   T   T   T
  0.7787027348134359  0.5556997279036509  0.1510173311413396   F   F   F
  0.8913378252867377  0.4467720019228281  0.3048894802827880   T   T   T
  0.7844553045128281  0.5609392229833748  0.3837087780291707   T   T   T
  0.6699231674367041  0.3358254518601659  0.2280277252082070   T   T   T
  0.8890527420140515  0.4452284462478104  0.0752061675573827   F   F   F
  0.0000342185127910  0.6669364775574991  0.9962475826786068   T   T   T
  0.1109672720938306  0.8879642651833137  0.1510173311412544   F   F   F
  0.2188158815915148  0.7724320378434937  0.3058157785880414   T   T   T
  0.0926904384121195  0.8761499270364707  0.3859758120847898   T   T   T
  0.0006934679735738  0.6659702907385356  0.2289050239359522   T   T   T
  0.2214375537515423  0.7776142579847445  0.0752061675572833   F   F   F
  0.3338679542070442  0.6678430767566115  0.9959090581846118   T   T   T
  0.4389147489226133  0.8817535128614509  0.1507822079080299   F   F   F
  0.5612835935520646  0.7871258845533355  0.2989352592624487   T   T   T
  0.4553914844797561  0.8903711696267509  0.3861209489925715   T   T   T
  0.3264940459073344  0.6491162749776404  0.2336507424927870   T   T   T
  0.5571388696007347  0.7794272250034169  0.0736856272061246   F   F   F
  0.6670580542250525  0.6659361469380796  0.9957869482873428   T   T   T
  0.7777035659577507  0.8889634340424450  0.1488031710622195   F   F   F
  0.8879372593219792  0.7758505886541939  0.3006644938951443   T   T   T
  0.7769253309827024  0.8887294828284393  0.3805643257267856   T   T   T
  0.6643160339715927  0.6652449240858634  0.2287075430343153   T   T   T
  0.8887775029603233  0.7778894970391619  0.0754206326598919   F   F   F
  0.3322452411975123  0.3333679163688527  0.3752342645840813   T   T   T
  0.9969611244000174  0.9987977156073538  0.3420103062755598   T   T   T
  0.2222788534117015  0.1144313187795021  0.1928289192321770   F   F   F
  0.1105421047554316  0.2197675901696314  0.0341207826093921   F   F   F
  0.3287640071958929 -0.0028724006633683  0.3450401837153186   T   T   T
  0.5550858842858517  0.1115811157186570  0.1894787616292959   F   F   F
  0.4439559499674530  0.2227100500327595  0.0379000133624530   F   F   F
  0.6652844363343429  0.0018221674076522  0.3414917524657686   T   T   T
  0.8889967883897469  0.1110283743693472  0.1879545462950460   F   F   F
  0.7781208741684793  0.2226654604924505  0.0359919246796352   F   F   F
  0.9846886494724575  0.3190671744214526  0.3457320900580158   T   T   T
  0.2235138326322073  0.4431521673532473  0.1809354302824033   F   F   F
  0.1101485094020660  0.5565184905979663  0.0343201393100259   F   F   F
  0.5522356812217453  0.4443871465872391  0.1928289192321131   F   F   F
  0.4468984098278810  0.5561248952428457  0.0341207826094134   F   F   F
  0.6746053517615803  0.3403557312861274  0.3412883347224575   T   T   T
  0.8902950969921051  0.4451804707639440  0.1899979110561674   F   F   F
  0.7772405965967408  0.5546873292468959  0.0371352415835560   F   F   F
 -0.0020453232476795  0.6717176527076225  0.3415414501523217   T   T   T
  0.2214855292416118  0.7763719030192675  0.1899979110565084   F   F   F
  0.1119796707554173  0.8894264034052384  0.0371352415835275   F   F   F
  0.3492956429084956  0.6840193360440504  0.3450893233393243   T   T   T
  0.5556386256220449  0.7776702116066758  0.1879545462953018   F   F   F
  0.4440005395064688  0.8885461258317520  0.0359919246797560   F   F   F
  0.6681648379448415  0.6700624444773634  0.3421939295975401   T   T   T
  0.8888672679456562  0.7777997320581704  0.1883306848272355   F   F   F
  0.7775246420412145  0.8891423579572404  0.0350092616035909   F   F   F
  0.3384835663180807  0.3243387714760613  0.5275188221765680   T   T   T
  0.4975047626997224  0.2048697174112593  0.4545950388936937   T   T   T
 
  0.00000000E+00  0.00000000E+00  0.00000000E+00
  0.00000000E+00  0.00000000E+00  0.00000000E+00
  0.00000000E+00  0.00000000E+00  0.00000000E+00
  0.00000000E+00  0.00000000E+00  0.00000000E+00
  0.00000000E+00  0.00000000E+00  0.00000000E+00
  0.00000000E+00  0.00000000E+00  0.00000000E+00
  0.00000000E+00  0.00000000E+00  0.00000000E+00
  0.00000000E+00  0.00000000E+00  0.00000000E+00
  0.00000000E+00  0.00000000E+00  0.00000000E+00
  0.00000000E+00  0.00000000E+00  0.00000000E+00
  0.00000000E+00  0.00000000E+00  0.00000000E+00
  0.00000000E+00  0.00000000E+00  0.00000000E+00
  0.00000000E+00  0.00000000E+00  0.00000000E+00
  0.00000000E+00  0.00000000E+00  0.00000000E+00
  0.00000000E+00  0.00000000E+00  0.00000000E+00
  0.00000000E+00  0.00000000E+00  0.00000000E+00
  0.00000000E+00  0.00000000E+00  0.00000000E+00
  0.00000000E+00  0.00000000E+00  0.00000000E+00
  0.00000000E+00  0.00000000E+00  0.00000000E+00
  0.00000000E+00  0.00000000E+00  0.00000000E+00
  0.00000000E+00  0.00000000E+00  0.00000000E+00
  0.00000000E+00  0.00000000E+00  0.00000000E+00
  0.00000000E+00  0.00000000E+00  0.00000000E+00
  0.00000000E+00  0.00000000E+00  0.00000000E+00
  0.00000000E+00  0.00000000E+00  0.00000000E+00
  0.00000000E+00  0.00000000E+00  0.00000000E+00
  0.00000000E+00  0.00000000E+00  0.00000000E+00
  0.00000000E+00  0.00000000E+00  0.00000000E+00
  0.00000000E+00  0.00000000E+00  0.00000000E+00
  0.00000000E+00  0.00000000E+00  0.00000000E+00
  0.00000000E+00  0.00000000E+00  0.00000000E+00
  0.00000000E+00  0.00000000E+00  0.00000000E+00
  0.00000000E+00  0.00000000E+00  0.00000000E+00
  0.00000000E+00  0.00000000E+00  0.00000000E+00
  0.00000000E+00  0.00000000E+00  0.00000000E+00
  0.00000000E+00  0.00000000E+00  0.00000000E+00
  0.00000000E+00  0.00000000E+00  0.00000000E+00
  0.00000000E+00  0.00000000E+00  0.00000000E+00
  0.00000000E+00  0.00000000E+00  0.00000000E+00
  0.00000000E+00  0.00000000E+00  0.00000000E+00
  0.00000000E+00  0.00000000E+00  0.00000000E+00
  0.00000000E+00  0.00000000E+00  0.00000000E+00
  0.00000000E+00  0.00000000E+00  0.00000000E+00
  0.00000000E+00  0.00000000E+00  0.00000000E+00
  0.00000000E+00  0.00000000E+00  0.00000000E+00
  0.00000000E+00  0.00000000E+00  0.00000000E+00
  0.00000000E+00  0.00000000E+00  0.00000000E+00
  0.00000000E+00  0.00000000E+00  0.00000000E+00
  0.00000000E+00  0.00000000E+00  0.00000000E+00
  0.00000000E+00  0.00000000E+00  0.00000000E+00
  0.00000000E+00  0.00000000E+00  0.00000000E+00
  0.00000000E+00  0.00000000E+00  0.00000000E+00
  0.00000000E+00  0.00000000E+00  0.00000000E+00
  0.00000000E+00  0.00000000E+00  0.00000000E+00
  0.00000000E+00  0.00000000E+00  0.00000000E+00
  0.00000000E+00  0.00000000E+00  0.00000000E+00
  0.00000000E+00  0.00000000E+00  0.00000000E+00
  0.00000000E+00  0.00000000E+00  0.00000000E+00
  0.00000000E+00  0.00000000E+00  0.00000000E+00
  0.00000000E+00  0.00000000E+00  0.00000000E+00
  0.00000000E+00  0.00000000E+00  0.00000000E+00
  0.00000000E+00  0.00000000E+00  0.00000000E+00
  0.00000000E+00  0.00000000E+00  0.00000000E+00
  0.00000000E+00  0.00000000E+00  0.00000000E+00
  0.00000000E+00  0.00000000E+00  0.00000000E+00
  0.00000000E+00  0.00000000E+00  0.00000000E+00
  0.00000000E+00  0.00000000E+00  0.00000000E+00
  0.00000000E+00  0.00000000E+00  0.00000000E+00
  0.00000000E+00  0.00000000E+00  0.00000000E+00
  0.00000000E+00  0.00000000E+00  0.00000000E+00
  0.00000000E+00  0.00000000E+00  0.00000000E+00
  0.00000000E+00  0.00000000E+00  0.00000000E+00
  0.00000000E+00  0.00000000E+00  0.00000000E+00
  0.00000000E+00  0.00000000E+00  0.00000000E+00
  0.00000000E+00  0.00000000E+00  0.00000000E+00
  0.00000000E+00  0.00000000E+00  0.00000000E+00
  0.00000000E+00  0.00000000E+00  0.00000000E+00
  0.00000000E+00  0.00000000E+00  0.00000000E+00
  0.00000000E+00  0.00000000E+00  0.00000000E+00
  0.00000000E+00  0.00000000E+00  0.00000000E+00
  0.00000000E+00  0.00000000E+00  0.00000000E+00
  0.00000000E+00  0.00000000E+00  0.00000000E+00
