CeO2-you-111-you-Zn                     
   1.00000000000000     
     9.8083368638347039   -5.6792005016529927   -0.0067205390384302
     0.0000000042726599   11.3583990118570366    0.0000000007857476
    -0.0144011992128946    0.0000000014671951   20.8331942983347069
   O    Zn   Ce H
    53     1    26 1
Selective dynamics
Direct
 -0.0017932568174150 -0.0001351896571021  0.9944424313963803   T   T   T
  0.1125119920786078  0.2229224960389095  0.1502648940273791   T   T   T
  0.2163105713910480  0.0948964009510447  0.3024708366311709   T   T   T
  0.1265554034576653  0.2299442017291738  0.3846004051916488   T   T   T
 -0.0024202625907995  0.0007178593083829  0.2293998243424444   T   T   T
  0.2221162177548400  0.1105903044322664  0.0732705008165343   T   T   T
  0.3314939207914938 -0.0015052401222458  0.9921952192386766   T   T   T
  0.4460598697124304  0.2195508742144042  0.1464271162764703   T   T   T
  0.5576826132256738  0.1094297964942482  0.3064752255164061   T   T   T
  0.4510134125668073  0.2464029611440847  0.3742324737946524   T   T   T
  0.3380055606390723  0.0002729004902039  0.2290667754836848   T   T   T
  0.5555544528662576  0.1101958183259134  0.0723458913598825   T   T   T
  0.6671850921287301  0.0002590460642897  0.9924113075889640   T   T   T
  0.7741060259205711  0.2257900963337441  0.1513023433929509   T   T   T
  0.8927010548721991  0.1130170274357482  0.3083952669037193   T   T   T
  0.7779233857923310  0.2211628708236899  0.3887875714334471   T   T   T
  0.6689384836698372  0.0011357418350417  0.2302056569107177   T   T   T
  0.8852417375741722  0.1092873687870732  0.0764102569645044   T   T   T
 -0.0017932568166625  0.3316749328399290  0.9944424313962492   T   T   T
  0.1098313045244742  0.5549924321378248  0.1504484263267918   T   T   T
  0.2163105713900944  0.4547471704395243  0.3024708366311754   T   T   T
  0.1128600699727455  0.5606377775322653  0.3879755164308232   T   T   T
 -0.0024202625896153  0.3301948781002693  0.2293998243424292   T   T   T
  0.2221162177546167  0.4448589133221994  0.0732705008165365   T   T   T
  0.3300052245291337  0.3316691122644237  0.9921197407264840   T   T   T
  0.4460598697098876  0.5598429954982659  0.1464271162763910   T   T   T
  0.4510134125702626  0.5379444514228632  0.3742324737942640   T   T   T
  0.3438947122515886  0.3386138561248666  0.2266051992595087   T   T   T
  0.5536344726698492  0.4434832363352120  0.0707824665251969   T   T   T
  0.6662639010563555  0.3326529258465510  0.9920069168352540   T   T   T
  0.7772182991336722  0.5552761495662853  0.1476984247991675   T   T   T
  0.8919405661711675  0.4429089513432017  0.3062873997722444   T   T   T
  0.7613277647031477  0.5473308823534375  0.3786464879892345   T   T   T
  0.6572822237253655  0.3425592573361484  0.2367724063089124   T   T   T
  0.8879517326330112  0.4443089801792117  0.0737968840470365   T   T   T
 -0.0007400967283901  0.6662969516356083  0.9929333000184630   T   T   T
  0.1098313045238432  0.8881728723855147  0.1504484263267853   T   T   T
  0.2219490542360048  0.7776415271176673  0.3041842849727994   T   T   T
  0.1128600699722988  0.8855562924392946  0.3879755164307238   T   T   T
 -0.0020663327786722  0.6656338336101882  0.2307393712978150   T   T   T
  0.2218244437015628  0.7775792218506467  0.0738537673483398   T   T   T
  0.3314939207913772  0.6663331609137503  0.9921952192386365   T   T   T
  0.4468442370491327  0.8900891185246029  0.1487221222924003   T   T   T
  0.5576826132238473  0.7815858167315739  0.3064752255163641   T   T   T
  0.4432230576708211  0.8882785288352840  0.3862402251780663   T   T   T
  0.3380055606395964  0.6710666601493092  0.2290667754835676   T   T   T
  0.5555544528663554  0.7786916345408845  0.0723458913599109   T   T   T
  0.6662639010567766  0.6669439752101525  0.9920069168352853   T   T   T
  0.7741060259195012  0.8816489295865421  0.1513023433929932   T   T   T
  0.8919405661701317  0.7823646148254005  0.3062873997721790   T   T   T
  0.7779233857915302  0.8900935149678711  0.3887875714331153   T   T   T
  0.6572822237293935  0.6480559663938439  0.2367724063086899   T   T   T
  0.8879517326331466  0.7769757524537800  0.0737968840469755   T   T   T
  0.3290370210066018  0.3311850105051093  0.3668223210202645   T   T   T
  0.0089020598118329  0.0063588130719942  0.3461102251078094   T   T   T
  0.2243890800850082  0.1139147530909943  0.1918276416998840   T   T   T
  0.1103033139277557  0.2218181569637444  0.0350150554368191   T   T   T
  0.3323000599108815  0.0015584548967521  0.3440550904908747   T   T   T
  0.5554200848778736  0.1113707949292601  0.1899864510153281   T   T   T
  0.4423236306522895  0.2197319910968258  0.0312174719085458   T   T   T
  0.6682440112145183  0.0007885056080367  0.3477005272553009   T   T   T
  0.8890539334094569  0.1111934667055560  0.1909057887249014   T   T   T
  0.7765589870431276  0.2218987404643021  0.0337632988597680   T   T   T
  0.0089020598108650  0.3358762467408855  0.3461102251075939   T   T   T
  0.2243890800857037  0.4438073269929398  0.1918276416998443   T   T   T
  0.1098763669767638  0.5545051520177977  0.0343783300574825   T   T   T
  0.5510550586686165  0.4421935293323282  0.1819829472203656   T   T   T
  0.4423236306522276  0.5559256395551477  0.0312174719085751   T   T   T
  0.6691086422445381  0.3260712411647294  0.3484113183313559   T   T   T
  0.8880747311790500  0.4449810738495685  0.1910862784391537   T   T   T
  0.7783447031825466  0.5558393515911090  0.0319853318557801   T   T   T
  0.0021963179219671  0.6677651589633965  0.3450946570521498   T   T   T
  0.2230526045148909  0.7781933022580231  0.1887611956569921   T   T   T
  0.1098763669764993  0.8887052149593730  0.0343783300574848   T   T   T
  0.3323000599128172  0.6640756050133434  0.3440550904905720   T   T   T
  0.5554200848811617  0.7773822899481986  0.1899864510153465   T   T   T
  0.4446365316944041  0.8889852658469273  0.0327632671566336   T   T   T
  0.6691086422419419  0.6763704010764815  0.3484113183319326   T   T   T
  0.8880747311820840  0.7764266573348225  0.1910862784391236   T   T   T
  0.7765589870436977  0.8879932465790914  0.0337632988597863   T   T   T
0.446598 0.216020 0.433410 T T T 
 
  0.00000000E+00  0.00000000E+00  0.00000000E+00
  0.00000000E+00  0.00000000E+00  0.00000000E+00
  0.00000000E+00  0.00000000E+00  0.00000000E+00
  0.00000000E+00  0.00000000E+00  0.00000000E+00
  0.00000000E+00  0.00000000E+00  0.00000000E+00
  0.00000000E+00  0.00000000E+00  0.00000000E+00
  0.00000000E+00  0.00000000E+00  0.00000000E+00
  0.00000000E+00  0.00000000E+00  0.00000000E+00
  0.00000000E+00  0.00000000E+00  0.00000000E+00
  0.00000000E+00  0.00000000E+00  0.00000000E+00
  0.00000000E+00  0.00000000E+00  0.00000000E+00
  0.00000000E+00  0.00000000E+00  0.00000000E+00
  0.00000000E+00  0.00000000E+00  0.00000000E+00
  0.00000000E+00  0.00000000E+00  0.00000000E+00
  0.00000000E+00  0.00000000E+00  0.00000000E+00
  0.00000000E+00  0.00000000E+00  0.00000000E+00
  0.00000000E+00  0.00000000E+00  0.00000000E+00
  0.00000000E+00  0.00000000E+00  0.00000000E+00
  0.00000000E+00  0.00000000E+00  0.00000000E+00
  0.00000000E+00  0.00000000E+00  0.00000000E+00
  0.00000000E+00  0.00000000E+00  0.00000000E+00
  0.00000000E+00  0.00000000E+00  0.00000000E+00
  0.00000000E+00  0.00000000E+00  0.00000000E+00
  0.00000000E+00  0.00000000E+00  0.00000000E+00
  0.00000000E+00  0.00000000E+00  0.00000000E+00
  0.00000000E+00  0.00000000E+00  0.00000000E+00
  0.00000000E+00  0.00000000E+00  0.00000000E+00
  0.00000000E+00  0.00000000E+00  0.00000000E+00
  0.00000000E+00  0.00000000E+00  0.00000000E+00
  0.00000000E+00  0.00000000E+00  0.00000000E+00
  0.00000000E+00  0.00000000E+00  0.00000000E+00
  0.00000000E+00  0.00000000E+00  0.00000000E+00
  0.00000000E+00  0.00000000E+00  0.00000000E+00
  0.00000000E+00  0.00000000E+00  0.00000000E+00
  0.00000000E+00  0.00000000E+00  0.00000000E+00
  0.00000000E+00  0.00000000E+00  0.00000000E+00
  0.00000000E+00  0.00000000E+00  0.00000000E+00
  0.00000000E+00  0.00000000E+00  0.00000000E+00
  0.00000000E+00  0.00000000E+00  0.00000000E+00
  0.00000000E+00  0.00000000E+00  0.00000000E+00
  0.00000000E+00  0.00000000E+00  0.00000000E+00
  0.00000000E+00  0.00000000E+00  0.00000000E+00
  0.00000000E+00  0.00000000E+00  0.00000000E+00
  0.00000000E+00  0.00000000E+00  0.00000000E+00
  0.00000000E+00  0.00000000E+00  0.00000000E+00
  0.00000000E+00  0.00000000E+00  0.00000000E+00
  0.00000000E+00  0.00000000E+00  0.00000000E+00
  0.00000000E+00  0.00000000E+00  0.00000000E+00
  0.00000000E+00  0.00000000E+00  0.00000000E+00
  0.00000000E+00  0.00000000E+00  0.00000000E+00
  0.00000000E+00  0.00000000E+00  0.00000000E+00
  0.00000000E+00  0.00000000E+00  0.00000000E+00
  0.00000000E+00  0.00000000E+00  0.00000000E+00
  0.00000000E+00  0.00000000E+00  0.00000000E+00
  0.00000000E+00  0.00000000E+00  0.00000000E+00
  0.00000000E+00  0.00000000E+00  0.00000000E+00
  0.00000000E+00  0.00000000E+00  0.00000000E+00
  0.00000000E+00  0.00000000E+00  0.00000000E+00
  0.00000000E+00  0.00000000E+00  0.00000000E+00
  0.00000000E+00  0.00000000E+00  0.00000000E+00
  0.00000000E+00  0.00000000E+00  0.00000000E+00
  0.00000000E+00  0.00000000E+00  0.00000000E+00
  0.00000000E+00  0.00000000E+00  0.00000000E+00
  0.00000000E+00  0.00000000E+00  0.00000000E+00
  0.00000000E+00  0.00000000E+00  0.00000000E+00
  0.00000000E+00  0.00000000E+00  0.00000000E+00
  0.00000000E+00  0.00000000E+00  0.00000000E+00
  0.00000000E+00  0.00000000E+00  0.00000000E+00
  0.00000000E+00  0.00000000E+00  0.00000000E+00
  0.00000000E+00  0.00000000E+00  0.00000000E+00
  0.00000000E+00  0.00000000E+00  0.00000000E+00
  0.00000000E+00  0.00000000E+00  0.00000000E+00
  0.00000000E+00  0.00000000E+00  0.00000000E+00
  0.00000000E+00  0.00000000E+00  0.00000000E+00
  0.00000000E+00  0.00000000E+00  0.00000000E+00
  0.00000000E+00  0.00000000E+00  0.00000000E+00
  0.00000000E+00  0.00000000E+00  0.00000000E+00
  0.00000000E+00  0.00000000E+00  0.00000000E+00
  0.00000000E+00  0.00000000E+00  0.00000000E+00
  0.00000000E+00  0.00000000E+00  0.00000000E+00
