CeO2-you-111-you-Ta                     
   1.00000000000000     
     9.8727758314913174   -5.6959732151649556   -0.0066076055921407
     0.0035307291058525   11.3980598272766294    0.0066076044474917
    -0.0078322703142456    0.0135658892434231   20.7349809472845834
   O    Ta   Ce   H 
    53     1    26     2
Selective dynamics
Direct
 -0.0003685880764549 -0.0000649994255626  0.9937016462905430   T   T   T
  0.1094097027429441  0.2139628769118858  0.1475196181288538   F   F   F
  0.2483208568487758  0.1351140305718159  0.3094858196618805   T   T   T
  0.1526548637578002  0.2679359128509091  0.3656229836191304   T   T   T
  0.0052814223702900  0.0011990795817794  0.2319907633830452   T   T   T
  0.2237005641926331  0.1092486628587466  0.0727326336971288   F   F   F
  0.3349962026366342 -0.0000045605775780  0.9919943572775354   T   T   T
  0.4408243544672032  0.2258416455377130  0.1515939826736883   F   F   F
  0.5592785106921713  0.1162643905519062  0.3046469284960819   T   T   T
  0.4486662436039205  0.2310304262032842  0.4007968115898775   T   T   T
  0.3326952043030869  0.9983037684822674  0.2268561281696615   T   T   T
  0.5548799334161245  0.1117870665839931  0.0752614085251722   F   F   F
  0.6668149356375332  0.0007058430975624  0.9935586568217408   T   T   T
  0.7811374652315664  0.2221792723965024  0.1505418977488659   F   F   F
  0.8876536073374721  0.1046403611265018  0.3083060831422720   T   T   T
  0.7663643064143543  0.2189522322456010  0.3901063296118816   T   T   T
  0.6675862453237384  0.0002664068619680  0.2301377180665723   T   T   T
  0.8877580846144824  0.1102574979860620  0.0741067090931438   F   F   F
  0.9987227750577774  0.3319136099486626  0.9929486668427994   T   T   T
  0.1071390607181328  0.5595279392842230  0.1461399316763305   F   F   F
  0.1039622274068096  0.5629951873161331  0.3887643844049339   T   T   T
  0.0147526862049552  0.3419300667824068  0.2329016152390664   T   T   T
  0.2224423745625330  0.4442236254366918  0.0695172361543186   F   F   F
  0.3338935155357596  0.3325834995367962  0.9928723300960094   T   T   T
  0.4527031230851435  0.5572572972558518  0.1475196181289249   F   F   F
  0.5369690965385807  0.4148128951071037  0.3072243003481252   T   T   T
  0.4102160698891032  0.5162366343204471  0.3643311106254529   T   T   T
  0.3224843574224506  0.3468641864401106  0.2316290032720015   T   T   T
  0.5574183371404686  0.4429654358058386  0.0727326336971785   F   F   F
  0.6663367998034195  0.3318427973017506  0.9924122764377594   T   T   T
  0.7781444682348777  0.5553200480063012  0.1493355751608050   F   F   F
  0.8851361847200083  0.4479914760672823  0.3040824821869478   T   T   T
  0.7702244008876501  0.5561129434227107  0.3839450030989704   T   T   T
  0.6696867205023251  0.3340643103015054  0.2274055470878985   T   T   T
  0.8869400215050334  0.4429894637824887  0.0726368545358795   F   F   F
 -0.0000484230715898  0.6665513921971902  0.9927705944813101   T   T   T
  0.1113469519936174  0.8885225317667818  0.1493355751607481   F   F   F
  0.2163339363521363  0.7771722408749054  0.3040868366540329   T   T   T
  0.0956624502143464  0.8890741033446922  0.3870293047230694   T   T   T
 -0.0012934389079197  0.6669769483794794  0.2287323021507650   T   T   T
  0.2236765362173969  0.7797269784953542  0.0726368545359790   F   F   F
  0.3345201386551845  0.6677167249989746  0.9930131572355329   T   T   T
  0.4444867276026656  0.8855295347684660  0.1505418977487381   F   F   F
  0.5623635463134958  0.7781400864398148  0.3055858151571597   T   T   T
  0.4613797839681828  0.8941991318521810  0.3921199161303932   T   T   T
  0.3250376461877980  0.6514482137005693  0.2323214015612984   T   T   T
  0.5564095020142830  0.7789089153856850  0.0741067090932290   F   F   F
  0.6669076384519054  0.6673520239776286  0.9933955347221777   T   T   T
  0.7771948905050863  0.8894721094953937  0.1515963146232693   F   F   F
  0.8863810669770182  0.7784157965435755  0.3033518035197220   T   T   T
  0.7797738468840373  0.8813881535591956  0.3872300109930524   T   T   T
  0.6654882560403652  0.6601475471634543  0.2317572659259995   T   T   T
  0.8887698505653674  0.7778971494349989  0.0739619488803740   F   F   F
  0.3400899988742909  0.3236943053031156  0.3545386068891271   T   T   T
 -0.0006796732695708  0.9970098016365914  0.3439969711563671   T   T   T
  0.2207513106130037  0.1080881759090744  0.1890294780624515   F   F   F
  0.1103953745184043  0.2204482963274756  0.0327346110795546   F   F   F
  0.3325053294587976  0.9952110445214072  0.3477983966118421   T   T   T
  0.5557747652765386  0.1108922347220513  0.1897875143158316   F   F   F
  0.4446355700020277  0.2220304299983553  0.0326485426141829   F   F   F
  0.6665293468989122  0.9980344925884655  0.3475570301708388   T   T   T
  0.8906822049400631  0.1125422158834581  0.1916467799112027   F   F   F
  0.7781735018303308  0.2220225725411566  0.0334952417626724   F   F   F
  0.9898547483098533  0.3349160909775761  0.3532348412884507   T   T   T
  0.2216302288682357  0.4450357711356148  0.1838462347120355   F   F   F
  0.1106988590236071  0.5559681409768658  0.0323190065732888   F   F   F
  0.5585788240827014  0.4459146893896815  0.1890294780617694   F   F   F
  0.4462177036729074  0.5562716254815570  0.0327346110796540   F   F   F
  0.6717441558306684  0.3333592840453305  0.3425367678259142   T   T   T
  0.8907080171909740  0.4441904460367851  0.1902338149802958   F   F   F
  0.7777287048579069  0.5545044787290863  0.0330581408800583   F   F   F
 -0.0003096895801993  0.6683774320912488  0.3452464087947785   T   T   T
  0.2224755539657792  0.7759589828083691  0.1902338149806226   F   F   F
  0.1121625212710597  0.8889382951414788  0.0330581408802146   F   F   F
  0.3335084167583445  0.6754242352134027  0.3526323057695549   T   T   T
  0.5541247841159773  0.7759847950615111  0.1916467799112596   F   F   F
  0.4446434274593756  0.8884934981695309  0.0334952417626937   F   F   F
  0.6663898217174470  0.6641401196511129  0.3431295391849306   T   T   T
  0.8894328768925917  0.7772341231060622  0.1885106431348547   F   F   F
  0.7773192434673533  0.8893477565332759  0.0346576989864431   F   F   F
  0.3321367359317792  0.3254683843414504  0.4409501939842266   T   T   T
  0.4384956904106002  0.2482739995111758  0.4458834456922089   T   T   T
 
  0.00000000E+00  0.00000000E+00  0.00000000E+00
  0.00000000E+00  0.00000000E+00  0.00000000E+00
  0.00000000E+00  0.00000000E+00  0.00000000E+00
  0.00000000E+00  0.00000000E+00  0.00000000E+00
  0.00000000E+00  0.00000000E+00  0.00000000E+00
  0.00000000E+00  0.00000000E+00  0.00000000E+00
  0.00000000E+00  0.00000000E+00  0.00000000E+00
  0.00000000E+00  0.00000000E+00  0.00000000E+00
  0.00000000E+00  0.00000000E+00  0.00000000E+00
  0.00000000E+00  0.00000000E+00  0.00000000E+00
  0.00000000E+00  0.00000000E+00  0.00000000E+00
  0.00000000E+00  0.00000000E+00  0.00000000E+00
  0.00000000E+00  0.00000000E+00  0.00000000E+00
  0.00000000E+00  0.00000000E+00  0.00000000E+00
  0.00000000E+00  0.00000000E+00  0.00000000E+00
  0.00000000E+00  0.00000000E+00  0.00000000E+00
  0.00000000E+00  0.00000000E+00  0.00000000E+00
  0.00000000E+00  0.00000000E+00  0.00000000E+00
  0.00000000E+00  0.00000000E+00  0.00000000E+00
  0.00000000E+00  0.00000000E+00  0.00000000E+00
  0.00000000E+00  0.00000000E+00  0.00000000E+00
  0.00000000E+00  0.00000000E+00  0.00000000E+00
  0.00000000E+00  0.00000000E+00  0.00000000E+00
  0.00000000E+00  0.00000000E+00  0.00000000E+00
  0.00000000E+00  0.00000000E+00  0.00000000E+00
  0.00000000E+00  0.00000000E+00  0.00000000E+00
  0.00000000E+00  0.00000000E+00  0.00000000E+00
  0.00000000E+00  0.00000000E+00  0.00000000E+00
  0.00000000E+00  0.00000000E+00  0.00000000E+00
  0.00000000E+00  0.00000000E+00  0.00000000E+00
  0.00000000E+00  0.00000000E+00  0.00000000E+00
  0.00000000E+00  0.00000000E+00  0.00000000E+00
  0.00000000E+00  0.00000000E+00  0.00000000E+00
  0.00000000E+00  0.00000000E+00  0.00000000E+00
  0.00000000E+00  0.00000000E+00  0.00000000E+00
  0.00000000E+00  0.00000000E+00  0.00000000E+00
  0.00000000E+00  0.00000000E+00  0.00000000E+00
  0.00000000E+00  0.00000000E+00  0.00000000E+00
  0.00000000E+00  0.00000000E+00  0.00000000E+00
  0.00000000E+00  0.00000000E+00  0.00000000E+00
  0.00000000E+00  0.00000000E+00  0.00000000E+00
  0.00000000E+00  0.00000000E+00  0.00000000E+00
  0.00000000E+00  0.00000000E+00  0.00000000E+00
  0.00000000E+00  0.00000000E+00  0.00000000E+00
  0.00000000E+00  0.00000000E+00  0.00000000E+00
  0.00000000E+00  0.00000000E+00  0.00000000E+00
  0.00000000E+00  0.00000000E+00  0.00000000E+00
  0.00000000E+00  0.00000000E+00  0.00000000E+00
  0.00000000E+00  0.00000000E+00  0.00000000E+00
  0.00000000E+00  0.00000000E+00  0.00000000E+00
  0.00000000E+00  0.00000000E+00  0.00000000E+00
  0.00000000E+00  0.00000000E+00  0.00000000E+00
  0.00000000E+00  0.00000000E+00  0.00000000E+00
  0.00000000E+00  0.00000000E+00  0.00000000E+00
  0.00000000E+00  0.00000000E+00  0.00000000E+00
  0.00000000E+00  0.00000000E+00  0.00000000E+00
  0.00000000E+00  0.00000000E+00  0.00000000E+00
  0.00000000E+00  0.00000000E+00  0.00000000E+00
  0.00000000E+00  0.00000000E+00  0.00000000E+00
  0.00000000E+00  0.00000000E+00  0.00000000E+00
  0.00000000E+00  0.00000000E+00  0.00000000E+00
  0.00000000E+00  0.00000000E+00  0.00000000E+00
  0.00000000E+00  0.00000000E+00  0.00000000E+00
  0.00000000E+00  0.00000000E+00  0.00000000E+00
  0.00000000E+00  0.00000000E+00  0.00000000E+00
  0.00000000E+00  0.00000000E+00  0.00000000E+00
  0.00000000E+00  0.00000000E+00  0.00000000E+00
  0.00000000E+00  0.00000000E+00  0.00000000E+00
  0.00000000E+00  0.00000000E+00  0.00000000E+00
  0.00000000E+00  0.00000000E+00  0.00000000E+00
  0.00000000E+00  0.00000000E+00  0.00000000E+00
  0.00000000E+00  0.00000000E+00  0.00000000E+00
  0.00000000E+00  0.00000000E+00  0.00000000E+00
  0.00000000E+00  0.00000000E+00  0.00000000E+00
  0.00000000E+00  0.00000000E+00  0.00000000E+00
  0.00000000E+00  0.00000000E+00  0.00000000E+00
  0.00000000E+00  0.00000000E+00  0.00000000E+00
  0.00000000E+00  0.00000000E+00  0.00000000E+00
  0.00000000E+00  0.00000000E+00  0.00000000E+00
  0.00000000E+00  0.00000000E+00  0.00000000E+00
  0.00000000E+00  0.00000000E+00  0.00000000E+00
  0.00000000E+00  0.00000000E+00  0.00000000E+00
