CeO2-you-111-you-Pd                     
   1.00000000000000     
     9.7930589559308263   -5.6540255964950514    0.0000000000000000
     0.0000000061946111   11.3080492137426738    0.0000000000000000
     0.0000000000000000    0.0000000000000000   21.3318176779854127
   O    Pd   Ce   H 
    54     1    26     2
Selective dynamics
Direct
  0.0003671673046092  0.0001788940112431  0.9958371787391420   T   T   T
  0.1083635643915095  0.2201944789185883  0.1482551579200586   T   T   T
  0.2373818981383850  0.1229511925126666  0.3074449606046353   T   T   T
  0.1074410821665829  0.2230584565156515  0.3813465487232577   T   T   T
  0.0047518878463496  0.0020391105454890  0.2303483533031516   T   T   T
  0.2234386568538023  0.1116560199386793  0.0755610187763807   T   T   T
  0.3329588571380557 -0.0002840425070555  0.9955772980144995   T   T   T
  0.4458505762211732  0.2213898232930830  0.1496490281346961   T   T   T
  0.5523689409040150  0.1137246633223880  0.3039842981358688   T   T   T
  0.4713412181507034  0.1951528641574095  0.4076863557392831   T   T   T
  0.3314242453132717 -0.0012886718080398  0.2291270864922585   T   T   T
  0.5552219565160144  0.1101242448625469  0.0749830573102858   T   T   T
  0.6668595739707073 -0.0000924678953875  0.9953552024542588   T   T   T
  0.7772073084007340  0.2219951420401610  0.1497409107907048   T   T   T
  0.8888999609369478  0.1098774763120608  0.3027351472588826   T   T   T
  0.7793796721641237  0.2219061677184260  0.3816795085487408   T   T   T
  0.6656594891707405  0.0007222331743552  0.2296740533524021   T   T   T
  0.8869911778525130  0.1097758891861901  0.0752752627993364   T   T   T
 -0.0005084107897595  0.3324541747317170  0.9956961374545177   T   T   T
  0.1107803975355878  0.5558225962975054  0.1485678699141299   T   T   T
  0.2215625447308385  0.4455832225125365  0.3013356256462830   T   T   T
  0.1108522182504323  0.5558504794217396  0.3820751022804531   T   T   T
 -0.0000055942093438  0.3336772429495681  0.2286794465263928   T   T   T
  0.2223217636007286  0.4442664769377753  0.0745113723680538   T   T   T
  0.3333206676091175  0.3327538986887054  0.9955814330714398   T   T   T
  0.4459713502252620  0.5579501261470416  0.1483888394577692   T   T   T
  0.5418194029632332  0.4288144958409648  0.3081245585851933   T   T   T
  0.4442032855445252  0.5604279497711463  0.3822106639899792   T   T   T
  0.3313799615201851  0.3343828572649191  0.2241114347041449   T   T   T
  0.5553091619186893  0.4437836829481316  0.0752511704795244   T   T   T
  0.6665060578855699  0.3333828118604425  0.9955401409205925   T   T   T
  0.7781170483793113  0.5562051821258746  0.1493123349109197   T   T   T
  0.8891208766894465  0.4450865033490728  0.3029900161005791   T   T   T
  0.7766321523543924  0.5544683606293566  0.3819437810889836   T   T   T
  0.6676050379180749  0.3354141756171439  0.2293710423610111   T   T   T
  0.8885595772179861  0.4437961795119460  0.0749201833889925   T   T   T
 -0.0003443473081882  0.6669023981316149  0.9959623375489772   T   T   T
  0.1110324721399346  0.8883468794595752  0.1492267231557066   T   T   T
  0.2215668850105377  0.7771288827620007  0.3029589125636435   T   T   T
  0.1124217824785659  0.8896810529096049  0.3820621139538826   T   T   T
  0.0001687518409368  0.6667521193205284  0.2289144358997486   T   T   T
  0.2229062301811895  0.7777086993542497  0.0748077669934118   T   T   T
  0.3336522328114567  0.6660159563527761  0.9952809970529127   T   T   T
  0.4451246442782917  0.8890754406629097  0.1495836339139992   T   T   T
  0.5561400909692298  0.7774545366800357  0.3025051782561545   T   T   T
  0.4446085558633789  0.8868972616000073  0.3817529910503307   T   T   T
  0.3324124774918005  0.6662141765456455  0.2282981223227505   T   T   T
  0.5564503564371076  0.7786144801649337  0.0748656644770261   T   T   T
  0.6674727476923948  0.6667566443931647  0.9956407457401562   T   T   T
  0.7776767003276310  0.8880951401877919  0.1513226382187274   T   T   T
  0.8892670935321907  0.7780899261301819  0.3032855996731568   T   T   T
  0.7776613592165806  0.8885524004574947  0.3819029039619008   T   T   T
  0.6646858266512574  0.6611058332799274  0.2306466557882116   T   T   T
  0.8890516016118889  0.7790264760065410  0.0755604199369884   T   T   T
  0.3242150571065136  0.3422740720837912  0.3346441237511962   T   T   T
  0.0032893689516150  0.0029488990702290  0.3423687247596177   T   T   T
  0.2240246246425993  0.1128523834145928  0.1897778086481419   T   T   T
  0.1108493336296238  0.2215478258786480  0.0354733326688874   T   T   T
  0.3318910521336544 -0.0032107470965078  0.3432063320305227   T   T   T
  0.5552087298925503  0.1112087610636705  0.1896497663505908   T   T   T
  0.4446671138471684  0.2221506353898672  0.0353412392301733   T   T   T
  0.6670537305824741 -0.0005999545452837  0.3427470286171598   T   T   T
  0.8890295115674172  0.1114022110512073  0.1894135629066001   T   T   T
  0.7772973501176942  0.2217327241815664  0.0354411608104726   T   T   T
  0.0002191725425492  0.3332109570551147  0.3423191196635106   T   T   T
  0.2221904471296133  0.4440460248062773  0.1871957765501333   T   T   T
  0.1109869845415669  0.5554108701102121  0.0351092697195681   T   T   T
  0.5534900258502662  0.4426390171532250  0.1897969803444978   T   T   T
  0.4449857887639229  0.5555456056196075  0.0352180958343343   T   T   T
  0.6695033618836709  0.3347193554337294  0.3431678473946350   T   T   T
  0.8887247252933607  0.4445258900141818  0.1887485351317608   T   T   T
  0.7777187536436529  0.5557014336846017  0.0358782291639508   T   T   T
  0.0001690955680065  0.6666036561854123  0.3421558055674141   T   T   T
  0.2223653098506538  0.7778638012457615  0.1886802400323729   T   T   T
  0.1114531731751354  0.8891784262750982  0.0359432176201040   T   T   T
  0.3333605625105775  0.6664233522014807  0.3423242344704287   T   T   T
  0.5550369394729006  0.7772173801962182  0.1893614180099388   T   T   T
  0.4447501370840196  0.8888300755460717  0.0352962469106849   T   T   T
  0.6637600243170301  0.6636650325357788  0.3424515028622990   T   T   T
  0.8894727813275513  0.7774177429866603  0.1897557256359855   T   T   T
  0.7778241472476640  0.8889321048539764  0.0357154276795364   T   T   T
  0.3231796673051162  0.3501638351108305  0.4054484720637173   T   T   T
  0.4418038360107372  0.2253314331909499  0.4441253547173762   T   T   T
 
  0.00000000E+00  0.00000000E+00  0.00000000E+00
  0.00000000E+00  0.00000000E+00  0.00000000E+00
  0.00000000E+00  0.00000000E+00  0.00000000E+00
  0.00000000E+00  0.00000000E+00  0.00000000E+00
  0.00000000E+00  0.00000000E+00  0.00000000E+00
  0.00000000E+00  0.00000000E+00  0.00000000E+00
  0.00000000E+00  0.00000000E+00  0.00000000E+00
  0.00000000E+00  0.00000000E+00  0.00000000E+00
  0.00000000E+00  0.00000000E+00  0.00000000E+00
  0.00000000E+00  0.00000000E+00  0.00000000E+00
  0.00000000E+00  0.00000000E+00  0.00000000E+00
  0.00000000E+00  0.00000000E+00  0.00000000E+00
  0.00000000E+00  0.00000000E+00  0.00000000E+00
  0.00000000E+00  0.00000000E+00  0.00000000E+00
  0.00000000E+00  0.00000000E+00  0.00000000E+00
  0.00000000E+00  0.00000000E+00  0.00000000E+00
  0.00000000E+00  0.00000000E+00  0.00000000E+00
  0.00000000E+00  0.00000000E+00  0.00000000E+00
  0.00000000E+00  0.00000000E+00  0.00000000E+00
  0.00000000E+00  0.00000000E+00  0.00000000E+00
  0.00000000E+00  0.00000000E+00  0.00000000E+00
  0.00000000E+00  0.00000000E+00  0.00000000E+00
  0.00000000E+00  0.00000000E+00  0.00000000E+00
  0.00000000E+00  0.00000000E+00  0.00000000E+00
  0.00000000E+00  0.00000000E+00  0.00000000E+00
  0.00000000E+00  0.00000000E+00  0.00000000E+00
  0.00000000E+00  0.00000000E+00  0.00000000E+00
  0.00000000E+00  0.00000000E+00  0.00000000E+00
  0.00000000E+00  0.00000000E+00  0.00000000E+00
  0.00000000E+00  0.00000000E+00  0.00000000E+00
  0.00000000E+00  0.00000000E+00  0.00000000E+00
  0.00000000E+00  0.00000000E+00  0.00000000E+00
  0.00000000E+00  0.00000000E+00  0.00000000E+00
  0.00000000E+00  0.00000000E+00  0.00000000E+00
  0.00000000E+00  0.00000000E+00  0.00000000E+00
  0.00000000E+00  0.00000000E+00  0.00000000E+00
  0.00000000E+00  0.00000000E+00  0.00000000E+00
  0.00000000E+00  0.00000000E+00  0.00000000E+00
  0.00000000E+00  0.00000000E+00  0.00000000E+00
  0.00000000E+00  0.00000000E+00  0.00000000E+00
  0.00000000E+00  0.00000000E+00  0.00000000E+00
  0.00000000E+00  0.00000000E+00  0.00000000E+00
  0.00000000E+00  0.00000000E+00  0.00000000E+00
  0.00000000E+00  0.00000000E+00  0.00000000E+00
  0.00000000E+00  0.00000000E+00  0.00000000E+00
  0.00000000E+00  0.00000000E+00  0.00000000E+00
  0.00000000E+00  0.00000000E+00  0.00000000E+00
  0.00000000E+00  0.00000000E+00  0.00000000E+00
  0.00000000E+00  0.00000000E+00  0.00000000E+00
  0.00000000E+00  0.00000000E+00  0.00000000E+00
  0.00000000E+00  0.00000000E+00  0.00000000E+00
  0.00000000E+00  0.00000000E+00  0.00000000E+00
  0.00000000E+00  0.00000000E+00  0.00000000E+00
  0.00000000E+00  0.00000000E+00  0.00000000E+00
  0.00000000E+00  0.00000000E+00  0.00000000E+00
  0.00000000E+00  0.00000000E+00  0.00000000E+00
  0.00000000E+00  0.00000000E+00  0.00000000E+00
  0.00000000E+00  0.00000000E+00  0.00000000E+00
  0.00000000E+00  0.00000000E+00  0.00000000E+00
  0.00000000E+00  0.00000000E+00  0.00000000E+00
  0.00000000E+00  0.00000000E+00  0.00000000E+00
  0.00000000E+00  0.00000000E+00  0.00000000E+00
  0.00000000E+00  0.00000000E+00  0.00000000E+00
  0.00000000E+00  0.00000000E+00  0.00000000E+00
  0.00000000E+00  0.00000000E+00  0.00000000E+00
  0.00000000E+00  0.00000000E+00  0.00000000E+00
  0.00000000E+00  0.00000000E+00  0.00000000E+00
  0.00000000E+00  0.00000000E+00  0.00000000E+00
  0.00000000E+00  0.00000000E+00  0.00000000E+00
  0.00000000E+00  0.00000000E+00  0.00000000E+00
  0.00000000E+00  0.00000000E+00  0.00000000E+00
  0.00000000E+00  0.00000000E+00  0.00000000E+00
  0.00000000E+00  0.00000000E+00  0.00000000E+00
  0.00000000E+00  0.00000000E+00  0.00000000E+00
  0.00000000E+00  0.00000000E+00  0.00000000E+00
  0.00000000E+00  0.00000000E+00  0.00000000E+00
  0.00000000E+00  0.00000000E+00  0.00000000E+00
  0.00000000E+00  0.00000000E+00  0.00000000E+00
  0.00000000E+00  0.00000000E+00  0.00000000E+00
  0.00000000E+00  0.00000000E+00  0.00000000E+00
  0.00000000E+00  0.00000000E+00  0.00000000E+00
  0.00000000E+00  0.00000000E+00  0.00000000E+00
  0.00000000E+00  0.00000000E+00  0.00000000E+00
