CeO2-you-111-you-Cu                     
   1.00000000000000     
     9.8578350868596996   -5.6483351709723282   -0.0088610021843592
    -0.0000000014108187   11.2966683514770381    0.0000000010527625
    -0.0196552002819110    0.0000000020278087   21.0616285262912371
   O    Cu   Ce   H 
    53     1    26     2
Selective dynamics
Direct
  0.0001705668803302  0.0011297598874917  0.9958186107257957   T   T   T
  0.1106357325683192  0.2219843662829817  0.1506501820084125   F   F   F
  0.2287286070707409  0.1132865990202623  0.3070504757847805   T   T   T
  0.0865348922854301  0.2101453378733581  0.3915245239393190   T   T   T
  0.0023874756655743  0.0023157176541207  0.2299099567316779   T   T   T
  0.2228040006635084  0.1111998279035262  0.0754875427087569   F   F   F
  0.3328852014840262  0.0000929436300032  0.9946244622764673   T   T   T
  0.4472827514432680  0.2186516446160240  0.1462353453961569   F   F   F
  0.5499367005844358  0.1047305791962726  0.3054027452417341   T   T   T
  0.4546539287258030  0.1952150828574564  0.4081411242624652   T   T   T
  0.3312306879021522  0.0001700029235116  0.2296888871261172   T   T   T
  0.5562332813565192  0.1082888729172211  0.0745059026393307   F   F   F
  0.6693448488724807  0.0009584486359996  0.9945073185461913   T   T   T
  0.7741002657086682  0.2249177025297797  0.1529057686601902   F   F   F
  0.8854452018176459  0.1081076897120967  0.3037900988832382   T   T   T
  0.7804886002572875  0.2141756619863401  0.3882419973409737   T   T   T
  0.6653425888060045  0.9985654311544702  0.2298939754158471   T   T   T
  0.8869820076223718  0.1101575038110738  0.0774076790515323   F   F   F
  0.0001359510072950  0.3321589542930287  0.9958243209855198   T   T   T
  0.1101910455335400  0.5559948394073970  0.1508810481263723   F   F   F
  0.2255826891972724  0.4465637143983392  0.3072009489097803   T   T   T
  0.1123456650072931  0.5591963667882254  0.3868032946946831   T   T   T
  0.0016411652195461  0.3327401831653211  0.2300774157375876   T   T   T
  0.2228040006635723  0.4449371727597153  0.0754875427088066   F   F   F
  0.3310277434913162  0.3320480538182941  0.9949725112099884   T   T   T
  0.4472827514414703  0.5619651068293052  0.1462353453956382   F   F   F
  0.4651097970603799  0.5763628338099656  0.3964757678808562   T   T   T
  0.3478860181640414  0.3409106510365444  0.2269489192612930   T   T   T
  0.5558298281696494  0.4445809140856696  0.0716133224290374   F   F   F
  0.6682146847607563  0.3326021798424148  0.9947965571092915   T   T   T
  0.7801212636799022  0.5567276318387897  0.1473154967624239   F   F   F
  0.8943066434671805  0.4453689384016505  0.3063922777329195   T   T   T
  0.7685892790945378  0.5625293356469105  0.3815993711726677   T   T   T
  0.6574590820214178  0.3422967247904076  0.2344005369386060   T   T   T
  0.8899676715872360  0.4435621032160455  0.0751121682042069   F   F   F
  0.0003160775573664  0.6669007332800657  0.9954280229898640   T   T   T
  0.1101910455323605  0.8875302061248291  0.1508810481262515   F   F   F
  0.2185134137587642  0.7741997908733418  0.3037565471537059   T   T   T
  0.1114681368136105  0.8858167667574574  0.3859693313332642   T   T   T
  0.9966918160607703  0.6655895639905134  0.2308218828331258   T   T   T
  0.2232823449669397  0.7783081724830438  0.0752334564293591   F   F   F
  0.3333389065750667  0.6664929295666960  0.9946227163332361   T   T   T
  0.4416676587327188  0.8875008293663385  0.1519521566273383   F   F   F
  0.5568766881348142  0.7773985925818073  0.3059968799036271   T   T   T
  0.4390919597710949  0.8819192767016726  0.3846369582286367   T   T   T
  0.3339173296000291  0.6648408675214773  0.2307456984716032   T   T   T
  0.5562332813574073  0.7812774084400900  0.0745059026393449   F   F   F
  0.6680152224102158  0.6689760444194249  0.9950280297459424   T   T   T
  0.7741002657075455  0.8825155631797230  0.1529057686603608   F   F   F
  0.8928782897076585  0.7848760504509072  0.3049166057332406   T   T   T
  0.7798265070515324  0.8920028231653090  0.3879868757144059   T   T   T
  0.6591137074041145  0.6481949886236537  0.2366027215878875   T   T   T
  0.8899676715870086  0.7797385683709805  0.0751121682041784   F   F   F
  0.2429917346725971  0.2879906379767850  0.3203108427028941   T   T   T
  0.0049197814318566  0.0060747777371875  0.3468509447347140   T   T   T
  0.2235056045964541  0.1156903317706082  0.1916625811605215   F   F   F
  0.1111315522822309  0.2222322761409501  0.0361764081200704   F   F   F
  0.3291434583913629 -0.0060696154289849  0.3446266334249911   T   T   T
  0.5542913253438755  0.1111750773703264  0.1907937860813860   F   F   F
  0.4433984524291432  0.2196646298252745  0.0334560129340531   F   F   F
  0.6651612630065860  0.0002948277498979  0.3454355266907053   T   T   T
  0.8876647954627899  0.1104988977323558  0.1914872140668606   F   F   F
  0.7776209752739121  0.2217129821391026  0.0356577834284479   F   F   F
  0.0002802686008281  0.3309659814192615  0.3471250260523150   T   T   T
  0.2235056045965038  0.4411482728241083  0.1916625811605286   F   F   F
  0.1108380251930328  0.5545811167300485  0.0363839085218274   F   F   F
  0.5551517573077547  0.4442418786513755  0.1806038177592555   F   F   F
  0.4433984524296335  0.5570678226037629  0.0334560129339536   F   F   F
  0.6707860855802847  0.3267663807937233  0.3516235398226225   T   T   T
  0.8892268929180318  0.4443328626424403  0.1914315165025826   F   F   F
  0.7806330086487492  0.5569835043238456  0.0338503398427434   F   F   F
  0.0000520563545406  0.6660876282444034  0.3446134657155043   T   T   T
  0.2210066221198161  0.7771703110608215  0.1899927442426090   F   F   F
  0.1108380251928409  0.8895909084644558  0.0363839085217705   F   F   F
  0.3289259092555708  0.6645160477882959  0.3444273478522872   T   T   T
  0.5542913253465116  0.7764492479724012  0.1907937860817057   F   F   F
  0.4449639561572667  0.8891489780782962  0.0351210374643074   F   F   F
  0.6803691124296617  0.6855365482982324  0.3475065380857947   T   T   T
  0.8892268929209948  0.7782270302817480  0.1914315165027602   F   F   F
  0.7776209752753402  0.8892409931352887  0.0356577834285119   F   F   F
  0.4204049438216532  0.4956975920015061  0.4231207727070154   T   T   T
  0.4155927772268314  0.2106924168431251  0.4460583264020718   T   T   T
 
  0.00000000E+00  0.00000000E+00  0.00000000E+00
  0.00000000E+00  0.00000000E+00  0.00000000E+00
  0.00000000E+00  0.00000000E+00  0.00000000E+00
  0.00000000E+00  0.00000000E+00  0.00000000E+00
  0.00000000E+00  0.00000000E+00  0.00000000E+00
  0.00000000E+00  0.00000000E+00  0.00000000E+00
  0.00000000E+00  0.00000000E+00  0.00000000E+00
  0.00000000E+00  0.00000000E+00  0.00000000E+00
  0.00000000E+00  0.00000000E+00  0.00000000E+00
  0.00000000E+00  0.00000000E+00  0.00000000E+00
  0.00000000E+00  0.00000000E+00  0.00000000E+00
  0.00000000E+00  0.00000000E+00  0.00000000E+00
  0.00000000E+00  0.00000000E+00  0.00000000E+00
  0.00000000E+00  0.00000000E+00  0.00000000E+00
  0.00000000E+00  0.00000000E+00  0.00000000E+00
  0.00000000E+00  0.00000000E+00  0.00000000E+00
  0.00000000E+00  0.00000000E+00  0.00000000E+00
  0.00000000E+00  0.00000000E+00  0.00000000E+00
  0.00000000E+00  0.00000000E+00  0.00000000E+00
  0.00000000E+00  0.00000000E+00  0.00000000E+00
  0.00000000E+00  0.00000000E+00  0.00000000E+00
  0.00000000E+00  0.00000000E+00  0.00000000E+00
  0.00000000E+00  0.00000000E+00  0.00000000E+00
  0.00000000E+00  0.00000000E+00  0.00000000E+00
  0.00000000E+00  0.00000000E+00  0.00000000E+00
  0.00000000E+00  0.00000000E+00  0.00000000E+00
  0.00000000E+00  0.00000000E+00  0.00000000E+00
  0.00000000E+00  0.00000000E+00  0.00000000E+00
  0.00000000E+00  0.00000000E+00  0.00000000E+00
  0.00000000E+00  0.00000000E+00  0.00000000E+00
  0.00000000E+00  0.00000000E+00  0.00000000E+00
  0.00000000E+00  0.00000000E+00  0.00000000E+00
  0.00000000E+00  0.00000000E+00  0.00000000E+00
  0.00000000E+00  0.00000000E+00  0.00000000E+00
  0.00000000E+00  0.00000000E+00  0.00000000E+00
  0.00000000E+00  0.00000000E+00  0.00000000E+00
  0.00000000E+00  0.00000000E+00  0.00000000E+00
  0.00000000E+00  0.00000000E+00  0.00000000E+00
  0.00000000E+00  0.00000000E+00  0.00000000E+00
  0.00000000E+00  0.00000000E+00  0.00000000E+00
  0.00000000E+00  0.00000000E+00  0.00000000E+00
  0.00000000E+00  0.00000000E+00  0.00000000E+00
  0.00000000E+00  0.00000000E+00  0.00000000E+00
  0.00000000E+00  0.00000000E+00  0.00000000E+00
  0.00000000E+00  0.00000000E+00  0.00000000E+00
  0.00000000E+00  0.00000000E+00  0.00000000E+00
  0.00000000E+00  0.00000000E+00  0.00000000E+00
  0.00000000E+00  0.00000000E+00  0.00000000E+00
  0.00000000E+00  0.00000000E+00  0.00000000E+00
  0.00000000E+00  0.00000000E+00  0.00000000E+00
  0.00000000E+00  0.00000000E+00  0.00000000E+00
  0.00000000E+00  0.00000000E+00  0.00000000E+00
  0.00000000E+00  0.00000000E+00  0.00000000E+00
  0.00000000E+00  0.00000000E+00  0.00000000E+00
  0.00000000E+00  0.00000000E+00  0.00000000E+00
  0.00000000E+00  0.00000000E+00  0.00000000E+00
  0.00000000E+00  0.00000000E+00  0.00000000E+00
  0.00000000E+00  0.00000000E+00  0.00000000E+00
  0.00000000E+00  0.00000000E+00  0.00000000E+00
  0.00000000E+00  0.00000000E+00  0.00000000E+00
  0.00000000E+00  0.00000000E+00  0.00000000E+00
  0.00000000E+00  0.00000000E+00  0.00000000E+00
  0.00000000E+00  0.00000000E+00  0.00000000E+00
  0.00000000E+00  0.00000000E+00  0.00000000E+00
  0.00000000E+00  0.00000000E+00  0.00000000E+00
  0.00000000E+00  0.00000000E+00  0.00000000E+00
  0.00000000E+00  0.00000000E+00  0.00000000E+00
  0.00000000E+00  0.00000000E+00  0.00000000E+00
  0.00000000E+00  0.00000000E+00  0.00000000E+00
  0.00000000E+00  0.00000000E+00  0.00000000E+00
  0.00000000E+00  0.00000000E+00  0.00000000E+00
  0.00000000E+00  0.00000000E+00  0.00000000E+00
  0.00000000E+00  0.00000000E+00  0.00000000E+00
  0.00000000E+00  0.00000000E+00  0.00000000E+00
  0.00000000E+00  0.00000000E+00  0.00000000E+00
  0.00000000E+00  0.00000000E+00  0.00000000E+00
  0.00000000E+00  0.00000000E+00  0.00000000E+00
  0.00000000E+00  0.00000000E+00  0.00000000E+00
  0.00000000E+00  0.00000000E+00  0.00000000E+00
  0.00000000E+00  0.00000000E+00  0.00000000E+00
  0.00000000E+00  0.00000000E+00  0.00000000E+00
  0.00000000E+00  0.00000000E+00  0.00000000E+00
