CeO2-you-111-you-In                     
   1.00000000000000     
     9.8503223024340159   -5.6870866018270956    0.0000000005234767
     0.0155238340482827   11.4010592696020741    0.0099744722104691
     0.0107968259562429    0.0187006479432592   20.9204396210637036
   O    In   Ce   H 
    53     1    26     2
Selective dynamics
Direct
 -0.0002113161139333  0.0000338736889104  0.9949191254429403   T   T   T
  0.1088532893612140  0.2217047417150937  0.1486778195410352   F   F   F
  0.2330137765337874  0.1195449793962423  0.3057319242456021   T   T   T
  0.1095224297884187  0.2229750386017405  0.3821559848967685   T   T   T
  0.0026637718517452  0.0006309465065350  0.2294518928006284   T   T   T
  0.2222776770003776  0.1112223540007591  0.0730908756225617   F   F   F
  0.3339073062556153  0.0002673066611008  0.9947392486069927   T   T   T
  0.4461844523534850  0.2217047417146176  0.1486778195410352   F   F   F
  0.5498801123092707  0.1144878240671522  0.3070860922965292   T   T   T
  0.4408511544752717  0.2203312685390540  0.4013806124269542   T   T   T
  0.3310202199013936  0.9978450801149106  0.2286140472871682   T   T   T
  0.5572342712167853  0.1115600891204949  0.0745852251895371   F   F   F
  0.6672676590201114  0.0002004956374178  0.9945940879155908   T   T   T
  0.7785847813853550  0.2238355627707520  0.1527123547521612   F   F   F
  0.8883729611137285  0.1113948554403168  0.3035344076007427   T   T   T
  0.7776836999282388  0.2219046461032845  0.3834953431120516   T   T   T
  0.6621763229382209 -0.0043280133716417  0.2324593581422519   T   T   T
  0.8876598179038169  0.1115600891207507  0.0745852251895371   F   F   F
  0.0006201618870503  0.3334604099568569  0.9949037351298563   T   T   T
  0.1101652638610631  0.5547189385630418  0.1494163631864396   F   F   F
  0.2285101234652721  0.4531137107778399  0.3044703833701853   T   T   T
  0.1123769869944605  0.5579581011607021  0.3851327028569595   T   T   T
  0.0028830810636100  0.3331620048972780  0.2303025643000597   T   T   T
  0.2229889741813267  0.4447758217904365  0.0750294772584539   F   F   F
  0.3336145401112744  0.3338172972392638  0.9948412264575409   T   T   T
  0.4453917447808706  0.5574514895621121  0.1500421540578145   F   F   F
  0.5477879964794355  0.4318504379425366  0.3071174657894459   T   T   T
  0.3311880491806962  0.3322184560676045  0.2262137665773385   T   T   T
  0.5551208476089471  0.4447758217903228  0.0750294772584539   F   F   F
  0.6665553781774217  0.3338516156386573  0.9944582691689675   T   T   T
  0.7778866747019322  0.5547189385628641  0.1494163631864396   F   F   F
  0.8930612774480362  0.4460188440112929  0.3039624515359945   T   T   T
  0.7860002620015719  0.5482770513512010  0.3871033686541193   T   T   T
  0.6679329393466483  0.3341311031845578  0.2302371218897567   T   T   T
  0.8882287660443922  0.4431235320887694  0.0747199102620186   F   F   F
 -0.0000058188851570  0.6668761303473758  0.9949274037888912   T   T   T
  0.1109447496242950  0.8885564992481250  0.1475021734332387   F   F   F
  0.2199537797061845  0.7780149031160266  0.3038495663610779   T   T   T
  0.1137960596318626  0.8914394592537153  0.3850687038899063   T   T   T
  0.0003139244132245  0.6686581592727946  0.2289271935473895   T   T   T
  0.2226479811887287  0.7772963987326875  0.0738604765606183   F   F   F
  0.3337307303601305  0.6665255969984109  0.9944335506191970   T   T   T
  0.4459962950110778  0.8897037839166941  0.1490333227414808   F   F   F
  0.5436092635059654  0.7669187774765253  0.3113948652222710   T   T   T
  0.4378716151886425  0.8889984158836662  0.3857317790193902   T   T   T
  0.3328223711035334  0.6705168772406156  0.2286747584678264   T   T   T
  0.5556043721519472  0.7778747443038867  0.0747258118839866   F   F   F
  0.6665318823791740  0.6667695100955576  0.9948656253310360   T   T   T
  0.7770404889058682  0.8897037839169926  0.1490333227414808   F   F   F
  0.8934479279136203  0.7804828522357853  0.3052439781688504   T   T   T
  0.7833437017326187  0.9034398111161597  0.3864688860547443   T   T   T
  0.6675070114280436  0.6673192594299991  0.2289803693571155   T   T   T
  0.8879814175441041  0.7772963987327657  0.0738604765606254   F   F   F
  0.3274543662218361  0.3318692764361523  0.3411282446024673   T   T   T
  0.0017144243612276  0.0043105426795793  0.3445049397125886   T   T   T
  0.2213463947613761  0.1093597895232250  0.1873453117227299   F   F   F
  0.1111337857794297  0.2230513359027810  0.0346672413700020   F   F   F
  0.3283212706026916 -0.0031021053851119  0.3439519139258326   T   T   T
  0.5548687780701300  0.1110296252754068  0.1902944014220367   F   F   F
  0.4452505501235038  0.2230513359030226  0.0346672413700091   F   F   F
  0.6658536292025278 -0.0011701488294951  0.3462504575148175   T   T   T
  0.8894948472047588  0.1110296252745826  0.1902944014220580   F   F   F
  0.7780200907887576  0.2227061815774292  0.0351966539532285   F   F   F
  0.0033237130027174  0.3326743048374675  0.3438722157873063   T   T   T
  0.2244221722330551  0.4445762634088126  0.1903413272882020   F   F   F
  0.1113563185130815  0.5552689416885812  0.0349522298907843   F   F   F
  0.5534880911771154  0.4445762634097719  0.1903413272882304   F   F   F
  0.4445897392049218  0.5558474784096887  0.0346014984340002   F   F   F
  0.6729690437331265  0.3369487180011990  0.3436367662395372   T   T   T
  0.8894679215460997  0.4456018430921560  0.1907499330847813   F   F   F
  0.7772456231755172  0.5552689416887588  0.0349522298907843   F   F   F
 -0.0009671791768026  0.6668686041165506  0.3447751163849409   T   T   T
  0.2219768923218268  0.7780898816331998  0.1877788144751804   F   F   F
  0.1111390121634130  0.8889450243269366  0.0331917275120901   F   F   F
  0.3245440663582819  0.6698751521766956  0.3419047535814568   T   T   T
  0.5554593715355409  0.7775847430710598  0.1901036180155344   F   F   F
  0.4453324226934043  0.8892879634501085  0.0346256375137912   F   F   F
  0.6734209390907177  0.6659598010340113  0.3462860533147485   T   T   T
  0.8894459893106585  0.7780898816327735  0.1877788144751875   F   F   F
  0.7772885407566719  0.8892879634500375  0.0346256375137841   F   F   F
  0.4077626668567701  0.4905165936112649  0.3954034208770943   T   T   T
  0.4305405493794779  0.2260360384899568  0.4473020871264561   T   T   T
 
  0.00000000E+00  0.00000000E+00  0.00000000E+00
  0.00000000E+00  0.00000000E+00  0.00000000E+00
  0.00000000E+00  0.00000000E+00  0.00000000E+00
  0.00000000E+00  0.00000000E+00  0.00000000E+00
  0.00000000E+00  0.00000000E+00  0.00000000E+00
  0.00000000E+00  0.00000000E+00  0.00000000E+00
  0.00000000E+00  0.00000000E+00  0.00000000E+00
  0.00000000E+00  0.00000000E+00  0.00000000E+00
  0.00000000E+00  0.00000000E+00  0.00000000E+00
  0.00000000E+00  0.00000000E+00  0.00000000E+00
  0.00000000E+00  0.00000000E+00  0.00000000E+00
  0.00000000E+00  0.00000000E+00  0.00000000E+00
  0.00000000E+00  0.00000000E+00  0.00000000E+00
  0.00000000E+00  0.00000000E+00  0.00000000E+00
  0.00000000E+00  0.00000000E+00  0.00000000E+00
  0.00000000E+00  0.00000000E+00  0.00000000E+00
  0.00000000E+00  0.00000000E+00  0.00000000E+00
  0.00000000E+00  0.00000000E+00  0.00000000E+00
  0.00000000E+00  0.00000000E+00  0.00000000E+00
  0.00000000E+00  0.00000000E+00  0.00000000E+00
  0.00000000E+00  0.00000000E+00  0.00000000E+00
  0.00000000E+00  0.00000000E+00  0.00000000E+00
  0.00000000E+00  0.00000000E+00  0.00000000E+00
  0.00000000E+00  0.00000000E+00  0.00000000E+00
  0.00000000E+00  0.00000000E+00  0.00000000E+00
  0.00000000E+00  0.00000000E+00  0.00000000E+00
  0.00000000E+00  0.00000000E+00  0.00000000E+00
  0.00000000E+00  0.00000000E+00  0.00000000E+00
  0.00000000E+00  0.00000000E+00  0.00000000E+00
  0.00000000E+00  0.00000000E+00  0.00000000E+00
  0.00000000E+00  0.00000000E+00  0.00000000E+00
  0.00000000E+00  0.00000000E+00  0.00000000E+00
  0.00000000E+00  0.00000000E+00  0.00000000E+00
  0.00000000E+00  0.00000000E+00  0.00000000E+00
  0.00000000E+00  0.00000000E+00  0.00000000E+00
  0.00000000E+00  0.00000000E+00  0.00000000E+00
  0.00000000E+00  0.00000000E+00  0.00000000E+00
  0.00000000E+00  0.00000000E+00  0.00000000E+00
  0.00000000E+00  0.00000000E+00  0.00000000E+00
  0.00000000E+00  0.00000000E+00  0.00000000E+00
  0.00000000E+00  0.00000000E+00  0.00000000E+00
  0.00000000E+00  0.00000000E+00  0.00000000E+00
  0.00000000E+00  0.00000000E+00  0.00000000E+00
  0.00000000E+00  0.00000000E+00  0.00000000E+00
  0.00000000E+00  0.00000000E+00  0.00000000E+00
  0.00000000E+00  0.00000000E+00  0.00000000E+00
  0.00000000E+00  0.00000000E+00  0.00000000E+00
  0.00000000E+00  0.00000000E+00  0.00000000E+00
  0.00000000E+00  0.00000000E+00  0.00000000E+00
  0.00000000E+00  0.00000000E+00  0.00000000E+00
  0.00000000E+00  0.00000000E+00  0.00000000E+00
  0.00000000E+00  0.00000000E+00  0.00000000E+00
  0.00000000E+00  0.00000000E+00  0.00000000E+00
  0.00000000E+00  0.00000000E+00  0.00000000E+00
  0.00000000E+00  0.00000000E+00  0.00000000E+00
  0.00000000E+00  0.00000000E+00  0.00000000E+00
  0.00000000E+00  0.00000000E+00  0.00000000E+00
  0.00000000E+00  0.00000000E+00  0.00000000E+00
  0.00000000E+00  0.00000000E+00  0.00000000E+00
  0.00000000E+00  0.00000000E+00  0.00000000E+00
  0.00000000E+00  0.00000000E+00  0.00000000E+00
  0.00000000E+00  0.00000000E+00  0.00000000E+00
  0.00000000E+00  0.00000000E+00  0.00000000E+00
  0.00000000E+00  0.00000000E+00  0.00000000E+00
  0.00000000E+00  0.00000000E+00  0.00000000E+00
  0.00000000E+00  0.00000000E+00  0.00000000E+00
  0.00000000E+00  0.00000000E+00  0.00000000E+00
  0.00000000E+00  0.00000000E+00  0.00000000E+00
  0.00000000E+00  0.00000000E+00  0.00000000E+00
  0.00000000E+00  0.00000000E+00  0.00000000E+00
  0.00000000E+00  0.00000000E+00  0.00000000E+00
  0.00000000E+00  0.00000000E+00  0.00000000E+00
  0.00000000E+00  0.00000000E+00  0.00000000E+00
  0.00000000E+00  0.00000000E+00  0.00000000E+00
  0.00000000E+00  0.00000000E+00  0.00000000E+00
  0.00000000E+00  0.00000000E+00  0.00000000E+00
  0.00000000E+00  0.00000000E+00  0.00000000E+00
  0.00000000E+00  0.00000000E+00  0.00000000E+00
  0.00000000E+00  0.00000000E+00  0.00000000E+00
  0.00000000E+00  0.00000000E+00  0.00000000E+00
  0.00000000E+00  0.00000000E+00  0.00000000E+00
  0.00000000E+00  0.00000000E+00  0.00000000E+00
