CeO2-you-111-you-Ag                     
   1.00000000000000     
     9.8522462015026377   -5.6703356668448226   -0.0020373084543065
    -0.0000000008511444   11.3406693364836286    0.0000000002416394
    -0.0047629991041393    0.0000000004984505   21.2041039872240198
   O    Ag   Ce   H 
    53     1    26     2
Selective dynamics
Direct
 -0.0001749848088541  0.0007017498736578  0.9975902212261573   T   T   T
  0.1101956652098934  0.2217643326046570  0.1505079663290374   F   F   F
  0.2202720446098606  0.0998688661191729  0.3041131202385617   T   T   T
  0.0829254403375237  0.2082840559786576  0.3923435160370039   T   T   T
  0.0000001715315071  0.0002872171201353  0.2289025147668842   T   T   T
  0.2227627723526879  0.1112199623637906  0.0760143943072649   F   F   F
  0.3327797145710188  0.0000240959754198  0.9958598567321897   T   T   T
  0.4480868714091741  0.2191871752573320  0.1461070975591312   F   F   F
  0.5573258583709265  0.1123671262755680  0.3036834129137215   T   T   T
  0.4680206038795984  0.2047215885293929  0.3987578066539584   T   T   T
  0.3354393170478109  0.0004833719621735  0.2287168294964024   T   T   T
  0.5566624519425858  0.1086577891132663  0.0745377404221941   F   F   F
  0.6693783122812375  0.0014351218818161  0.9956194687407389   T   T   T
  0.7748319663123766  0.2261233909349585  0.1529316823342128   F   F   F
  0.8884072935707061  0.1102448787409549  0.3030822837967009   T   T   T
  0.7787936597824410  0.2208200614338380  0.3847272963167893   T   T   T
  0.6663797772633656  0.0010646946198797  0.2286182243833688   T   T   T
  0.8856763823873521  0.1095046911936421  0.0782632030225940   F   F   F
 -0.0001175243677643  0.3314176817999404  0.9975502167431072   T   T   T
  0.1102515776169213  0.5564462225370974  0.1510325574813294   F   F   F
  0.2219525761532103  0.4446114083210500  0.3061857842033704   T   T   T
  0.1108111115267353  0.5588065240957263  0.3839186008126901   T   T   T
  0.0015569426161291  0.3334786698358863  0.2291062039960979   T   T   T
  0.2227627723527235  0.4448758099886376  0.0760143943072791   F   F   F
  0.3310251186892810  0.3322690437668941  0.9958888125645118   T   T   T
  0.4480868714076109  0.5622336961527381  0.1461070975589394   F   F   F
  0.4633408862856739  0.5756893129515738  0.3843510653423567   T   T   T
  0.3444467496108177  0.3387399973845563  0.2208493978417365   T   T   T
  0.5553410065061399  0.4443365032536164  0.0719603249270122   F   F   F
  0.6680158797270283  0.3325327594871447  0.9958683917814544   T   T   T
  0.7790617716870116  0.5561978858427636  0.1478647492643148   F   F   F
  0.8913449530787866  0.4416349214450040  0.3043881017333002   T   T   T
  0.7563897862724476  0.5415264835923206  0.3752642208645222   T   T   T
  0.6575240371366198  0.3439230901692129  0.2363042625167837   T   T   T
  0.8893496744666578  0.4441813320689647  0.0758136749233884   F   F   F
  0.0001526730752231  0.6668892570519562  0.9965142621069262   T   T   T
  0.1102515776162107  0.8871393550786451  0.1510325574813223   F   F   F
  0.2188963624653974  0.7752430674524200  0.3024288451775438   T   T   T
  0.1103825593419476  0.8821731831059885  0.3847230178825623   T   T   T
  0.9966571595278063  0.6647555106235776  0.2308085109648047   T   T   T
  0.2231159193702013  0.7782249596848914  0.0756190670642738   F   F   F
  0.3320842949369582  0.6658372877843576  0.9958848111815046   T   T   T
  0.4425870102968616  0.8879605051484418  0.1511005184930099   F   F   F
  0.5589963739694108  0.7833038121220189  0.3020665763249845   T   T   T
  0.4430632601959695  0.8868076549711632  0.3805470249463230   T   T   T
  0.3341236196712027  0.6654013131971080  0.2297267215868286   T   T   T
  0.5566624519427990  0.7813376628298556  0.0745377404221301   F   F   F
  0.6680150340682209  0.6690299314066885  0.9958556286594817   T   T   T
  0.7748319663112682  0.8820415753772934  0.1529316823343621   F   F   F
  0.8908307620274862  0.7812742614036452  0.3053962384386080   T   T   T
  0.7775569132947127  0.8918662368967893  0.3849841919939295   T   T   T
  0.6576338144361685  0.6472387125273094  0.2356967608817887   T   T   T
  0.8893496744664162  0.7785013423974263  0.0758136749233387   F   F   F
  0.2951854336994222  0.3680894263262801  0.3910308202364532   T   T   T
  0.0079676697107937  0.0057593240849125  0.3440283888480649   T   T   T
  0.2239375128676642  0.1147312069702195  0.1909671220374918   F   F   F
  0.1108895697975072  0.2221112848987516  0.0372799548986933   F   F   F
  0.3279645269940095 -0.0041767808587047  0.3420202953699749   T   T   T
  0.5544631403976439  0.1112282127212083  0.1901513799577259   F   F   F
  0.4435307622382823  0.2198992112876823  0.0338936313176603   F   F   F
  0.6668549277133049 -0.0003444882079574  0.3432094997092531   T   T   T
  0.8885389786811402  0.1109359893413639  0.1909571139840693   F   F   F
  0.7777852711510036  0.2219081628340263  0.0364554317540282   F   F   F
  0.0047377549328426  0.3330047311365502  0.3438615869171262   T   T   T
  0.2239375128671597  0.4425393058965099  0.1909671220374420   F   F   F
  0.1107952131846659  0.5549010965760743  0.0374907504830091   F   F   F
  0.5539529180734277  0.4436424590340451  0.1803357774270964   F   F   F
  0.4435307622385025  0.5569655509502667  0.0338936313176319   F   F   F
  0.6757254924959493  0.3255402687417918  0.3459696864083450   T   T   T
  0.8887185958951704  0.4445913141937297  0.1913321197140618   F   F   F
  0.7803385237457405  0.5568362618725615  0.0346265693335255   F   F   F
  0.0010544911084500  0.6664450874924234  0.3430431049958799   T   T   T
  0.2221193756720083  0.7777266878367328  0.1897594050972700   F   F   F
  0.1107952131847654  0.8892281166096865  0.0374907504829949   F   F   F
  0.3333981992054253  0.6657099677701050  0.3424212025814305   T   T   T
  0.5544631404001876  0.7765679276756430  0.1901513799577614   F   F   F
  0.4453502432248513  0.8893421216121951  0.0357833868566217   F   F   F
  0.6712801207430571  0.6807788953592961  0.3465917015699298   T   T   T
  0.8887185958979273  0.7774602817065670  0.1913321197141045   F   F   F
  0.7777852711518349  0.8892101083172861  0.0364554317540353   F   F   F
  0.3458853042377925  0.3191010762549160  0.4539806874089157   T   T   T
  0.4243958118206106  0.2465899754442989  0.4237560805406245   T   T   T
 
  0.00000000E+00  0.00000000E+00  0.00000000E+00
  0.00000000E+00  0.00000000E+00  0.00000000E+00
  0.00000000E+00  0.00000000E+00  0.00000000E+00
  0.00000000E+00  0.00000000E+00  0.00000000E+00
  0.00000000E+00  0.00000000E+00  0.00000000E+00
  0.00000000E+00  0.00000000E+00  0.00000000E+00
  0.00000000E+00  0.00000000E+00  0.00000000E+00
  0.00000000E+00  0.00000000E+00  0.00000000E+00
  0.00000000E+00  0.00000000E+00  0.00000000E+00
  0.00000000E+00  0.00000000E+00  0.00000000E+00
  0.00000000E+00  0.00000000E+00  0.00000000E+00
  0.00000000E+00  0.00000000E+00  0.00000000E+00
  0.00000000E+00  0.00000000E+00  0.00000000E+00
  0.00000000E+00  0.00000000E+00  0.00000000E+00
  0.00000000E+00  0.00000000E+00  0.00000000E+00
  0.00000000E+00  0.00000000E+00  0.00000000E+00
  0.00000000E+00  0.00000000E+00  0.00000000E+00
  0.00000000E+00  0.00000000E+00  0.00000000E+00
  0.00000000E+00  0.00000000E+00  0.00000000E+00
  0.00000000E+00  0.00000000E+00  0.00000000E+00
  0.00000000E+00  0.00000000E+00  0.00000000E+00
  0.00000000E+00  0.00000000E+00  0.00000000E+00
  0.00000000E+00  0.00000000E+00  0.00000000E+00
  0.00000000E+00  0.00000000E+00  0.00000000E+00
  0.00000000E+00  0.00000000E+00  0.00000000E+00
  0.00000000E+00  0.00000000E+00  0.00000000E+00
  0.00000000E+00  0.00000000E+00  0.00000000E+00
  0.00000000E+00  0.00000000E+00  0.00000000E+00
  0.00000000E+00  0.00000000E+00  0.00000000E+00
  0.00000000E+00  0.00000000E+00  0.00000000E+00
  0.00000000E+00  0.00000000E+00  0.00000000E+00
  0.00000000E+00  0.00000000E+00  0.00000000E+00
  0.00000000E+00  0.00000000E+00  0.00000000E+00
  0.00000000E+00  0.00000000E+00  0.00000000E+00
  0.00000000E+00  0.00000000E+00  0.00000000E+00
  0.00000000E+00  0.00000000E+00  0.00000000E+00
  0.00000000E+00  0.00000000E+00  0.00000000E+00
  0.00000000E+00  0.00000000E+00  0.00000000E+00
  0.00000000E+00  0.00000000E+00  0.00000000E+00
  0.00000000E+00  0.00000000E+00  0.00000000E+00
  0.00000000E+00  0.00000000E+00  0.00000000E+00
  0.00000000E+00  0.00000000E+00  0.00000000E+00
  0.00000000E+00  0.00000000E+00  0.00000000E+00
  0.00000000E+00  0.00000000E+00  0.00000000E+00
  0.00000000E+00  0.00000000E+00  0.00000000E+00
  0.00000000E+00  0.00000000E+00  0.00000000E+00
  0.00000000E+00  0.00000000E+00  0.00000000E+00
  0.00000000E+00  0.00000000E+00  0.00000000E+00
  0.00000000E+00  0.00000000E+00  0.00000000E+00
  0.00000000E+00  0.00000000E+00  0.00000000E+00
  0.00000000E+00  0.00000000E+00  0.00000000E+00
  0.00000000E+00  0.00000000E+00  0.00000000E+00
  0.00000000E+00  0.00000000E+00  0.00000000E+00
  0.00000000E+00  0.00000000E+00  0.00000000E+00
  0.00000000E+00  0.00000000E+00  0.00000000E+00
  0.00000000E+00  0.00000000E+00  0.00000000E+00
  0.00000000E+00  0.00000000E+00  0.00000000E+00
  0.00000000E+00  0.00000000E+00  0.00000000E+00
  0.00000000E+00  0.00000000E+00  0.00000000E+00
  0.00000000E+00  0.00000000E+00  0.00000000E+00
  0.00000000E+00  0.00000000E+00  0.00000000E+00
  0.00000000E+00  0.00000000E+00  0.00000000E+00
  0.00000000E+00  0.00000000E+00  0.00000000E+00
  0.00000000E+00  0.00000000E+00  0.00000000E+00
  0.00000000E+00  0.00000000E+00  0.00000000E+00
  0.00000000E+00  0.00000000E+00  0.00000000E+00
  0.00000000E+00  0.00000000E+00  0.00000000E+00
  0.00000000E+00  0.00000000E+00  0.00000000E+00
  0.00000000E+00  0.00000000E+00  0.00000000E+00
  0.00000000E+00  0.00000000E+00  0.00000000E+00
  0.00000000E+00  0.00000000E+00  0.00000000E+00
  0.00000000E+00  0.00000000E+00  0.00000000E+00
  0.00000000E+00  0.00000000E+00  0.00000000E+00
  0.00000000E+00  0.00000000E+00  0.00000000E+00
  0.00000000E+00  0.00000000E+00  0.00000000E+00
  0.00000000E+00  0.00000000E+00  0.00000000E+00
  0.00000000E+00  0.00000000E+00  0.00000000E+00
  0.00000000E+00  0.00000000E+00  0.00000000E+00
  0.00000000E+00  0.00000000E+00  0.00000000E+00
  0.00000000E+00  0.00000000E+00  0.00000000E+00
  0.00000000E+00  0.00000000E+00  0.00000000E+00
  0.00000000E+00  0.00000000E+00  0.00000000E+00
