CeO2-you-111-you-In                     
   1.00000000000000     
     9.8479192243842277   -5.6961256032188006   -0.0008093888278923
    -0.0090295405125693   11.3766095797027909    0.0008093887043614
    -0.0009422537035582    0.0016320312321322   21.0747241904582623
   O    In   Ce   H 
    53     1    26     2
Selective dynamics
Direct
 -0.0001106111359176 -0.0000846264479757  0.9953987954672270   T   T   T
  0.1100894855506738  0.2210621875949030  0.1473144325061497   F   F   F
  0.2408524959723155  0.1180509715919768  0.3064621860027575   T   T   T
  0.1122092735923526  0.2221211174977700  0.3736886356658515   T   T   T
  0.0053535910407552  0.0029747374926997  0.2304348333891766   T   T   T
  0.2215113159216315  0.1103170126210600  0.0747424914862123   F   F   F
  0.3347884595036589  0.0005951032915534  0.9964620027528126   T   T   T
  0.4415557888929627  0.2251102111065109  0.1515793653175237   F   F   F
  0.5531688518242021  0.1121283276204701  0.3030237889813866   T   T   T
  0.4767668688620194  0.1889941009226019  0.4078272932767488   T   T   T
  0.3329329235572878 -0.0012262815238983  0.2273563253585446   T   T   T
  0.5554378476484914  0.1112291523512496  0.0782848038761870   F   F   F
  0.6656938176775429  0.0005737933528012  0.9964523713310536   T   T   T
  0.7845680299866800  0.2250226067711623  0.1519510292237030   F   F   F
  0.8799435052629142  0.1019705888868516  0.3023521972156232   T   T   T
  0.7679819593383652  0.2168874709093291  0.3862315464739421   T   T   T
  0.6646722856619574  0.0004010790618486  0.2279552736915188   T   T   T
  0.8882474817629458  0.1098088076691468  0.0750839227356508   F   F   F
  0.9975356561130309  0.3320913191724193  0.9953625869023383   T   T   T
  0.1108480536469898  0.5558189463533054  0.1474678816643973   F   F   F
  0.1213219460433005  0.5646427114613292  0.3796988816798865   T   T   T
  0.0160810177205475  0.3429158282481110  0.2332610378367446   T   T   T
  0.2222061955152128  0.4444598044852199  0.0721023234189957   F   F   F
  0.3339461711160895  0.3320776960120001  0.9952970140870898   T   T   T
  0.4456038124062545  0.5565775144505807  0.1473144325061710   F   F   F
  0.5500111862478708  0.4309570092189223  0.3084397555784891   T   T   T
  0.4226305864296853  0.5536487196682423  0.3696822961083899   T   T   T
  0.3232854823139159  0.3442755122894053  0.2347276432777226   T   T   T
  0.5563499873784536  0.4451546840778207  0.0747424914861980   F   F   F
  0.6656867423693110  0.3316360680330568  0.9965173699387246   T   T   T
  0.7778936796454374  0.5552434510827879  0.1507121502842637   F   F   F
  0.8836528193875069  0.4493395983988164  0.3039847956549413   T   T   T
  0.7772304095828003  0.5610884491126922  0.3845617973515651   T   T   T
  0.6666361017315132  0.3333322428460020  0.2279672449534680   T   T   T
  0.8884409155717066  0.4446230348705740  0.0752128468697393   F   F   F
 -0.0002834733028927  0.6671545729753264  0.9956296870060667   T   T   T
  0.1114235489164983  0.8887733203534012  0.1507121502842566   F   F   F
  0.2230486160344327  0.7835354521114714  0.3031948608809252   T   T   T
  0.1090130173590707  0.8894575675023987  0.3832204100029671   T   T   T
  0.0011589931713125  0.6679432747855758  0.2292760204548820   T   T   T
  0.2220429651292122  0.7782260844280842  0.0752128468697535   F   F   F
  0.3343801830068320  0.6686639348219090  0.9954327217474492   T   T   T
  0.4416433932288797  0.8820989700131605  0.1519510292235822   F   F   F
  0.5602429585462705  0.7841741222682842  0.3030733069216673   T   T   T
  0.4462220365953534  0.8906798514590996  0.3851828281782137   T   T   T
  0.3243382182969919  0.6505042148477349  0.2348856213791512   T   T   T
  0.5568581923313687  0.7784195182376124  0.0750839227356508   F   F   F
  0.6675123473503325  0.6671926460077229  0.9954336178101389   T   T   T
  0.7775712258746879  0.8890957741259129  0.1509628846129516   F   F   F
  0.8870424347676815  0.7780121151845754  0.3027176352578044   T   T   T
  0.7760268617384271  0.8848160793691205  0.3843273739984229   T   T   T
  0.6629571761807617  0.6612709942206403  0.2307900659203085   T   T   T
  0.8887578346165697  0.7779091653832282  0.0755226517582273   F   F   F
  0.3333360095122915  0.3303830288362976  0.3492961593825390   T   T   T
  0.0021308693820772  0.0035399056856904  0.3434614152125458   T   T   T
  0.2222808538562262  0.1120731767925918  0.1908351439034419   F   F   F
  0.1098481735537078  0.2200649209717298  0.0337283363346117   F   F   F
  0.3328732001473688 -0.0009188815322676  0.3443406691468149   T   T   T
  0.5558402847442281  0.1108267152575237  0.1910231747161646   F   F   F
  0.4442772518406031  0.2223887481598368  0.0364631949818701   F   F   F
  0.6675741217041119  0.0010954603259912  0.3444929250942564   T   T   T
  0.8901998202675827  0.1118230752269014  0.1910261476442798   F   F   F
  0.7778311293355742  0.2222243383583162  0.0366067404678532   F   F   F
  0.9907726764603505  0.3290224313927806  0.3499953520251918   T   T   T
  0.2225167892778259  0.4441492107182796  0.1821515893938610   F   F   F
  0.1101116970122362  0.5565553029867587  0.0340309221207704   F   F   F
  0.5545938232073269  0.4443851461435386  0.1908351439034135   F   F   F
  0.4466010790287385  0.5568188264462179  0.0337283363345335   F   F   F
  0.6696251105510047  0.3347410186913191  0.3447842845884314   T   T   T
  0.8900236364467844  0.4446543027074341  0.1909801029384681   F   F   F
  0.7774062812981555  0.5548994168869754  0.0362225854155724   F   F   F
 -0.0013131888835240  0.6689568315820558  0.3433749325742358   T   T   T
  0.2220116972948887  0.7766433635567367  0.1909801029385250   F   F   F
  0.1117675831134477  0.8892607187022321  0.0362225854155724   F   F   F
  0.3373494553406032  0.6802149755590248  0.3460963165843788   T   T   T
  0.5548439247700614  0.7764671797308509  0.1910261476442798   F   F   F
  0.4444416616415197  0.8888358706643302  0.0366067404678532   F   F   F
  0.6639698281393805  0.6648148758059100  0.3433240303122485   T   T   T
  0.8890313397497778  0.7776356602512422  0.1893796978748057   F   F   F
  0.7774908571077646  0.8891761428920333  0.0361701816851294   F   F   F
  0.3670685183078748  0.3169419436466472  0.4326280855864341   T   T   T
  0.4344260201794188  0.2355972439176566  0.4303812602987896   T   T   T
 
  0.00000000E+00  0.00000000E+00  0.00000000E+00
  0.00000000E+00  0.00000000E+00  0.00000000E+00
  0.00000000E+00  0.00000000E+00  0.00000000E+00
  0.00000000E+00  0.00000000E+00  0.00000000E+00
  0.00000000E+00  0.00000000E+00  0.00000000E+00
  0.00000000E+00  0.00000000E+00  0.00000000E+00
  0.00000000E+00  0.00000000E+00  0.00000000E+00
  0.00000000E+00  0.00000000E+00  0.00000000E+00
  0.00000000E+00  0.00000000E+00  0.00000000E+00
  0.00000000E+00  0.00000000E+00  0.00000000E+00
  0.00000000E+00  0.00000000E+00  0.00000000E+00
  0.00000000E+00  0.00000000E+00  0.00000000E+00
  0.00000000E+00  0.00000000E+00  0.00000000E+00
  0.00000000E+00  0.00000000E+00  0.00000000E+00
  0.00000000E+00  0.00000000E+00  0.00000000E+00
  0.00000000E+00  0.00000000E+00  0.00000000E+00
  0.00000000E+00  0.00000000E+00  0.00000000E+00
  0.00000000E+00  0.00000000E+00  0.00000000E+00
  0.00000000E+00  0.00000000E+00  0.00000000E+00
  0.00000000E+00  0.00000000E+00  0.00000000E+00
  0.00000000E+00  0.00000000E+00  0.00000000E+00
  0.00000000E+00  0.00000000E+00  0.00000000E+00
  0.00000000E+00  0.00000000E+00  0.00000000E+00
  0.00000000E+00  0.00000000E+00  0.00000000E+00
  0.00000000E+00  0.00000000E+00  0.00000000E+00
  0.00000000E+00  0.00000000E+00  0.00000000E+00
  0.00000000E+00  0.00000000E+00  0.00000000E+00
  0.00000000E+00  0.00000000E+00  0.00000000E+00
  0.00000000E+00  0.00000000E+00  0.00000000E+00
  0.00000000E+00  0.00000000E+00  0.00000000E+00
  0.00000000E+00  0.00000000E+00  0.00000000E+00
  0.00000000E+00  0.00000000E+00  0.00000000E+00
  0.00000000E+00  0.00000000E+00  0.00000000E+00
  0.00000000E+00  0.00000000E+00  0.00000000E+00
  0.00000000E+00  0.00000000E+00  0.00000000E+00
  0.00000000E+00  0.00000000E+00  0.00000000E+00
  0.00000000E+00  0.00000000E+00  0.00000000E+00
  0.00000000E+00  0.00000000E+00  0.00000000E+00
  0.00000000E+00  0.00000000E+00  0.00000000E+00
  0.00000000E+00  0.00000000E+00  0.00000000E+00
  0.00000000E+00  0.00000000E+00  0.00000000E+00
  0.00000000E+00  0.00000000E+00  0.00000000E+00
  0.00000000E+00  0.00000000E+00  0.00000000E+00
  0.00000000E+00  0.00000000E+00  0.00000000E+00
  0.00000000E+00  0.00000000E+00  0.00000000E+00
  0.00000000E+00  0.00000000E+00  0.00000000E+00
  0.00000000E+00  0.00000000E+00  0.00000000E+00
  0.00000000E+00  0.00000000E+00  0.00000000E+00
  0.00000000E+00  0.00000000E+00  0.00000000E+00
  0.00000000E+00  0.00000000E+00  0.00000000E+00
  0.00000000E+00  0.00000000E+00  0.00000000E+00
  0.00000000E+00  0.00000000E+00  0.00000000E+00
  0.00000000E+00  0.00000000E+00  0.00000000E+00
  0.00000000E+00  0.00000000E+00  0.00000000E+00
  0.00000000E+00  0.00000000E+00  0.00000000E+00
  0.00000000E+00  0.00000000E+00  0.00000000E+00
  0.00000000E+00  0.00000000E+00  0.00000000E+00
  0.00000000E+00  0.00000000E+00  0.00000000E+00
  0.00000000E+00  0.00000000E+00  0.00000000E+00
  0.00000000E+00  0.00000000E+00  0.00000000E+00
  0.00000000E+00  0.00000000E+00  0.00000000E+00
  0.00000000E+00  0.00000000E+00  0.00000000E+00
  0.00000000E+00  0.00000000E+00  0.00000000E+00
  0.00000000E+00  0.00000000E+00  0.00000000E+00
  0.00000000E+00  0.00000000E+00  0.00000000E+00
  0.00000000E+00  0.00000000E+00  0.00000000E+00
  0.00000000E+00  0.00000000E+00  0.00000000E+00
  0.00000000E+00  0.00000000E+00  0.00000000E+00
  0.00000000E+00  0.00000000E+00  0.00000000E+00
  0.00000000E+00  0.00000000E+00  0.00000000E+00
  0.00000000E+00  0.00000000E+00  0.00000000E+00
  0.00000000E+00  0.00000000E+00  0.00000000E+00
  0.00000000E+00  0.00000000E+00  0.00000000E+00
  0.00000000E+00  0.00000000E+00  0.00000000E+00
  0.00000000E+00  0.00000000E+00  0.00000000E+00
  0.00000000E+00  0.00000000E+00  0.00000000E+00
  0.00000000E+00  0.00000000E+00  0.00000000E+00
  0.00000000E+00  0.00000000E+00  0.00000000E+00
  0.00000000E+00  0.00000000E+00  0.00000000E+00
  0.00000000E+00  0.00000000E+00  0.00000000E+00
  0.00000000E+00  0.00000000E+00  0.00000000E+00
  0.00000000E+00  0.00000000E+00  0.00000000E+00
