CeO2-you-111-you-Ba                     
   1.00000000000000     
     9.8580380505832004   -5.7164353512502890    0.0038731031211886
    -0.0000000008366952   11.4328686889744446   -0.0000000003674136
     0.0067114859596922   -0.0000000004843765   20.2149819616160258
   O    Ba   Ce   H 
    53     1    26     1
Selective dynamics
Direct
  0.9996654701844881  0.0004164635866730  0.9875163868031135   T   T   T
  0.1156525618094926  0.2243608089191993  0.1496837993379396   T   T   T
  0.2157073657076883  0.1053142281019126  0.3099186790255385   T   T   T
  0.0779582922003233  0.2069360107696064  0.3993920558119850   T   T   T
 -0.0023507430822156 -0.0003202226821625  0.2294519959872217   T   T   T
  0.2216091684912733  0.1105700804452356  0.0695721184913902   T   T   T
  0.3328273275083391 -0.0001081495194507  0.9861806643857652   T   T   T
  0.4451523030820537  0.2209817470099122  0.1441851718106993   T   T   T
  0.5606172435682457  0.1156005146520837  0.3080481568362946   T   T   T
  0.4740464809438523  0.2154593492029147  0.4179312714162563   T   T   T
  0.3348780290241449  0.0001381815204676  0.2284690117180969   T   T   T
  0.5555026447534872  0.1104567377351827  0.0682040302389893   T   T   T
  0.6684739565123101  0.0015743150699624  0.9864276548421077   T   T   T
  0.7746614781806760  0.2277090731628283  0.1486740657749617   T   T   T
  0.8852055554589793  0.1111776904027198  0.3053168293461502   T   T   T
  0.7809208708824310  0.2232823291286236  0.3933587313005268   T   T   T
  0.6652550265524828  0.0026213402887499  0.2269752015235880   T   T   T
  0.8878272807110874  0.1102664032495946  0.0718867484065670   T   T   T
  0.9986037156716967  0.3314603822124548  0.9876954995506158   T   T   T
  0.1109806698924497  0.5561103304984963  0.1477239222475809   T   T   T
  0.2192185505315447  0.4494588616792491  0.3095894381807974   T   T   T
  0.1082642252171983  0.5583287434108858  0.3929802520611415   T   T   T
  0.0001379286886255  0.3337489799074083  0.2286854417484009   T   T   T
  0.2214327473445994  0.4440136905937299  0.0690076575264949   T   T   T
  0.3307260035806489  0.3320703300266003  0.9857858652732981   T   T   T
  0.4443057352782060  0.5582879621076886  0.1429755045626294   T   T   T
  0.4676781855423348  0.5905425300086613  0.3938476628938802   T   T   T
  0.3503643687361775  0.3428530211040359  0.2303834915963370   T   T   T
  0.5548966016291399  0.4441545329594562  0.0651070111378745   T   T   T
  0.6678262678787729  0.3322865546329890  0.9859627931937814   T   T   T
  0.7784428553745615  0.5560665105228135  0.1438723228632129   T   T   T
  0.8915430776974569  0.4425085636466600  0.3079911584415876   T   T   T
  0.7455246258666968  0.5370982610896675  0.3809432644145034   T   T   T
  0.6565073996879597  0.3442464504530282  0.2366964950386499   T   T   T
  0.8898494925561677  0.4451709020064473  0.0687824641978124   T   T   T
 -0.0000630870040821  0.6664494421970953  0.9863931165863146   T   T   T
  0.1095304018249876  0.8885332823644394  0.1490439966498514   T   T   T
  0.2159638784812818  0.7706480664364387  0.3064891351849148   T   T   T
  0.0933961143718628  0.8737857677335683  0.3942983909233342   T   T   T
  0.9955651260492565  0.6645465932616442  0.2300355140501893   T   T   T
  0.2217250876711442  0.7783730319035489  0.0691977949891315   T   T   T
  0.3318954406191698  0.6661157981774870  0.9858830783439954   T   T   T
  0.4441976820682896  0.8886835279574701  0.1460191757901090   T   T   T
  0.5616700468713083  0.7863749629532114  0.3027774796299078   T   T   T
  0.4510748342109915  0.8816254629183683  0.3910347664488796   T   T   T
  0.3350208591587168  0.6675693491424162  0.2289386125873562   T   T   T
  0.5556439298714473  0.7790352054611516  0.0671115317615551   T   T   T
  0.6678636299211297  0.6683591108510558  0.9854566077164092   T   T   T
  0.7743262325782968  0.8822361332287222  0.1487142893318394   T   T   T
  0.8865407980734307  0.7792800048474553  0.3073383832767067   T   T   T
  0.7771895973470399  0.8938378743358572  0.3921555451244525   T   T   T
  0.6546875661751209  0.6462229344892103  0.2352588528954379   T   T   T
  0.8892228125542339  0.7783618163823749  0.0690049634986832   T   T   T
  0.3295246346561920  0.3326212489718484  0.3752821558497327   T   T   T
  0.0000807200193845  0.0021124122033013  0.3492308481642302   T   T   T
  0.2242903327534775  0.1136139679097166  0.1932634078352455   T   T   T
  0.1117691675400843  0.2223176922980967  0.0297387079725630   T   T   T
  0.3269470486263978  0.9901336637338325  0.3526630925879176   T   T   T
  0.5532309237609935  0.1113849893279850  0.1884941798108600   T   T   T
  0.4427863893222249  0.2198084864335185  0.0261781090789953   T   T   T
  0.6655947986504547 -0.0000362629541208  0.3476979770330716   T   T   T
  0.8886923636421886  0.1119972204245387  0.1891187280299222   T   T   T
  0.7777715968490906  0.2226088790812325  0.0281241641111920   T   T   T
  0.0041314778959475  0.3337144349892203  0.3499738779677415   T   T   T
  0.2247683644632506  0.4443609057981299  0.1914500661832138   T   T   T
  0.1109666481423460  0.5548980692656470  0.0287579736302117   T   T   T
  0.5528940315318431  0.4439757955102503  0.1791691499976883   T   T   T
  0.4426157245965173  0.5561524232605927  0.0254297077906341   T   T   T
  0.6809891237125613  0.3259325966687056  0.3501532650608385   T   T   T
  0.8893360140161655  0.4461038589708210  0.1881657148759374   T   T   T
  0.7800161249406025  0.5567530332421911  0.0257175682528317   T   T   T
  0.0002097251848203  0.6669970018291491  0.3487658180442117   T   T   T
  0.2219418804202020  0.7782543558073789  0.1880931097886679   T   T   T
  0.1108433123406404  0.8898283561862317  0.0294428005556793   T   T   T
  0.3344489544149604  0.6686657135891654  0.3485692416423276   T   T   T
  0.5541654621284899  0.7775088720473877  0.1871332344713320   T   T   T
  0.4448901748321841  0.8896844162018060  0.0275656303121471   T   T   T
  0.6712390547151054  0.6851670670641427  0.3510507871584619   T   T   T
  0.8875567402400530  0.7763739051201695  0.1892118220972522   T   T   T
  0.7778990576435841  0.8887428987256556  0.0278842558585089   T   T   T
  0.4860784384532281  0.2170181257475564  0.4656345530638256   T   T   T
 
  0.00000000E+00  0.00000000E+00  0.00000000E+00
  0.00000000E+00  0.00000000E+00  0.00000000E+00
  0.00000000E+00  0.00000000E+00  0.00000000E+00
  0.00000000E+00  0.00000000E+00  0.00000000E+00
  0.00000000E+00  0.00000000E+00  0.00000000E+00
  0.00000000E+00  0.00000000E+00  0.00000000E+00
  0.00000000E+00  0.00000000E+00  0.00000000E+00
  0.00000000E+00  0.00000000E+00  0.00000000E+00
  0.00000000E+00  0.00000000E+00  0.00000000E+00
  0.00000000E+00  0.00000000E+00  0.00000000E+00
  0.00000000E+00  0.00000000E+00  0.00000000E+00
  0.00000000E+00  0.00000000E+00  0.00000000E+00
  0.00000000E+00  0.00000000E+00  0.00000000E+00
  0.00000000E+00  0.00000000E+00  0.00000000E+00
  0.00000000E+00  0.00000000E+00  0.00000000E+00
  0.00000000E+00  0.00000000E+00  0.00000000E+00
  0.00000000E+00  0.00000000E+00  0.00000000E+00
  0.00000000E+00  0.00000000E+00  0.00000000E+00
  0.00000000E+00  0.00000000E+00  0.00000000E+00
  0.00000000E+00  0.00000000E+00  0.00000000E+00
  0.00000000E+00  0.00000000E+00  0.00000000E+00
  0.00000000E+00  0.00000000E+00  0.00000000E+00
  0.00000000E+00  0.00000000E+00  0.00000000E+00
  0.00000000E+00  0.00000000E+00  0.00000000E+00
  0.00000000E+00  0.00000000E+00  0.00000000E+00
  0.00000000E+00  0.00000000E+00  0.00000000E+00
  0.00000000E+00  0.00000000E+00  0.00000000E+00
  0.00000000E+00  0.00000000E+00  0.00000000E+00
  0.00000000E+00  0.00000000E+00  0.00000000E+00
  0.00000000E+00  0.00000000E+00  0.00000000E+00
  0.00000000E+00  0.00000000E+00  0.00000000E+00
  0.00000000E+00  0.00000000E+00  0.00000000E+00
  0.00000000E+00  0.00000000E+00  0.00000000E+00
  0.00000000E+00  0.00000000E+00  0.00000000E+00
  0.00000000E+00  0.00000000E+00  0.00000000E+00
  0.00000000E+00  0.00000000E+00  0.00000000E+00
  0.00000000E+00  0.00000000E+00  0.00000000E+00
  0.00000000E+00  0.00000000E+00  0.00000000E+00
  0.00000000E+00  0.00000000E+00  0.00000000E+00
  0.00000000E+00  0.00000000E+00  0.00000000E+00
  0.00000000E+00  0.00000000E+00  0.00000000E+00
  0.00000000E+00  0.00000000E+00  0.00000000E+00
  0.00000000E+00  0.00000000E+00  0.00000000E+00
  0.00000000E+00  0.00000000E+00  0.00000000E+00
  0.00000000E+00  0.00000000E+00  0.00000000E+00
  0.00000000E+00  0.00000000E+00  0.00000000E+00
  0.00000000E+00  0.00000000E+00  0.00000000E+00
  0.00000000E+00  0.00000000E+00  0.00000000E+00
  0.00000000E+00  0.00000000E+00  0.00000000E+00
  0.00000000E+00  0.00000000E+00  0.00000000E+00
  0.00000000E+00  0.00000000E+00  0.00000000E+00
  0.00000000E+00  0.00000000E+00  0.00000000E+00
  0.00000000E+00  0.00000000E+00  0.00000000E+00
  0.00000000E+00  0.00000000E+00  0.00000000E+00
  0.00000000E+00  0.00000000E+00  0.00000000E+00
  0.00000000E+00  0.00000000E+00  0.00000000E+00
  0.00000000E+00  0.00000000E+00  0.00000000E+00
  0.00000000E+00  0.00000000E+00  0.00000000E+00
  0.00000000E+00  0.00000000E+00  0.00000000E+00
  0.00000000E+00  0.00000000E+00  0.00000000E+00
  0.00000000E+00  0.00000000E+00  0.00000000E+00
  0.00000000E+00  0.00000000E+00  0.00000000E+00
  0.00000000E+00  0.00000000E+00  0.00000000E+00
  0.00000000E+00  0.00000000E+00  0.00000000E+00
  0.00000000E+00  0.00000000E+00  0.00000000E+00
  0.00000000E+00  0.00000000E+00  0.00000000E+00
  0.00000000E+00  0.00000000E+00  0.00000000E+00
  0.00000000E+00  0.00000000E+00  0.00000000E+00
  0.00000000E+00  0.00000000E+00  0.00000000E+00
  0.00000000E+00  0.00000000E+00  0.00000000E+00
  0.00000000E+00  0.00000000E+00  0.00000000E+00
  0.00000000E+00  0.00000000E+00  0.00000000E+00
  0.00000000E+00  0.00000000E+00  0.00000000E+00
  0.00000000E+00  0.00000000E+00  0.00000000E+00
  0.00000000E+00  0.00000000E+00  0.00000000E+00
  0.00000000E+00  0.00000000E+00  0.00000000E+00
  0.00000000E+00  0.00000000E+00  0.00000000E+00
  0.00000000E+00  0.00000000E+00  0.00000000E+00
  0.00000000E+00  0.00000000E+00  0.00000000E+00
  0.00000000E+00  0.00000000E+00  0.00000000E+00
  0.00000000E+00  0.00000000E+00  0.00000000E+00
