CeO2-you-111-you-Ge                     
   1.00000000000000     
     9.8429822858219129   -5.6828488435457372    0.0000000000000000
     0.0000000007671874   11.3656956882989135    0.0000000000000000
     0.0000000000000000    0.0000000000000000   20.9472343377478758
   O    Ge   Ce   H 
    54     1    26     2
Selective dynamics
Direct
 -0.0000863453131662 -0.0001008022148807  0.9950094158274212   T   T   T
  0.1192412621460903  0.2262871310724961  0.1528297569264438   F   F   F
  0.2159051991892572  0.0908588338412444  0.3023410032440186   T   T   T
  0.1515351727792708  0.2463230132819612  0.3781527006741497   T   T   T
  0.9960220809274609  0.9985687307704867  0.2289367930905571   T   T   T
  0.2221758755553651  0.1110187511107057  0.0743579158009808   F   F   F
  0.3328908467365335  0.9996844107864941  0.9947867396441238   T   T   T
  0.4403788689264019  0.2262871310720058  0.1528297569264438   F   F   F
  0.5504230270225076  0.1164561833238378  0.3064425927722388   T   T   T
  0.4581106382168861  0.2081043424050727  0.4028048376130730   T   T   T
  0.3357537910575820  0.9970538138804499  0.2273405754959892   T   T   T
  0.5534149591043160  0.1132520408961284  0.0751384329022500   F   F   F
  0.6671163507569486 -0.0000393487561232  0.9961104492297146   T   T   T
  0.7761222282808546  0.2189104565611473  0.1480185549591653   F   F   F
  0.9009727280030185  0.1187275534442449  0.3099842954090393   T   T   T
  0.7857078083947571  0.2379916937594425  0.3879451258421246   T   T   T
  0.6682732336360322 -0.0012377789235475  0.2306064894094905   T   T   T
  0.8931710817916780  0.1132520408959934  0.0751384329022500   F   F   F
 -0.0001175297705343  0.3333898991817622  0.9948546643743023   T   T   T
  0.1120849842004077  0.5545820158001220  0.1499714530372884   F   F   F
  0.2109415012856251  0.4562136669487468  0.3028610227203659   T   T   T
  0.1083844655240516  0.5592275158715140  0.3873939303985866   T   T   T
  0.9960527755662504  0.3319547535618300  0.2294375593417468   T   T   T
  0.2221758755554077  0.4444901244446555  0.0743579158009808   F   F   F
  0.3331809542854028  0.3331004149804875  0.9947652615234278   T   T   T
  0.4403788689275032  0.5474257378555052  0.1528297569264438   F   F   F
  0.5776034220927990  0.4515854760517602  0.3022634104401409   T   T   T
  0.4216370390874995  0.5153309915499941  0.3782988634836895   T   T   T
  0.3294100513435818  0.3378272849334844  0.2495408844142269   T   T   T
  0.5556482488892343  0.4444901244446342  0.0743579158009808   F   F   F
  0.6669451752297672  0.3334085460966226  0.9944826372743396   T   T   T
  0.7758300315995470  0.5545820157999586  0.1499714530372884   F   F   F
  0.8899159045420418  0.4483900875439305  0.3040836647969208   T   T   T
  0.7818952775309910  0.5594577707229899  0.3880344555063399   T   T   T
  0.6698020486192077  0.3307304647620802  0.2276812506107595   T   T   T
  0.8890212669472817  0.4447085338946266  0.0748216737926981   F   F   F
 -0.0000555910667804  0.6668403653142287  0.9948046985020258   T   T   T
  0.1120849842000453  0.8908369683999169  0.1499714530372884   F   F   F
  0.2187974874867250  0.7775125990727965  0.3039971327435682   T   T   T
  0.1081692539447503  0.8863179487216786  0.3879816169419922   T   T   T
  0.0001913064440509  0.6670548878518895  0.2278371208316194   T   T   T
  0.2219574661055717  0.7776457330527151  0.0748216737926981   F   F   F
  0.3331433032790633  0.6669809375995808  0.9945133131857017   T   T   T
  0.4477555434370188  0.8905447717191421  0.1480185549591653   F   F   F
  0.5474684801683863  0.7656718594813529  0.3103519581901487   T   T   T
  0.4281960432377075  0.8810530822135262  0.3882833090069883   T   T   T
  0.3347925621537363  0.6704892139733214  0.2292551409287845   T   T   T
  0.5534149591040105  0.7734959182078782  0.0751384329022500   F   F   F
  0.6672385568249344  0.6670164797272594  0.9948195030998562   T   T   T
  0.7761222282821265  0.8905447717197035  0.1480185549591653   F   F   F
  0.8910382725228907  0.7764523266450581  0.3031196763100377   T   T   T
  0.7868423761406018  0.8792408001083447  0.3861481878103132   T   T   T
  0.6681272625651908  0.6712950361325629  0.2289724404910638   T   T   T
  0.8890212669471467  0.7776457330526512  0.0748216737926981   F   F   F
  0.2999928144165400  0.3672145892718403  0.3341519084038467   T   T   T
  0.0031996946664821  0.9968403374687260  0.3437738583858691   T   T   T
  0.2209940654308653  0.1086551308625090  0.1918956802609841   F   F   F
  0.1121926325466660  0.2227628162742690  0.0353926750649194   F   F   F
  0.3298044539242028  0.9978384828889021  0.3450566901094619   T   T   T
  0.5558647160940140  0.1108022839115108  0.1898911095464442   F   F   F
  0.4439031837275991  0.2227628162750932  0.0353926750649194   F   F   F
  0.6671378812518364 -0.0008916826268785  0.3496241869029977   T   T   T
  0.8882715678157993  0.1108022839098126  0.1898911095464442   F   F   F
  0.7779876281395275  0.2226412562791822  0.0349162406770986   F   F   F
 -0.0080757140856169  0.3366042493035330  0.3457620686435175   T   T   T
  0.2209940654291103  0.4456719345683524  0.1918956802609841   F   F   F
  0.1113957380760127  0.5552712619220941  0.0344259374125073   F   F   F
  0.5580118691400315  0.4456719345691340  0.1918956802609841   F   F   F
  0.4439031837257303  0.5544743674506449  0.0353926750649194   F   F   F
  0.6694833280691642  0.3370817109850173  0.3450240271693354   T   T   T
  0.8888800264905683  0.4444260529812709  0.1890083720443911   F   F   F
  0.7772085238466602  0.5552712619226767  0.0344259374125073   F   F   F
 -0.0008680669191568  0.6682026719485883  0.3462051330193798   T   T   T
  0.2222399470191547  0.7777869735094285  0.1890083720443911   F   F   F
  0.1113957380773272  0.8894584761552267  0.0344259374125073   F   F   F
  0.3299219968485277  0.6749359116665407  0.3459865556049270   T   T   T
  0.5558647160901913  0.7783954321786766  0.1898911095464442   F   F   F
  0.4440247437212221  0.8886793718604693  0.0349162406770986   F   F   F
  0.6703193252066031  0.6639173506455439  0.3439460042652164   T   T   T
  0.8888800264902770  0.7777869735093006  0.1890083720443911   F   F   F
  0.7779876281392504  0.8886793718603485  0.0349162406770986   F   F   F
  0.3284500007079079  0.3307543306086380  0.4691747386705186   T   T   T
  0.4212334943617710  0.2455936741858697  0.4338038131466868   T   T   T
 
  0.00000000E+00  0.00000000E+00  0.00000000E+00
  0.00000000E+00  0.00000000E+00  0.00000000E+00
  0.00000000E+00  0.00000000E+00  0.00000000E+00
  0.00000000E+00  0.00000000E+00  0.00000000E+00
  0.00000000E+00  0.00000000E+00  0.00000000E+00
  0.00000000E+00  0.00000000E+00  0.00000000E+00
  0.00000000E+00  0.00000000E+00  0.00000000E+00
  0.00000000E+00  0.00000000E+00  0.00000000E+00
  0.00000000E+00  0.00000000E+00  0.00000000E+00
  0.00000000E+00  0.00000000E+00  0.00000000E+00
  0.00000000E+00  0.00000000E+00  0.00000000E+00
  0.00000000E+00  0.00000000E+00  0.00000000E+00
  0.00000000E+00  0.00000000E+00  0.00000000E+00
  0.00000000E+00  0.00000000E+00  0.00000000E+00
  0.00000000E+00  0.00000000E+00  0.00000000E+00
  0.00000000E+00  0.00000000E+00  0.00000000E+00
  0.00000000E+00  0.00000000E+00  0.00000000E+00
  0.00000000E+00  0.00000000E+00  0.00000000E+00
  0.00000000E+00  0.00000000E+00  0.00000000E+00
  0.00000000E+00  0.00000000E+00  0.00000000E+00
  0.00000000E+00  0.00000000E+00  0.00000000E+00
  0.00000000E+00  0.00000000E+00  0.00000000E+00
  0.00000000E+00  0.00000000E+00  0.00000000E+00
  0.00000000E+00  0.00000000E+00  0.00000000E+00
  0.00000000E+00  0.00000000E+00  0.00000000E+00
  0.00000000E+00  0.00000000E+00  0.00000000E+00
  0.00000000E+00  0.00000000E+00  0.00000000E+00
  0.00000000E+00  0.00000000E+00  0.00000000E+00
  0.00000000E+00  0.00000000E+00  0.00000000E+00
  0.00000000E+00  0.00000000E+00  0.00000000E+00
  0.00000000E+00  0.00000000E+00  0.00000000E+00
  0.00000000E+00  0.00000000E+00  0.00000000E+00
  0.00000000E+00  0.00000000E+00  0.00000000E+00
  0.00000000E+00  0.00000000E+00  0.00000000E+00
  0.00000000E+00  0.00000000E+00  0.00000000E+00
  0.00000000E+00  0.00000000E+00  0.00000000E+00
  0.00000000E+00  0.00000000E+00  0.00000000E+00
  0.00000000E+00  0.00000000E+00  0.00000000E+00
  0.00000000E+00  0.00000000E+00  0.00000000E+00
  0.00000000E+00  0.00000000E+00  0.00000000E+00
  0.00000000E+00  0.00000000E+00  0.00000000E+00
  0.00000000E+00  0.00000000E+00  0.00000000E+00
  0.00000000E+00  0.00000000E+00  0.00000000E+00
  0.00000000E+00  0.00000000E+00  0.00000000E+00
  0.00000000E+00  0.00000000E+00  0.00000000E+00
  0.00000000E+00  0.00000000E+00  0.00000000E+00
  0.00000000E+00  0.00000000E+00  0.00000000E+00
  0.00000000E+00  0.00000000E+00  0.00000000E+00
  0.00000000E+00  0.00000000E+00  0.00000000E+00
  0.00000000E+00  0.00000000E+00  0.00000000E+00
  0.00000000E+00  0.00000000E+00  0.00000000E+00
  0.00000000E+00  0.00000000E+00  0.00000000E+00
  0.00000000E+00  0.00000000E+00  0.00000000E+00
  0.00000000E+00  0.00000000E+00  0.00000000E+00
  0.00000000E+00  0.00000000E+00  0.00000000E+00
  0.00000000E+00  0.00000000E+00  0.00000000E+00
  0.00000000E+00  0.00000000E+00  0.00000000E+00
  0.00000000E+00  0.00000000E+00  0.00000000E+00
  0.00000000E+00  0.00000000E+00  0.00000000E+00
  0.00000000E+00  0.00000000E+00  0.00000000E+00
  0.00000000E+00  0.00000000E+00  0.00000000E+00
  0.00000000E+00  0.00000000E+00  0.00000000E+00
  0.00000000E+00  0.00000000E+00  0.00000000E+00
  0.00000000E+00  0.00000000E+00  0.00000000E+00
  0.00000000E+00  0.00000000E+00  0.00000000E+00
  0.00000000E+00  0.00000000E+00  0.00000000E+00
  0.00000000E+00  0.00000000E+00  0.00000000E+00
  0.00000000E+00  0.00000000E+00  0.00000000E+00
  0.00000000E+00  0.00000000E+00  0.00000000E+00
  0.00000000E+00  0.00000000E+00  0.00000000E+00
  0.00000000E+00  0.00000000E+00  0.00000000E+00
  0.00000000E+00  0.00000000E+00  0.00000000E+00
  0.00000000E+00  0.00000000E+00  0.00000000E+00
  0.00000000E+00  0.00000000E+00  0.00000000E+00
  0.00000000E+00  0.00000000E+00  0.00000000E+00
  0.00000000E+00  0.00000000E+00  0.00000000E+00
  0.00000000E+00  0.00000000E+00  0.00000000E+00
  0.00000000E+00  0.00000000E+00  0.00000000E+00
  0.00000000E+00  0.00000000E+00  0.00000000E+00
  0.00000000E+00  0.00000000E+00  0.00000000E+00
  0.00000000E+00  0.00000000E+00  0.00000000E+00
  0.00000000E+00  0.00000000E+00  0.00000000E+00
  0.00000000E+00  0.00000000E+00  0.00000000E+00
