CeO2-you-111-you-Bi                     
   1.00000000000000     
     9.8619520769738411   -5.7000233644303515    0.0006575135463113
    -0.0000000019519446   11.4000447192889247   -0.0000000000660575
     0.0010528916055289   -0.0000000000784896   21.2581136600902454
   O    Bi   Ce
    53     1    26
Selective dynamics
Direct
 -0.0004830412062262  0.0005852093656752  0.9980014224720287   T   T   T
  0.1164155003654503  0.2248742501825357  0.1514553616833399   T   T   T
  0.2178895456899122  0.1080709309013254  0.3013780262844181   T   T   T
  0.1037668686753945  0.2185499343380715  0.3844760002237080   T   T   T
 -0.0008399275433168  0.0000864368878629  0.2273800256889917   T   T   T
  0.2211403196786995  0.1103024391257160  0.0759616206489675   T   T   T
  0.3326688495746580 -0.0002909680393084  0.9975670611308043   T   T   T
  0.4439129040663272  0.2204074364254804  0.1473869156578637   T   T   T
  0.5578682548923291  0.1062896815076656  0.3012247958118666   T   T   T
  0.4486219110830458  0.2179825996294298  0.3790774831264644   T   T   T
  0.3337482336375674  0.0006519968126523  0.2284870995659642   T   T   T
  0.5557037285152745  0.1101865060604589  0.0755820284295344   T   T   T
  0.6682603712957234  0.0007966856478560  0.9980553887475504   T   T   T
  0.7745997980513555  0.2258206577089400  0.1518657053678647   T   T   T
  0.8897966748564766  0.1115648374280023  0.3018144052594011   T   T   T
  0.7817326576567026  0.2190485678058542  0.3838469401907819   T   T   T
  0.6688754882005484  0.0011042441001430  0.2269060506834041   T   T   T
  0.8887419386965995  0.1110374693482750  0.0782439334031681   T   T   T
 -0.0004830412061874  0.3322647494280326  0.9980014224720353   T   T   T
  0.1102661772250330  0.5551077975569565  0.1507658092349042   T   T   T
  0.2178895456899295  0.4431516147885921  0.3013780262845437   T   T   T
  0.1113074621408523  0.5571544137361222  0.3818479823645143   T   T   T
 -0.0008399275428274  0.3324066355687681  0.2273800256890155   T   T   T
  0.2211403196786134  0.4441708805531225  0.0759616206489665   T   T   T
  0.3316007311188806  0.3324668655595402  0.9976254735128957   T   T   T
  0.4439129040653623  0.5568394676414182  0.1473869156577343   T   T   T
  0.4486219110828647  0.5639733114558070  0.3790774831264342   T   T   T
  0.3496231584508289  0.3414780792259857  0.2320696953619822   T   T   T
  0.5555270600028953  0.4444295300015591  0.0736325623234549   T   T   T
  0.6675755933187112  0.3328450645294777  0.9975091183176517   T   T   T
  0.7794011329545911  0.5563675664767000  0.1478116637833915   T   T   T
  0.8941107042594365  0.4447771307051617  0.3023370640230978   T   T   T
  0.7664880110389467  0.5499110055188966  0.3758308620508394   T   T   T
  0.6571111675393607  0.3427981519318994  0.2340595833628225   T   T   T
  0.8895651874821247  0.4441050688510885  0.0760401388743653   T   T   T
  0.0001530808533376  0.6667435404265580  0.9976606175524014   T   T   T
  0.1102661772249123  0.8884923796676374  0.1507658092348896   T   T   T
  0.2219237082401212  0.7776288541198940  0.3021860691660175   T   T   T
  0.1113074621403648  0.8874870484040901  0.3818479823645174   T   T   T
 -0.0006207498947176  0.6663566250522858  0.2289521867835199   T   T   T
  0.2224513724493625  0.7778926862246442  0.0765624723951066   T   T   T
  0.3326688495746322  0.6662938176140746  0.9975670611307919   T   T   T
  0.4453832721386523  0.8893586360694523  0.1505742465456240   T   T   T
  0.5578682548906928  0.7849115733842108  0.3012247958117976   T   T   T
  0.4441993343862289  0.8887666671932215  0.3818063809683098   T   T   T
  0.3337482336374352  0.6664302368252474  0.2284870995659874   T   T   T
  0.5557037285150823  0.7788502224548303  0.0755820284295005   T   T   T
  0.6675755933186854  0.6680635287892090  0.9975091183176207   T   T   T
  0.7745997980512183  0.8821121403424292  0.1518657053679620   T   T   T
  0.8941107042584544  0.7826665735520589  0.3023370640230562   T   T   T
  0.7817326576546193  0.8960170898483325  0.3838469401905735   T   T   T
  0.6571111675392267  0.6476460156072082  0.2340595833627454   T   T   T
  0.8895651874820096  0.7787931186307547  0.0760401388743338   T   T   T
  0.3172073333377069  0.3252701666677283  0.3458964292041876   T   T   T
  0.0009930805859063  0.0001667608017262  0.3418103937259614   T   T   T
  0.2232193496690475  0.1115884964058654  0.1901946834303058   T   T   T
  0.1112612561493115  0.2222971280746833  0.0374988501331859   T   T   T
  0.3346563134816921  0.0007755389089845  0.3421747066004593   T   T   T
  0.5549862302460438  0.1115320944614839  0.1902967064273836   T   T   T
  0.4433316257292876  0.2200836071898504  0.0355572528496524   T   T   T
  0.6674237295731204  0.0003783647866859  0.3418355907171419   T   T   T
  0.8890397397959139  0.1111863698983099  0.1900224467501660   T   T   T
  0.7777603675181937  0.2224639373503581  0.0374533520989604   T   T   T
  0.0009930805843566  0.3341593197850782  0.3418103937260123   T   T   T
  0.2232193496694936  0.4449638532624179  0.1901946834303442   T   T   T
  0.1106288911468864  0.5548130121720060  0.0375869929847244   T   T   T
  0.5553642221334899  0.4443481110656957  0.1820175457151794   T   T   T
  0.4433316257293223  0.5565820185391930  0.0355572528496572   T   T   T
  0.6713547929117307  0.3255487648398874  0.3471035322200133   T   T   T
  0.8882014697513260  0.4449264107460625  0.1906423795138183   T   T   T
  0.7799030590213052  0.5566185295106904  0.0356378929648485   T   T   T
  0.0013707649928843  0.6673523824976700  0.3412946109455642   T   T   T
  0.2225472523698503  0.7779406261851972  0.1893628193069524   T   T   T
  0.1106288911466933  0.8891498789751267  0.0375869929847145   T   T   T
  0.3346563134816014  0.6672147745716346  0.3421747066002924   T   T   T
  0.5549862302480681  0.7767871357843397  0.1902967064274539   T   T   T
  0.4450763945953127  0.8892051972974543  0.0374168030103771   T   T   T
  0.6713547929142919  0.6791390280736264  0.3471035322204122   T   T   T
  0.8882014697525802  0.7766080590084379  0.1906423795138307   T   T   T
  0.7777603675183244  0.8886294301679059  0.0374533520989858   T   T   T
 
  0.00000000E+00  0.00000000E+00  0.00000000E+00
  0.00000000E+00  0.00000000E+00  0.00000000E+00
  0.00000000E+00  0.00000000E+00  0.00000000E+00
  0.00000000E+00  0.00000000E+00  0.00000000E+00
  0.00000000E+00  0.00000000E+00  0.00000000E+00
  0.00000000E+00  0.00000000E+00  0.00000000E+00
  0.00000000E+00  0.00000000E+00  0.00000000E+00
  0.00000000E+00  0.00000000E+00  0.00000000E+00
  0.00000000E+00  0.00000000E+00  0.00000000E+00
  0.00000000E+00  0.00000000E+00  0.00000000E+00
  0.00000000E+00  0.00000000E+00  0.00000000E+00
  0.00000000E+00  0.00000000E+00  0.00000000E+00
  0.00000000E+00  0.00000000E+00  0.00000000E+00
  0.00000000E+00  0.00000000E+00  0.00000000E+00
  0.00000000E+00  0.00000000E+00  0.00000000E+00
  0.00000000E+00  0.00000000E+00  0.00000000E+00
  0.00000000E+00  0.00000000E+00  0.00000000E+00
  0.00000000E+00  0.00000000E+00  0.00000000E+00
  0.00000000E+00  0.00000000E+00  0.00000000E+00
  0.00000000E+00  0.00000000E+00  0.00000000E+00
  0.00000000E+00  0.00000000E+00  0.00000000E+00
  0.00000000E+00  0.00000000E+00  0.00000000E+00
  0.00000000E+00  0.00000000E+00  0.00000000E+00
  0.00000000E+00  0.00000000E+00  0.00000000E+00
  0.00000000E+00  0.00000000E+00  0.00000000E+00
  0.00000000E+00  0.00000000E+00  0.00000000E+00
  0.00000000E+00  0.00000000E+00  0.00000000E+00
  0.00000000E+00  0.00000000E+00  0.00000000E+00
  0.00000000E+00  0.00000000E+00  0.00000000E+00
  0.00000000E+00  0.00000000E+00  0.00000000E+00
  0.00000000E+00  0.00000000E+00  0.00000000E+00
  0.00000000E+00  0.00000000E+00  0.00000000E+00
  0.00000000E+00  0.00000000E+00  0.00000000E+00
  0.00000000E+00  0.00000000E+00  0.00000000E+00
  0.00000000E+00  0.00000000E+00  0.00000000E+00
  0.00000000E+00  0.00000000E+00  0.00000000E+00
  0.00000000E+00  0.00000000E+00  0.00000000E+00
  0.00000000E+00  0.00000000E+00  0.00000000E+00
  0.00000000E+00  0.00000000E+00  0.00000000E+00
  0.00000000E+00  0.00000000E+00  0.00000000E+00
  0.00000000E+00  0.00000000E+00  0.00000000E+00
  0.00000000E+00  0.00000000E+00  0.00000000E+00
  0.00000000E+00  0.00000000E+00  0.00000000E+00
  0.00000000E+00  0.00000000E+00  0.00000000E+00
  0.00000000E+00  0.00000000E+00  0.00000000E+00
  0.00000000E+00  0.00000000E+00  0.00000000E+00
  0.00000000E+00  0.00000000E+00  0.00000000E+00
  0.00000000E+00  0.00000000E+00  0.00000000E+00
  0.00000000E+00  0.00000000E+00  0.00000000E+00
  0.00000000E+00  0.00000000E+00  0.00000000E+00
  0.00000000E+00  0.00000000E+00  0.00000000E+00
  0.00000000E+00  0.00000000E+00  0.00000000E+00
  0.00000000E+00  0.00000000E+00  0.00000000E+00
  0.00000000E+00  0.00000000E+00  0.00000000E+00
  0.00000000E+00  0.00000000E+00  0.00000000E+00
  0.00000000E+00  0.00000000E+00  0.00000000E+00
  0.00000000E+00  0.00000000E+00  0.00000000E+00
  0.00000000E+00  0.00000000E+00  0.00000000E+00
  0.00000000E+00  0.00000000E+00  0.00000000E+00
  0.00000000E+00  0.00000000E+00  0.00000000E+00
  0.00000000E+00  0.00000000E+00  0.00000000E+00
  0.00000000E+00  0.00000000E+00  0.00000000E+00
  0.00000000E+00  0.00000000E+00  0.00000000E+00
  0.00000000E+00  0.00000000E+00  0.00000000E+00
  0.00000000E+00  0.00000000E+00  0.00000000E+00
  0.00000000E+00  0.00000000E+00  0.00000000E+00
  0.00000000E+00  0.00000000E+00  0.00000000E+00
  0.00000000E+00  0.00000000E+00  0.00000000E+00
  0.00000000E+00  0.00000000E+00  0.00000000E+00
  0.00000000E+00  0.00000000E+00  0.00000000E+00
  0.00000000E+00  0.00000000E+00  0.00000000E+00
  0.00000000E+00  0.00000000E+00  0.00000000E+00
  0.00000000E+00  0.00000000E+00  0.00000000E+00
  0.00000000E+00  0.00000000E+00  0.00000000E+00
  0.00000000E+00  0.00000000E+00  0.00000000E+00
  0.00000000E+00  0.00000000E+00  0.00000000E+00
  0.00000000E+00  0.00000000E+00  0.00000000E+00
  0.00000000E+00  0.00000000E+00  0.00000000E+00
  0.00000000E+00  0.00000000E+00  0.00000000E+00
  0.00000000E+00  0.00000000E+00  0.00000000E+00
