CeO2-you-111-you-Ir                     
   1.00000000000000     
     9.8148351294761014   -5.6665980718593536    0.0000000002169954
     0.0333011290093344   11.3908733929676185    0.0036899152945411
     0.0036678143132971    0.0063528396269678   20.6215315668968913
   O    Ir   Ce   H 
    53     1    26     2
Selective dynamics
Direct
 -0.0004217428341371  0.0000011659447442  0.9908470518731761   T   T   T
  0.1028011692095205  0.2185525017818009  0.1458298984088131   F   F   F
  0.2349177111928873  0.1290616722148101  0.3052402085852741   T   T   T
  0.1306936704082688  0.2226602399849525  0.3974821784258644   T   T   T
  0.0032269928208562  0.0012720456127377  0.2294537617654481   T   T   T
  0.2220534145411222  0.1107738290823903  0.0710682743239914   F   F   F
  0.3341797952481096  0.0000366922162123  0.9908041944636671   T   T   T
  0.4490843325720633  0.2185525017813390  0.1458298984088060   F   F   F
  0.5490412488371512  0.1131886624337501  0.3086269965965576   T   T   T
  0.3999409697545144  0.2151479807416425  0.4104266495540974   T   T   T
  0.3297894665364859 -0.0011567183255395  0.2293557437068352   T   T   T
  0.5585653008860803  0.1095162153887443  0.0723201255912898   F   F   F
  0.6666763232160214 -0.0004683428323363  0.9892583833709799   T   T   T
  0.7795614566037585  0.2257889132072606  0.1527939483032625   F   F   F
  0.9010356544277915  0.1193504773164588  0.3067636382621536   T   T   T
  0.7860215248705859  0.2203735181319094  0.3894877509374809   T   T   T
  0.6679967649942354  0.0020085605112490  0.2333334801274329   T   T   T
  0.8842849145026221  0.1095162153888438  0.0723201255913040   F   F   F
 -0.0000759635719513  0.3326617601650629  0.9906210340079669   T   T   T
  0.1096148374608887  0.5555343404302135  0.1475023066854106   F   F   F
  0.2396314534067808  0.4272723835474787  0.3145657086164381   T   T   T
  0.1016045054922325  0.5469159154538817  0.3890986275462404   T   T   T
  0.0101160502339587  0.3403683513768895  0.2318262729832007   T   T   T
  0.2223403020702790  0.4438644816488804  0.0719747556079895   F   F   F
  0.3332207952409016  0.3330903270464008  0.9906242371323192   T   T   T
  0.4490973923037060  0.5648627846072216  0.1460199694652715   F   F   F
  0.4951632175634903  0.4266995787939581  0.3293675153411087   T   T   T
  0.3350366122361478  0.3343212095646493  0.2128816147365792   T   T   T
  0.5548581795784244  0.4438644816486601  0.0719747556079469   F   F   F
  0.6659500179888426  0.3326884653268375  0.9905387400969770   T   T   T
  0.7792525029694346  0.5555343404299933  0.1475023066854391   F   F   F
  0.8926003972262563  0.4436728622919767  0.3054743861951004   T   T   T
  0.7926409813023894  0.5641135279025975  0.3905189391580621   T   T   T
  0.6607029059500670  0.3427323597830128  0.2336667403384032   T   T   T
  0.8879461366770371  0.4425582733543436  0.0719626942535925   F   F   F
  0.9997944204851167  0.6661435878801816  0.9910541587900924   T   T   T
  0.1104887649475543  0.8876445298946862  0.1471011739480019   F   F   F
  0.2210973354034663  0.7787137138473673  0.3058586934458086   T   T   T
  0.1161073963052796  0.8940343217519360  0.3870766513204641   T   T   T
  0.9996531698900429  0.6670052581256927  0.2296677359475060   T   T   T
  0.2235472132687732  0.7781270123328596  0.0718392220277977   F   F   F
  0.3333289905545901  0.6661863350721128  0.9906187229102313   T   T   T
  0.4451002946556812  0.8896320160877593  0.1508380090782069   F   F   F
  0.5571472132825951  0.7796801688446259  0.3107305445368349   T   T   T
  0.4471807256737481  0.9019490255248425  0.3909916037403796   T   T   T
  0.3298513985216415  0.6608781655794036  0.2300805602854455   T   T   T
  0.5576313934294603  0.7819287868586855  0.0719563973625483   F   F   F
  0.6657211566612177  0.6660482491290223  0.9907703982231256   T   T   T
  0.7778647214322731  0.8896320160880791  0.1508380090782069   F   F   F
  0.8977866949849016  0.7849350504420398  0.3054143271670224   T   T   T
  0.7927363125616259  0.9071587579613553  0.3895095498134806   T   T   T
  0.6648091916009999  0.6584785432541252  0.2319505649711202   T   T   T
  0.8879127990640114  0.7781270123327815  0.0718392220277622   F   F   F
  0.3143459828608128  0.3232958251858514  0.3629963075057326   T   T   T
  0.0084956030645595  0.0042369364163605  0.3452152077011159   T   T   T
  0.2230600782284782  0.1127871564562781  0.1858190587246824   F   F   F
  0.1097963933046842  0.2215186165153682  0.0307211915643180   F   F   F
  0.3302393251652880  0.9958833315601262  0.3448628562320747   T   T   T
  0.5548963540437057  0.1117603186547029  0.1909278205516571   F   F   F
  0.4450552232106872  0.2215186165153753  0.0307211915643535   F   F   F
  0.6688092285852679  0.0033813071947707  0.3492274461907696   T   T   T
  0.8901979646105787  0.1117603186543477  0.1909278205517921   F   F   F
  0.7775112726178577  0.2216885452354873  0.0318555285226552   F   F   F
  0.0028077148526728  0.3359534908772036  0.3470196554850526   T   T   T
  0.2257146778081278  0.4446091615713001  0.1859825582494778   F   F   F
  0.1107598539473003  0.5554232340600791  0.0318213860766505   F   F   F
  0.5522284837637272  0.4446091615716270  0.1859825582496839   F   F   F
  0.4452756697059641  0.5572193394117591  0.0306374588435006   F   F   F
  0.6723969573594351  0.3381917458520555  0.3516289703743316   T   T   T
  0.8894040886807986  0.4454741773611630  0.1905391743102527   F   F   F
  0.7779963801129099  0.5554232340602070  0.0318213860766505   F   F   F
  0.0000198841488619  0.6650054548724870  0.3472412585639604   T   T   T
  0.2221189286162399  0.7775521735803110  0.1889159637881477   F   F   F
  0.1108581300121116  0.8883832600241632  0.0313470263001108   F   F   F
  0.3296930946824851  0.6696852683934191  0.3477105736999845   T   T   T
  0.5557875695128089  0.7782411390258446  0.1921096399617639   F   F   F
  0.4460228979207201  0.8895647406970966  0.0318771018034028   F   F   F
  0.6833677697521335  0.6799418119439060  0.3492454217281615   T   T   T
  0.8887662449634064  0.7775521735801405  0.1889159637882187   F   F   F
  0.7768748427764294  0.8895647406970824  0.0318771018033601   F   F   F
  0.3550691708631389  0.4360329823552254  0.4178474294907137   T   T   T
  0.3900644621889444  0.2188419924643884  0.4571178796870179   T   T   T
 
  0.00000000E+00  0.00000000E+00  0.00000000E+00
  0.00000000E+00  0.00000000E+00  0.00000000E+00
  0.00000000E+00  0.00000000E+00  0.00000000E+00
  0.00000000E+00  0.00000000E+00  0.00000000E+00
  0.00000000E+00  0.00000000E+00  0.00000000E+00
  0.00000000E+00  0.00000000E+00  0.00000000E+00
  0.00000000E+00  0.00000000E+00  0.00000000E+00
  0.00000000E+00  0.00000000E+00  0.00000000E+00
  0.00000000E+00  0.00000000E+00  0.00000000E+00
  0.00000000E+00  0.00000000E+00  0.00000000E+00
  0.00000000E+00  0.00000000E+00  0.00000000E+00
  0.00000000E+00  0.00000000E+00  0.00000000E+00
  0.00000000E+00  0.00000000E+00  0.00000000E+00
  0.00000000E+00  0.00000000E+00  0.00000000E+00
  0.00000000E+00  0.00000000E+00  0.00000000E+00
  0.00000000E+00  0.00000000E+00  0.00000000E+00
  0.00000000E+00  0.00000000E+00  0.00000000E+00
  0.00000000E+00  0.00000000E+00  0.00000000E+00
  0.00000000E+00  0.00000000E+00  0.00000000E+00
  0.00000000E+00  0.00000000E+00  0.00000000E+00
  0.00000000E+00  0.00000000E+00  0.00000000E+00
  0.00000000E+00  0.00000000E+00  0.00000000E+00
  0.00000000E+00  0.00000000E+00  0.00000000E+00
  0.00000000E+00  0.00000000E+00  0.00000000E+00
  0.00000000E+00  0.00000000E+00  0.00000000E+00
  0.00000000E+00  0.00000000E+00  0.00000000E+00
  0.00000000E+00  0.00000000E+00  0.00000000E+00
  0.00000000E+00  0.00000000E+00  0.00000000E+00
  0.00000000E+00  0.00000000E+00  0.00000000E+00
  0.00000000E+00  0.00000000E+00  0.00000000E+00
  0.00000000E+00  0.00000000E+00  0.00000000E+00
  0.00000000E+00  0.00000000E+00  0.00000000E+00
  0.00000000E+00  0.00000000E+00  0.00000000E+00
  0.00000000E+00  0.00000000E+00  0.00000000E+00
  0.00000000E+00  0.00000000E+00  0.00000000E+00
  0.00000000E+00  0.00000000E+00  0.00000000E+00
  0.00000000E+00  0.00000000E+00  0.00000000E+00
  0.00000000E+00  0.00000000E+00  0.00000000E+00
  0.00000000E+00  0.00000000E+00  0.00000000E+00
  0.00000000E+00  0.00000000E+00  0.00000000E+00
  0.00000000E+00  0.00000000E+00  0.00000000E+00
  0.00000000E+00  0.00000000E+00  0.00000000E+00
  0.00000000E+00  0.00000000E+00  0.00000000E+00
  0.00000000E+00  0.00000000E+00  0.00000000E+00
  0.00000000E+00  0.00000000E+00  0.00000000E+00
  0.00000000E+00  0.00000000E+00  0.00000000E+00
  0.00000000E+00  0.00000000E+00  0.00000000E+00
  0.00000000E+00  0.00000000E+00  0.00000000E+00
  0.00000000E+00  0.00000000E+00  0.00000000E+00
  0.00000000E+00  0.00000000E+00  0.00000000E+00
  0.00000000E+00  0.00000000E+00  0.00000000E+00
  0.00000000E+00  0.00000000E+00  0.00000000E+00
  0.00000000E+00  0.00000000E+00  0.00000000E+00
  0.00000000E+00  0.00000000E+00  0.00000000E+00
  0.00000000E+00  0.00000000E+00  0.00000000E+00
  0.00000000E+00  0.00000000E+00  0.00000000E+00
  0.00000000E+00  0.00000000E+00  0.00000000E+00
  0.00000000E+00  0.00000000E+00  0.00000000E+00
  0.00000000E+00  0.00000000E+00  0.00000000E+00
  0.00000000E+00  0.00000000E+00  0.00000000E+00
  0.00000000E+00  0.00000000E+00  0.00000000E+00
  0.00000000E+00  0.00000000E+00  0.00000000E+00
  0.00000000E+00  0.00000000E+00  0.00000000E+00
  0.00000000E+00  0.00000000E+00  0.00000000E+00
  0.00000000E+00  0.00000000E+00  0.00000000E+00
  0.00000000E+00  0.00000000E+00  0.00000000E+00
  0.00000000E+00  0.00000000E+00  0.00000000E+00
  0.00000000E+00  0.00000000E+00  0.00000000E+00
  0.00000000E+00  0.00000000E+00  0.00000000E+00
  0.00000000E+00  0.00000000E+00  0.00000000E+00
  0.00000000E+00  0.00000000E+00  0.00000000E+00
  0.00000000E+00  0.00000000E+00  0.00000000E+00
  0.00000000E+00  0.00000000E+00  0.00000000E+00
  0.00000000E+00  0.00000000E+00  0.00000000E+00
  0.00000000E+00  0.00000000E+00  0.00000000E+00
  0.00000000E+00  0.00000000E+00  0.00000000E+00
  0.00000000E+00  0.00000000E+00  0.00000000E+00
  0.00000000E+00  0.00000000E+00  0.00000000E+00
  0.00000000E+00  0.00000000E+00  0.00000000E+00
  0.00000000E+00  0.00000000E+00  0.00000000E+00
  0.00000000E+00  0.00000000E+00  0.00000000E+00
  0.00000000E+00  0.00000000E+00  0.00000000E+00
