CeO2-you-111-you-Ca                     
   1.00000000000000     
     9.8910193092532470   -5.7105830328077083   -0.0000000006558130
    -0.0187166544351973   11.3887458614058747   -0.0125729081577887
    -0.0133531437879638   -0.0231283195685642   21.2000506380323905
   O    Ca   Ce   H 
    53     1    26     1
Selective dynamics
Direct
 -0.0000075541629493  0.0000879519259820  0.9959329121207486   T   T   T
  0.1093571338644177  0.2214263857243855  0.1485412249170622   T   T   T
  0.2241452275112560  0.1045254749584080  0.3012083535558837   T   T   T
  0.0979939407854820  0.2141863700229739  0.3818539930361244   T   T   T
  0.0015115128159801  0.0013894567499080  0.2270812024958064   T   T   T
  0.2232850095451428  0.1120721849134270  0.0742913625750674   T   T   T
  0.3338853582065023  0.0001097159709468  0.9962009466942117   T   T   T
  0.4463878768753290  0.2221756717684863  0.1499864022313867   T   T   T
  0.5488450511412948  0.1091347170331398  0.3042528838902347   T   T   T
  0.4364942112884468  0.2135935621394286  0.4002375573166134   T   T   T
  0.3328606728816798 -0.0028979675596401  0.2263005012962884   T   T   T
  0.5571291001194324  0.1117726344426141  0.0756028457523689   T   T   T
  0.6665117389078287  0.9997280096559850  0.9959485772474733   T   T   T
  0.7774456702019465  0.2205594285601212  0.1526960037195834   T   T   T
  0.8870567394500557  0.1095584262414167  0.3003439609460082   T   T   T
  0.7825623087389284  0.2118853669280268  0.3838694727306913   T   T   T
  0.6601854578538143  0.9912162867934612  0.2320326083867952   T   T   T
  0.8880455970351924  0.1115834217569852  0.0745925121986287   T   T   T
  0.0003143630931268  0.3338505484458135  0.9964828811521763   T   T   T
  0.1108035445566491  0.5540459376569219  0.1491589488465827   T   T   T
  0.2347955620459578  0.4560641280701354  0.3094840147804678   T   T   T
  0.1132447212622952  0.5620228366247607  0.3844700440959263   T   T   T
  0.0064619732752873  0.3351281988991477  0.2299761149886534   T   T   T
  0.2233505136803725  0.4443479630596062  0.0756878378064760   T   T   T
  0.3336126438748283  0.3335514257054866  0.9962112676536083   T   T   T
  0.4459297480819804  0.5576049056965792  0.1504557902494337   T   T   T
  0.5502084006790039  0.4587292467779037  0.3124140839274206   T   T   T
  0.3324498128098152  0.3323860499598176  0.2248407483368158   T   T   T
  0.5547161034229527  0.4443864753713304  0.0762639427658921   T   T   T
  0.6665129489659668  0.3333283344099222  0.9967365096794990   T   T   T
  0.7770858163735057  0.5556813694085783  0.1496329518113624   T   T   T
  0.8960865714182898  0.4470476222702492  0.3037013190302042   T   T   T
  0.7928361197019514  0.5749792407532544  0.3857546377632595   T   T   T
  0.6657642512984160  0.3378216810364376  0.2299178854016359   T   T   T
  0.8875660230890462  0.4427514179427576  0.0762496609724544   T   T   T
  0.9993761775803738  0.6655523585209665  0.9965532096738401   T   T   T
  0.1112133964015429  0.8890889698477188  0.1468281654741113   T   T   T
  0.2188414735052869  0.7779711635320775  0.3001695959850583   T   T   T
  0.1142467655876818  0.8897621332191020  0.3827720124343434   T   T   T
  0.0002778910076406  0.6674107344776038  0.2265534284143703   T   T   T
  0.2225393670595183  0.7773535248229183  0.0739458348788091   T   T   T
  0.3335094369948677  0.6657614674452259  0.9966282754905865   T   T   T
  0.4456138381912260  0.8889076981302572  0.1483416378274496   T   T   T
  0.5438503096829409  0.7559589314616277  0.3133644129358597   T   T   T
  0.4383290857660950  0.8878304960037254  0.3816447046803590   T   T   T
  0.3334503823497243  0.6698939424047147  0.2276023273454761   T   T   T
  0.5557943822611368  0.7775674584217698  0.0752627736680784   T   T   T
  0.6661172598525866  0.6657886354519718  0.9963533988361790   T   T   T
  0.7773751306606876  0.8899698426001116  0.1486151151296154   T   T   T
  0.8962977072546389  0.7818813040775445  0.3002176882186104   T   T   T
  0.7824149964405354  0.8916807923814793  0.3804069538170733   T   T   T
  0.6713242362807746  0.6715316420070524  0.2281723349505677   T   T   T
  0.8886555403565263  0.7781479631511287  0.0739795684879534   T   T   T
  0.3217493481865903  0.3186319112908006  0.3370616653685694   T   T   T
  0.0047469307536605  0.0055311483956061  0.3414586165204767   T   T   T
  0.2232935984686118  0.1120039344038200  0.1881951013048793   T   T   T
  0.1114507114679887  0.2224751478677129  0.0358619648666787   T   T   T
  0.3287159971809727 -0.0044361259520025  0.3404485269955659   T   T   T
  0.5548983812879422  0.1113926861608802  0.1908743164704928   T   T   T
  0.4451445451679299  0.2225807785984214  0.0364952353816669   T   T   T
  0.6670765170988366  0.0006167910058198  0.3435214821622851   T   T   T
  0.8896793359697596  0.1108947152896231  0.1893995016114014   T   T   T
  0.7774662063373069  0.2219883793808163  0.0367832872672703   T   T   T
  0.0022162376231954  0.3307624600040746  0.3434013964077606   T   T   T
  0.2237648081441523  0.4437703636518936  0.1899724959991748   T   T   T
  0.1106057623535843  0.5540349507711010  0.0360383573429038   T   T   T
  0.5544585386548749  0.4446551564636722  0.1915148957023491   T   T   T
  0.4444358749637395  0.5547777402618171  0.0359542943599757   T   T   T
  0.6714421856370305  0.3385725083534579  0.3465288641963565   T   T   T
  0.8892181862058033  0.4450837512323149  0.1908525304512353   T   T   T
  0.7768371674317803  0.5544454937593017  0.0366073767531740   T   T   T
  0.0012673691890095  0.6678393043434061  0.3433345561294332   T   T   T
  0.2211915353807581  0.7776355214541988  0.1855806599823741   T   T   T
  0.1112622534731596  0.8890096196034738  0.0342483433238520   T   T   T
  0.3215546956914516  0.6717967463746291  0.3382795084363321   T   T   T
  0.5550588224451379  0.7772428701563568  0.1882833909189744   T   T   T
  0.4452597314142362  0.8890133179262754  0.0354942045792177   T   T   T
  0.6867169033699427  0.6755357978702011  0.3383483408907620   T   T   T
  0.8912645808758640  0.7792185679736395  0.1864825782066618   T   T   T
  0.7774127581541922  0.8889482925909207  0.0352537352335042   T   T   T
  0.4293034691495293  0.2085486326959895  0.4459883745155669   T   T   T
 
  0.00000000E+00  0.00000000E+00  0.00000000E+00
  0.00000000E+00  0.00000000E+00  0.00000000E+00
  0.00000000E+00  0.00000000E+00  0.00000000E+00
  0.00000000E+00  0.00000000E+00  0.00000000E+00
  0.00000000E+00  0.00000000E+00  0.00000000E+00
  0.00000000E+00  0.00000000E+00  0.00000000E+00
  0.00000000E+00  0.00000000E+00  0.00000000E+00
  0.00000000E+00  0.00000000E+00  0.00000000E+00
  0.00000000E+00  0.00000000E+00  0.00000000E+00
  0.00000000E+00  0.00000000E+00  0.00000000E+00
  0.00000000E+00  0.00000000E+00  0.00000000E+00
  0.00000000E+00  0.00000000E+00  0.00000000E+00
  0.00000000E+00  0.00000000E+00  0.00000000E+00
  0.00000000E+00  0.00000000E+00  0.00000000E+00
  0.00000000E+00  0.00000000E+00  0.00000000E+00
  0.00000000E+00  0.00000000E+00  0.00000000E+00
  0.00000000E+00  0.00000000E+00  0.00000000E+00
  0.00000000E+00  0.00000000E+00  0.00000000E+00
  0.00000000E+00  0.00000000E+00  0.00000000E+00
  0.00000000E+00  0.00000000E+00  0.00000000E+00
  0.00000000E+00  0.00000000E+00  0.00000000E+00
  0.00000000E+00  0.00000000E+00  0.00000000E+00
  0.00000000E+00  0.00000000E+00  0.00000000E+00
  0.00000000E+00  0.00000000E+00  0.00000000E+00
  0.00000000E+00  0.00000000E+00  0.00000000E+00
  0.00000000E+00  0.00000000E+00  0.00000000E+00
  0.00000000E+00  0.00000000E+00  0.00000000E+00
  0.00000000E+00  0.00000000E+00  0.00000000E+00
  0.00000000E+00  0.00000000E+00  0.00000000E+00
  0.00000000E+00  0.00000000E+00  0.00000000E+00
  0.00000000E+00  0.00000000E+00  0.00000000E+00
  0.00000000E+00  0.00000000E+00  0.00000000E+00
  0.00000000E+00  0.00000000E+00  0.00000000E+00
  0.00000000E+00  0.00000000E+00  0.00000000E+00
  0.00000000E+00  0.00000000E+00  0.00000000E+00
  0.00000000E+00  0.00000000E+00  0.00000000E+00
  0.00000000E+00  0.00000000E+00  0.00000000E+00
  0.00000000E+00  0.00000000E+00  0.00000000E+00
  0.00000000E+00  0.00000000E+00  0.00000000E+00
  0.00000000E+00  0.00000000E+00  0.00000000E+00
  0.00000000E+00  0.00000000E+00  0.00000000E+00
  0.00000000E+00  0.00000000E+00  0.00000000E+00
  0.00000000E+00  0.00000000E+00  0.00000000E+00
  0.00000000E+00  0.00000000E+00  0.00000000E+00
  0.00000000E+00  0.00000000E+00  0.00000000E+00
  0.00000000E+00  0.00000000E+00  0.00000000E+00
  0.00000000E+00  0.00000000E+00  0.00000000E+00
  0.00000000E+00  0.00000000E+00  0.00000000E+00
  0.00000000E+00  0.00000000E+00  0.00000000E+00
  0.00000000E+00  0.00000000E+00  0.00000000E+00
  0.00000000E+00  0.00000000E+00  0.00000000E+00
  0.00000000E+00  0.00000000E+00  0.00000000E+00
  0.00000000E+00  0.00000000E+00  0.00000000E+00
  0.00000000E+00  0.00000000E+00  0.00000000E+00
  0.00000000E+00  0.00000000E+00  0.00000000E+00
  0.00000000E+00  0.00000000E+00  0.00000000E+00
  0.00000000E+00  0.00000000E+00  0.00000000E+00
  0.00000000E+00  0.00000000E+00  0.00000000E+00
  0.00000000E+00  0.00000000E+00  0.00000000E+00
  0.00000000E+00  0.00000000E+00  0.00000000E+00
  0.00000000E+00  0.00000000E+00  0.00000000E+00
  0.00000000E+00  0.00000000E+00  0.00000000E+00
  0.00000000E+00  0.00000000E+00  0.00000000E+00
  0.00000000E+00  0.00000000E+00  0.00000000E+00
  0.00000000E+00  0.00000000E+00  0.00000000E+00
  0.00000000E+00  0.00000000E+00  0.00000000E+00
  0.00000000E+00  0.00000000E+00  0.00000000E+00
  0.00000000E+00  0.00000000E+00  0.00000000E+00
  0.00000000E+00  0.00000000E+00  0.00000000E+00
  0.00000000E+00  0.00000000E+00  0.00000000E+00
  0.00000000E+00  0.00000000E+00  0.00000000E+00
  0.00000000E+00  0.00000000E+00  0.00000000E+00
  0.00000000E+00  0.00000000E+00  0.00000000E+00
  0.00000000E+00  0.00000000E+00  0.00000000E+00
  0.00000000E+00  0.00000000E+00  0.00000000E+00
  0.00000000E+00  0.00000000E+00  0.00000000E+00
  0.00000000E+00  0.00000000E+00  0.00000000E+00
  0.00000000E+00  0.00000000E+00  0.00000000E+00
  0.00000000E+00  0.00000000E+00  0.00000000E+00
  0.00000000E+00  0.00000000E+00  0.00000000E+00
  0.00000000E+00  0.00000000E+00  0.00000000E+00
