CeO2-you-111-you-Ni                     
   1.00000000000000     
     9.8864953867214354   -5.7079711474224455   -0.0000000012273416
    -0.0378154252860952   11.3504420522509726   -0.0235540315798074
    -0.0256574251026684   -0.0444399563412426   20.9875683142953342
   O    Ni   Ce   H 
    53     1    26     2
Selective dynamics
Direct
 -0.0001827161340566  0.9997743679255581  0.9950750306033961   T   T   T
  0.1085986319690591  0.2216697038007283  0.1487949286358230   F   F   F
  0.2409456882532640  0.1352592624296584  0.3098883503365433   T   T   T
  0.0635266110682271  0.2005396832430508  0.3957271120386315   T   T   T
  0.0072408352842943  0.0036472779210530  0.2298495987298367   T   T   T
  0.2223130948561263  0.1112931897122635  0.0745648871451579   F   F   F
  0.3329843395550576  0.9997157574888977  0.9949096919552211   T   T   T
  0.4464040718315445  0.2216697038003588  0.1487949286358798   F   F   F
  0.5487296671673495  0.1062116169644607  0.3043528349377979   T   T   T
  0.4648017037802142  0.1848982370797195  0.4139112713140413   T   T   T
  0.3287083588046467  0.0000870896955691  0.2291859777345003   T   T   T
  0.5567337956907110  0.1108858280323375  0.0746097953187430   F   F   F
  0.6666643569326240  0.9991821301289687  0.9946106983345108   T   T   T
  0.7774644875875296  0.2215949751753854  0.1530525687454229   F   F   F
  0.8860092337755479  0.1078214319831815  0.3006180259869727   T   T   T
  0.7807176643580360  0.2123140236203440  0.3848855487686363   T   T   T
  0.6607963929218474  0.9919546977838400  0.2313478496151326   T   T   T
  0.8874860323412506  0.1108858280324014  0.0746097953186506   F   F   F
 -0.0000278279941372  0.3326028078793620  0.9950906616517211   T   T   T
  0.1093759496610431  0.5551218796645330  0.1496206184174724   F   F   F
  0.2468861796704054  0.4487339103934236  0.3117115955694928   T   T   T
  0.1146084868944036  0.5592640125820301  0.3850209632687984   T   T   T
  0.0083277089431663  0.3376907270018319  0.2318452028895982   T   T   T
  0.2226787828701191  0.4453045733358607  0.0752257117710897   F   F   F
  0.3331793912832366  0.3329292649965007  0.9951827627260060   T   T   T
  0.4458362755525727  0.5583405511062622  0.1490954560477249   F   F   F
  0.5319589215849085  0.4518846659565753  0.3139352151781399   T   T   T
  0.3339809018633999  0.3348814324267713  0.2217444089157677   T   T   T
  0.5559597904652165  0.4453045733356475  0.0752257117710684   F   F   F
  0.6659013888268398  0.3323396315309344  0.9950034707616310   T   T   T
  0.7790789300036067  0.5551218796643127  0.1496206184175364   F   F   F
  0.8942984653453927  0.4474745163895419  0.3058065867434267   T   T   T
  0.7876484728076647  0.5728015930011121  0.3862628557961771   T   T   T
  0.6635812214212364  0.3381182498807982  0.2308403169482390   T   T   T
  0.8880471604112401  0.4427603208221313  0.0751236589484350   F   F   F
  0.9993554213133674  0.6651838990419947  0.9949446376443558   T   T   T
  0.1106557822886458  0.8879785645764287  0.1477928945606379   F   F   F
  0.2206137137342088  0.7780289954041562  0.3031399699969081   T   T   T
  0.1163253594710563  0.8940058886653864  0.3832739549101724   T   T   T
  0.0006616626813652  0.6687164976206441  0.2290677904707603   T   T   T
  0.2224146980378947  0.7773839170131822  0.0740372597667687   F   F   F
  0.3339261536066547  0.6661658368776928  0.9948690361109634   T   T   T
  0.4435973753338018  0.8888304500670472  0.1496379597786088   F   F   F
  0.5464048743546308  0.7589510510632330  0.3117726182587399   T   T   T
  0.4392907384115717  0.8834362295211157  0.3838437621574262   T   T   T
  0.3316331859927946  0.6677916184984708  0.2290210887255574   T   T   T
  0.5562670133993848  0.7792000267984562  0.0750495281006778   F   F   F
  0.6658278428365535  0.6659642217082926  0.9949402334242742   T   T   T
  0.7785660747334973  0.8888304500673954  0.1496379597785946   F   F   F
  0.8940677697714350  0.7826420584051552  0.3028705092787306   T   T   T
  0.7800812921684318  0.8901738072974094  0.3835016290500306   T   T   T
  0.6704698895554384  0.6684327815781639  0.2290558074013111   T   T   T
  0.8883022189756034  0.7773839170131609  0.0740372597667758   F   F   F
  0.3323442457775264  0.3351469736932040  0.3158312581950792   T   T   T
  0.0057972617044444  0.0108449596903614  0.3467793202072552   T   T   T
  0.2222427152144064  0.1111524304292431  0.1892578317020153   F   F   F
  0.1106772727291983  0.2217303590518753  0.0350227848290459   F   F   F
  0.3325398754318520  0.0004754362898340  0.3453490066710840   T   T   T
  0.5544180659484468  0.1107225784791197  0.1904293390402714   F   F   F
  0.4443860863229077  0.2217303590522093  0.0350227848290885   F   F   F
  0.6659354559637871 -0.0004938947041466  0.3454147475961833   T   T   T
  0.8896385125293591  0.1107225784778265  0.1904293390403069   F   F   F
  0.7774118688090823  0.2214897376180289  0.0354114281395965   F   F   F
 -0.0008435981516372  0.3278395396752458  0.3477563238445616   T   T   T
  0.2220883512005329  0.4454132294049273  0.1889063296282387   F   F   F
  0.1100896873302446  0.5543627373302300  0.0352158206783031   F   F   F
  0.5566588782054822  0.4454132294053039  0.1889063296283311   F   F   F
  0.4444427212107627  0.5555534424213704  0.0345362363585977   F   F   F
  0.6668679937416823  0.3351035823003674  0.3497693716135322   T   T   T
  0.8889187700460255  0.4445035400914961  0.1920505633917244   F   F   F
  0.7776060500001236  0.5543627373303650  0.0352158206783386   F   F   F
  0.0009687218664388  0.6680158365040227  0.3443751793363677   T   T   T
  0.2215863879391478  0.7793994903688670  0.1883392382126701   F   F   F
  0.1109156816755927  0.8884983633512320  0.0339618488016100   F   F   F
  0.3235317605961571  0.6693008391619073  0.3410719943141983   T   T   T
  0.5549927448460039  0.7766514896918366  0.1891181912628497   F   F   F
  0.4445075387468691  0.8885322577417512  0.0346003239869717   F   F   F
  0.6835311342648813  0.6746054421172799  0.3408325569664382   T   T   T
  0.8911461024289054  0.7793994903684123  0.1883392382126701   F   F   F
  0.7773577189946579  0.8885322577414314  0.0346003239869503   F   F   F
  0.3303063995461557  0.3342266392233490  0.3843489087843326   T   T   T
  0.4244271585446360  0.2187345989520553  0.4443878003817684   T   T   T
 
  0.00000000E+00  0.00000000E+00  0.00000000E+00
  0.00000000E+00  0.00000000E+00  0.00000000E+00
  0.00000000E+00  0.00000000E+00  0.00000000E+00
  0.00000000E+00  0.00000000E+00  0.00000000E+00
  0.00000000E+00  0.00000000E+00  0.00000000E+00
  0.00000000E+00  0.00000000E+00  0.00000000E+00
  0.00000000E+00  0.00000000E+00  0.00000000E+00
  0.00000000E+00  0.00000000E+00  0.00000000E+00
  0.00000000E+00  0.00000000E+00  0.00000000E+00
  0.00000000E+00  0.00000000E+00  0.00000000E+00
  0.00000000E+00  0.00000000E+00  0.00000000E+00
  0.00000000E+00  0.00000000E+00  0.00000000E+00
  0.00000000E+00  0.00000000E+00  0.00000000E+00
  0.00000000E+00  0.00000000E+00  0.00000000E+00
  0.00000000E+00  0.00000000E+00  0.00000000E+00
  0.00000000E+00  0.00000000E+00  0.00000000E+00
  0.00000000E+00  0.00000000E+00  0.00000000E+00
  0.00000000E+00  0.00000000E+00  0.00000000E+00
  0.00000000E+00  0.00000000E+00  0.00000000E+00
  0.00000000E+00  0.00000000E+00  0.00000000E+00
  0.00000000E+00  0.00000000E+00  0.00000000E+00
  0.00000000E+00  0.00000000E+00  0.00000000E+00
  0.00000000E+00  0.00000000E+00  0.00000000E+00
  0.00000000E+00  0.00000000E+00  0.00000000E+00
  0.00000000E+00  0.00000000E+00  0.00000000E+00
  0.00000000E+00  0.00000000E+00  0.00000000E+00
  0.00000000E+00  0.00000000E+00  0.00000000E+00
  0.00000000E+00  0.00000000E+00  0.00000000E+00
  0.00000000E+00  0.00000000E+00  0.00000000E+00
  0.00000000E+00  0.00000000E+00  0.00000000E+00
  0.00000000E+00  0.00000000E+00  0.00000000E+00
  0.00000000E+00  0.00000000E+00  0.00000000E+00
  0.00000000E+00  0.00000000E+00  0.00000000E+00
  0.00000000E+00  0.00000000E+00  0.00000000E+00
  0.00000000E+00  0.00000000E+00  0.00000000E+00
  0.00000000E+00  0.00000000E+00  0.00000000E+00
  0.00000000E+00  0.00000000E+00  0.00000000E+00
  0.00000000E+00  0.00000000E+00  0.00000000E+00
  0.00000000E+00  0.00000000E+00  0.00000000E+00
  0.00000000E+00  0.00000000E+00  0.00000000E+00
  0.00000000E+00  0.00000000E+00  0.00000000E+00
  0.00000000E+00  0.00000000E+00  0.00000000E+00
  0.00000000E+00  0.00000000E+00  0.00000000E+00
  0.00000000E+00  0.00000000E+00  0.00000000E+00
  0.00000000E+00  0.00000000E+00  0.00000000E+00
  0.00000000E+00  0.00000000E+00  0.00000000E+00
  0.00000000E+00  0.00000000E+00  0.00000000E+00
  0.00000000E+00  0.00000000E+00  0.00000000E+00
  0.00000000E+00  0.00000000E+00  0.00000000E+00
  0.00000000E+00  0.00000000E+00  0.00000000E+00
  0.00000000E+00  0.00000000E+00  0.00000000E+00
  0.00000000E+00  0.00000000E+00  0.00000000E+00
  0.00000000E+00  0.00000000E+00  0.00000000E+00
  0.00000000E+00  0.00000000E+00  0.00000000E+00
  0.00000000E+00  0.00000000E+00  0.00000000E+00
  0.00000000E+00  0.00000000E+00  0.00000000E+00
  0.00000000E+00  0.00000000E+00  0.00000000E+00
  0.00000000E+00  0.00000000E+00  0.00000000E+00
  0.00000000E+00  0.00000000E+00  0.00000000E+00
  0.00000000E+00  0.00000000E+00  0.00000000E+00
  0.00000000E+00  0.00000000E+00  0.00000000E+00
  0.00000000E+00  0.00000000E+00  0.00000000E+00
  0.00000000E+00  0.00000000E+00  0.00000000E+00
  0.00000000E+00  0.00000000E+00  0.00000000E+00
  0.00000000E+00  0.00000000E+00  0.00000000E+00
  0.00000000E+00  0.00000000E+00  0.00000000E+00
  0.00000000E+00  0.00000000E+00  0.00000000E+00
  0.00000000E+00  0.00000000E+00  0.00000000E+00
  0.00000000E+00  0.00000000E+00  0.00000000E+00
  0.00000000E+00  0.00000000E+00  0.00000000E+00
  0.00000000E+00  0.00000000E+00  0.00000000E+00
  0.00000000E+00  0.00000000E+00  0.00000000E+00
  0.00000000E+00  0.00000000E+00  0.00000000E+00
  0.00000000E+00  0.00000000E+00  0.00000000E+00
  0.00000000E+00  0.00000000E+00  0.00000000E+00
  0.00000000E+00  0.00000000E+00  0.00000000E+00
  0.00000000E+00  0.00000000E+00  0.00000000E+00
  0.00000000E+00  0.00000000E+00  0.00000000E+00
  0.00000000E+00  0.00000000E+00  0.00000000E+00
  0.00000000E+00  0.00000000E+00  0.00000000E+00
  0.00000000E+00  0.00000000E+00  0.00000000E+00
  0.00000000E+00  0.00000000E+00  0.00000000E+00
