CeO2-you-111-you-Ni                     
   1.00000000000000     
     9.8234290324758256   -5.7071325726892885    0.0150836183815059
     0.0000000027702485   11.4142631414718814   -0.0000000017981664
     0.0310227981531066   -0.0000000031917047   20.4797779470182419
   O    Ni   Ce   H 
    53     1    26     1
Selective dynamics
Direct
  0.9992144198626925  0.0006630420811532  0.9904084018993038   T   T   T
  0.1150216022641414  0.2232898492986108  0.1492048290287498   T   T   T
  0.2273100292864746  0.1185701412830025  0.3079480073469538   T   T   T
  0.1149513679953406  0.2223452443954710  0.3824078148136926   T   T   T
 -0.0001243427636226  0.9989369279338518  0.2304718780501290   T   T   T
  0.2219235476192543  0.1094104866247881  0.0714619347540981   T   T   T
  0.3331753519100306 -0.0009192504472612  0.9895424251722398   T   T   T
  0.4446247523361467  0.2217729732301896  0.1465851537937612   T   T   T
  0.5651120948169680  0.1161451182156258  0.3085528711763365   T   T   T
  0.4802702623702433  0.2188852200321289  0.4117215739127072   T   T   T
  0.3347082426736069 -0.0001138604986435  0.2300816775202361   T   T   T
  0.5554125298037744  0.1107526471858565  0.0715942690408871   T   T   T
  0.6679884023694536  0.0005353432734045  0.9903280285686229   T   T   T
  0.7757767630759195  0.2274540844603170  0.1508680177717811   T   T   T
  0.8865604411463075  0.1095143197405657  0.3064884787965503   T   T   T
  0.7869697930037748  0.2244312020639676  0.3926360574062644   T   T   T
  0.6671838533007237  0.0024027015210285  0.2280577814833187   T   T   T
  0.8871954312926290  0.1104157729270537  0.0741470722950991   T   T   T
  0.9988731137036663  0.3312401055330164  0.9905054617526429   T   T   T
  0.1100430222348777  0.5553616641571987  0.1492195230950826   T   T   T
  0.2296406585766666  0.4435080468174170  0.3070566435175779   T   T   T
  0.1119219726845794  0.5534630838111774  0.3893111914576847   T   T   T
  0.0013712587975318  0.3337241377426012  0.2297026683614986   T   T   T
  0.2214675523635082  0.4446051258850046  0.0708144659864748   T   T   T
  0.3312250251213333  0.3313689939150137  0.9894544573935158   T   T   T
  0.4440485594738731  0.5557363454943539  0.1452910886127741   T   T   T
  0.4716315680846522  0.5946380863827854  0.3944816091390431   T   T   T
  0.3446084112999585  0.3388748745343799  0.2352918041505150   T   T   T
  0.5553530341562808  0.4441198804695978  0.0687055154511460   T   T   T
  0.6669678738061877  0.3324816574817335  0.9891942809839968   T   T   T
  0.7779606192752309  0.5551147671526262  0.1462943551035052   T   T   T
  0.8935095257994186  0.4426483867220018  0.3070084485213260   T   T   T
  0.7572113788608298  0.5411402977795340  0.3814998308538367   T   T   T
  0.6571119864989756  0.3441585568169627  0.2376768064986580   T   T   T
  0.8891690647814232  0.4450969834654747  0.0709330982512997   T   T   T
  0.0005548294658676  0.6677209405714211  0.9891851759448732   T   T   T
  0.1096007368475002  0.8875654558435769  0.1497295294977231   T   T   T
  0.2195309607529080  0.7714181252867189  0.3073776240003043   T   T   T
  0.0961143580808395  0.8772511296077101  0.3905630148578013   T   T   T
  0.9971895250789466  0.6650258599694752  0.2309554649425447   T   T   T
  0.2218148429687234  0.7773239099067145  0.0718902620028388   T   T   T
  0.3330764963372376  0.6666342776202459  0.9891719869033361   T   T   T
  0.4448893951253149  0.8887769105713386  0.1489053520699880   T   T   T
  0.5635187463467899  0.7854079995071207  0.3028749708459471   T   T   T
  0.4537789320691204  0.8826708569584416  0.3904879983874961   T   T   T
  0.3344218328681807  0.6653809029552997  0.2299382104792267   T   T   T
  0.5556996504805692  0.7782093689573203  0.0708380605014248   T   T   T
  0.6673501794631728  0.6680217255671232  0.9888006506631566   T   T   T
  0.7759050600977234  0.8829408607938783  0.1507411716867248   T   T   T
  0.8866997239320422  0.7780505265196844  0.3064611784784125   T   T   T
  0.7814994006353104  0.8928630917143751  0.3917296410283138   T   T   T
  0.6548505168937144  0.6448182444926294  0.2356802065981761   T   T   T
  0.8885643621536050  0.7775347132685044  0.0713616138117593   T   T   T
  0.2363192945154288  0.2844854570497352  0.3116257012651538   T   T   T
  0.0008966823063568 -0.0011634356889112  0.3473225361246887   T   T   T
  0.2228953968487918  0.1096676302078838  0.1906442803532316   T   T   T
  0.1109621187509908  0.2216730187444802  0.0315494675280529   T   T   T
  0.3329766294520600 -0.0026384670329228  0.3538496889477621   T   T   T
  0.5543062337295906  0.1113968329071844  0.1913041433831559   T   T   T
  0.4435891041208710  0.2200043490969137  0.0291801844633503   T   T   T
  0.6677791838702484 -0.0005027308515219  0.3486337626607367   T   T   T
  0.8895216104346970  0.1115645125890297  0.1908173074271761   T   T   T
  0.7776073968605491  0.2223781190793209  0.0314080405266105   T   T   T
  0.0068851069220474  0.3352376286606398  0.3480068203349765   T   T   T
  0.2230436987172625  0.4451504219519157  0.1893896941516808   T   T   T
  0.1110920916807617  0.5555622223169133  0.0311114960971760   T   T   T
  0.5535710866925216  0.4434051355978976  0.1822287170131513   T   T   T
  0.4436277261765704  0.5561984443494065  0.0285950793971119   T   T   T
  0.6805392672697956  0.3270397727858435  0.3522929795675160   T   T   T
  0.8883152495096360  0.4454002637617030  0.1900771774326712   T   T   T
  0.7794124427270462  0.5565423017578931  0.0288854988350846   T   T   T
  0.0027260042087336  0.6669582872765107  0.3472891563562523   T   T   T
  0.2232407721253367  0.7779336733723879  0.1909719098499179   T   T   T
  0.1109477170627632  0.8886548794080343  0.0316834524295334   T   T   T
  0.3403095819845104  0.6661955210238124  0.3501966986352499   T   T   T
  0.5546308245568932  0.7767057118087902  0.1894857040481980   T   T   T
  0.4448648727712289  0.8892214810543432  0.0313198403095282   T   T   T
  0.6685130174604597  0.6793539621343859  0.3529541171021274   T   T   T
  0.8866853760005485  0.7749688049350397  0.1907298272835758   T   T   T
  0.7778880594702103  0.8888335338042237  0.0312048834122700   T   T   T
  0.4474467362936651  0.2619608103055177  0.4419362004028229   T   T   T
 
  0.00000000E+00  0.00000000E+00  0.00000000E+00
  0.00000000E+00  0.00000000E+00  0.00000000E+00
  0.00000000E+00  0.00000000E+00  0.00000000E+00
  0.00000000E+00  0.00000000E+00  0.00000000E+00
  0.00000000E+00  0.00000000E+00  0.00000000E+00
  0.00000000E+00  0.00000000E+00  0.00000000E+00
  0.00000000E+00  0.00000000E+00  0.00000000E+00
  0.00000000E+00  0.00000000E+00  0.00000000E+00
  0.00000000E+00  0.00000000E+00  0.00000000E+00
  0.00000000E+00  0.00000000E+00  0.00000000E+00
  0.00000000E+00  0.00000000E+00  0.00000000E+00
  0.00000000E+00  0.00000000E+00  0.00000000E+00
  0.00000000E+00  0.00000000E+00  0.00000000E+00
  0.00000000E+00  0.00000000E+00  0.00000000E+00
  0.00000000E+00  0.00000000E+00  0.00000000E+00
  0.00000000E+00  0.00000000E+00  0.00000000E+00
  0.00000000E+00  0.00000000E+00  0.00000000E+00
  0.00000000E+00  0.00000000E+00  0.00000000E+00
  0.00000000E+00  0.00000000E+00  0.00000000E+00
  0.00000000E+00  0.00000000E+00  0.00000000E+00
  0.00000000E+00  0.00000000E+00  0.00000000E+00
  0.00000000E+00  0.00000000E+00  0.00000000E+00
  0.00000000E+00  0.00000000E+00  0.00000000E+00
  0.00000000E+00  0.00000000E+00  0.00000000E+00
  0.00000000E+00  0.00000000E+00  0.00000000E+00
  0.00000000E+00  0.00000000E+00  0.00000000E+00
  0.00000000E+00  0.00000000E+00  0.00000000E+00
  0.00000000E+00  0.00000000E+00  0.00000000E+00
  0.00000000E+00  0.00000000E+00  0.00000000E+00
  0.00000000E+00  0.00000000E+00  0.00000000E+00
  0.00000000E+00  0.00000000E+00  0.00000000E+00
  0.00000000E+00  0.00000000E+00  0.00000000E+00
  0.00000000E+00  0.00000000E+00  0.00000000E+00
  0.00000000E+00  0.00000000E+00  0.00000000E+00
  0.00000000E+00  0.00000000E+00  0.00000000E+00
  0.00000000E+00  0.00000000E+00  0.00000000E+00
  0.00000000E+00  0.00000000E+00  0.00000000E+00
  0.00000000E+00  0.00000000E+00  0.00000000E+00
  0.00000000E+00  0.00000000E+00  0.00000000E+00
  0.00000000E+00  0.00000000E+00  0.00000000E+00
  0.00000000E+00  0.00000000E+00  0.00000000E+00
  0.00000000E+00  0.00000000E+00  0.00000000E+00
  0.00000000E+00  0.00000000E+00  0.00000000E+00
  0.00000000E+00  0.00000000E+00  0.00000000E+00
  0.00000000E+00  0.00000000E+00  0.00000000E+00
  0.00000000E+00  0.00000000E+00  0.00000000E+00
  0.00000000E+00  0.00000000E+00  0.00000000E+00
  0.00000000E+00  0.00000000E+00  0.00000000E+00
  0.00000000E+00  0.00000000E+00  0.00000000E+00
  0.00000000E+00  0.00000000E+00  0.00000000E+00
  0.00000000E+00  0.00000000E+00  0.00000000E+00
  0.00000000E+00  0.00000000E+00  0.00000000E+00
  0.00000000E+00  0.00000000E+00  0.00000000E+00
  0.00000000E+00  0.00000000E+00  0.00000000E+00
  0.00000000E+00  0.00000000E+00  0.00000000E+00
  0.00000000E+00  0.00000000E+00  0.00000000E+00
  0.00000000E+00  0.00000000E+00  0.00000000E+00
  0.00000000E+00  0.00000000E+00  0.00000000E+00
  0.00000000E+00  0.00000000E+00  0.00000000E+00
  0.00000000E+00  0.00000000E+00  0.00000000E+00
  0.00000000E+00  0.00000000E+00  0.00000000E+00
  0.00000000E+00  0.00000000E+00  0.00000000E+00
  0.00000000E+00  0.00000000E+00  0.00000000E+00
  0.00000000E+00  0.00000000E+00  0.00000000E+00
  0.00000000E+00  0.00000000E+00  0.00000000E+00
  0.00000000E+00  0.00000000E+00  0.00000000E+00
  0.00000000E+00  0.00000000E+00  0.00000000E+00
  0.00000000E+00  0.00000000E+00  0.00000000E+00
  0.00000000E+00  0.00000000E+00  0.00000000E+00
  0.00000000E+00  0.00000000E+00  0.00000000E+00
  0.00000000E+00  0.00000000E+00  0.00000000E+00
  0.00000000E+00  0.00000000E+00  0.00000000E+00
  0.00000000E+00  0.00000000E+00  0.00000000E+00
  0.00000000E+00  0.00000000E+00  0.00000000E+00
  0.00000000E+00  0.00000000E+00  0.00000000E+00
  0.00000000E+00  0.00000000E+00  0.00000000E+00
  0.00000000E+00  0.00000000E+00  0.00000000E+00
  0.00000000E+00  0.00000000E+00  0.00000000E+00
  0.00000000E+00  0.00000000E+00  0.00000000E+00
  0.00000000E+00  0.00000000E+00  0.00000000E+00
  0.00000000E+00  0.00000000E+00  0.00000000E+00
