CeO2-you-111-you-Ba                     
   1.00000000000000     
     9.9505843146359734   -5.7449729071838416   -0.0000000011977279
    -0.0482207415449156   11.4064230234211088   -0.0231388465825700
    -0.0245427452407895   -0.0425092745764979   21.1800511710695005
   O    Ba   Ce H
    53     1    26 2
Selective dynamics
Direct
  0.0009191627166127  0.0004465552706739  0.9971052859452263   T   T   T
  0.1090538331579547  0.2221027772618530  0.1502549463920515   F   F   F
  0.2210447340240749  0.1087564680434899  0.3050018864757583   T   T   T
  0.0758633536141928  0.2086501751029045  0.3877160164944587   T   T   T
  0.0013550366344780  0.0016318053973865  0.2278092523500906   T   T   T
  0.2232207050247993  0.1131084100494733  0.0763315935658145   F   F   F
  0.3328603925541526  0.0004465552706397  0.9971052859452373   T   T   T
  0.4463819441037726  0.2221027772617135  0.1502549463921022   F   F   F
  0.5591052149209377  0.1088077212305312  0.2993305852174792   T   T   T
  0.4661198214922800  0.2086501751038952  0.3877160164952714   T   T   T
  0.3336097687636550  0.0016318053972546  0.2278092523501546   T   T   T
  0.5562491072378585  0.1116487555114423  0.0750869119928658   F   F   F
  0.6663603896033700 -0.0006132207932805  0.9964118145088005   T   T   T
  0.7755912736747068  0.2178485473495585  0.1515032160894723   F   F   F
  0.8830365063105935  0.1088077212312831  0.2993305852174939   T   T   T
  0.7749159731030093  0.2164979462052896  0.3804806903553367   T   T   T
  0.6591070110877970 -0.0151199778246389  0.2305647798948610   T   T   T
  0.8887336482736854  0.1116487555116031  0.0750869119928685   F   F   F
  0.0006728645592090  0.3341049146537768  0.9977900726646836   T   T   T
  0.1111067656807748  0.5549015765567221  0.1497829237412529   F   F   F
  0.2229080007267840  0.4564109830524190  0.3068156744456038   T   T   T
  0.1102570972459714  0.5634636523559308  0.3836895904968184   T   T   T
  0.0008911520226435  0.3341496806920984  0.2291424662070027   T   T   T
  0.2233961230296876  0.4448250289921242  0.0765126406875702   F   F   F
  0.3333908449080614  0.3334486898162102  0.9972644063449483   T   T   T
  0.4451827019692383  0.5570334039392404  0.1504621227545072   F   F   F
  0.5668369823196278  0.4564109830519462  0.3068156744461550   T   T   T
  0.3346651718613135  0.3359973437230393  0.2251241186378813   T   T   T
  0.5547629059622244  0.4448250289920198  0.0765126406875858   F   F   F
  0.6667660500944531  0.3341049146536789  0.9977900726646913   T   T   T
  0.7771278108755274  0.5549015765565376  0.1497829237412595   F   F   F
  0.8896488937105086  0.4459637874216374  0.3034566642910698   T   T   T
  0.7865395551093495  0.5634636523569557  0.3836895904966568   T   T   T
  0.6665925286692743  0.3341496806917340  0.2291424662070304   T   T   T
  0.8878085140055635  0.4422830280111648  0.0767786154978634   F   F   F
 -0.0009407177723568  0.6647855644551591  0.9977593903253912   T   T   T
  0.1120771685568182  0.8908213371128568  0.1482013662130558   F   F   F
  0.2180489356069201  0.7809921146790628  0.3002146010361273   T   T   T
  0.1117448483046391  0.8901566966082335  0.3830088588596972   T   T   T
  0.0002465189531442  0.6671600379065499  0.2265969444383789   T   T   T
  0.2215531179444328  0.7781600159566840  0.0744836308151156   F   F   F
  0.3328599886076535  0.6661820029805807  0.9976022835609198   T   T   T
  0.4436544396640521  0.8887012661567212  0.1475963144335358   F   F   F
  0.5391813601183743  0.7450287202353814  0.3153081773126612   T   T   T
  0.4420345240671833  0.8897884826378862  0.3790183326755815   T   T   T
  0.3342974804122792  0.6731547038499346  0.2275512353408039   T   T   T
  0.5556227120642298  0.7779114241284095  0.0754779365517021   F   F   F
  0.6666550143729403  0.6661820029805597  0.9976022835609241   T   T   T
  0.7783798264932391  0.8887012661570663  0.1475963144335322   F   F   F
  0.8962761790740508  0.7809921146805119  0.3002146010359900   T   T   T
  0.7810869585731964  0.8897884826385964  0.3790183326754608   T   T   T
  0.6721902234374456  0.6731547038502378  0.2275512353407383   T   T   T
  0.8899398980123753  0.7781600159566973  0.0744836308151025   F   F   F
  0.3327088111113448  0.3320846222237702  0.3645035243159357   T   T   T
  0.0027237161107560  0.0050910428846007  0.3417386591796793   T   T   T
  0.2243865251781373  0.1154400503577164  0.1908751111451949   F   F   F
  0.1117584722997895  0.2227241284987224  0.0372995189302213   F   F   F
  0.3357003267710189  0.0050910428871560  0.3417386591796270   T   T   T
  0.5544324141849425  0.1096955474434285  0.1889019665733734   F   F   F
  0.4442986561990283  0.2227241284989330  0.0372995189302169   F   F   F
  0.6651315183230486 -0.0030709633499573  0.3414929798152626   T   T   T
  0.8885971332571299  0.1096955474422825  0.1889019665733862   F   F   F
  0.7773889574749185  0.2214439149497382  0.0368909312681340   F   F   F
 -0.0039220031849225  0.3309125708140659  0.3420333372588830   T   T   T
  0.2228145621000711  0.4435904231377677  0.1914469607102203   F   F   F
  0.1104468933479785  0.5540648308176018  0.0369621464188141   F   F   F
  0.5541098610402060  0.4435904231387687  0.1914469607101574   F   F   F
  0.4438977592099797  0.5544635184198127  0.0367728568680266   F   F   F
  0.6681685740013986  0.3309125708161738  0.3420333372587770   T   T   T
  0.8890605009823843  0.4447870019641109  0.1896468637865737   F   F   F
  0.7769509374696638  0.5540648308177610  0.0369621464188101   F   F   F
  0.0015019914089079  0.6696709828175506  0.3436554263090896   T   T   T
  0.2207063341286469  0.7795510451576431  0.1861941258152514   F   F   F
  0.1114628944339196  0.8895927888681530  0.0354604241534997   F   F   F
  0.3187254896246843  0.6744785799314276  0.3367406957940106   T   T   T
  0.5542809866465586  0.7752279732930598  0.1868716628346209   F   F   F
  0.4441717704221931  0.8886375710059112  0.0355671435148320   F   F   F
  0.6890860903080060  0.6744785799315006  0.3367406957947926   T   T   T
  0.8921777110278443  0.7795510451569352  0.1861941258152326   F   F   F
  0.7777988005836076  0.8886375710059249  0.0355671435148407   F   F   F
0.3327088111113448 0.3320846222237702 0.464504 T T T
0.446598 0.216020 0.433410 T T T 
 
  0.00000000E+00  0.00000000E+00  0.00000000E+00
  0.00000000E+00  0.00000000E+00  0.00000000E+00
  0.00000000E+00  0.00000000E+00  0.00000000E+00
  0.00000000E+00  0.00000000E+00  0.00000000E+00
  0.00000000E+00  0.00000000E+00  0.00000000E+00
  0.00000000E+00  0.00000000E+00  0.00000000E+00
  0.00000000E+00  0.00000000E+00  0.00000000E+00
  0.00000000E+00  0.00000000E+00  0.00000000E+00
  0.00000000E+00  0.00000000E+00  0.00000000E+00
  0.00000000E+00  0.00000000E+00  0.00000000E+00
  0.00000000E+00  0.00000000E+00  0.00000000E+00
  0.00000000E+00  0.00000000E+00  0.00000000E+00
  0.00000000E+00  0.00000000E+00  0.00000000E+00
  0.00000000E+00  0.00000000E+00  0.00000000E+00
  0.00000000E+00  0.00000000E+00  0.00000000E+00
  0.00000000E+00  0.00000000E+00  0.00000000E+00
  0.00000000E+00  0.00000000E+00  0.00000000E+00
  0.00000000E+00  0.00000000E+00  0.00000000E+00
  0.00000000E+00  0.00000000E+00  0.00000000E+00
  0.00000000E+00  0.00000000E+00  0.00000000E+00
  0.00000000E+00  0.00000000E+00  0.00000000E+00
  0.00000000E+00  0.00000000E+00  0.00000000E+00
  0.00000000E+00  0.00000000E+00  0.00000000E+00
  0.00000000E+00  0.00000000E+00  0.00000000E+00
  0.00000000E+00  0.00000000E+00  0.00000000E+00
  0.00000000E+00  0.00000000E+00  0.00000000E+00
  0.00000000E+00  0.00000000E+00  0.00000000E+00
  0.00000000E+00  0.00000000E+00  0.00000000E+00
  0.00000000E+00  0.00000000E+00  0.00000000E+00
  0.00000000E+00  0.00000000E+00  0.00000000E+00
  0.00000000E+00  0.00000000E+00  0.00000000E+00
  0.00000000E+00  0.00000000E+00  0.00000000E+00
  0.00000000E+00  0.00000000E+00  0.00000000E+00
  0.00000000E+00  0.00000000E+00  0.00000000E+00
  0.00000000E+00  0.00000000E+00  0.00000000E+00
  0.00000000E+00  0.00000000E+00  0.00000000E+00
  0.00000000E+00  0.00000000E+00  0.00000000E+00
  0.00000000E+00  0.00000000E+00  0.00000000E+00
  0.00000000E+00  0.00000000E+00  0.00000000E+00
  0.00000000E+00  0.00000000E+00  0.00000000E+00
  0.00000000E+00  0.00000000E+00  0.00000000E+00
  0.00000000E+00  0.00000000E+00  0.00000000E+00
  0.00000000E+00  0.00000000E+00  0.00000000E+00
  0.00000000E+00  0.00000000E+00  0.00000000E+00
  0.00000000E+00  0.00000000E+00  0.00000000E+00
  0.00000000E+00  0.00000000E+00  0.00000000E+00
  0.00000000E+00  0.00000000E+00  0.00000000E+00
  0.00000000E+00  0.00000000E+00  0.00000000E+00
  0.00000000E+00  0.00000000E+00  0.00000000E+00
  0.00000000E+00  0.00000000E+00  0.00000000E+00
  0.00000000E+00  0.00000000E+00  0.00000000E+00
  0.00000000E+00  0.00000000E+00  0.00000000E+00
  0.00000000E+00  0.00000000E+00  0.00000000E+00
  0.00000000E+00  0.00000000E+00  0.00000000E+00
  0.00000000E+00  0.00000000E+00  0.00000000E+00
  0.00000000E+00  0.00000000E+00  0.00000000E+00
  0.00000000E+00  0.00000000E+00  0.00000000E+00
  0.00000000E+00  0.00000000E+00  0.00000000E+00
  0.00000000E+00  0.00000000E+00  0.00000000E+00
  0.00000000E+00  0.00000000E+00  0.00000000E+00
  0.00000000E+00  0.00000000E+00  0.00000000E+00
  0.00000000E+00  0.00000000E+00  0.00000000E+00
  0.00000000E+00  0.00000000E+00  0.00000000E+00
  0.00000000E+00  0.00000000E+00  0.00000000E+00
  0.00000000E+00  0.00000000E+00  0.00000000E+00
  0.00000000E+00  0.00000000E+00  0.00000000E+00
  0.00000000E+00  0.00000000E+00  0.00000000E+00
  0.00000000E+00  0.00000000E+00  0.00000000E+00
  0.00000000E+00  0.00000000E+00  0.00000000E+00
  0.00000000E+00  0.00000000E+00  0.00000000E+00
  0.00000000E+00  0.00000000E+00  0.00000000E+00
  0.00000000E+00  0.00000000E+00  0.00000000E+00
  0.00000000E+00  0.00000000E+00  0.00000000E+00
  0.00000000E+00  0.00000000E+00  0.00000000E+00
  0.00000000E+00  0.00000000E+00  0.00000000E+00
  0.00000000E+00  0.00000000E+00  0.00000000E+00
  0.00000000E+00  0.00000000E+00  0.00000000E+00
  0.00000000E+00  0.00000000E+00  0.00000000E+00
  0.00000000E+00  0.00000000E+00  0.00000000E+00
  0.00000000E+00  0.00000000E+00  0.00000000E+00
