CeO2-you-111-you-Zn                     
   1.00000000000000     
     9.8191369327443248   -5.6690817227401684   -0.0000000000000000
     0.0000000029350439   11.3381614552880539   -0.0000000000000000
    -0.0000000000000000    0.0000000000000000   21.1802314466714883
   O    Zn   Ce H
    54     1    26 2
Selective dynamics
Direct
  0.0002276030758270  0.0000654309428991  0.9962085374008743   T   T   T
  0.1043153113984333  0.2188241556991114  0.1486690300276245   T   T   T
  0.2305406154424435  0.1277482308837913  0.3043580017610696   T   T   T
  0.1187404591415387  0.2260367295692177  0.3811952849713811   T   T   T
  0.0025008277313740  0.0003951527510823  0.2307567937238140   T   T   T
  0.2226238974357355  0.1119147948713689  0.0754205831214820   T   T   T
  0.3331708278671498  0.0000654309429653  0.9962085374008743   T   T   T
  0.4478418443006743  0.2188241556990167  0.1486690300276245   T   T   T
  0.5549940520176534  0.1116729479818032  0.3048141257906658   T   T   T
  0.4406292704276752  0.2260367295678391  0.3811952849713811   T   T   T
  0.3312273250197184  0.0003951527508523  0.2307567937238140   T   T   T
  0.5572110866726878  0.1094559133271218  0.0753526871422872   T   T   T
  0.6666669999999968 -0.0000000000000000  0.9950369040762064   T   T   T
  0.7779261847499456  0.2225183695000025  0.1515055485334832   T   T   T
  0.8900128959643188  0.1116729479819715  0.3048141257906658   T   T   T
  0.7778726151370589  0.2224112302740923  0.3835606672638117   T   T   T
  0.6666669999999968 -0.0000000000000000  0.2310577892485764   T   T   T
  0.8855788266544945  0.1094559133271816  0.0753526871422872   T   T   T
  0.0002276030759949  0.3334951721330802  0.9962085374008743   T   T   T
  0.1107294346832854  0.5559375653172451  0.1499957942956965   T   T   T
  0.2305406154449054  0.4361253845586485  0.3043580017610696   T   T   T
  0.1126478229138430  0.5540191770860576  0.3814632905993482   T   T   T
  0.0025008277313891  0.3354386749797765  0.2307567937238140   T   T   T
  0.2226238974359584  0.4440421025643628  0.0754205831214820   T   T   T
  0.3333330000000032  0.3333330000000032  0.9958283541842067   T   T   T
  0.4478418443008879  0.5623516886018789  0.1486690300276245   T   T   T
  0.5389187691126581  0.4361253845575557  0.3043580017610696   T   T   T
  0.4406292704307814  0.5479265408629499  0.3811952849713811   T   T   T
  0.3333330000000032  0.3333330000000032  0.2173498682921207   T   T   T
  0.5547522051283130  0.4440421025642638  0.0754205831214820   T   T   T
  0.6666015690570047  0.3334951721330719  0.9962085374008743   T   T   T
  0.7785411306337940  0.5559375653170832  0.1499957942956965   T   T   T
  0.8889244354746674  0.4445148709493229  0.3042457039450747   T   T   T
  0.7747043541722426  0.5540191770860894  0.3814632905993482   T   T   T
  0.6662718472483744  0.3354386749795398  0.2307567937238140   T   T   T
  0.8884530812922167  0.4435721625845389  0.0758246235845963   T   T   T
  0.0000000000000000  0.6666669999999968  0.9964014091717412   T   T   T
  0.1107294346829207  0.8881258693656764  0.1499957942956965   T   T   T
  0.2221511290506389  0.7777425645253294  0.3042457039450747   T   T   T
  0.1126478229139145  0.8919626458278573  0.3814632905993482   T   T   T
  0.0000000000000000  0.6666669999999968  0.2299882041568309   T   T   T
  0.2230938374158047  0.7782139187077801  0.0758246235845963   T   T   T
  0.3331708278671685  0.6664393969240288  0.9962085374008743   T   T   T
  0.4441476305003388  0.8887408152500512  0.1515055485334832   T   T   T
  0.5549940520180324  0.7766541040362254  0.3048141257906658   T   T   T
  0.4442547697258035  0.8887943848629379  0.3835606672638117   T   T   T
  0.3312273250202517  0.6641661722693777  0.2307567937238140   T   T   T
  0.5572110866728222  0.7810881733456968  0.0753526871422872   T   T   T
  0.6666015690568554  0.6664393969239544  0.9962085374008743   T   T   T
  0.7779261847497084  0.8887408152499464  0.1515055485334832   T   T   T
  0.8889244354746936  0.7777425645253409  0.3042457039450747   T   T   T
  0.7778726151371307  0.8887943848629697  0.3835606672638117   T   T   T
  0.6662718472488927  0.6641661722693710  0.2307567937238140   T   T   T
  0.8884530812919785  0.7782139187076741  0.0758246235845963   T   T   T
  0.3333330000000032  0.3333330000000032  0.3414744427932616   T   T   T
  0.0027371424902936  0.0026258274117409  0.3431066787179924   T   T   T
  0.2234318035006289  0.1135306070006621  0.1888770450410931   T   T   T
  0.1104599566005920  0.2218964783003063  0.0354919277425742   T   T   T
  0.3332216849214518  0.0026258274115787  0.3431066787179924   T   T   T
  0.5557226670373832  0.1109443329630015  0.1904918709001419   T   T   T
  0.4447695216997102  0.2218964783003139  0.0354919277425742   T   T   T
  0.6666669999999968 -0.0000000000000000  0.3451151735704409   T   T   T
  0.8885556659255017  0.1109443329628845  0.1904918709001419   T   T   T
  0.7773993933066307  0.2214647866131452  0.0357913019030727   T   T   T
  0.0027371424902967  0.3334443150781907  0.3431066787179924   T   T   T
  0.2234318035019640  0.4432341964999629  0.1888770450410931   T   T   T
  0.1110546027162944  0.5556123972835014  0.0362669598145227   T   T   T
  0.5531363929974142  0.4432341964993705  0.1888770450410931   T   T   T
  0.4447695216996931  0.5562070433993872  0.0354919277425742   T   T   T
  0.6640411725878861  0.3334443150780271  0.3431066787179924   T   T   T
  0.8890073868250519  0.4446807736498457  0.1900804193377589   T   T   T
  0.7778907945672672  0.5556123972835655  0.0362669598145227   T   T   T
  0.0000000000000000  0.6666669999999968  0.3424871981235876   T   T   T
  0.2219852263493178  0.7776596131749449  0.1900804193377589   T   T   T
  0.1110546027164384  0.8887762054329373  0.0362669598145227   T   T   T
  0.3332216849218204  0.6639298575102319  0.3431066787179924   T   T   T
  0.5557226670371194  0.7781113340741141  0.1904918709001419   T   T   T
  0.4452012133864548  0.8892676066933661  0.0357913019030727   T   T   T
  0.6640411725882512  0.6639298575102306  0.3431066787179924   T   T   T
  0.8890073868256306  0.7776596131752020  0.1900804193377589   T   T   T
  0.7773993933069073  0.8892676066934889  0.0357913019030727   T   T   T
0.3333330000000032 0.3333330000000032 0.41474 T T T
0.446598 0.216020 0.433410 T T T 
 
  0.00000000E+00  0.00000000E+00  0.00000000E+00
  0.00000000E+00  0.00000000E+00  0.00000000E+00
  0.00000000E+00  0.00000000E+00  0.00000000E+00
  0.00000000E+00  0.00000000E+00  0.00000000E+00
  0.00000000E+00  0.00000000E+00  0.00000000E+00
  0.00000000E+00  0.00000000E+00  0.00000000E+00
  0.00000000E+00  0.00000000E+00  0.00000000E+00
  0.00000000E+00  0.00000000E+00  0.00000000E+00
  0.00000000E+00  0.00000000E+00  0.00000000E+00
  0.00000000E+00  0.00000000E+00  0.00000000E+00
  0.00000000E+00  0.00000000E+00  0.00000000E+00
  0.00000000E+00  0.00000000E+00  0.00000000E+00
  0.00000000E+00  0.00000000E+00  0.00000000E+00
  0.00000000E+00  0.00000000E+00  0.00000000E+00
  0.00000000E+00  0.00000000E+00  0.00000000E+00
  0.00000000E+00  0.00000000E+00  0.00000000E+00
  0.00000000E+00  0.00000000E+00  0.00000000E+00
  0.00000000E+00  0.00000000E+00  0.00000000E+00
  0.00000000E+00  0.00000000E+00  0.00000000E+00
  0.00000000E+00  0.00000000E+00  0.00000000E+00
  0.00000000E+00  0.00000000E+00  0.00000000E+00
  0.00000000E+00  0.00000000E+00  0.00000000E+00
  0.00000000E+00  0.00000000E+00  0.00000000E+00
  0.00000000E+00  0.00000000E+00  0.00000000E+00
  0.00000000E+00  0.00000000E+00  0.00000000E+00
  0.00000000E+00  0.00000000E+00  0.00000000E+00
  0.00000000E+00  0.00000000E+00  0.00000000E+00
  0.00000000E+00  0.00000000E+00  0.00000000E+00
  0.00000000E+00  0.00000000E+00  0.00000000E+00
  0.00000000E+00  0.00000000E+00  0.00000000E+00
  0.00000000E+00  0.00000000E+00  0.00000000E+00
  0.00000000E+00  0.00000000E+00  0.00000000E+00
  0.00000000E+00  0.00000000E+00  0.00000000E+00
  0.00000000E+00  0.00000000E+00  0.00000000E+00
  0.00000000E+00  0.00000000E+00  0.00000000E+00
  0.00000000E+00  0.00000000E+00  0.00000000E+00
  0.00000000E+00  0.00000000E+00  0.00000000E+00
  0.00000000E+00  0.00000000E+00  0.00000000E+00
  0.00000000E+00  0.00000000E+00  0.00000000E+00
  0.00000000E+00  0.00000000E+00  0.00000000E+00
  0.00000000E+00  0.00000000E+00  0.00000000E+00
  0.00000000E+00  0.00000000E+00  0.00000000E+00
  0.00000000E+00  0.00000000E+00  0.00000000E+00
  0.00000000E+00  0.00000000E+00  0.00000000E+00
  0.00000000E+00  0.00000000E+00  0.00000000E+00
  0.00000000E+00  0.00000000E+00  0.00000000E+00
  0.00000000E+00  0.00000000E+00  0.00000000E+00
  0.00000000E+00  0.00000000E+00  0.00000000E+00
  0.00000000E+00  0.00000000E+00  0.00000000E+00
  0.00000000E+00  0.00000000E+00  0.00000000E+00
  0.00000000E+00  0.00000000E+00  0.00000000E+00
  0.00000000E+00  0.00000000E+00  0.00000000E+00
  0.00000000E+00  0.00000000E+00  0.00000000E+00
  0.00000000E+00  0.00000000E+00  0.00000000E+00
  0.00000000E+00  0.00000000E+00  0.00000000E+00
  0.00000000E+00  0.00000000E+00  0.00000000E+00
  0.00000000E+00  0.00000000E+00  0.00000000E+00
  0.00000000E+00  0.00000000E+00  0.00000000E+00
  0.00000000E+00  0.00000000E+00  0.00000000E+00
  0.00000000E+00  0.00000000E+00  0.00000000E+00
  0.00000000E+00  0.00000000E+00  0.00000000E+00
  0.00000000E+00  0.00000000E+00  0.00000000E+00
  0.00000000E+00  0.00000000E+00  0.00000000E+00
  0.00000000E+00  0.00000000E+00  0.00000000E+00
  0.00000000E+00  0.00000000E+00  0.00000000E+00
  0.00000000E+00  0.00000000E+00  0.00000000E+00
  0.00000000E+00  0.00000000E+00  0.00000000E+00
  0.00000000E+00  0.00000000E+00  0.00000000E+00
  0.00000000E+00  0.00000000E+00  0.00000000E+00
  0.00000000E+00  0.00000000E+00  0.00000000E+00
  0.00000000E+00  0.00000000E+00  0.00000000E+00
  0.00000000E+00  0.00000000E+00  0.00000000E+00
  0.00000000E+00  0.00000000E+00  0.00000000E+00
  0.00000000E+00  0.00000000E+00  0.00000000E+00
  0.00000000E+00  0.00000000E+00  0.00000000E+00
  0.00000000E+00  0.00000000E+00  0.00000000E+00
  0.00000000E+00  0.00000000E+00  0.00000000E+00
  0.00000000E+00  0.00000000E+00  0.00000000E+00
  0.00000000E+00  0.00000000E+00  0.00000000E+00
  0.00000000E+00  0.00000000E+00  0.00000000E+00
  0.00000000E+00  0.00000000E+00  0.00000000E+00
