CeO2-you-111-you-Ge                     
   1.00000000000000     
     9.8233258828218819   -5.7075249809975750    0.0115347736723436
     0.0000000025714390   11.4150479576102359   -0.0000000013589545
     0.0244457074969504   -0.0000000024876137   21.1104524559867635
   O    Ge   Ce
    53     1    26
Selective dynamics
Direct
 -0.0003901919086713  0.0010531842131844  0.9970044200517557   T   T   T
  0.1111067573141729  0.2222198786567146  0.1502905317873712   T   T   T
  0.2251093399119336  0.1240588109160049  0.3054368343567074   T   T   T
  0.1066505498992228  0.2199917749496489  0.3862503893434730   T   T   T
  0.0005353341293054 -0.0000383106552422  0.2293025386142450   T   T   T
  0.2220028900412608  0.1104196499662685  0.0755515210671253   T   T   T
  0.3323287658869980 -0.0006220187421037  0.9956560172365961   T   T   T
  0.4473637477119990  0.2196192633962936  0.1458162109308234   T   T   T
  0.5618830513831446  0.1080803630343521  0.2999746149619592   T   T   T
  0.4664741087599987  0.2009403907711356  0.3887105392095403   T   T   T
  0.3326665168769568  0.0029962436916562  0.2297669618019060   T   T   T
  0.5560497806777825  0.1087703325866543  0.0741750021389918   T   T   T
  0.6687781210136000  0.0010555605070334  0.9954087973222540   T   T   T
  0.7758879747141896  0.2276446204630138  0.1516879108228133   T   T   T
  0.8898107617043882  0.1115718808517620  0.3035381711403001   T   T   T
  0.7805537989268188  0.2208217929000882  0.3850687903017221   T   T   T
  0.6698526019543473  0.0015928009774769  0.2261025736237355   T   T   T
  0.8862572141763877  0.1097951070879055  0.0776755980487475   T   T   T
 -0.0003901919084491  0.3318896238778985  0.9970044200517040   T   T   T
  0.1099642697703664  0.5559848670405663  0.1510195200337843   T   T   T
  0.2251093399104765  0.4343835289960321  0.3054368343567690   T   T   T
  0.1103724243074597  0.5561763126761676  0.3809844785178430   T   T   T
  0.0005353341307145  0.3339066447839671  0.2293025386142337   T   T   T
  0.2220028900410433  0.4449162400749296  0.0755515210671779   T   T   T
  0.3307896176970285  0.3320613088482848  0.9956605213166080   T   T   T
  0.4473637477101141  0.5610784843168081  0.1458162109307817   T   T   T
  0.4664741087610400  0.5988677179894443  0.3887105392092230   T   T   T
  0.3440328705659277  0.3386829352833040  0.2221861120790367   T   T   T
  0.5554281104849920  0.4443800552427903  0.0716058655233752   T   T   T
  0.6678103960459498  0.3321438093549846  0.9955047381239915   T   T   T
  0.7790288578999102  0.5561814289493977  0.1475738439855326   T   T   T
  0.8887894800770626  0.4417327526819985  0.3042597654384338   T   T   T
  0.7551248329074397  0.5442294164538612  0.3748992368286420   T   T   T
  0.6549889963764931  0.3426157393497319  0.2356491022082283   T   T   T
  0.8896752685823358  0.4451626642181553  0.0751023343612139   T   T   T
  0.0006057682253904  0.6669698841125900  0.9958771615992179   T   T   T
  0.1099642697693676  0.8873134027282272  0.1510195200338254   T   T   T
  0.2213340553083587  0.7773340276537835  0.3026641860441446   T   T   T
  0.1103724243063293  0.8875301116297727  0.3809844785177366   T   T   T
 -0.0030788241825783  0.6651275879078713  0.2301339947438563   T   T   T
  0.2224257764948643  0.7778798882474383  0.0756377541148669   T   T   T
  0.3323287658869501  0.6662847846289662  0.9956560172365663   T   T   T
  0.4439526652528782  0.8886433326265044  0.1508263982350905   T   T   T
  0.5618830513828477  0.7871356883504698  0.2999746149616777   T   T   T
  0.4461873911577158  0.8897606955789493  0.3814226574514374   T   T   T
  0.3326665168775194  0.6630042731860929  0.2297669618018579   T   T   T
  0.5560497806784934  0.7806124480919795  0.0741750021388671   T   T   T
  0.6678103960467617  0.6689995866917177  0.9955047381238255   T   T   T
  0.7758879747124514  0.8815763542502083  0.1516879108230343   T   T   T
  0.8887894800759123  0.7803897273923991  0.3042597654383570   T   T   T
  0.7805537989270374  0.8930650060268734  0.3850687903012122   T   T   T
  0.6549889963809218  0.6457062570298160  0.2356491022074978   T   T   T
  0.8896752685831025  0.7778456043643938  0.0751023343610080   T   T   T
  0.2888622042627519  0.3110976021316745  0.3480445945877964   T   T   T
  0.0025420863230095  0.0010579781256318  0.3430475245716265   T   T   T
  0.2246508076072809  0.1143269047644072  0.1904015103789616   T   T   T
  0.1111444065522256  0.2222387032760317  0.0365719169582274   T   T   T
  0.3373394794805738  0.0027929630910134  0.3439102811100436   T   T   T
  0.5550121869826010  0.1115134598200568  0.1894081122828635   T   T   T
  0.4435727269748358  0.2200206605242055  0.0336907010533456   T   T   T
  0.6679241343376133  0.0006285671695640  0.3427829343080471   T   T   T
  0.8891762368038781  0.1112546184028545  0.1901102464480597   T   T   T
  0.7780035551225676  0.2223632094239082  0.0357928870528921   T   T   T
  0.0025420863233379  0.3348171081998986  0.3430475245712066   T   T   T
  0.2246508076074719  0.4436569028423404  0.1904015103788451   T   T   T
  0.1109823681443426  0.5553131237428401  0.0368862919126877   T   T   T
  0.5536309315102768  0.4434814657522936  0.1811498487484348   T   T   T
  0.4435727269743158  0.5568860664498038  0.0336907010534807   T   T   T
  0.6672061065730345  0.3210444519497986  0.3480931916790044   T   T   T
  0.8874402526805112  0.4446838897492346  0.1908448996284015   T   T   T
  0.7803813964604444  0.5568576982302488  0.0339875668170467   T   T   T
 -0.0002297372110434  0.6665521313973319  0.3415187406613141   T   T   T
  0.2223781045848318  0.7778560522929898  0.1900715808039431   T   T   T
  0.1109823681443320  0.8890032444021267  0.0368862919126630   T   T   T
  0.3373394794838314  0.6678805163891965  0.3439102811093003   T   T   T
  0.5550121869862472  0.7768317271621870  0.1894081122827364   T   T   T
  0.4452581504988996  0.8892960752492071  0.0354393777867920   T   T   T
  0.6672061065672982  0.6794946546173298  0.3480931916804397   T   T   T
  0.8874402526832965  0.7760893629365706  0.1908448996283249   T   T   T
  0.7780035551231678  0.8889733456990360  0.0357928870529023   T   T   T
 
  0.00000000E+00  0.00000000E+00  0.00000000E+00
  0.00000000E+00  0.00000000E+00  0.00000000E+00
  0.00000000E+00  0.00000000E+00  0.00000000E+00
  0.00000000E+00  0.00000000E+00  0.00000000E+00
  0.00000000E+00  0.00000000E+00  0.00000000E+00
  0.00000000E+00  0.00000000E+00  0.00000000E+00
  0.00000000E+00  0.00000000E+00  0.00000000E+00
  0.00000000E+00  0.00000000E+00  0.00000000E+00
  0.00000000E+00  0.00000000E+00  0.00000000E+00
  0.00000000E+00  0.00000000E+00  0.00000000E+00
  0.00000000E+00  0.00000000E+00  0.00000000E+00
  0.00000000E+00  0.00000000E+00  0.00000000E+00
  0.00000000E+00  0.00000000E+00  0.00000000E+00
  0.00000000E+00  0.00000000E+00  0.00000000E+00
  0.00000000E+00  0.00000000E+00  0.00000000E+00
  0.00000000E+00  0.00000000E+00  0.00000000E+00
  0.00000000E+00  0.00000000E+00  0.00000000E+00
  0.00000000E+00  0.00000000E+00  0.00000000E+00
  0.00000000E+00  0.00000000E+00  0.00000000E+00
  0.00000000E+00  0.00000000E+00  0.00000000E+00
  0.00000000E+00  0.00000000E+00  0.00000000E+00
  0.00000000E+00  0.00000000E+00  0.00000000E+00
  0.00000000E+00  0.00000000E+00  0.00000000E+00
  0.00000000E+00  0.00000000E+00  0.00000000E+00
  0.00000000E+00  0.00000000E+00  0.00000000E+00
  0.00000000E+00  0.00000000E+00  0.00000000E+00
  0.00000000E+00  0.00000000E+00  0.00000000E+00
  0.00000000E+00  0.00000000E+00  0.00000000E+00
  0.00000000E+00  0.00000000E+00  0.00000000E+00
  0.00000000E+00  0.00000000E+00  0.00000000E+00
  0.00000000E+00  0.00000000E+00  0.00000000E+00
  0.00000000E+00  0.00000000E+00  0.00000000E+00
  0.00000000E+00  0.00000000E+00  0.00000000E+00
  0.00000000E+00  0.00000000E+00  0.00000000E+00
  0.00000000E+00  0.00000000E+00  0.00000000E+00
  0.00000000E+00  0.00000000E+00  0.00000000E+00
  0.00000000E+00  0.00000000E+00  0.00000000E+00
  0.00000000E+00  0.00000000E+00  0.00000000E+00
  0.00000000E+00  0.00000000E+00  0.00000000E+00
  0.00000000E+00  0.00000000E+00  0.00000000E+00
  0.00000000E+00  0.00000000E+00  0.00000000E+00
  0.00000000E+00  0.00000000E+00  0.00000000E+00
  0.00000000E+00  0.00000000E+00  0.00000000E+00
  0.00000000E+00  0.00000000E+00  0.00000000E+00
  0.00000000E+00  0.00000000E+00  0.00000000E+00
  0.00000000E+00  0.00000000E+00  0.00000000E+00
  0.00000000E+00  0.00000000E+00  0.00000000E+00
  0.00000000E+00  0.00000000E+00  0.00000000E+00
  0.00000000E+00  0.00000000E+00  0.00000000E+00
  0.00000000E+00  0.00000000E+00  0.00000000E+00
  0.00000000E+00  0.00000000E+00  0.00000000E+00
  0.00000000E+00  0.00000000E+00  0.00000000E+00
  0.00000000E+00  0.00000000E+00  0.00000000E+00
  0.00000000E+00  0.00000000E+00  0.00000000E+00
  0.00000000E+00  0.00000000E+00  0.00000000E+00
  0.00000000E+00  0.00000000E+00  0.00000000E+00
  0.00000000E+00  0.00000000E+00  0.00000000E+00
  0.00000000E+00  0.00000000E+00  0.00000000E+00
  0.00000000E+00  0.00000000E+00  0.00000000E+00
  0.00000000E+00  0.00000000E+00  0.00000000E+00
  0.00000000E+00  0.00000000E+00  0.00000000E+00
  0.00000000E+00  0.00000000E+00  0.00000000E+00
  0.00000000E+00  0.00000000E+00  0.00000000E+00
  0.00000000E+00  0.00000000E+00  0.00000000E+00
  0.00000000E+00  0.00000000E+00  0.00000000E+00
  0.00000000E+00  0.00000000E+00  0.00000000E+00
  0.00000000E+00  0.00000000E+00  0.00000000E+00
  0.00000000E+00  0.00000000E+00  0.00000000E+00
  0.00000000E+00  0.00000000E+00  0.00000000E+00
  0.00000000E+00  0.00000000E+00  0.00000000E+00
  0.00000000E+00  0.00000000E+00  0.00000000E+00
  0.00000000E+00  0.00000000E+00  0.00000000E+00
  0.00000000E+00  0.00000000E+00  0.00000000E+00
  0.00000000E+00  0.00000000E+00  0.00000000E+00
  0.00000000E+00  0.00000000E+00  0.00000000E+00
  0.00000000E+00  0.00000000E+00  0.00000000E+00
  0.00000000E+00  0.00000000E+00  0.00000000E+00
  0.00000000E+00  0.00000000E+00  0.00000000E+00
  0.00000000E+00  0.00000000E+00  0.00000000E+00
  0.00000000E+00  0.00000000E+00  0.00000000E+00
