CeO2-you-111-you-Tc                     
   1.00000000000000     
     9.9086202594717552   -5.7151863606632274    0.0254611381271145
    -0.0000000066711674   11.4303706982479749   -0.0000000028562683
     0.0571192636307195   -0.0000000056160364   20.6542671700291294
   O    Tc   Ce
    53     1    26
Selective dynamics
Direct
 -0.0005486219211725  0.0017941100959190  0.9941905025560495   T   T   T
  0.1244349470394978  0.2288839735207031  0.1532346054364548   T   T   T
  0.2212020150295158  0.1168158833726065  0.3022294756201150   T   T   T
  0.1777498445538550  0.2555414222861554  0.3912349462644576   T   T   T
 -0.0019479764152445 -0.0023521122495190  0.2257705563981024   T   T   T
  0.2212481721695918  0.1097628016051057  0.0721597673257981   T   T   T
  0.3348189597099056  0.0006640567876821  0.9925148027387410   T   T   T
  0.4405765086234876  0.2237738086230630  0.1482791066525889   T   T   T
  0.5448870995233970  0.1059912535464533  0.3068204096986428   T   T   T
  0.4325359465803518  0.2659858284434756  0.3702312771477419   T   T   T
  0.3297788866435444 -0.0018299046060684  0.2282614543641468   T   T   T
  0.5535521073998740  0.1107291514335628  0.0742481482790195   T   T   T
  0.6702421675744700  0.0017875837861642  0.9955786604719782   T   T   T
  0.7715674610123161  0.2232117045507069  0.1519676936247632   T   T   T
  0.8895716379192536  0.1114523189588664  0.3054002997551163   T   T   T
  0.7667599879176474  0.2070451021104389  0.3922010178293091   T   T   T
  0.6637060325322246 -0.0014804837349433  0.2310152354104683   T   T   T
  0.8909166489764453  0.1121248244879316  0.0781490101737198   T   T   T
 -0.0005486219216167  0.3309902679829794  0.9941905025559432   T   T   T
  0.1109707524261980  0.5553938396493008  0.1479210088418842   T   T   T
  0.2212020150314696  0.4377191316401913  0.3022294756223737   T   T   T
  0.1221265376140705  0.5696076960942971  0.3872785060472205   T   T   T
 -0.0019479764136979  0.3337371358320307  0.2257705563983973   T   T   T
  0.2212481721698243  0.4448183705620750  0.0721597673259633   T   T   T
  0.3324916804586695  0.3329123402289783  0.9930316359758905   T   T   T
  0.4405765086184010  0.5501366999988245  0.1482791066527923   T   T   T
  0.4325359465816548  0.4998841181587194  0.3702312771507829   T   T   T
  0.3664330404240601  0.3498830202082758  0.2497473479076889   T   T   T
  0.5569322287532041  0.4451321143770072  0.0699467019714393   T   T   T
  0.6679351649182440  0.3319251121762130  0.9932594937584522   T   T   T
  0.7791204859073887  0.5562272429551223  0.1456058513848690   T   T   T
  0.8928222840814032  0.4467628995112953  0.3048030916598781   T   T   T
  0.7874370439911010  0.5603855220042250  0.3888513854538861   T   T   T
  0.6584812715143991  0.3424383745702819  0.2332763307992269   T   T   T
  0.8896640141921591  0.4440644761824075  0.0725878239069958   T   T   T
  0.0002526470128617  0.6667933235062636  0.9918867026565230   T   T   T
  0.1109707524233239  0.8889109127727026  0.1479210088420115   T   T   T
  0.2217026546054837  0.7775183273023661  0.3010584511589900   T   T   T
  0.1221265376070714  0.8858528415175595  0.3872785060472153   T   T   T
 -0.0016755560947072  0.6658292219512397  0.2275848950320286   T   T   T
  0.2220368297952578  0.7776854148971157  0.0717645401458309   T   T   T
  0.3348189597103078  0.6674889029221325  0.9925148027389253   T   T   T
  0.4444753936907572  0.8889046968461581  0.1498575700350762   T   T   T
  0.5448870995155582  0.7722288459748247  0.3068204096978672   T   T   T
  0.4323467692411955  0.8828403846206149  0.3860587921068764   T   T   T
  0.3297788866432729  0.6649427912473378  0.2282614543633389   T   T   T
  0.5535521074006174  0.7761559559673104  0.0742481482791532   T   T   T
  0.6679351649203642  0.6693430527455355  0.9932594937585688   T   T   T
  0.7715674610105691  0.8816887564628584  0.1519676936244260   T   T   T
  0.8928222840745551  0.7793923845560801  0.3048030916600061   T   T   T
  0.7667599879100121  0.8930478858007337  0.3922010178299490   T   T   T
  0.6584812715145106  0.6493758969551761  0.2332763308011131   T   T   T
  0.8896640141926052  0.7789325380089684  0.0725878239070219   T   T   T
  0.3208600490446905  0.3270965245270940  0.3398418222863011   T   T   T
 -0.0014566918867042 -0.0035956002992998  0.3478934850146124   T   T   T
  0.2194347794985716  0.1068299447142750  0.1902067387201465   T   T   T
  0.1118724583150134  0.2226027291583196  0.0344902756634670   T   T   T
  0.3257573039971164 -0.0075082810551417  0.3422514901054781   T   T   T
  0.5535311315946113  0.1118342615847792  0.1919596722707845   T   T   T
  0.4436846208134394  0.2203851061274887  0.0319012681795470   T   T   T
  0.6635880500509342 -0.0015394749711076  0.3485407052512452   T   T   T
  0.8877957509245374  0.1105643754646429  0.1932271158173842   T   T   T
  0.7779827968585685  0.2222692781341076  0.0354703193788142   T   T   T
 -0.0014566918886972  0.3354719084043258  0.3478934850154913   T   T   T
  0.2194347794985324  0.4459378347804033  0.1902067387203665   T   T   T
  0.1108860502656308  0.5543814794223421  0.0324452069545792   T   T   T
  0.5606205454745503  0.4469762727347106  0.1814245837124349   T   T   T
  0.4436846208130747  0.5566335146853734  0.0319012681793508   T   T   T
  0.6748710814205965  0.3321672491552106  0.3530330817102538   T   T   T
  0.8874829966503901  0.4444364149631639  0.1906902256842694   T   T   T
  0.7804862753028157  0.5569101376505992  0.0307290827299548   T   T   T
 -0.0014419282550511  0.6659460358780313  0.3460868228426005   T   T   T
  0.2197490560272016  0.7765415280150586  0.1865435043083302   T   T   T
  0.1108860502659847  0.8898385708452803  0.0324452069546109   T   T   T
  0.3257573040019942  0.6665995850485895  0.3422514901071653   T   T   T
  0.5535311316005654  0.7750298700074357  0.1919596722707453   T   T   T
  0.4455299662800485  0.8894319831398980  0.0343295455053435   T   T   T
  0.6748710814257973  0.6760368322534650  0.3530330817074894   T   T   T
  0.8874829966550325  0.7763795816991752  0.1906902256848932   T   T   T
  0.7779827968612406  0.8890465187262754  0.0354703193786364   T   T   T
 
  0.00000000E+00  0.00000000E+00  0.00000000E+00
  0.00000000E+00  0.00000000E+00  0.00000000E+00
  0.00000000E+00  0.00000000E+00  0.00000000E+00
  0.00000000E+00  0.00000000E+00  0.00000000E+00
  0.00000000E+00  0.00000000E+00  0.00000000E+00
  0.00000000E+00  0.00000000E+00  0.00000000E+00
  0.00000000E+00  0.00000000E+00  0.00000000E+00
  0.00000000E+00  0.00000000E+00  0.00000000E+00
  0.00000000E+00  0.00000000E+00  0.00000000E+00
  0.00000000E+00  0.00000000E+00  0.00000000E+00
  0.00000000E+00  0.00000000E+00  0.00000000E+00
  0.00000000E+00  0.00000000E+00  0.00000000E+00
  0.00000000E+00  0.00000000E+00  0.00000000E+00
  0.00000000E+00  0.00000000E+00  0.00000000E+00
  0.00000000E+00  0.00000000E+00  0.00000000E+00
  0.00000000E+00  0.00000000E+00  0.00000000E+00
  0.00000000E+00  0.00000000E+00  0.00000000E+00
  0.00000000E+00  0.00000000E+00  0.00000000E+00
  0.00000000E+00  0.00000000E+00  0.00000000E+00
  0.00000000E+00  0.00000000E+00  0.00000000E+00
  0.00000000E+00  0.00000000E+00  0.00000000E+00
  0.00000000E+00  0.00000000E+00  0.00000000E+00
  0.00000000E+00  0.00000000E+00  0.00000000E+00
  0.00000000E+00  0.00000000E+00  0.00000000E+00
  0.00000000E+00  0.00000000E+00  0.00000000E+00
  0.00000000E+00  0.00000000E+00  0.00000000E+00
  0.00000000E+00  0.00000000E+00  0.00000000E+00
  0.00000000E+00  0.00000000E+00  0.00000000E+00
  0.00000000E+00  0.00000000E+00  0.00000000E+00
  0.00000000E+00  0.00000000E+00  0.00000000E+00
  0.00000000E+00  0.00000000E+00  0.00000000E+00
  0.00000000E+00  0.00000000E+00  0.00000000E+00
  0.00000000E+00  0.00000000E+00  0.00000000E+00
  0.00000000E+00  0.00000000E+00  0.00000000E+00
  0.00000000E+00  0.00000000E+00  0.00000000E+00
  0.00000000E+00  0.00000000E+00  0.00000000E+00
  0.00000000E+00  0.00000000E+00  0.00000000E+00
  0.00000000E+00  0.00000000E+00  0.00000000E+00
  0.00000000E+00  0.00000000E+00  0.00000000E+00
  0.00000000E+00  0.00000000E+00  0.00000000E+00
  0.00000000E+00  0.00000000E+00  0.00000000E+00
  0.00000000E+00  0.00000000E+00  0.00000000E+00
  0.00000000E+00  0.00000000E+00  0.00000000E+00
  0.00000000E+00  0.00000000E+00  0.00000000E+00
  0.00000000E+00  0.00000000E+00  0.00000000E+00
  0.00000000E+00  0.00000000E+00  0.00000000E+00
  0.00000000E+00  0.00000000E+00  0.00000000E+00
  0.00000000E+00  0.00000000E+00  0.00000000E+00
  0.00000000E+00  0.00000000E+00  0.00000000E+00
  0.00000000E+00  0.00000000E+00  0.00000000E+00
  0.00000000E+00  0.00000000E+00  0.00000000E+00
  0.00000000E+00  0.00000000E+00  0.00000000E+00
  0.00000000E+00  0.00000000E+00  0.00000000E+00
  0.00000000E+00  0.00000000E+00  0.00000000E+00
  0.00000000E+00  0.00000000E+00  0.00000000E+00
  0.00000000E+00  0.00000000E+00  0.00000000E+00
  0.00000000E+00  0.00000000E+00  0.00000000E+00
  0.00000000E+00  0.00000000E+00  0.00000000E+00
  0.00000000E+00  0.00000000E+00  0.00000000E+00
  0.00000000E+00  0.00000000E+00  0.00000000E+00
  0.00000000E+00  0.00000000E+00  0.00000000E+00
  0.00000000E+00  0.00000000E+00  0.00000000E+00
  0.00000000E+00  0.00000000E+00  0.00000000E+00
  0.00000000E+00  0.00000000E+00  0.00000000E+00
  0.00000000E+00  0.00000000E+00  0.00000000E+00
  0.00000000E+00  0.00000000E+00  0.00000000E+00
  0.00000000E+00  0.00000000E+00  0.00000000E+00
  0.00000000E+00  0.00000000E+00  0.00000000E+00
  0.00000000E+00  0.00000000E+00  0.00000000E+00
  0.00000000E+00  0.00000000E+00  0.00000000E+00
  0.00000000E+00  0.00000000E+00  0.00000000E+00
  0.00000000E+00  0.00000000E+00  0.00000000E+00
  0.00000000E+00  0.00000000E+00  0.00000000E+00
  0.00000000E+00  0.00000000E+00  0.00000000E+00
  0.00000000E+00  0.00000000E+00  0.00000000E+00
  0.00000000E+00  0.00000000E+00  0.00000000E+00
  0.00000000E+00  0.00000000E+00  0.00000000E+00
  0.00000000E+00  0.00000000E+00  0.00000000E+00
  0.00000000E+00  0.00000000E+00  0.00000000E+00
  0.00000000E+00  0.00000000E+00  0.00000000E+00
