CeO2-you-111-you-Sc                     
   1.00000000000000     
     9.8326612454525169   -5.6768899859489554    0.0000000004031465
     0.0178040868460068   11.3846155548790637    0.0077267615615353
     0.0086789877598365    0.0150324452169290   20.3092517152260790
   O    Sc   Ce   H 
    53     1    26     2
Selective dynamics
Direct
  0.9997196212007379  0.0000704695935261  0.9891292328000494   T   T   T
  0.1098711678834192  0.2223242135855301  0.1478115716474804   F   F   F
  0.2345168446704309  0.1192348611883303  0.3083665078868308   T   T   T
  0.1182654261547789  0.2249556654772407  0.3846893936451082   T   T   T
  0.0026994030899422  0.0009271749420965  0.2304871056264156   T   T   T
  0.2221645121738973  0.1109960243478696  0.0700494637871572   F   F   F
  0.3343151289636173  0.0004209621868949  0.9883597132019780   T   T   T
  0.4457860457019862  0.2223242135853170  0.1478115716475088   F   F   F
  0.5511747835047032  0.1148938320571632  0.3100618771930702   T   T   T
  0.4449599714772089  0.2123956371940516  0.4085875475002109   T   T   T
  0.3318667596730129  0.9978789621430764  0.2295420908160322   T   T   T
  0.5571786586173175  0.1116887202117880  0.0713361595898192   F   F   F
  0.6667522576093851  0.9993772103721008  0.9885974219027310   T   T   T
  0.7780660716390599  0.2227981432782187  0.1520454781805540   F   F   F
  0.8905650127291828  0.1132019915367234  0.3068531388494060   T   T   T
  0.7802105997389216  0.2227949962657534  0.3900592738053312   T   T   T
  0.6645743841539723  0.9984903514447339  0.2330074143458682   T   T   T
  0.8878440615946062  0.1116887202120509  0.0713361595898689   F   F   F
  0.0002159937434091  0.3335407500523311  0.9888454960574854   T   T   T
  0.1104409966178110  0.5547083036766836  0.1486407638122600   F   F   F
  0.2386118988161831  0.4479097852341483  0.3100675648012159   T   T   T
  0.1135820883630616  0.5558831116832746  0.3895356708178612   T   T   T
  0.0055887755551688  0.3356103186417437  0.2330663412964045   T   T   T
  0.2231648752640538  0.4445969505196885  0.0719916273710552   F   F   F
  0.3329836735184936  0.3331453323579364  0.9885979256127422   T   T   T
  0.4444665958162943  0.5556011916328529  0.1505985521970032   F   F   F
  0.5320699674419139  0.4265752348719499  0.3152403055299831   T   T   T
  0.3283556184896166  0.3285042956577028  0.2297723772289251   T   T   T
  0.5547660752554791  0.4445969505196317  0.0719916273710552   F   F   F
  0.6664991164223972  0.3337174222136804  0.9888616611165442   T   T   T
  0.7776003070589326  0.5547083036765628  0.1486407638122529   F   F   F
  0.8918931095768349  0.4444489474547653  0.3077882210966595   T   T   T
  0.7831552539268064  0.5465314838346025  0.3920804660519578   T   T   T
  0.6663787254953636  0.3366472526252425  0.2330099038691688   T   T   T
  0.8880283379645704  0.4427226759291898  0.0720246507418594   F   F   F
  0.9995348830931469  0.6658618614490102  0.9887282996237325   T   T   T
  0.1108877844760769  0.8884425689517386  0.1462814760764886   F   F   F
  0.2205116336798766  0.7780602790472020  0.3073731551614524   T   T   T
  0.1148661591553722  0.8914862227692260  0.3917352132030265   T   T   T
  0.0004282572550563  0.6679686538511315  0.2301740313923909   T   T   T
  0.2225292042327141  0.7779815450838043  0.0702905666625782   F   F   F
  0.3335691571617155  0.6662469989798451  0.9888026553613748   T   T   T
  0.4459200939080290  0.8895326201168601  0.1480313944472442   F   F   F
  0.5487208319808133  0.7740887699373998  0.3106839363496312   T   T   T
  0.4407722335438812  0.8892140328323273  0.3911611202743764   T   T   T
  0.3315126217508100  0.6677733834800386  0.2306634512103579   T   T   T
  0.5548742864091167  0.7764145728181617  0.0716421617881764   F   F   F
  0.6665253575329924  0.6663632945016381  0.9887606979870303   T   T   T
  0.7769455262091540  0.8895326201171301  0.1480313944472584   F   F   F
  0.8960053739063123  0.7815842242085110  0.3088973822907257   T   T   T
  0.7853252714980076  0.9046808147034828  0.3923043327240929   T   T   T
  0.6671868593184827  0.6643651403073727  0.2309621456372011   T   T   T
  0.8887853408512072  0.7779815450838115  0.0702905666625782   F   F   F
  0.3185474905909681  0.3232063278544732  0.3327581668721804   T   T   T
  0.0036680977269868  0.0040044581841768  0.3493937703214548   T   T   T
  0.2210725826252826  0.1088121652511305  0.1872026654716237   F   F   F
  0.1110515829071517  0.2229383875821327  0.0300861678857274   F   F   F
  0.3295329416806193 -0.0045420234265319  0.3491583834063889   T   T   T
  0.5546911604982654  0.1107587013213021  0.1907654218643131   F   F   F
  0.4452198046751974  0.2229383875822961  0.0300861678857345   F   F   F
  0.6683636279642136  0.0005516105600025  0.3507096023016553   T   T   T
  0.8894015408226110  0.1107587013208899  0.1907654218642705   F   F   F
  0.7779199275125137  0.2225058550248633  0.0308268889646754   F   F   F
  0.0058332778209925  0.3330415533883336  0.3495658290960473   T   T   T
  0.2241125147136742  0.4444201899755313  0.1917148165372353   F   F   F
  0.1110316396583002  0.5549596782117590  0.0305871676041747   F   F   F
  0.5536416752627318  0.4444201899762632  0.1917148165372566   F   F   F
  0.4443654747567720  0.5553989495135170  0.0302203008862989   F   F   F
  0.6707933705198921  0.3362209086873101  0.3498149766016462   T   T   T
  0.8894427490004304  0.4455514980007393  0.1916363691154856   F   F   F
  0.7772610385534193  0.5549596782117945  0.0305871676041676   F   F   F
  0.9995768272618778  0.6667391953922385  0.3490077290708535   T   T   T
  0.2218366575885398  0.7781822681604496  0.1880551372008910   F   F   F
  0.1110517467375942  0.8887704934752279  0.0280958734312904   F   F   F
  0.3304814218638986  0.6698223583288142  0.3479019484299363   T   T   T
  0.5554907019261890  0.7776474038522991  0.1906850893910317   F   F   F
  0.4450322777611504  0.8888681977261825  0.0299253158025508   F   F   F
  0.6684667515851096  0.6652316255910082  0.3524548247525213   T   T   T
  0.8896786105716430  0.7781822681601724  0.1880551372008483   F   F   F
  0.7771689199650140  0.8888681977261399  0.0299253158025650   F   F   F
  0.4331427283530649  0.5569520688025862  0.3996760967825738   T   T   T
  0.4337265503597798  0.2215713484149675  0.4554116924970468   T   T   T
 
  0.00000000E+00  0.00000000E+00  0.00000000E+00
  0.00000000E+00  0.00000000E+00  0.00000000E+00
  0.00000000E+00  0.00000000E+00  0.00000000E+00
  0.00000000E+00  0.00000000E+00  0.00000000E+00
  0.00000000E+00  0.00000000E+00  0.00000000E+00
  0.00000000E+00  0.00000000E+00  0.00000000E+00
  0.00000000E+00  0.00000000E+00  0.00000000E+00
  0.00000000E+00  0.00000000E+00  0.00000000E+00
  0.00000000E+00  0.00000000E+00  0.00000000E+00
  0.00000000E+00  0.00000000E+00  0.00000000E+00
  0.00000000E+00  0.00000000E+00  0.00000000E+00
  0.00000000E+00  0.00000000E+00  0.00000000E+00
  0.00000000E+00  0.00000000E+00  0.00000000E+00
  0.00000000E+00  0.00000000E+00  0.00000000E+00
  0.00000000E+00  0.00000000E+00  0.00000000E+00
  0.00000000E+00  0.00000000E+00  0.00000000E+00
  0.00000000E+00  0.00000000E+00  0.00000000E+00
  0.00000000E+00  0.00000000E+00  0.00000000E+00
  0.00000000E+00  0.00000000E+00  0.00000000E+00
  0.00000000E+00  0.00000000E+00  0.00000000E+00
  0.00000000E+00  0.00000000E+00  0.00000000E+00
  0.00000000E+00  0.00000000E+00  0.00000000E+00
  0.00000000E+00  0.00000000E+00  0.00000000E+00
  0.00000000E+00  0.00000000E+00  0.00000000E+00
  0.00000000E+00  0.00000000E+00  0.00000000E+00
  0.00000000E+00  0.00000000E+00  0.00000000E+00
  0.00000000E+00  0.00000000E+00  0.00000000E+00
  0.00000000E+00  0.00000000E+00  0.00000000E+00
  0.00000000E+00  0.00000000E+00  0.00000000E+00
  0.00000000E+00  0.00000000E+00  0.00000000E+00
  0.00000000E+00  0.00000000E+00  0.00000000E+00
  0.00000000E+00  0.00000000E+00  0.00000000E+00
  0.00000000E+00  0.00000000E+00  0.00000000E+00
  0.00000000E+00  0.00000000E+00  0.00000000E+00
  0.00000000E+00  0.00000000E+00  0.00000000E+00
  0.00000000E+00  0.00000000E+00  0.00000000E+00
  0.00000000E+00  0.00000000E+00  0.00000000E+00
  0.00000000E+00  0.00000000E+00  0.00000000E+00
  0.00000000E+00  0.00000000E+00  0.00000000E+00
  0.00000000E+00  0.00000000E+00  0.00000000E+00
  0.00000000E+00  0.00000000E+00  0.00000000E+00
  0.00000000E+00  0.00000000E+00  0.00000000E+00
  0.00000000E+00  0.00000000E+00  0.00000000E+00
  0.00000000E+00  0.00000000E+00  0.00000000E+00
  0.00000000E+00  0.00000000E+00  0.00000000E+00
  0.00000000E+00  0.00000000E+00  0.00000000E+00
  0.00000000E+00  0.00000000E+00  0.00000000E+00
  0.00000000E+00  0.00000000E+00  0.00000000E+00
  0.00000000E+00  0.00000000E+00  0.00000000E+00
  0.00000000E+00  0.00000000E+00  0.00000000E+00
  0.00000000E+00  0.00000000E+00  0.00000000E+00
  0.00000000E+00  0.00000000E+00  0.00000000E+00
  0.00000000E+00  0.00000000E+00  0.00000000E+00
  0.00000000E+00  0.00000000E+00  0.00000000E+00
  0.00000000E+00  0.00000000E+00  0.00000000E+00
  0.00000000E+00  0.00000000E+00  0.00000000E+00
  0.00000000E+00  0.00000000E+00  0.00000000E+00
  0.00000000E+00  0.00000000E+00  0.00000000E+00
  0.00000000E+00  0.00000000E+00  0.00000000E+00
  0.00000000E+00  0.00000000E+00  0.00000000E+00
  0.00000000E+00  0.00000000E+00  0.00000000E+00
  0.00000000E+00  0.00000000E+00  0.00000000E+00
  0.00000000E+00  0.00000000E+00  0.00000000E+00
  0.00000000E+00  0.00000000E+00  0.00000000E+00
  0.00000000E+00  0.00000000E+00  0.00000000E+00
  0.00000000E+00  0.00000000E+00  0.00000000E+00
  0.00000000E+00  0.00000000E+00  0.00000000E+00
  0.00000000E+00  0.00000000E+00  0.00000000E+00
  0.00000000E+00  0.00000000E+00  0.00000000E+00
  0.00000000E+00  0.00000000E+00  0.00000000E+00
  0.00000000E+00  0.00000000E+00  0.00000000E+00
  0.00000000E+00  0.00000000E+00  0.00000000E+00
  0.00000000E+00  0.00000000E+00  0.00000000E+00
  0.00000000E+00  0.00000000E+00  0.00000000E+00
  0.00000000E+00  0.00000000E+00  0.00000000E+00
  0.00000000E+00  0.00000000E+00  0.00000000E+00
  0.00000000E+00  0.00000000E+00  0.00000000E+00
  0.00000000E+00  0.00000000E+00  0.00000000E+00
  0.00000000E+00  0.00000000E+00  0.00000000E+00
  0.00000000E+00  0.00000000E+00  0.00000000E+00
  0.00000000E+00  0.00000000E+00  0.00000000E+00
  0.00000000E+00  0.00000000E+00  0.00000000E+00
