CeO2-you-111-you-Os                     
   1.00000000000000     
     9.8402736906427624   -5.6812850295671273    0.0000000005243610
     0.0492327294573756   11.4478416428374423    0.0088661076860054
     0.0089796619856284    0.0155532279995833   21.1807470509145581
   O    Os   Ce   H 
    53     1    26     2
Selective dynamics
Direct
  0.9982777591321544  0.9993609429673196  0.9964003409705250   T   T   T
  0.1096089549209438  0.2160127061706447  0.1484363455237627   F   F   F
  0.2365921290079777  0.1265556673474117  0.3087020441134803   T   T   T
  0.1392370755810019  0.2336934833088641  0.3802131970764600   T   T   T
  0.0050768697166608 -0.0007921505674043  0.2311011693289419   T   T   T
  0.2203482280120781  0.1073634560240677  0.0727793576569624   F   F   F
  0.3342942955649929  0.9988066236639885  0.9962941710379095   T   T   T
  0.4397367512500310  0.2160127061704742  0.1484363455238267   F   F   F
  0.5537094100574549  0.1103982861166042  0.3045988723482381   T   T   T
  0.4699595400408132  0.1897570725903589  0.4066447498025118   T   T   T
  0.3288031991200216  0.9989339588142350  0.2302890427098693   T   T   T
  0.5578659526975827  0.1118078840079306  0.0767108194753661   F   F   F
  0.6674883598975797  0.0009520298446103  0.9964003832298558   T   T   T
  0.7790224236311118  0.2247108472623651  0.1530523803163817   F   F   F
  0.8962237343387052  0.1131350546680466  0.3065729530037269   T   T   T
  0.7818609646092578  0.2236803008554579  0.3830110372105735   T   T   T
  0.6706861733266550  0.0046803078975412  0.2306461361892402   T   T   T
  0.8872759313104197  0.1118078840082148  0.0767108194753803   F   F   F
  0.9987288786735751  0.3315343618381230  0.9961383733350333   T   T   T
  0.1071229535535636  0.5580950089479373  0.1486403121955036   F   F   F
  0.2379163723730443  0.4381656005001381  0.3105610947644429   T   T   T
  0.0967198672061241  0.5444741819889305  0.3821003634050251   T   T   T
  0.0021334098443350  0.3331670479451836  0.2326747890694733   T   T   T
  0.2204549920726677  0.4431060352075917  0.0732763224422186   F   F   F
  0.3324105371786537  0.3312441053615635  0.9969170637963108   T   T   T
  0.4488685115033064  0.5644050230075450  0.1475366397121931   F   F   F
  0.4767414795649955  0.4069243249386815  0.3344337664693121   T   T   T
  0.3301784372274483  0.3243582669029777  0.2329351268727849   T   T   T
  0.5559850431348465  0.4431060352075207  0.0732763224422186   F   F   F
  0.6664274506169628  0.3312758018195727  0.9961511620469035   T   T   T
  0.7843050553939648  0.5580950089474470  0.1486403121956030   F   F   F
  0.8892609378611630  0.4409416169237262  0.3024129072664500   T   T   T
  0.7706157829136001  0.5372918535641905  0.3791084729854366   T   T   T
  0.6618336818076741  0.3358129546563448  0.2363637117547226   T   T   T
  0.8875724373681919  0.4418108747363618  0.0747476628952626   F   F   F
  0.9997573068500110  0.6663192204297653  0.9963552137409266   T   T   T
  0.1096771309082882  0.8860212618162606  0.1481982354675964   F   F   F
  0.2175164160826556  0.7798378937700913  0.3056681732553059   T   T   T
  0.1136815359008112  0.8931656929444604  0.3840455603197387   T   T   T
  0.9988356908639627  0.6659080558155416  0.2296034357268069   T   T   T
  0.2232879720813656  0.7786020759440078  0.0751335911300473   F   F   F
  0.3339884679283183  0.6672876677953069  0.9974101429142539   T   T   T
  0.4469860970545767  0.8914564772018707  0.1510119183105374   F   F   F
  0.5604345733012108  0.7860734283244198  0.3048663554610045   T   T   T
  0.4497551625603674  0.9002620591966417  0.3862435188635974   T   T   T
  0.3327785028423376  0.6703643239893635  0.2302177138907890   T   T   T
  0.5576029116862600  0.7818718233725050  0.0757181005138534   F   F   F
  0.6671864904749968  0.6680047119863186  0.9972655895867149   T   T   T
  0.7778033801475459  0.8914564772021265  0.1510119183104806   F   F   F
  0.8952643008588685  0.7803306181095351  0.3059381702038955   T   T   T
  0.7897631172041365  0.9015170053755774  0.3867489145381325   T   T   T
  0.6681887368239037  0.6650916529586436  0.2329870478713865   T   T   T
  0.8886471038627093  0.7786020759441143  0.0751335911300757   F   F   F
  0.2935928236123114  0.3096583019048258  0.3244952785732528   T   T   T
 -0.0035426354314406  0.9911838826806363  0.3439807225087629   T   T   T
  0.2180133428289039  0.1026936856565328  0.1831045682095152   F   F   F
  0.1102031998654525  0.2222489933789547  0.0352444902843487   F   F   F
  0.3338456653436384  0.9900642019785647  0.3454327932813944   T   T   T
  0.5545550528517964  0.1120914683832481  0.1901135011282591   F   F   F
  0.4453787935133136  0.2222489933791110  0.0352444902844056   F   F   F
  0.6682065711128135 -0.0015407584920999  0.3433402836378902   T   T   T
  0.8908704155307134  0.1120914683826086  0.1901135011284012   F   F   F
  0.7778428452980037  0.2223516905959784  0.0361492543700734   F   F   F
 -0.0030292158198435  0.3350183941135195  0.3423136488125629   T   T   T
  0.2246768452257371  0.4469427306171454  0.1879841111945382   F   F   F
  0.1112414289522832  0.5551466027564587  0.0361854794821923   F   F   F
  0.5555998853921409  0.4469427306178133  0.1879841111948295   F   F   F
  0.4451508023361654  0.5569696046720836  0.0365961211191106   F   F   F
  0.6720823676313789  0.3267623984047163  0.3454422352184960   T   T   T
  0.8894485781719936  0.4455631563439582  0.1891488419697325   F   F   F
  0.7772381738044487  0.5551466027565723  0.0361854794821568   F   F   F
 -0.0024766299716093  0.6626628004246705  0.3413049809731515   T   T   T
  0.2224852581478984  0.7764516642292918  0.1882800329663326   F   F   F
  0.1101731223902433  0.8870132447804551  0.0342367419895808   F   F   F
  0.3360526395324425  0.6738339702302619  0.3486042218164026   T   T   T
  0.5558633400855086  0.7783926801711232  0.1910276393179515   F   F   F
  0.4459395208739778  0.8900329084883083  0.0366135143910853   F   F   F
  0.6686956009641667  0.6730999299007708  0.3499498850081139   T   T   T
  0.8872994060807997  0.7764516642291355  0.1882800329664960   F   F   F
  0.7774263876142129  0.8900329084881946  0.0366135143910213   F   F   F
  0.4742149842069332  0.6199538748532355  0.4112693158093415   T   T   T
  0.4374538416479371  0.2286877217249219  0.4381732590991607   T   T   T
 
  0.00000000E+00  0.00000000E+00  0.00000000E+00
  0.00000000E+00  0.00000000E+00  0.00000000E+00
  0.00000000E+00  0.00000000E+00  0.00000000E+00
  0.00000000E+00  0.00000000E+00  0.00000000E+00
  0.00000000E+00  0.00000000E+00  0.00000000E+00
  0.00000000E+00  0.00000000E+00  0.00000000E+00
  0.00000000E+00  0.00000000E+00  0.00000000E+00
  0.00000000E+00  0.00000000E+00  0.00000000E+00
  0.00000000E+00  0.00000000E+00  0.00000000E+00
  0.00000000E+00  0.00000000E+00  0.00000000E+00
  0.00000000E+00  0.00000000E+00  0.00000000E+00
  0.00000000E+00  0.00000000E+00  0.00000000E+00
  0.00000000E+00  0.00000000E+00  0.00000000E+00
  0.00000000E+00  0.00000000E+00  0.00000000E+00
  0.00000000E+00  0.00000000E+00  0.00000000E+00
  0.00000000E+00  0.00000000E+00  0.00000000E+00
  0.00000000E+00  0.00000000E+00  0.00000000E+00
  0.00000000E+00  0.00000000E+00  0.00000000E+00
  0.00000000E+00  0.00000000E+00  0.00000000E+00
  0.00000000E+00  0.00000000E+00  0.00000000E+00
  0.00000000E+00  0.00000000E+00  0.00000000E+00
  0.00000000E+00  0.00000000E+00  0.00000000E+00
  0.00000000E+00  0.00000000E+00  0.00000000E+00
  0.00000000E+00  0.00000000E+00  0.00000000E+00
  0.00000000E+00  0.00000000E+00  0.00000000E+00
  0.00000000E+00  0.00000000E+00  0.00000000E+00
  0.00000000E+00  0.00000000E+00  0.00000000E+00
  0.00000000E+00  0.00000000E+00  0.00000000E+00
  0.00000000E+00  0.00000000E+00  0.00000000E+00
  0.00000000E+00  0.00000000E+00  0.00000000E+00
  0.00000000E+00  0.00000000E+00  0.00000000E+00
  0.00000000E+00  0.00000000E+00  0.00000000E+00
  0.00000000E+00  0.00000000E+00  0.00000000E+00
  0.00000000E+00  0.00000000E+00  0.00000000E+00
  0.00000000E+00  0.00000000E+00  0.00000000E+00
  0.00000000E+00  0.00000000E+00  0.00000000E+00
  0.00000000E+00  0.00000000E+00  0.00000000E+00
  0.00000000E+00  0.00000000E+00  0.00000000E+00
  0.00000000E+00  0.00000000E+00  0.00000000E+00
  0.00000000E+00  0.00000000E+00  0.00000000E+00
  0.00000000E+00  0.00000000E+00  0.00000000E+00
  0.00000000E+00  0.00000000E+00  0.00000000E+00
  0.00000000E+00  0.00000000E+00  0.00000000E+00
  0.00000000E+00  0.00000000E+00  0.00000000E+00
  0.00000000E+00  0.00000000E+00  0.00000000E+00
  0.00000000E+00  0.00000000E+00  0.00000000E+00
  0.00000000E+00  0.00000000E+00  0.00000000E+00
  0.00000000E+00  0.00000000E+00  0.00000000E+00
  0.00000000E+00  0.00000000E+00  0.00000000E+00
  0.00000000E+00  0.00000000E+00  0.00000000E+00
  0.00000000E+00  0.00000000E+00  0.00000000E+00
  0.00000000E+00  0.00000000E+00  0.00000000E+00
  0.00000000E+00  0.00000000E+00  0.00000000E+00
  0.00000000E+00  0.00000000E+00  0.00000000E+00
  0.00000000E+00  0.00000000E+00  0.00000000E+00
  0.00000000E+00  0.00000000E+00  0.00000000E+00
  0.00000000E+00  0.00000000E+00  0.00000000E+00
  0.00000000E+00  0.00000000E+00  0.00000000E+00
  0.00000000E+00  0.00000000E+00  0.00000000E+00
  0.00000000E+00  0.00000000E+00  0.00000000E+00
  0.00000000E+00  0.00000000E+00  0.00000000E+00
  0.00000000E+00  0.00000000E+00  0.00000000E+00
  0.00000000E+00  0.00000000E+00  0.00000000E+00
  0.00000000E+00  0.00000000E+00  0.00000000E+00
  0.00000000E+00  0.00000000E+00  0.00000000E+00
  0.00000000E+00  0.00000000E+00  0.00000000E+00
  0.00000000E+00  0.00000000E+00  0.00000000E+00
  0.00000000E+00  0.00000000E+00  0.00000000E+00
  0.00000000E+00  0.00000000E+00  0.00000000E+00
  0.00000000E+00  0.00000000E+00  0.00000000E+00
  0.00000000E+00  0.00000000E+00  0.00000000E+00
  0.00000000E+00  0.00000000E+00  0.00000000E+00
  0.00000000E+00  0.00000000E+00  0.00000000E+00
  0.00000000E+00  0.00000000E+00  0.00000000E+00
  0.00000000E+00  0.00000000E+00  0.00000000E+00
  0.00000000E+00  0.00000000E+00  0.00000000E+00
  0.00000000E+00  0.00000000E+00  0.00000000E+00
  0.00000000E+00  0.00000000E+00  0.00000000E+00
  0.00000000E+00  0.00000000E+00  0.00000000E+00
  0.00000000E+00  0.00000000E+00  0.00000000E+00
  0.00000000E+00  0.00000000E+00  0.00000000E+00
  0.00000000E+00  0.00000000E+00  0.00000000E+00
