CeO2-you-111-you-Mo                     
   1.00000000000000     
     9.9067134145705875   -5.7231419913711017    0.0205265532099032
    -0.0000000067425906   11.4462819568701981   -0.0000000024472249
     0.0461583761300208   -0.0000000048352299   20.8353348744512310
   O    Mo   Ce   H 
    53     1    26     2
Selective dynamics
Direct
  0.9993982434978614  0.0006626976666394  0.9957555851935480   T   T   T
  0.1235522762545216  0.2284426381292448  0.1533175064030559   F   F   F
  0.2462752410383050  0.1351857924682636  0.3110377627887570   T   T   T
  0.1305112148694895  0.2398710849174303  0.3815844252375593   T   T   T
  0.0049295698764552  0.0020115007114682  0.2291081572734830   T   T   T
  0.2215936916497441  0.1099856689324668  0.0735133799816765   F   F   F
  0.3347665398974579  0.0011820929105576  0.9944488630969670   T   T   T
  0.4408195588958606  0.2237846464281077  0.1487755475897288   F   F   F
  0.5471387150273411  0.1034368212571917  0.3043608857674460   T   T   T
  0.4630682918139030  0.1736221466829929  0.4157585305293325   T   T   T
  0.3278242373068976 -0.0005755248555966  0.2287682955657976   T   T   T
  0.5536000983984408  0.1115326410289654  0.0755012278240059   F   F   F
  0.6689698488795081  0.0006843723692100  0.9974745605703097   T   T   T
  0.7718318304078693  0.2224621634448667  0.1524431619280975   F   F   F
  0.8831751348227571  0.1086501151582089  0.3029089368007418   T   T   T
  0.7690403308025812  0.2081058263967943  0.3897074314308516   T   T   T
  0.6618989860293015  0.9946659201516590  0.2299187835068194   T   T   T
  0.8915241177238329  0.1124285588620850  0.0785196308336467   F   F   F
  0.9992028739976835  0.3309274312946332  0.9957763674878645   T   T   T
  0.1110790457558721  0.5556539436102099  0.1481335193696012   F   F   F
  0.2403218308171167  0.4495315476521626  0.3104342232306105   T   T   T
  0.1197437625196546  0.5713812069536072  0.3860604277681403   T   T   T
  0.0039735794545688  0.3366931357346781  0.2281787835410561   T   T   T
  0.2215936916489625  0.4449410227169395  0.0735133799817547   F   F   F
  0.3319988097944834  0.3326611604102687  0.9949445433426234   T   T   T
  0.4408195588850532  0.5503689124657072  0.1487755475905246   F   F   F
  0.4701801609766432  0.4495174607804835  0.3528542755023413   T   T   T
  0.3407730777815393  0.3362835544397289  0.2372092878502844   T   T   T
  0.5563849738454110  0.4448584869230174  0.0710413150402474   F   F   F
  0.6689123324600327  0.3316924965260714  0.9948294139169708   T   T   T
  0.7782553113524102  0.5557946556740418  0.1460939385503295   F   F   F
  0.8888055252225587  0.4482515959057330  0.3028404781010691   T   T   T
  0.7883972221720894  0.5609138861732946  0.3881533673395270   T   T   T
  0.6556785072321228  0.3417340632944244  0.2329729268920934   T   T   T
  0.8892639977030754  0.4437753191439739  0.0741692532925100   F   F   F
  0.9991489117264623  0.6664396709564394  0.9940364915562101   T   T   T
  0.1110790457559077  0.8887591021443697  0.1481335193696864   F   F   F
  0.2219368139266970  0.7781154663026416  0.3005854575353739   T   T   T
  0.1208173990429718  0.8863470750080580  0.3850754892355573   T   T   T
 -0.0013439851082281  0.6667670570485731  0.2266922695836657   T   T   T
  0.2218880204613498  0.7776110102305509  0.0723136478007333   F   F   F
  0.3340001909312497  0.6667616853896696  0.9942970102108764   T   T   T
  0.4449450260494245  0.8891395130254836  0.1495205754642654   F   F   F
  0.5408504576545495  0.7659595112119398  0.3083504147260217   T   T   T
  0.4354213380503060  0.8803868131542352  0.3875016476658142   T   T   T
  0.3276934254441792  0.6640347978186933  0.2282975635449604   T   T   T
  0.5536000983968066  0.7754004573689812  0.0755012278241267   F   F   F
  0.6682505569825369  0.6695176334571232  0.9950238998161351   T   T   T
  0.7718318304050626  0.8827026669597231  0.1524431619278914   F   F   F
  0.8913615674435803  0.7788782015339242  0.3034646206462564   T   T   T
  0.7697818648658696  0.8948656154733269  0.3905674466831490   T   T   T
  0.6600665938213834  0.6519770743885503  0.2316273874934665   T   T   T
  0.8892639977028480  0.7788216785582023  0.0741692532925526   F   F   F
  0.2955193888994386  0.3177556011997867  0.3339720604840269   T   T   T
 -0.0028012933734051 -0.0015789630501215  0.3498540406228799   T   T   T
  0.2195427329783328  0.1067352795965775  0.1901609058016689   F   F   F
  0.1120610263742776  0.2226970131872434  0.0360309106514123   F   F   F
  0.3323103439421023  0.9915371084178269  0.3479354161128593   T   T   T
  0.5534299749047094  0.1117860453084560  0.1918236092887753   F   F   F
  0.4436516135546427  0.2202833913087971  0.0332890865528412   F   F   F
  0.6660029106653890 -0.0009003967508268  0.3469809427245161   T   T   T
  0.8881298392593848  0.1107314196303477  0.1929723474731233   F   F   F
  0.7779290323291050  0.2224957100220877  0.0369954553552603   F   F   F
 -0.0076842878774439  0.3346060064651519  0.3485308996638444   T   T   T
  0.2195427329879038  0.4461404533821494  0.1901609058006386   F   F   F
  0.1107108777759791  0.5540615610950681  0.0339583567999142   F   F   F
  0.5596075575743740  0.4464697787844258  0.1813861426059376   F   F   F
  0.4436516135561135  0.5567022222459741  0.0332890865526210   F   F   F
  0.6677125341769017  0.3281727529855420  0.3547059831980499   T   T   T
  0.8871382843750766  0.4444069985964703  0.1908543601378980   F   F   F
  0.7803862300795217  0.5568601150402870  0.0324569516332147   F   F   F
 -0.0037965717971783  0.6656398585072737  0.3445782135010447   T   T   T
  0.2196934037704494  0.7765137018861523  0.1860419885978715   F   F   F
  0.1107108777748351  0.8899833166809685  0.0339583568000066   F   F   F
  0.3239945901122991  0.6759768411858923  0.3420895328154924   T   T   T
  0.5534299749204052  0.7749769295994966  0.1918236092874466   F   F   F
  0.4456556212434819  0.8894948106213860  0.0356757859647416   F   F   F
  0.6779147095402985  0.6752073135977411  0.3500998753902071   T   T   T
  0.8871382843805762  0.7760642857903832  0.1908543601377275   F   F   F
  0.7779290323302206  0.8887663223077737  0.0369954553550258   F   F   F
  0.3235069063632901  0.2666527931270710  0.4063216986527763   T   T   T
  0.4119828997267784  0.2145807694160064  0.4332451555932196   T   T   T
 
  0.00000000E+00  0.00000000E+00  0.00000000E+00
  0.00000000E+00  0.00000000E+00  0.00000000E+00
  0.00000000E+00  0.00000000E+00  0.00000000E+00
  0.00000000E+00  0.00000000E+00  0.00000000E+00
  0.00000000E+00  0.00000000E+00  0.00000000E+00
  0.00000000E+00  0.00000000E+00  0.00000000E+00
  0.00000000E+00  0.00000000E+00  0.00000000E+00
  0.00000000E+00  0.00000000E+00  0.00000000E+00
  0.00000000E+00  0.00000000E+00  0.00000000E+00
  0.00000000E+00  0.00000000E+00  0.00000000E+00
  0.00000000E+00  0.00000000E+00  0.00000000E+00
  0.00000000E+00  0.00000000E+00  0.00000000E+00
  0.00000000E+00  0.00000000E+00  0.00000000E+00
  0.00000000E+00  0.00000000E+00  0.00000000E+00
  0.00000000E+00  0.00000000E+00  0.00000000E+00
  0.00000000E+00  0.00000000E+00  0.00000000E+00
  0.00000000E+00  0.00000000E+00  0.00000000E+00
  0.00000000E+00  0.00000000E+00  0.00000000E+00
  0.00000000E+00  0.00000000E+00  0.00000000E+00
  0.00000000E+00  0.00000000E+00  0.00000000E+00
  0.00000000E+00  0.00000000E+00  0.00000000E+00
  0.00000000E+00  0.00000000E+00  0.00000000E+00
  0.00000000E+00  0.00000000E+00  0.00000000E+00
  0.00000000E+00  0.00000000E+00  0.00000000E+00
  0.00000000E+00  0.00000000E+00  0.00000000E+00
  0.00000000E+00  0.00000000E+00  0.00000000E+00
  0.00000000E+00  0.00000000E+00  0.00000000E+00
  0.00000000E+00  0.00000000E+00  0.00000000E+00
  0.00000000E+00  0.00000000E+00  0.00000000E+00
  0.00000000E+00  0.00000000E+00  0.00000000E+00
  0.00000000E+00  0.00000000E+00  0.00000000E+00
  0.00000000E+00  0.00000000E+00  0.00000000E+00
  0.00000000E+00  0.00000000E+00  0.00000000E+00
  0.00000000E+00  0.00000000E+00  0.00000000E+00
  0.00000000E+00  0.00000000E+00  0.00000000E+00
  0.00000000E+00  0.00000000E+00  0.00000000E+00
  0.00000000E+00  0.00000000E+00  0.00000000E+00
  0.00000000E+00  0.00000000E+00  0.00000000E+00
  0.00000000E+00  0.00000000E+00  0.00000000E+00
  0.00000000E+00  0.00000000E+00  0.00000000E+00
  0.00000000E+00  0.00000000E+00  0.00000000E+00
  0.00000000E+00  0.00000000E+00  0.00000000E+00
  0.00000000E+00  0.00000000E+00  0.00000000E+00
  0.00000000E+00  0.00000000E+00  0.00000000E+00
  0.00000000E+00  0.00000000E+00  0.00000000E+00
  0.00000000E+00  0.00000000E+00  0.00000000E+00
  0.00000000E+00  0.00000000E+00  0.00000000E+00
  0.00000000E+00  0.00000000E+00  0.00000000E+00
  0.00000000E+00  0.00000000E+00  0.00000000E+00
  0.00000000E+00  0.00000000E+00  0.00000000E+00
  0.00000000E+00  0.00000000E+00  0.00000000E+00
  0.00000000E+00  0.00000000E+00  0.00000000E+00
  0.00000000E+00  0.00000000E+00  0.00000000E+00
  0.00000000E+00  0.00000000E+00  0.00000000E+00
  0.00000000E+00  0.00000000E+00  0.00000000E+00
  0.00000000E+00  0.00000000E+00  0.00000000E+00
  0.00000000E+00  0.00000000E+00  0.00000000E+00
  0.00000000E+00  0.00000000E+00  0.00000000E+00
  0.00000000E+00  0.00000000E+00  0.00000000E+00
  0.00000000E+00  0.00000000E+00  0.00000000E+00
  0.00000000E+00  0.00000000E+00  0.00000000E+00
  0.00000000E+00  0.00000000E+00  0.00000000E+00
  0.00000000E+00  0.00000000E+00  0.00000000E+00
  0.00000000E+00  0.00000000E+00  0.00000000E+00
  0.00000000E+00  0.00000000E+00  0.00000000E+00
  0.00000000E+00  0.00000000E+00  0.00000000E+00
  0.00000000E+00  0.00000000E+00  0.00000000E+00
  0.00000000E+00  0.00000000E+00  0.00000000E+00
  0.00000000E+00  0.00000000E+00  0.00000000E+00
  0.00000000E+00  0.00000000E+00  0.00000000E+00
  0.00000000E+00  0.00000000E+00  0.00000000E+00
  0.00000000E+00  0.00000000E+00  0.00000000E+00
  0.00000000E+00  0.00000000E+00  0.00000000E+00
  0.00000000E+00  0.00000000E+00  0.00000000E+00
  0.00000000E+00  0.00000000E+00  0.00000000E+00
  0.00000000E+00  0.00000000E+00  0.00000000E+00
  0.00000000E+00  0.00000000E+00  0.00000000E+00
  0.00000000E+00  0.00000000E+00  0.00000000E+00
  0.00000000E+00  0.00000000E+00  0.00000000E+00
  0.00000000E+00  0.00000000E+00  0.00000000E+00
  0.00000000E+00  0.00000000E+00  0.00000000E+00
  0.00000000E+00  0.00000000E+00  0.00000000E+00
