CeO2-you-111-you-Cd                     
   1.00000000000000     
     9.8426606583409644   -5.6826631514948218    0.0000000000000000
     0.0000000001308912   11.3653243031603406    0.0000000000000000
     0.0000000000000000    0.0000000000000000   21.0740785747475030
   O    Cd   Ce   H 
    54     1    26     1
Selective dynamics
Direct
  0.0000373474628867  0.0000541834739691  0.9954087049433907   T   T   T
  0.1065029644200237  0.2199179822102835  0.1485816882191884   F   F   F
  0.2304540757839449  0.1169473090195358  0.3070757133257084   T   T   T
  0.1086557835842813  0.2185494134083582  0.3854589507761427   T   T   T
  0.0026143045711351  0.0009269672671681  0.2304534260681655   T   T   T
  0.2225590872607199  0.1117851745213798  0.0750842477091709   F   F   F
  0.3331121438947426  0.0003506668040724  0.9955386897742264   T   T   T
  0.4467480177902559  0.2199179822105179  0.1485816882191884   F   F   F
  0.5508981854845612  0.1150000837293400  0.3057312873721667   T   T   T
  0.4525038265410474  0.2140080814288635  0.4033198658926020   T   T   T
  0.3306666868987966 -0.0012749595565280  0.2300075370362800   T   T   T
  0.5568732596493078  0.1097937403506606  0.0746609145655839   F   F   F
  0.6668073549047479  0.0000381035589410  0.9944838082873795   T   T   T
  0.7778216627429870  0.2223093254859947  0.1506388476061886   F   F   F
  0.8897230937085726  0.1109225721540771  0.3047036902052098   T   T   T
  0.7775376019681851  0.2230104755618289  0.3827901015439529   T   T   T
  0.6659159258560580  0.0017903946965460  0.2309400698518200   T   T   T
  0.8862544807013677  0.1097937403506748  0.0746609145655839   F   F   F
  0.0003073017248310  0.3330708686132732  0.9955280096036287   T   T   T
  0.1108403739836774  0.5558266260162128  0.1494897655110208   F   F   F
  0.2211643206463881  0.4463351752215782  0.3026120041958257   T   T   T
  0.1114614748031801  0.5554564173836597  0.3842635190084274   T   T   T
 -0.0002650598516424  0.3323535606872760  0.2292243207471704   T   T   T
  0.2225590872608620  0.4441069127393362  0.0750842477091709   F   F   F
  0.3329824325866926  0.3329631717053899  0.9952898157855603   T   T   T
  0.4467480177897158  0.5601640355792057  0.1485816882191884   F   F   F
  0.5490839744560739  0.4355258013190483  0.3067816588957039   T   T   T
  0.4496819118084398  0.5603454997415137  0.3853954712463765   T   T   T
  0.3330749773803203  0.3327238361113561  0.2210779773289762   T   T   T
  0.5548818254784180  0.4441069127392794  0.0750842477091709   F   F   F
  0.6660529001327822  0.3334116685047624  0.9953388493036291   T   T   T
  0.7783192520325670  0.5558266260162483  0.1494897655110208   F   F   F
  0.8912239266944687  0.4449548265906493  0.3040048697415050   T   T   T
  0.7785209539835515  0.5534925088064034  0.3833877364578445   T   T   T
  0.6675569205984885  0.3350140559046682  0.2300290319437333   T   T   T
  0.8883733681672936  0.4434127363346718  0.0750706185068353   F   F   F
  0.0000243292642742  0.6670763154323011  0.9960728136444804   T   T   T
  0.1108403739837556  0.8883477479675506  0.1494897655110208   F   F   F
  0.2219550898493379  0.7756889399333022  0.3041454246772508   T   T   T
  0.1129457750318093  0.8876981539124383  0.3837167877666575   T   T   T
 -0.0002226233107936  0.6671477281016791  0.2296303789374304   T   T   T
  0.2232532636655904  0.7782936318327032  0.0750706185068353   F   F   F
  0.3333423111709571  0.6660255369618782  0.9953371597662342   T   T   T
  0.4443566745140473  0.8888453372570098  0.1506388476061886   F   F   F
  0.5561702507913718  0.7778091979850670  0.3043017681069946   T   T   T
  0.4444092448398272  0.8894316654326104  0.3831454723004104   T   T   T
  0.3347823543793066  0.6673983821999998  0.2292164631148557   T   T   T
  0.5568732596493291  0.7804125192986646  0.0746609145655839   F   F   F
  0.6665150133191854  0.6664160174141597  0.9955704530498110   T   T   T
  0.7778216627429586  0.8888453372569955  0.1506388476061886   F   F   F
  0.8893857348474773  0.7779856773377327  0.3048281538586057   T   T   T
  0.7773343912396171  0.8894983617014433  0.3838047888602611   T   T   T
  0.6658638500589206  0.6634916859936315  0.2306654701953481   T   T   T
  0.8883733681671089  0.7782936318326179  0.0750706185068353   F   F   F
  0.3320272381354574  0.3350164912246013  0.3468119598345440   T   T   T
  0.0016135677990004  0.0011971468720176  0.3438917362036616   T   T   T
  0.2234984195192951  0.1136638390382245  0.1891099624219024   F   F   F
  0.1107112120593783  0.2220221060296623  0.0349450215495324   F   F   F
  0.3302183147739889 -0.0060012047988217  0.3437326557186872   T   T   T
  0.5555021849424335  0.1111648150573856  0.1897578978989216   F   F   F
  0.4446438939702730  0.2220221060296339  0.0349450215495324   F   F   F
  0.6667883353332569  0.0001544413610784  0.3441318090909007   T   T   T
  0.8889966301150096  0.1111648150574425  0.1897578978989216   F   F   F
  0.7775145541705371  0.2216951083410876  0.0350056252266953   F   F   F
  0.0043813246748896  0.3347762709852083  0.3427999944332714   T   T   T
  0.2234984195201122  0.4431675804810666  0.1891099624219024   F   F   F
  0.1111772485997804  0.5554897514003372  0.0357461951364542   F   F   F
  0.5530031609605999  0.4431675804807043  0.1891099624219024   F   F   F
  0.4446438939703370  0.5559557879407180  0.0349450215495324   F   F   F
  0.6722745744859255  0.3363788139951772  0.3434970382104100   T   T   T
  0.8888493601334631  0.4443647202668757  0.1895244143758958   F   F   F
  0.7776455028005174  0.5554897514003017  0.0357461951364542   F   F   F
  0.0007322214594505  0.6660324960897047  0.3436723673672086   T   T   T
  0.2223012797329602  0.7778176398665337  0.1895244143758958   F   F   F
  0.1111772485997022  0.8890214971993657  0.0357461951364542   F   F   F
  0.3327571704499455  0.6628143566789014  0.3430433840449330   T   T   T
  0.5555021849425614  0.7776703698851719  0.1897578978989216   F   F   F
  0.4449708916589188  0.8891524458294597  0.0350056252266953   F   F   F
  0.6652006517609963  0.6649791005604735  0.3439251237709155   T   T   T
  0.8888493601335767  0.7778176398665835  0.1895244143758958   F   F   F
  0.7775145541705371  0.8891524458294526  0.0350056252266953   F   F   F
  0.4444033015443632  0.2213088639812905  0.4489326477880832   T   T   T
 
  0.00000000E+00  0.00000000E+00  0.00000000E+00
  0.00000000E+00  0.00000000E+00  0.00000000E+00
  0.00000000E+00  0.00000000E+00  0.00000000E+00
  0.00000000E+00  0.00000000E+00  0.00000000E+00
  0.00000000E+00  0.00000000E+00  0.00000000E+00
  0.00000000E+00  0.00000000E+00  0.00000000E+00
  0.00000000E+00  0.00000000E+00  0.00000000E+00
  0.00000000E+00  0.00000000E+00  0.00000000E+00
  0.00000000E+00  0.00000000E+00  0.00000000E+00
  0.00000000E+00  0.00000000E+00  0.00000000E+00
  0.00000000E+00  0.00000000E+00  0.00000000E+00
  0.00000000E+00  0.00000000E+00  0.00000000E+00
  0.00000000E+00  0.00000000E+00  0.00000000E+00
  0.00000000E+00  0.00000000E+00  0.00000000E+00
  0.00000000E+00  0.00000000E+00  0.00000000E+00
  0.00000000E+00  0.00000000E+00  0.00000000E+00
  0.00000000E+00  0.00000000E+00  0.00000000E+00
  0.00000000E+00  0.00000000E+00  0.00000000E+00
  0.00000000E+00  0.00000000E+00  0.00000000E+00
  0.00000000E+00  0.00000000E+00  0.00000000E+00
  0.00000000E+00  0.00000000E+00  0.00000000E+00
  0.00000000E+00  0.00000000E+00  0.00000000E+00
  0.00000000E+00  0.00000000E+00  0.00000000E+00
  0.00000000E+00  0.00000000E+00  0.00000000E+00
  0.00000000E+00  0.00000000E+00  0.00000000E+00
  0.00000000E+00  0.00000000E+00  0.00000000E+00
  0.00000000E+00  0.00000000E+00  0.00000000E+00
  0.00000000E+00  0.00000000E+00  0.00000000E+00
  0.00000000E+00  0.00000000E+00  0.00000000E+00
  0.00000000E+00  0.00000000E+00  0.00000000E+00
  0.00000000E+00  0.00000000E+00  0.00000000E+00
  0.00000000E+00  0.00000000E+00  0.00000000E+00
  0.00000000E+00  0.00000000E+00  0.00000000E+00
  0.00000000E+00  0.00000000E+00  0.00000000E+00
  0.00000000E+00  0.00000000E+00  0.00000000E+00
  0.00000000E+00  0.00000000E+00  0.00000000E+00
  0.00000000E+00  0.00000000E+00  0.00000000E+00
  0.00000000E+00  0.00000000E+00  0.00000000E+00
  0.00000000E+00  0.00000000E+00  0.00000000E+00
  0.00000000E+00  0.00000000E+00  0.00000000E+00
  0.00000000E+00  0.00000000E+00  0.00000000E+00
  0.00000000E+00  0.00000000E+00  0.00000000E+00
  0.00000000E+00  0.00000000E+00  0.00000000E+00
  0.00000000E+00  0.00000000E+00  0.00000000E+00
  0.00000000E+00  0.00000000E+00  0.00000000E+00
  0.00000000E+00  0.00000000E+00  0.00000000E+00
  0.00000000E+00  0.00000000E+00  0.00000000E+00
  0.00000000E+00  0.00000000E+00  0.00000000E+00
  0.00000000E+00  0.00000000E+00  0.00000000E+00
  0.00000000E+00  0.00000000E+00  0.00000000E+00
  0.00000000E+00  0.00000000E+00  0.00000000E+00
  0.00000000E+00  0.00000000E+00  0.00000000E+00
  0.00000000E+00  0.00000000E+00  0.00000000E+00
  0.00000000E+00  0.00000000E+00  0.00000000E+00
  0.00000000E+00  0.00000000E+00  0.00000000E+00
  0.00000000E+00  0.00000000E+00  0.00000000E+00
  0.00000000E+00  0.00000000E+00  0.00000000E+00
  0.00000000E+00  0.00000000E+00  0.00000000E+00
  0.00000000E+00  0.00000000E+00  0.00000000E+00
  0.00000000E+00  0.00000000E+00  0.00000000E+00
  0.00000000E+00  0.00000000E+00  0.00000000E+00
  0.00000000E+00  0.00000000E+00  0.00000000E+00
  0.00000000E+00  0.00000000E+00  0.00000000E+00
  0.00000000E+00  0.00000000E+00  0.00000000E+00
  0.00000000E+00  0.00000000E+00  0.00000000E+00
  0.00000000E+00  0.00000000E+00  0.00000000E+00
  0.00000000E+00  0.00000000E+00  0.00000000E+00
  0.00000000E+00  0.00000000E+00  0.00000000E+00
  0.00000000E+00  0.00000000E+00  0.00000000E+00
  0.00000000E+00  0.00000000E+00  0.00000000E+00
  0.00000000E+00  0.00000000E+00  0.00000000E+00
  0.00000000E+00  0.00000000E+00  0.00000000E+00
  0.00000000E+00  0.00000000E+00  0.00000000E+00
  0.00000000E+00  0.00000000E+00  0.00000000E+00
  0.00000000E+00  0.00000000E+00  0.00000000E+00
  0.00000000E+00  0.00000000E+00  0.00000000E+00
  0.00000000E+00  0.00000000E+00  0.00000000E+00
  0.00000000E+00  0.00000000E+00  0.00000000E+00
  0.00000000E+00  0.00000000E+00  0.00000000E+00
  0.00000000E+00  0.00000000E+00  0.00000000E+00
  0.00000000E+00  0.00000000E+00  0.00000000E+00
  0.00000000E+00  0.00000000E+00  0.00000000E+00
