CeO2-you-111-you-Co                     
   1.00000000000000     
     9.8234144585059742   -5.6767251101851688    0.0019900796449745
     0.0000000024361074   11.3534482266153223   -0.0000000002341074
     0.0040211228739020   -0.0000000004045325   20.9778910589558656
   O    Co   Ce   H 
    53     1    26     2
Selective dynamics
Direct
  0.9992008192941294  0.0007842883843022  0.9955769443852153   T   T   T
  0.1159659547423217  0.2246494773711163  0.1514931733099729   F   F   F
  0.2096497936232285  0.0965512507993994  0.3028494024915563   T   T   T
  0.1238946953892236  0.2402243024074731  0.3921203595522875   T   T   T
 -0.0056095015240737 -0.0014793970991126  0.2285413248731347   T   T   T
  0.2217729843843230  0.1099446049612567  0.0748202276125340   F   F   F
  0.3326609525125799  0.9989394006385789  0.9943638181858623   T   T   T
  0.4442317250591330  0.2207162551547057  0.1473094065941254   F   F   F
  0.5666441305259688  0.1146469827454858  0.3071045223178442   T   T   T
  0.4741138987985872  0.2246221632196263  0.4020514959552423   T   T   T
  0.3398426389768806  0.0014200698228697  0.2289211853023534   T   T   T
  0.5550227161866630  0.1096315858473673  0.0746893750266651   F   F   F
  0.6690214827887866  0.0011571972939466  0.9954314929603023   T   T   T
  0.7748845922323895  0.2261707300641262  0.1516251545725993   F   F   F
  0.8954694562449238  0.1146637457084532  0.3087102833154262   T   T   T
  0.7844228442735829  0.2243155944778590  0.3891888939584660   T   T   T
  0.6695789434209772  0.0000781013644200  0.2301552490145851   T   T   T
  0.8883906297365201  0.1108618148683220  0.0779315230280702   F   F   F
  0.9987230412962764  0.3310971394294421  0.9956568299099262   T   T   T
  0.1109826840518551  0.5558674140020585  0.1515230537833432   F   F   F
  0.2219186948510880  0.4472729389773401  0.3080405208839256   T   T   T
  0.1097339714964763  0.5607352948614103  0.3871756554244856   T   T   T
 -0.0008312457506349  0.3324836163943973  0.2304440956542566   T   T   T
  0.2217729843843799  0.4451613794232543  0.0748202276125554   F   F   F
  0.3311595391572770  0.3324756482229720  0.9946704358506264   T   T   T
  0.4442317250586996  0.5568494699044777  0.1473094065940472   F   F   F
  0.4447670629725453  0.5426555691673527  0.3804072095589225   T   T   T
  0.3449652865370911  0.3400052814263543  0.2241664046350824   T   T   T
  0.5552843926344551  0.4443081963170741  0.0720518691752048   F   F   F
  0.6677035052963430  0.3326902291648213  0.9946722025049283   T   T   T
  0.7786782034285693  0.5560061017136846  0.1478227581370319   F   F   F
  0.8922152575880801  0.4435659156781419  0.3060573696269556   T   T   T
  0.7552602241076656  0.5444025104110354  0.3772341031351003   T   T   T
  0.6582078284518287  0.3431237447905896  0.2371685002839925   T   T   T
  0.8902544106249053  0.4449015527244029  0.0749949455376608   F   F   F
  0.0002182110533655  0.6668594919653359  0.9949233949406782   T   T   T
  0.1109826840516561  0.8884492700506215  0.1515230537833219   F   F   F
  0.2183901679054327  0.7730263583950657  0.3044977529749096   T   T   T
  0.0958603078366692  0.8768092620280838  0.3894719398842487   T   T   T
  0.9962797195237321  0.6647950745957890  0.2307934723466457   T   T   T
  0.2226888995990279  0.7780114497996493  0.0754319876732765   F   F   F
  0.3325132640028484  0.6667369763409330  0.9941710218328619   T   T   T
  0.4447089313260904  0.8890214656628501  0.1507944134786072   F   F   F
  0.5600926627722966  0.7795788874251872  0.3049891001067926   T   T   T
  0.4526854326029516  0.8794375204313746  0.3871248047378888   T   T   T
  0.3359343319466279  0.6674975350511434  0.2308935052267823   T   T   T
  0.5550227161869543  0.7787241303392278  0.0746893750266437   F   F   F
  0.6679623012733436  0.6690716270994751  0.9949056042710934   T   T   T
  0.7748845922327661  0.8820468621683091  0.1516251545726490   F   F   F
  0.8891430607892689  0.7810849623602217  0.3050706623217704   T   T   T
  0.7781919141310243  0.8877922580629503  0.3877001060728537   T   T   T
  0.6576528024801331  0.6485080376900672  0.2368943943295787   T   T   T
  0.8902544106251753  0.7786858579009461  0.0749949455376324   F   F   F
  0.2891829235201112  0.3824051475786598  0.3825610379843140   T   T   T
  0.0097009008768688  0.0036199414032052  0.3442778343081263   T   T   T
  0.2236933914112953  0.1130796719669220  0.1919216400078483   F   F   F
  0.1115064638370313  0.2224197319181798  0.0360881294762336   F   F   F
  0.3317652686697063  0.0007131636298750  0.3489027147694648   T   T   T
  0.5554658271429673  0.1114984636314631  0.1905892117215870   F   F   F
  0.4432222937074926  0.2200663687347202  0.0333869362751997   F   F   F
  0.6693578485958148 -0.0009105717904048  0.3468452567852428   T   T   T
  0.8887247730940331  0.1110288865467695  0.1911978216166830   F   F   F
  0.7779654590545491  0.2223879206101174  0.0357492349076622   F   F   F
  0.0049861021788230  0.3382528058640200  0.3461600919752739   T   T   T
  0.2236933914116292  0.4439467194438294  0.1919216400077843   F   F   F
  0.1109509152300845  0.5549919832099093  0.0358232592456247   F   F   F
  0.5530605051997526  0.4431962526005506  0.1827297333998104   F   F   F
  0.4432222937068602  0.5564899249729436  0.0333869362752282   F   F   F
  0.6773302848948328  0.3252585506178264  0.3484426651483092   T   T   T
  0.8883764711485824  0.4449343456336194  0.1912878156265165   F   F   F
  0.7798708846528370  0.5566024423264366  0.0338509019792568   F   F   F
  0.0013265549871435  0.6694622006988989  0.3451187474408777   T   T   T
  0.2224745718643888  0.7779042859313279  0.1901923223433286   F   F   F
  0.1109509152299140  0.8892929320193019  0.0358232592456247   F   F   F
  0.3317937685078281  0.6699704960165713  0.3445112005068574   T   T   T
  0.5554658271427186  0.7773003635127509  0.1905892117216723   F   F   F
  0.4446886554734490  0.8890113277368172  0.0351183281284264   F   F   F
  0.6716327710286476  0.6786665612587581  0.3471494652290565   T   T   T
  0.8883764711475806  0.7767751255141064  0.1912878156265592   F   F   F
  0.7779654590543146  0.8889105384447475  0.0357492349076836   F   F   F
  0.3361288852888101  0.3426455177074835  0.4406445702306317   T   T   T
  0.4286568490877054  0.2728439317183911  0.4187964782298501   T   T   T
 
  0.00000000E+00  0.00000000E+00  0.00000000E+00
  0.00000000E+00  0.00000000E+00  0.00000000E+00
  0.00000000E+00  0.00000000E+00  0.00000000E+00
  0.00000000E+00  0.00000000E+00  0.00000000E+00
  0.00000000E+00  0.00000000E+00  0.00000000E+00
  0.00000000E+00  0.00000000E+00  0.00000000E+00
  0.00000000E+00  0.00000000E+00  0.00000000E+00
  0.00000000E+00  0.00000000E+00  0.00000000E+00
  0.00000000E+00  0.00000000E+00  0.00000000E+00
  0.00000000E+00  0.00000000E+00  0.00000000E+00
  0.00000000E+00  0.00000000E+00  0.00000000E+00
  0.00000000E+00  0.00000000E+00  0.00000000E+00
  0.00000000E+00  0.00000000E+00  0.00000000E+00
  0.00000000E+00  0.00000000E+00  0.00000000E+00
  0.00000000E+00  0.00000000E+00  0.00000000E+00
  0.00000000E+00  0.00000000E+00  0.00000000E+00
  0.00000000E+00  0.00000000E+00  0.00000000E+00
  0.00000000E+00  0.00000000E+00  0.00000000E+00
  0.00000000E+00  0.00000000E+00  0.00000000E+00
  0.00000000E+00  0.00000000E+00  0.00000000E+00
  0.00000000E+00  0.00000000E+00  0.00000000E+00
  0.00000000E+00  0.00000000E+00  0.00000000E+00
  0.00000000E+00  0.00000000E+00  0.00000000E+00
  0.00000000E+00  0.00000000E+00  0.00000000E+00
  0.00000000E+00  0.00000000E+00  0.00000000E+00
  0.00000000E+00  0.00000000E+00  0.00000000E+00
  0.00000000E+00  0.00000000E+00  0.00000000E+00
  0.00000000E+00  0.00000000E+00  0.00000000E+00
  0.00000000E+00  0.00000000E+00  0.00000000E+00
  0.00000000E+00  0.00000000E+00  0.00000000E+00
  0.00000000E+00  0.00000000E+00  0.00000000E+00
  0.00000000E+00  0.00000000E+00  0.00000000E+00
  0.00000000E+00  0.00000000E+00  0.00000000E+00
  0.00000000E+00  0.00000000E+00  0.00000000E+00
  0.00000000E+00  0.00000000E+00  0.00000000E+00
  0.00000000E+00  0.00000000E+00  0.00000000E+00
  0.00000000E+00  0.00000000E+00  0.00000000E+00
  0.00000000E+00  0.00000000E+00  0.00000000E+00
  0.00000000E+00  0.00000000E+00  0.00000000E+00
  0.00000000E+00  0.00000000E+00  0.00000000E+00
  0.00000000E+00  0.00000000E+00  0.00000000E+00
  0.00000000E+00  0.00000000E+00  0.00000000E+00
  0.00000000E+00  0.00000000E+00  0.00000000E+00
  0.00000000E+00  0.00000000E+00  0.00000000E+00
  0.00000000E+00  0.00000000E+00  0.00000000E+00
  0.00000000E+00  0.00000000E+00  0.00000000E+00
  0.00000000E+00  0.00000000E+00  0.00000000E+00
  0.00000000E+00  0.00000000E+00  0.00000000E+00
  0.00000000E+00  0.00000000E+00  0.00000000E+00
  0.00000000E+00  0.00000000E+00  0.00000000E+00
  0.00000000E+00  0.00000000E+00  0.00000000E+00
  0.00000000E+00  0.00000000E+00  0.00000000E+00
  0.00000000E+00  0.00000000E+00  0.00000000E+00
  0.00000000E+00  0.00000000E+00  0.00000000E+00
  0.00000000E+00  0.00000000E+00  0.00000000E+00
  0.00000000E+00  0.00000000E+00  0.00000000E+00
  0.00000000E+00  0.00000000E+00  0.00000000E+00
  0.00000000E+00  0.00000000E+00  0.00000000E+00
  0.00000000E+00  0.00000000E+00  0.00000000E+00
  0.00000000E+00  0.00000000E+00  0.00000000E+00
  0.00000000E+00  0.00000000E+00  0.00000000E+00
  0.00000000E+00  0.00000000E+00  0.00000000E+00
  0.00000000E+00  0.00000000E+00  0.00000000E+00
  0.00000000E+00  0.00000000E+00  0.00000000E+00
  0.00000000E+00  0.00000000E+00  0.00000000E+00
  0.00000000E+00  0.00000000E+00  0.00000000E+00
  0.00000000E+00  0.00000000E+00  0.00000000E+00
  0.00000000E+00  0.00000000E+00  0.00000000E+00
  0.00000000E+00  0.00000000E+00  0.00000000E+00
  0.00000000E+00  0.00000000E+00  0.00000000E+00
  0.00000000E+00  0.00000000E+00  0.00000000E+00
  0.00000000E+00  0.00000000E+00  0.00000000E+00
  0.00000000E+00  0.00000000E+00  0.00000000E+00
  0.00000000E+00  0.00000000E+00  0.00000000E+00
  0.00000000E+00  0.00000000E+00  0.00000000E+00
  0.00000000E+00  0.00000000E+00  0.00000000E+00
  0.00000000E+00  0.00000000E+00  0.00000000E+00
  0.00000000E+00  0.00000000E+00  0.00000000E+00
  0.00000000E+00  0.00000000E+00  0.00000000E+00
  0.00000000E+00  0.00000000E+00  0.00000000E+00
  0.00000000E+00  0.00000000E+00  0.00000000E+00
  0.00000000E+00  0.00000000E+00  0.00000000E+00
