CeO2-you-111-you-Sr                     
   1.00000000000000     
     9.8679042174718337   -5.6788589604227582   -0.0034093366080849
     0.0159162990184791   11.3852837589658566    0.0034093360667917
    -0.0033471532490527    0.0057974393566222   21.1305259293557306
   O    Sr   Ce   H 
    53     1    26     1
Selective dynamics
Direct
  0.0001885362018615  0.0000771948042251  0.9952462914861105   T   T   T
  0.1085507902131595  0.2196872257169572  0.1454861418720960   T   T   T
  0.2232914585103129  0.1036636055417735  0.3037751850759833   T   T   T
  0.0936130875069326  0.2187237295929896  0.3794386676514754   T   T   T
  0.0013558651497992  0.0029464238005762  0.2282431366251899   T   T   T
  0.2224197025053554  0.1104485413097841  0.0745526272585332   T   T   T
  0.3352037121299759  0.0009772792595933  0.9962599233871525   T   T   T
  0.4415143745331312  0.2244573746877936  0.1519805717789657   T   T   T
  0.5471111267960602  0.1086520496206433  0.3045111550258997   T   T   T
  0.4409058839642305  0.2069673601172062  0.4053784225164355   T   T   T
  0.3317526887967782 -0.0034219818865673  0.2271249446128087   T   T   T
  0.5558261917543658  0.1105940279941121  0.0779184494164467   T   T   T
  0.6656022906894808  0.0011212990520060  0.9956263090000110   T   T   T
  0.7853413555975565  0.2268825624681582  0.1508829538746685   T   T   T
  0.8807182457333238  0.1062723854365276  0.2998961450570455   T   T   T
  0.7794418412364835  0.2129008690530074  0.3868381321473100   T   T   T
  0.6649453211994010  0.0029419257299540  0.2266251708267324   T   T   T
  0.8872701317283467  0.1101381439823918  0.0733785226285544   T   T   T
  0.9981683255240222  0.3328131781702745  0.9949512975430621   T   T   T
  0.1105694320459745  0.5558745916758047  0.1466222465341658   T   T   T
  0.1257880576433435  0.5407279560787226  0.3749081336564477   T   T   T
  0.0196111025192339  0.3413517752945126  0.2339054088344684   T   T   T
  0.2225808282166657  0.4442033215823890  0.0710659302796497   T   T   T
  0.3345068671806176  0.3319694064595358  0.9952422325531226   T   T   T
  0.4473592077387433  0.5590426695478610  0.1462986727268955   T   T   T
  0.5623395205125802  0.4529420424895839  0.3039018308689012   T   T   T
  0.4461764462558778  0.5756793692134986  0.3815737641928756   T   T   T
  0.3241144247527101  0.3408298252866356  0.2292827725854113   T   T   T
  0.5562795913792866  0.4441333151265838  0.0751632566043441   T   T   T
  0.6657609766128997  0.3315776200529976  0.9967142887439381   T   T   T
  0.7784772446219482  0.5567112588216582  0.1506613176950308   T   T   T
  0.8922176367665088  0.4459312407632177  0.3039847097484903   T   T   T
  0.7915992175803263  0.5748698438720753  0.3856265728386432   T   T   T
  0.6677382366496358  0.3330912526171830  0.2269490916965890   T   T   T
  0.8887112480613829  0.4451858934246582  0.0745668976191926   T   T   T
  0.9997341729920121  0.6671164818928175  0.9955861362129855   T   T   T
  0.1107710781512021  0.8883573476152121  0.1495873677546768   T   T   T
  0.2223904159159109  0.7782169916427503  0.3034489862525409   T   T   T
  0.1089625002310864  0.8848320163267227  0.3832605897425194   T   T   T
  0.0012682216515779  0.6663245696867047  0.2287806725645605   T   T   T
  0.2217090601489350  0.7780481907559332  0.0743577838575599   T   T   T
  0.3342820251404798  0.6685663477817736  0.9950208230197966   T   T   T
  0.4396081478180959  0.8806553432068296  0.1509576548207391   T   T   T
  0.5580751383216528  0.7867595731414255  0.3010893758651127   T   T   T
  0.4431905896156518  0.8911263385140709  0.3859737655987442   T   T   T
  0.3236919140644246  0.6460524703164242  0.2346054463259806   T   T   T
  0.5571602044193488  0.7794670965900797  0.0735618793472541   T   T   T
  0.6671003251474785  0.6662755994646511  0.9953674918951595   T   T   T
  0.7775536205292231  0.8904156493763083  0.1493563664089599   T   T   T
  0.8914281188831849  0.7803572615025777  0.3005683280344268   T   T   T
  0.7793321226760089  0.8902227811036975  0.3808768240323007   T   T   T
  0.6667078167901911  0.6700321581843589  0.2282794195090110   T   T   T
  0.8886762444209437  0.7787217206536237  0.0747160818491598   T   T   T
  0.3359845136170659  0.3324175844131625  0.3532341248471394   T   T   T
  0.9995464576092487  0.0007283058274079  0.3411939822444163   T   T   T
  0.2225043808229190  0.1134318685665026  0.1909324378088589   T   T   T
  0.1102707591091645  0.2200698676118687  0.0331230012047353   T   T   T
  0.3269513790478575 -0.0067197028304948  0.3414017778184981   T   T   T
  0.5549141469600417  0.1122005210742461  0.1906134997980142   T   T   T
  0.4444664557852448  0.2225022535936710  0.0367950527498134   T   T   T
  0.6658256233461144  0.0015500294401330  0.3424477777391686   T   T   T
  0.8896666379593522  0.1120630358672315  0.1884596320092571   T   T   T
  0.7776715413031072  0.2226183673851259  0.0357456088968006   T   T   T
  0.9857234581277140  0.3215257580687237  0.3454643475263924   T   T   T
  0.2235141787031667  0.4432592512385518  0.1802476884025407   T   T   T
  0.1098564716242337  0.5565087273237062  0.0332442572246600   T   T   T
  0.5540346281048530  0.4451555791963679  0.1928841403418598   T   T   T
  0.4470981923486214  0.5564654094205947  0.0335511049843034   T   T   T
  0.6705597392760669  0.3387970770281928  0.3462239577728717   T   T   T
  0.8898827310429827  0.4451104361975416  0.1902739503185298   T   T   T
  0.7769858097269374  0.5547695369086636  0.0366177865776717   T   T   T
  0.9983160352867666  0.6672863524115462  0.3419114923481270   T   T   T
  0.2207488246527633  0.7751191307137087  0.1889842724958022   T   T   T
  0.1118663276100870  0.8896063033825305  0.0359119245824617   T   T   T
  0.3437880997016235  0.6803002702254018  0.3463880756046897   T   T   T
  0.5552195467268352  0.7776975261394733  0.1889218317611159   T   T   T
  0.4443691310633778  0.8889272551950275  0.0355232742597089   T   T   T
  0.6678658757821866  0.6693276286391479  0.3419156369664771   T   T   T
  0.8891751595298901  0.7787375954698472  0.1881308063912664   T   T   T
  0.7772981839528393  0.8895630129227929  0.0349879978575615   T   T   T
  0.4415790259532391  0.2000445040550178  0.4512283914132279   T   T   T
 
  0.00000000E+00  0.00000000E+00  0.00000000E+00
  0.00000000E+00  0.00000000E+00  0.00000000E+00
  0.00000000E+00  0.00000000E+00  0.00000000E+00
  0.00000000E+00  0.00000000E+00  0.00000000E+00
  0.00000000E+00  0.00000000E+00  0.00000000E+00
  0.00000000E+00  0.00000000E+00  0.00000000E+00
  0.00000000E+00  0.00000000E+00  0.00000000E+00
  0.00000000E+00  0.00000000E+00  0.00000000E+00
  0.00000000E+00  0.00000000E+00  0.00000000E+00
  0.00000000E+00  0.00000000E+00  0.00000000E+00
  0.00000000E+00  0.00000000E+00  0.00000000E+00
  0.00000000E+00  0.00000000E+00  0.00000000E+00
  0.00000000E+00  0.00000000E+00  0.00000000E+00
  0.00000000E+00  0.00000000E+00  0.00000000E+00
  0.00000000E+00  0.00000000E+00  0.00000000E+00
  0.00000000E+00  0.00000000E+00  0.00000000E+00
  0.00000000E+00  0.00000000E+00  0.00000000E+00
  0.00000000E+00  0.00000000E+00  0.00000000E+00
  0.00000000E+00  0.00000000E+00  0.00000000E+00
  0.00000000E+00  0.00000000E+00  0.00000000E+00
  0.00000000E+00  0.00000000E+00  0.00000000E+00
  0.00000000E+00  0.00000000E+00  0.00000000E+00
  0.00000000E+00  0.00000000E+00  0.00000000E+00
  0.00000000E+00  0.00000000E+00  0.00000000E+00
  0.00000000E+00  0.00000000E+00  0.00000000E+00
  0.00000000E+00  0.00000000E+00  0.00000000E+00
  0.00000000E+00  0.00000000E+00  0.00000000E+00
  0.00000000E+00  0.00000000E+00  0.00000000E+00
  0.00000000E+00  0.00000000E+00  0.00000000E+00
  0.00000000E+00  0.00000000E+00  0.00000000E+00
  0.00000000E+00  0.00000000E+00  0.00000000E+00
  0.00000000E+00  0.00000000E+00  0.00000000E+00
  0.00000000E+00  0.00000000E+00  0.00000000E+00
  0.00000000E+00  0.00000000E+00  0.00000000E+00
  0.00000000E+00  0.00000000E+00  0.00000000E+00
  0.00000000E+00  0.00000000E+00  0.00000000E+00
  0.00000000E+00  0.00000000E+00  0.00000000E+00
  0.00000000E+00  0.00000000E+00  0.00000000E+00
  0.00000000E+00  0.00000000E+00  0.00000000E+00
  0.00000000E+00  0.00000000E+00  0.00000000E+00
  0.00000000E+00  0.00000000E+00  0.00000000E+00
  0.00000000E+00  0.00000000E+00  0.00000000E+00
  0.00000000E+00  0.00000000E+00  0.00000000E+00
  0.00000000E+00  0.00000000E+00  0.00000000E+00
  0.00000000E+00  0.00000000E+00  0.00000000E+00
  0.00000000E+00  0.00000000E+00  0.00000000E+00
  0.00000000E+00  0.00000000E+00  0.00000000E+00
  0.00000000E+00  0.00000000E+00  0.00000000E+00
  0.00000000E+00  0.00000000E+00  0.00000000E+00
  0.00000000E+00  0.00000000E+00  0.00000000E+00
  0.00000000E+00  0.00000000E+00  0.00000000E+00
  0.00000000E+00  0.00000000E+00  0.00000000E+00
  0.00000000E+00  0.00000000E+00  0.00000000E+00
  0.00000000E+00  0.00000000E+00  0.00000000E+00
  0.00000000E+00  0.00000000E+00  0.00000000E+00
  0.00000000E+00  0.00000000E+00  0.00000000E+00
  0.00000000E+00  0.00000000E+00  0.00000000E+00
  0.00000000E+00  0.00000000E+00  0.00000000E+00
  0.00000000E+00  0.00000000E+00  0.00000000E+00
  0.00000000E+00  0.00000000E+00  0.00000000E+00
  0.00000000E+00  0.00000000E+00  0.00000000E+00
  0.00000000E+00  0.00000000E+00  0.00000000E+00
  0.00000000E+00  0.00000000E+00  0.00000000E+00
  0.00000000E+00  0.00000000E+00  0.00000000E+00
  0.00000000E+00  0.00000000E+00  0.00000000E+00
  0.00000000E+00  0.00000000E+00  0.00000000E+00
  0.00000000E+00  0.00000000E+00  0.00000000E+00
  0.00000000E+00  0.00000000E+00  0.00000000E+00
  0.00000000E+00  0.00000000E+00  0.00000000E+00
  0.00000000E+00  0.00000000E+00  0.00000000E+00
  0.00000000E+00  0.00000000E+00  0.00000000E+00
  0.00000000E+00  0.00000000E+00  0.00000000E+00
  0.00000000E+00  0.00000000E+00  0.00000000E+00
  0.00000000E+00  0.00000000E+00  0.00000000E+00
  0.00000000E+00  0.00000000E+00  0.00000000E+00
  0.00000000E+00  0.00000000E+00  0.00000000E+00
  0.00000000E+00  0.00000000E+00  0.00000000E+00
  0.00000000E+00  0.00000000E+00  0.00000000E+00
  0.00000000E+00  0.00000000E+00  0.00000000E+00
  0.00000000E+00  0.00000000E+00  0.00000000E+00
  0.00000000E+00  0.00000000E+00  0.00000000E+00
