CeO2-you-111-you-Tl                     
   1.00000000000000     
     9.8738318477186411   -5.7006598447998522   -0.0000000000503731
     0.0054575094357442   11.4107703662215805   -0.0009938312897511
    -0.0010906823132689   -0.0018891168651566   21.2106510094351286
   O    Tl   Ce   H 
    53     1    26     2
Selective dynamics
Direct
 -0.0000877063692541  0.0000068964293655  0.9975869906334222   T   T   T
  0.1077149351814697  0.2212479468353408  0.1489070974877933   F   F   F
  0.2344527599454431  0.1221449054613109  0.3069920500344581   T   T   T
  0.0846401772957135  0.2076193881718264  0.3879535050888153   T   T   T
  0.0041876312575377  0.0012232649342376  0.2294821587416776   T   T   T
  0.2222219551627234  0.1111109103254222  0.0753942997907586   F   F   F
  0.3334713856124360  0.0000439060070396  0.9971793719230135   T   T   T
  0.4468660116535830  0.2212479468351347  0.1489070974877933   F   F   F
  0.5517089282869916  0.1166575027529914  0.3029120990412861   T   T   T
  0.4605770883589472  0.2099702558523357  0.4028109897898944   T   T   T
  0.3302726826832970  0.9987129603772865  0.2284595291126056   T   T   T
  0.5576684276161430  0.1112045058531450  0.0759500210006152   F   F   F
  0.6665052785551847  0.9992391868178101  0.9967530356837844   T   T   T
  0.7780220232576980  0.2227100465154095  0.1532285622888949   F   F   F
  0.8855405524546963  0.1081742124950297  0.3017174759190286   T   T   T
  0.7747492387415917  0.2213881430088071  0.3802201820552517   T   T   T
  0.6609470782144149  0.9941460210235434  0.2320166475153272   T   T   T
  0.8868700782370382  0.1112045058532658  0.0759500210006081   F   F   F
  0.0008275869587905  0.3332161688519867  0.9975080385583158   T   T   T
  0.1100617433907658  0.5547661784171609  0.1494822969503886   F   F   F
  0.2205691563932692  0.4414470047021542  0.3037539906815645   T   T   T
  0.0952286800586664  0.5491284497970274  0.3840994095317875   T   T   T
  0.0002259703886122  0.3330505361618627  0.2293035701974742   T   T   T
  0.2233529612077945  0.4447931711720727  0.0762506571994095   F   F   F
  0.3331234424670417  0.3324769782172653  0.9973372472126566   T   T   T
  0.4458759002820400  0.5584198005642023  0.1504836880426836   F   F   F
  0.5567307465489058  0.4481575009309637  0.3076157548913813   T   T   T
  0.3337688558582418  0.3319454901776250  0.2215004562289760   T   T   T
  0.5547742099642008  0.4447931711720159  0.0762506571994095   F   F   F
  0.6661712443161371  0.3331564366227259  0.9975720888099222   T   T   T
  0.7780374350263699  0.5547661784170757  0.1494822969503957   F   F   F
  0.8871155817487447  0.4445242699656294  0.3020263341190924   T   T   T
  0.7824296406903741  0.5584018375803464  0.3827563616002431   T   T   T
  0.6657014474435211  0.3355538346817854  0.2294690755328299   T   T   T
  0.8879560972578489  0.4425781945157112  0.0760672520040586   F   F   F
 -0.0006755342505873  0.6666899412872130  0.9976333190600192   T   T   T
  0.1107681157033298  0.8882032314064432  0.1484763286650264   F   F   F
  0.2192729085230554  0.7795051057253126  0.3029536413599322   T   T   T
  0.1138281272619565  0.8912660616884173  0.3818231365415787   T   T   T
  0.0000840430625307  0.6677686587552076  0.2284816665883175   T   T   T
  0.2227508377439023  0.7777741960788447  0.0754061281518048   F   F   F
  0.3333619843458809  0.6663383625807938  0.9975348145756412   T   T   T
  0.4460173383038892  0.8895952704017560  0.1494803661176221   F   F   F
  0.5545800088242760  0.7620194360448986  0.3101280626454749   T   T   T
  0.4508450575815552  0.9016573337068474  0.3824246856774731   T   T   T
  0.3340147425752138  0.6695914605443901  0.2271776570780167   T   T   T
  0.5554181699521763  0.7775023399043519  0.0761169176304364   F   F   F
  0.6666830562516898  0.6667834750218902  0.9972030522167259   T   T   T
  0.7769109320980405  0.8895952704019905  0.1494803661176221   F   F   F
  0.8917293813265781  0.7796179509376011  0.3025873469995568   T   T   T
  0.7811437156046568  0.8897138047851980  0.3825813509090482   T   T   T
  0.6708523843254782  0.6684513465286098  0.2284507462565860   T   T   T
  0.8883563583350380  0.7777741960788731  0.0754061281518119   F   F   F
  0.3214929347712541  0.3271214002474971  0.3511312943163881   T   T   T
  0.0013469030152173  0.0042471892214081  0.3441947247996108   T   T   T
  0.2220213782172493  0.1107097564348223  0.1876930262153635   F   F   F
  0.1108433835232390  0.2223277530373267  0.0367820831902321   F   F   F
  0.3317969800367789 -0.0039053186262225  0.3421200822959906   T   T   T
  0.5549068640332351  0.1109194234705697  0.1900876015073081   F   F   F
  0.4448173695140696  0.2223277530374048  0.0367820831902321   F   F   F
  0.6652483360789226 -0.0008809671386757  0.3432851218208196   T   T   T
  0.8893465594369871  0.1109194234699729  0.1900876015073152   F   F   F
  0.7776626318362432  0.2219912636724573  0.0371614444455801   F   F   F
 -0.0011153426145699  0.3311597855721320  0.3424573258698799   T   T   T
  0.2242610088608075  0.4440891713652348  0.1898700827471203   F   F   F
  0.1111112587019392  0.5550256523263144  0.0370759011836057   F   F   F
  0.5531621625051955  0.4440891713656825  0.1898700827471274   F   F   F
  0.4444882586114645  0.5556445172228592  0.0367466280664885   F   F   F
  0.6720738371986140  0.3375921948828996  0.3408672673587912   T   T   T
  0.8895143417925269  0.4456946835850673  0.1902471499201610   F   F   F
  0.7772473936243927  0.5550256523264281  0.0370759011836128   F   F   F
  0.0017066365582384  0.6663959029245337  0.3429159851600990   T   T   T
  0.2219833998188605  0.7784181771111207  0.1875010935209787   F   F   F
  0.1111861440871351  0.8890392881742883  0.0355964732549126   F   F   F
  0.3232216605889786  0.6668018682041816  0.3422419239053697   T   T   T
  0.5553995327247492  0.7774650654495119  0.1897709204442606   F   F   F
  0.4452663621733919  0.8890724068201337  0.0366541197869381   F   F   F
  0.6829551801024226  0.6724318214106447  0.3386577449168431   T   T   T
  0.8897677772917802  0.7784181771108152  0.1875010935209787   F   F   F
  0.7771390446467521  0.8890724068201266  0.0366541197869381   F   F   F
  0.3993049035595527  0.4544096133586291  0.4138961663632764   T   T   T
  0.4563225605589553  0.2178877418980987  0.4483118995721553   T   T   T
 
  0.00000000E+00  0.00000000E+00  0.00000000E+00
  0.00000000E+00  0.00000000E+00  0.00000000E+00
  0.00000000E+00  0.00000000E+00  0.00000000E+00
  0.00000000E+00  0.00000000E+00  0.00000000E+00
  0.00000000E+00  0.00000000E+00  0.00000000E+00
  0.00000000E+00  0.00000000E+00  0.00000000E+00
  0.00000000E+00  0.00000000E+00  0.00000000E+00
  0.00000000E+00  0.00000000E+00  0.00000000E+00
  0.00000000E+00  0.00000000E+00  0.00000000E+00
  0.00000000E+00  0.00000000E+00  0.00000000E+00
  0.00000000E+00  0.00000000E+00  0.00000000E+00
  0.00000000E+00  0.00000000E+00  0.00000000E+00
  0.00000000E+00  0.00000000E+00  0.00000000E+00
  0.00000000E+00  0.00000000E+00  0.00000000E+00
  0.00000000E+00  0.00000000E+00  0.00000000E+00
  0.00000000E+00  0.00000000E+00  0.00000000E+00
  0.00000000E+00  0.00000000E+00  0.00000000E+00
  0.00000000E+00  0.00000000E+00  0.00000000E+00
  0.00000000E+00  0.00000000E+00  0.00000000E+00
  0.00000000E+00  0.00000000E+00  0.00000000E+00
  0.00000000E+00  0.00000000E+00  0.00000000E+00
  0.00000000E+00  0.00000000E+00  0.00000000E+00
  0.00000000E+00  0.00000000E+00  0.00000000E+00
  0.00000000E+00  0.00000000E+00  0.00000000E+00
  0.00000000E+00  0.00000000E+00  0.00000000E+00
  0.00000000E+00  0.00000000E+00  0.00000000E+00
  0.00000000E+00  0.00000000E+00  0.00000000E+00
  0.00000000E+00  0.00000000E+00  0.00000000E+00
  0.00000000E+00  0.00000000E+00  0.00000000E+00
  0.00000000E+00  0.00000000E+00  0.00000000E+00
  0.00000000E+00  0.00000000E+00  0.00000000E+00
  0.00000000E+00  0.00000000E+00  0.00000000E+00
  0.00000000E+00  0.00000000E+00  0.00000000E+00
  0.00000000E+00  0.00000000E+00  0.00000000E+00
  0.00000000E+00  0.00000000E+00  0.00000000E+00
  0.00000000E+00  0.00000000E+00  0.00000000E+00
  0.00000000E+00  0.00000000E+00  0.00000000E+00
  0.00000000E+00  0.00000000E+00  0.00000000E+00
  0.00000000E+00  0.00000000E+00  0.00000000E+00
  0.00000000E+00  0.00000000E+00  0.00000000E+00
  0.00000000E+00  0.00000000E+00  0.00000000E+00
  0.00000000E+00  0.00000000E+00  0.00000000E+00
  0.00000000E+00  0.00000000E+00  0.00000000E+00
  0.00000000E+00  0.00000000E+00  0.00000000E+00
  0.00000000E+00  0.00000000E+00  0.00000000E+00
  0.00000000E+00  0.00000000E+00  0.00000000E+00
  0.00000000E+00  0.00000000E+00  0.00000000E+00
  0.00000000E+00  0.00000000E+00  0.00000000E+00
  0.00000000E+00  0.00000000E+00  0.00000000E+00
  0.00000000E+00  0.00000000E+00  0.00000000E+00
  0.00000000E+00  0.00000000E+00  0.00000000E+00
  0.00000000E+00  0.00000000E+00  0.00000000E+00
  0.00000000E+00  0.00000000E+00  0.00000000E+00
  0.00000000E+00  0.00000000E+00  0.00000000E+00
  0.00000000E+00  0.00000000E+00  0.00000000E+00
  0.00000000E+00  0.00000000E+00  0.00000000E+00
  0.00000000E+00  0.00000000E+00  0.00000000E+00
  0.00000000E+00  0.00000000E+00  0.00000000E+00
  0.00000000E+00  0.00000000E+00  0.00000000E+00
  0.00000000E+00  0.00000000E+00  0.00000000E+00
  0.00000000E+00  0.00000000E+00  0.00000000E+00
  0.00000000E+00  0.00000000E+00  0.00000000E+00
  0.00000000E+00  0.00000000E+00  0.00000000E+00
  0.00000000E+00  0.00000000E+00  0.00000000E+00
  0.00000000E+00  0.00000000E+00  0.00000000E+00
  0.00000000E+00  0.00000000E+00  0.00000000E+00
  0.00000000E+00  0.00000000E+00  0.00000000E+00
  0.00000000E+00  0.00000000E+00  0.00000000E+00
  0.00000000E+00  0.00000000E+00  0.00000000E+00
  0.00000000E+00  0.00000000E+00  0.00000000E+00
  0.00000000E+00  0.00000000E+00  0.00000000E+00
  0.00000000E+00  0.00000000E+00  0.00000000E+00
  0.00000000E+00  0.00000000E+00  0.00000000E+00
  0.00000000E+00  0.00000000E+00  0.00000000E+00
  0.00000000E+00  0.00000000E+00  0.00000000E+00
  0.00000000E+00  0.00000000E+00  0.00000000E+00
  0.00000000E+00  0.00000000E+00  0.00000000E+00
  0.00000000E+00  0.00000000E+00  0.00000000E+00
  0.00000000E+00  0.00000000E+00  0.00000000E+00
  0.00000000E+00  0.00000000E+00  0.00000000E+00
  0.00000000E+00  0.00000000E+00  0.00000000E+00
  0.00000000E+00  0.00000000E+00  0.00000000E+00
