CeO2-you-111-you-Sb                     
   1.00000000000000     
     9.8679166377705858   -5.6706253857158293   -0.0064438353167162
     0.0230529924195964   11.3811777271862269    0.0064438342295400
    -0.0068950893421751    0.0119426444752088   21.0723991228819436
   O    Sb   Ce   H 
    53     1    26     1
Selective dynamics
Direct
 -0.0001587468211241 -0.0002483256096989  0.9952583124752149   T   T   T
  0.1110007126823817  0.2201340353511026  0.1462693036763477   T   T   T
  0.2471379936526105  0.1276852188520333  0.3047714025471923   T   T   T
  0.0895117466959989  0.1951987536293452  0.3872645799879071   T   T   T
  0.0076761673576130  0.0036880151650907  0.2302331665320130   T   T   T
  0.2225793242954217  0.1096845359391858  0.0738974947386585   T   T   T
  0.3354319175785196  0.0012464346844963  0.9955510788327689   T   T   T
  0.4403169413194002  0.2267317819149122  0.1510648727107948   T   T   T
  0.5503331093175503  0.1157307417217560  0.3038112259877024   T   T   T
  0.4441064205703115  0.2228491448800690  0.3986380874663240   T   T   T
  0.3319975318851139 -0.0012417322619306  0.2265661579244944   T   T   T
  0.5551170106183440  0.1115903757222254  0.0772717461596020   T   T   T
  0.6660448336482881  0.0009418781706389  0.9959083757398139   T   T   T
  0.7842373388064940  0.2257276473502396  0.1505809382540849   T   T   T
  0.8794339718481347  0.1035193098531936  0.3010315290827205   T   T   T
  0.7661117109085027  0.2177186602109972  0.3866320055841625   T   T   T
  0.6631811360168326  0.0035568329049313  0.2270464703560341   T   T   T
  0.8879873319492095  0.1093172227357350  0.0747010369972413   T   T   T
  0.9979944963746537  0.3310510673148824  0.9945158244089161   T   T   T
  0.1094910667483901  0.5570964774185506  0.1455693818388133   T   T   T
  0.1093157717828876  0.5574717798605255  0.3820310894318829   T   T   T
  0.0191612378195897  0.3420891220729395  0.2320761733417704   T   T   T
  0.2221343997926290  0.4446235333205552  0.0707124096386941   T   T   T
  0.3340892107496358  0.3319852771807294  0.9946337416355038   T   T   T
  0.4466345446411675  0.5558170955111025  0.1458481958561661   T   T   T
  0.5389705272784427  0.4194847195059344  0.3046986432983813   T   T   T
  0.4705020441452941  0.5765467535085131  0.3867161450694772   T   T   T
  0.3221725841661491  0.3454617136733054  0.2352647455311906   T   T   T
  0.5568206921099804  0.4440872629088984  0.0735111078728947   T   T   T
  0.6657657580105050  0.3311567560537127  0.9953880398906123   T   T   T
  0.7783004452631055  0.5563610299150142  0.1493134662519607   T   T   T
  0.8850733832117644  0.4428386739997995  0.3013293917906109   T   T   T
  0.7774473089231558  0.5512453618289583  0.3818561149148246   T   T   T
  0.6676704527654017  0.3343916768781390  0.2266966155750418   T   T   T
  0.8881890688336226  0.4443316569753485  0.0732927524900683   T   T   T
  0.9991782072707454  0.6670289029514611  0.9946012678438171   T   T   T
  0.1106107498842770  0.8880412412627474  0.1493327484570936   T   T   T
  0.2236362201058056  0.7816303399546946  0.3012400637527390   T   T   T
  0.1150536663564248  0.8876786009592841  0.3819343119251310   T   T   T
  0.0007562221309850  0.6656464436644930  0.2284603272149989   T   T   T
  0.2220993272301252  0.7780277240793781  0.0730659177820937   T   T   T
  0.3346955639756938  0.6682331449877564  0.9943617766348051   T   T   T
  0.4409180239438542  0.8824744462982627  0.1505361373531779   T   T   T
  0.5632104474236429  0.7876731447560948  0.3009012229513871   T   T   T
  0.4494701337105790  0.9008141272628307  0.3865905091083075   T   T   T
  0.3246444026744489  0.6472205645186009  0.2320108656429540   T   T   T
  0.5573994161446029  0.7789048051320334  0.0744108383477852   T   T   T
  0.6674847844731547  0.6675168021871384  0.9950533456130162   T   T   T
  0.7781919223041772  0.8886337690229590  0.1528532021243450   T   T   T
  0.8891387607802297  0.7775865717844794  0.3034347740841332   T   T   T
  0.7771738582916534  0.8893038997858977  0.3852060701298609   T   T   T
  0.6624519930054604  0.6586610013788319  0.2302187906222501   T   T   T
  0.8887711631685014  0.7788001925713457  0.0749665551852260   T   T   T
  0.3417487185523244  0.3259545033487858  0.3370605026962784   T   T   T
  0.9977722192663606 -0.0003432201830481  0.3460558203582711   T   T   T
  0.2210607185236051  0.1106285176377153  0.1885965902180167   T   T   T
  0.1096292873283772  0.2196525060539607  0.0331258776070988   T   T   T
  0.3297053026908064  0.9908977925879051  0.3418643892636458   T   T   T
  0.5549910698465942  0.1117236279491445  0.1895821558084220   T   T   T
  0.4444402947112892  0.2222009302122881  0.0345527924577294   T   T   T
  0.6664683385295056  0.0002974511080090  0.3432645779083696   T   T   T
  0.8907231231983816  0.1125953459388184  0.1912956005184742   T   T   T
  0.7778360936051181  0.2220182838428955  0.0355839541018188   T   T   T
  0.9908315647773537  0.3239773230644589  0.3523684698202396   T   T   T
  0.2209994050246062  0.4456304636078492  0.1801285548133192   T   T   T
  0.1098437826664569  0.5565228967101699  0.0322678110703711   T   T   T
  0.5558399641795156  0.4455578589467426  0.1884793624069619   T   T   T
  0.4469185995116999  0.5570532412304742  0.0329451960429308   T   T   T
  0.6755794262596643  0.3367527886987408  0.3419270981466830   T   T   T
  0.8909257087885532  0.4445998262466125  0.1895846786161046   T   T   T
  0.7778004955851133  0.5555103475004137  0.0352493867338561   T   T   T
  0.0021546571556547  0.6641700246768504  0.3425386633202364   T   T   T
  0.2219318710773573  0.7755518171882573  0.1895410844684330   T   T   T
  0.1112306268967028  0.8889194144577796  0.0353622255297074   T   T   T
  0.3425253458278221  0.6759768656632181  0.3522294671461456   T   T   T
  0.5540662542475958  0.7759998586593746  0.1912245727996143   T   T   T
  0.4445307184364266  0.8887186835086853  0.0355193758418897   T   T   T
  0.6668660686368841  0.6690663746428357  0.3458963705313420   T   T   T
  0.8891250902261264  0.7774744197181336  0.1905258509707299   T   T   T
  0.7775698556426753  0.8893041363166946  0.0363886264087699   T   T   T
  0.4345970909871030  0.2314177089667223  0.4440445957316398   T   T   T
 
  0.00000000E+00  0.00000000E+00  0.00000000E+00
  0.00000000E+00  0.00000000E+00  0.00000000E+00
  0.00000000E+00  0.00000000E+00  0.00000000E+00
  0.00000000E+00  0.00000000E+00  0.00000000E+00
  0.00000000E+00  0.00000000E+00  0.00000000E+00
  0.00000000E+00  0.00000000E+00  0.00000000E+00
  0.00000000E+00  0.00000000E+00  0.00000000E+00
  0.00000000E+00  0.00000000E+00  0.00000000E+00
  0.00000000E+00  0.00000000E+00  0.00000000E+00
  0.00000000E+00  0.00000000E+00  0.00000000E+00
  0.00000000E+00  0.00000000E+00  0.00000000E+00
  0.00000000E+00  0.00000000E+00  0.00000000E+00
  0.00000000E+00  0.00000000E+00  0.00000000E+00
  0.00000000E+00  0.00000000E+00  0.00000000E+00
  0.00000000E+00  0.00000000E+00  0.00000000E+00
  0.00000000E+00  0.00000000E+00  0.00000000E+00
  0.00000000E+00  0.00000000E+00  0.00000000E+00
  0.00000000E+00  0.00000000E+00  0.00000000E+00
  0.00000000E+00  0.00000000E+00  0.00000000E+00
  0.00000000E+00  0.00000000E+00  0.00000000E+00
  0.00000000E+00  0.00000000E+00  0.00000000E+00
  0.00000000E+00  0.00000000E+00  0.00000000E+00
  0.00000000E+00  0.00000000E+00  0.00000000E+00
  0.00000000E+00  0.00000000E+00  0.00000000E+00
  0.00000000E+00  0.00000000E+00  0.00000000E+00
  0.00000000E+00  0.00000000E+00  0.00000000E+00
  0.00000000E+00  0.00000000E+00  0.00000000E+00
  0.00000000E+00  0.00000000E+00  0.00000000E+00
  0.00000000E+00  0.00000000E+00  0.00000000E+00
  0.00000000E+00  0.00000000E+00  0.00000000E+00
  0.00000000E+00  0.00000000E+00  0.00000000E+00
  0.00000000E+00  0.00000000E+00  0.00000000E+00
  0.00000000E+00  0.00000000E+00  0.00000000E+00
  0.00000000E+00  0.00000000E+00  0.00000000E+00
  0.00000000E+00  0.00000000E+00  0.00000000E+00
  0.00000000E+00  0.00000000E+00  0.00000000E+00
  0.00000000E+00  0.00000000E+00  0.00000000E+00
  0.00000000E+00  0.00000000E+00  0.00000000E+00
  0.00000000E+00  0.00000000E+00  0.00000000E+00
  0.00000000E+00  0.00000000E+00  0.00000000E+00
  0.00000000E+00  0.00000000E+00  0.00000000E+00
  0.00000000E+00  0.00000000E+00  0.00000000E+00
  0.00000000E+00  0.00000000E+00  0.00000000E+00
  0.00000000E+00  0.00000000E+00  0.00000000E+00
  0.00000000E+00  0.00000000E+00  0.00000000E+00
  0.00000000E+00  0.00000000E+00  0.00000000E+00
  0.00000000E+00  0.00000000E+00  0.00000000E+00
  0.00000000E+00  0.00000000E+00  0.00000000E+00
  0.00000000E+00  0.00000000E+00  0.00000000E+00
  0.00000000E+00  0.00000000E+00  0.00000000E+00
  0.00000000E+00  0.00000000E+00  0.00000000E+00
  0.00000000E+00  0.00000000E+00  0.00000000E+00
  0.00000000E+00  0.00000000E+00  0.00000000E+00
  0.00000000E+00  0.00000000E+00  0.00000000E+00
  0.00000000E+00  0.00000000E+00  0.00000000E+00
  0.00000000E+00  0.00000000E+00  0.00000000E+00
  0.00000000E+00  0.00000000E+00  0.00000000E+00
  0.00000000E+00  0.00000000E+00  0.00000000E+00
  0.00000000E+00  0.00000000E+00  0.00000000E+00
  0.00000000E+00  0.00000000E+00  0.00000000E+00
  0.00000000E+00  0.00000000E+00  0.00000000E+00
  0.00000000E+00  0.00000000E+00  0.00000000E+00
  0.00000000E+00  0.00000000E+00  0.00000000E+00
  0.00000000E+00  0.00000000E+00  0.00000000E+00
  0.00000000E+00  0.00000000E+00  0.00000000E+00
  0.00000000E+00  0.00000000E+00  0.00000000E+00
  0.00000000E+00  0.00000000E+00  0.00000000E+00
  0.00000000E+00  0.00000000E+00  0.00000000E+00
  0.00000000E+00  0.00000000E+00  0.00000000E+00
  0.00000000E+00  0.00000000E+00  0.00000000E+00
  0.00000000E+00  0.00000000E+00  0.00000000E+00
  0.00000000E+00  0.00000000E+00  0.00000000E+00
  0.00000000E+00  0.00000000E+00  0.00000000E+00
  0.00000000E+00  0.00000000E+00  0.00000000E+00
  0.00000000E+00  0.00000000E+00  0.00000000E+00
  0.00000000E+00  0.00000000E+00  0.00000000E+00
  0.00000000E+00  0.00000000E+00  0.00000000E+00
  0.00000000E+00  0.00000000E+00  0.00000000E+00
  0.00000000E+00  0.00000000E+00  0.00000000E+00
  0.00000000E+00  0.00000000E+00  0.00000000E+00
  0.00000000E+00  0.00000000E+00  0.00000000E+00
