CeO2-you-111-you-Zn                     
   1.00000000000000     
     9.8190175168190610   -5.6491485673770798   -0.0137909514713684
     0.0172029100728462   11.3280914588514783    0.0137909491410664
    -0.0149756420717091    0.0259385716269717   20.7095356203293797
   O    Zn   Ce H
    53     1    26 1
Selective dynamics
Direct
  0.0000540896493080 -0.0001449054560518  0.9907416030000268   T   T   T
  0.1068010229570255  0.2191520576788135  0.1462383122185970   T   T   T
  0.2125715710879105  0.0944437766639997  0.3025835513392302   T   T   T
  0.1291748664528901  0.2454850123989839  0.3764106586939920   T   T   T
 -0.0042431562406265 -0.0006064634087530  0.2294106882300582   T   T   T
  0.2217440108798850  0.1105619084784119  0.0724673002252749   T   T   T
  0.3343432553771596  0.0004437051745102  0.9926324327117836   T   T   T
  0.4437710897948672  0.2228949102033346  0.1499091211763696   T   T   T
  0.5545945827560036  0.1120724172433475  0.3091055841816725   T   T   T
  0.4372827697798669  0.2293832302223877  0.3858296015007192   T   T   T
  0.3368208638447107 -0.0004313216815973  0.2297321769760430   T   T   T
  0.5566177935906390  0.1100492064095483  0.0752422520453279   T   T   T
  0.6655338979491350  0.0011331020514533  0.9912255734036520   T   T   T
  0.7842649146656068  0.2251072468182541  0.1510307901647739   T   T   T
  0.8858170957139386  0.1098626813261769  0.3070652585418889   T   T   T
  0.7775987568815278  0.2207180439228195  0.3905735872768433   T   T   T
  0.6663169181320970  0.0003500818684184  0.2308548192774943   T   T   T
  0.8880211223153155  0.1103684296937576  0.0715572390265503   T   T   T
 -0.0012352494296245  0.3337562454691755  0.9910208350540720   T   T   T
  0.1108044830337103  0.5558625169648966  0.1476035123510374   T   T   T
  0.1205512404068165  0.5461157595982310  0.3797910496227918   T   T   T
  0.0180877304214879  0.3423517996646588  0.2366402276054761   T   T   T
  0.2226428165572021  0.4440231834441195  0.0702393181254644   T   T   T
  0.3340360808296313  0.3326299191695705  0.9908937919608928   T   T   T
  0.4475139423248405  0.5598659770435093  0.1462383122184729   T   T   T
  0.5722232233370148  0.4540944289100069  0.3025835513405950   T   T   T
  0.4211809875959029  0.5374921335477237  0.3764106586931135   T   T   T
  0.3281991303849743  0.3384668696117704  0.2267154934200180   T   T   T
  0.5561050915213089  0.4449219891195793  0.0724673002254403   T   T   T
  0.6662232948252771  0.3323227446229675  0.9926324327115701   T   T   T
  0.7783848458014140  0.5554928005357759  0.1503124408437666   T   T   T
  0.8851268963447511  0.4426873244651853  0.3075674820309496   T   T   T
  0.7805634577500480  0.5594794367236782  0.3887979566881828   T   T   T
  0.6670983216787860  0.3298451361539611  0.2297321769760722   T   T   T
  0.8885683474539855  0.4445007078581844  0.0732962774993455   T   T   T
 -0.0003304165907178  0.6669974165899384  0.9918490615462946   T   T   T
  0.1111741994626955  0.8882821541964486  0.1503124408437050   T   T   T
  0.2239786755328436  0.7815401036514352  0.3075674820309910   T   T   T
  0.1071875632752362  0.8861035422481718  0.3887979566878433   T   T   T
  0.0010546461802014  0.6656123538177474  0.2311744881264525   T   T   T
  0.2221652921414211  0.7780986525457275  0.0732962774991433   T   T   T
  0.3329097545314919  0.6679022494305512  0.9910208350540495   T   T   T
  0.4415587531824023  0.8824020853342457  0.1510307901648073   T   T   T
  0.5568043186767213  0.7808499042862096  0.3070652585418365   T   T   T
  0.4459479560769731  0.8890682431173337  0.3905735872760550   T   T   T
  0.3243142003363615  0.6485792695856241  0.2366402276052625   T   T   T
  0.5562985703074433  0.7786458776856912  0.0715572390265870   T   T   T
  0.6668119054561946  0.6666129103504479  0.9907416030000883   T   T   T
  0.7762476441181453  0.8904193558825799  0.1482097794950288   T   T   T
  0.8894165536868096  0.7772504463120129  0.3050300775746177   T   T   T
  0.7786989416663822  0.8879680583335801  0.3871895523806710   T   T   T
  0.6672734634087850  0.6709101562408970  0.2294106882301602   T   T   T
  0.8885214137792521  0.7781455862202132  0.0726582729849087   T   T   T
  0.3355997530797836  0.3310662469265283  0.3689736236736224   T   T   T
  0.0034235280797516  0.0013684371422061  0.3448103012813418   T   T   T
  0.2231515485902283  0.1138305390542082  0.1917380516253782   T   T   T
  0.1100935764610341  0.2203100031471848  0.0303693795355021   T   T   T
  0.3315221031403712  0.0058632266932238  0.3471365707237997   T   T   T
  0.5557323088230877  0.1109346911791537  0.1907381953486044   T   T   T
  0.4443122559298699  0.2223537440699039  0.0335709191334068   T   T   T
  0.6665280065308615  0.0001389934712092  0.3486870884022284   T   T   T
  0.8893039803424181  0.1112899704004920  0.1899433463670820   T   T   T
  0.7780106665221544  0.2225352593689876  0.0326169197005397   T   T   T
 -0.0092548531124336  0.3254885066096255  0.3496886886520668   T   T   T
  0.2243842299773121  0.4422817700171723  0.1819504260721680   T   T   T
  0.1100209251601689  0.5566460748394412  0.0312862656849087   T   T   T
  0.5528364609434878  0.4435144514083267  0.1917380516253633   T   T   T
  0.4463559968525763  0.5565734235386268  0.0303693795356173   T   T   T
  0.6608037733097695  0.3351438968607445  0.3471365707235224   T   T   T
  0.8900856022855426  0.4448397862688280  0.1912678576825223   T   T   T
  0.7771659053399592  0.5549712215273828  0.0332366097617883   T   T   T
 -0.0005986241047366  0.6672656241119695  0.3460125280387534   T   T   T
  0.2218262137343177  0.7765813977221492  0.1912678576824929   T   T   T
  0.1116957784739833  0.8895010946607741  0.0332366097617482   T   T   T
  0.3411774933889324  0.6759218531072381  0.3496886886528114   T   T   T
  0.5553770295941579  0.7773630196568254  0.1899433463671334   T   T   T
  0.4441307406303089  0.8886563334779205  0.0326169197006061   T   T   T
  0.6652985628540092  0.6632434719186230  0.3448103012811932   T   T   T
  0.8885139527443270  0.7781530472576523  0.1887689258219491   T   T   T
  0.7770875427753262  0.8895794572239415  0.0316415917379003   T   T   T
0.446598 0.216020 0.433410 T T T 
 
  0.00000000E+00  0.00000000E+00  0.00000000E+00
  0.00000000E+00  0.00000000E+00  0.00000000E+00
  0.00000000E+00  0.00000000E+00  0.00000000E+00
  0.00000000E+00  0.00000000E+00  0.00000000E+00
  0.00000000E+00  0.00000000E+00  0.00000000E+00
  0.00000000E+00  0.00000000E+00  0.00000000E+00
  0.00000000E+00  0.00000000E+00  0.00000000E+00
  0.00000000E+00  0.00000000E+00  0.00000000E+00
  0.00000000E+00  0.00000000E+00  0.00000000E+00
  0.00000000E+00  0.00000000E+00  0.00000000E+00
  0.00000000E+00  0.00000000E+00  0.00000000E+00
  0.00000000E+00  0.00000000E+00  0.00000000E+00
  0.00000000E+00  0.00000000E+00  0.00000000E+00
  0.00000000E+00  0.00000000E+00  0.00000000E+00
  0.00000000E+00  0.00000000E+00  0.00000000E+00
  0.00000000E+00  0.00000000E+00  0.00000000E+00
  0.00000000E+00  0.00000000E+00  0.00000000E+00
  0.00000000E+00  0.00000000E+00  0.00000000E+00
  0.00000000E+00  0.00000000E+00  0.00000000E+00
  0.00000000E+00  0.00000000E+00  0.00000000E+00
  0.00000000E+00  0.00000000E+00  0.00000000E+00
  0.00000000E+00  0.00000000E+00  0.00000000E+00
  0.00000000E+00  0.00000000E+00  0.00000000E+00
  0.00000000E+00  0.00000000E+00  0.00000000E+00
  0.00000000E+00  0.00000000E+00  0.00000000E+00
  0.00000000E+00  0.00000000E+00  0.00000000E+00
  0.00000000E+00  0.00000000E+00  0.00000000E+00
  0.00000000E+00  0.00000000E+00  0.00000000E+00
  0.00000000E+00  0.00000000E+00  0.00000000E+00
  0.00000000E+00  0.00000000E+00  0.00000000E+00
  0.00000000E+00  0.00000000E+00  0.00000000E+00
  0.00000000E+00  0.00000000E+00  0.00000000E+00
  0.00000000E+00  0.00000000E+00  0.00000000E+00
  0.00000000E+00  0.00000000E+00  0.00000000E+00
  0.00000000E+00  0.00000000E+00  0.00000000E+00
  0.00000000E+00  0.00000000E+00  0.00000000E+00
  0.00000000E+00  0.00000000E+00  0.00000000E+00
  0.00000000E+00  0.00000000E+00  0.00000000E+00
  0.00000000E+00  0.00000000E+00  0.00000000E+00
  0.00000000E+00  0.00000000E+00  0.00000000E+00
  0.00000000E+00  0.00000000E+00  0.00000000E+00
  0.00000000E+00  0.00000000E+00  0.00000000E+00
  0.00000000E+00  0.00000000E+00  0.00000000E+00
  0.00000000E+00  0.00000000E+00  0.00000000E+00
  0.00000000E+00  0.00000000E+00  0.00000000E+00
  0.00000000E+00  0.00000000E+00  0.00000000E+00
  0.00000000E+00  0.00000000E+00  0.00000000E+00
  0.00000000E+00  0.00000000E+00  0.00000000E+00
  0.00000000E+00  0.00000000E+00  0.00000000E+00
  0.00000000E+00  0.00000000E+00  0.00000000E+00
  0.00000000E+00  0.00000000E+00  0.00000000E+00
  0.00000000E+00  0.00000000E+00  0.00000000E+00
  0.00000000E+00  0.00000000E+00  0.00000000E+00
  0.00000000E+00  0.00000000E+00  0.00000000E+00
  0.00000000E+00  0.00000000E+00  0.00000000E+00
  0.00000000E+00  0.00000000E+00  0.00000000E+00
  0.00000000E+00  0.00000000E+00  0.00000000E+00
  0.00000000E+00  0.00000000E+00  0.00000000E+00
  0.00000000E+00  0.00000000E+00  0.00000000E+00
  0.00000000E+00  0.00000000E+00  0.00000000E+00
  0.00000000E+00  0.00000000E+00  0.00000000E+00
  0.00000000E+00  0.00000000E+00  0.00000000E+00
  0.00000000E+00  0.00000000E+00  0.00000000E+00
  0.00000000E+00  0.00000000E+00  0.00000000E+00
  0.00000000E+00  0.00000000E+00  0.00000000E+00
  0.00000000E+00  0.00000000E+00  0.00000000E+00
  0.00000000E+00  0.00000000E+00  0.00000000E+00
  0.00000000E+00  0.00000000E+00  0.00000000E+00
  0.00000000E+00  0.00000000E+00  0.00000000E+00
  0.00000000E+00  0.00000000E+00  0.00000000E+00
  0.00000000E+00  0.00000000E+00  0.00000000E+00
  0.00000000E+00  0.00000000E+00  0.00000000E+00
  0.00000000E+00  0.00000000E+00  0.00000000E+00
  0.00000000E+00  0.00000000E+00  0.00000000E+00
  0.00000000E+00  0.00000000E+00  0.00000000E+00
  0.00000000E+00  0.00000000E+00  0.00000000E+00
  0.00000000E+00  0.00000000E+00  0.00000000E+00
  0.00000000E+00  0.00000000E+00  0.00000000E+00
  0.00000000E+00  0.00000000E+00  0.00000000E+00
  0.00000000E+00  0.00000000E+00  0.00000000E+00
